maximize
OBJ: + 1 x1 + 1 x2 + 1 x3 + 1 x4 + 1 x5 + 1 x6 + 1 x7 + 1 x8 + 1 x9 + 1 x10 + 1 x11 + 1 x12 + 1 x13 + 1 x14 + 1 x15 + 1 x16 + 1 x17 + 1 x18 + 1 x19 + 1 x20 + 1 x21 + 1 x22 + 1 x23 + 1 x24 + 1 x25 + 1 x26 + 1 x27 + 1 x28 + 1 x29 + 1 x30 + 1 x31 + 1 x32 + 1 x33 + 1 x34 + 1 x35 + 1 x36 + 1 x37 + 1 x38 + 1 x39 + 1 x40 + 1 x41 + 1 x42 + 1 x43 + 1 x44 + 1 x45 + 1 x46 + 1 x47 + 1 x48 + 1 x49 + 1 x50 + 1 x51 + 1 x52 + 1 x53 + 1 x54 + 1 x55 + 1 x56 + 1 x57 + 1 x58 + 1 x59 + 1 x60 + 1 x61 + 1 x62 + 1 x63 + 1 x64 + 1 x65 + 1 x66 + 1 x67 + 1 x68 + 1 x69 + 1 x70 + 1 x71 + 1 x72 + 1 x73 + 1 x74 + 1 x75 + 1 x76 + 1 x77 + 1 x78 + 1 x79 + 1 x80 + 1 x81 + 1 x82 + 1 x83 + 1 x84 + 1 x85 + 1 x86 + 1 x87 + 1 x88 + 1 x89 + 1 x90 + 1 x91 + 1 x92 + 1 x93 + 1 x94 + 1 x95 + 1 x96 + 1 x97 + 1 x98 + 1 x99 + 1 x100 + 1 x101 + 1 x102 + 1 x103 + 1 x104 + 1 x105 + 1 x106 + 1 x107 + 1 x108 + 1 x109 + 1 x110 + 1 x111 + 1 x112 + 1 x113 + 1 x114 + 1 x115 + 1 x116 + 1 x117 + 1 x118 + 1 x119 + 1 x120 + 1 x121 + 1 x122 + 1 x123 + 1 x124 + 1 x125 + 1 x126 + 1 x127 + 1 x128 + 1 x129 + 1 x130 + 1 x131 + 1 x132 + 1 x133 + 1 x134 + 1 x135 + 1 x136 + 1 x137 + 1 x138 + 1 x139 + 1 x140 + 1 x141 + 1 x142 + 1 x143 + 1 x144 + 1 x145 + 1 x146 + 1 x147 + 1 x148 + 1 x149 + 1 x150 + 1 x151 + 1 x152 + 1 x153 + 1 x154 + 1 x155 + 1 x156 + 1 x157 + 1 x158 + 1 x159 + 1 x160 + 1 x161 + 1 x162 + 1 x163 + 1 x164 + 1 x165 + 1 x166 + 1 x167 + 1 x168 + 1 x169 + 1 x170 + 1 x171 + 1 x172 + 1 x173 + 1 x174 + 1 x175 + 1 x176 + 1 x177 + 1 x178 + 1 x179 + 1 x180 + 1 x181 + 1 x182 + 1 x183 + 1 x184 + 1 x185 + 1 x186 + 1 x187 + 1 x188 + 1 x189 + 1 x190 + 1 x191 + 1 x192 + 1 x193 + 1 x194 + 1 x195 + 1 x196 + 1 x197 + 1 x198 + 1 x199 + 1 x200 + 1 x201 + 1 x202 + 1 x203 + 1 x204 + 1 x205 + 1 x206 + 1 x207 + 1 x208 + 1 x209 + 1 x210 + 1 x211 + 1 x212 + 1 x213 + 1 x214 + 1 x215 + 1 x216 + 1 x217 + 1 x218 + 1 x219 + 1 x220 + 1 x221 + 1 x222 + 1 x223 + 1 x224 + 1 x225 + 1 x226 + 1 x227 + 1 x228 + 1 x229 + 1 x230 + 1 x231 + 1 x232 + 1 x233 + 1 x234 + 1 x235 + 1 x236 + 1 x237 + 1 x238 + 1 x239 + 1 x240 + 1 x241 + 1 x242 + 1 x243 + 1 x244 + 1 x245 + 1 x246 + 1 x247 + 1 x248 + 1 x249 + 1 x250 + 1 x251 + 1 x252 + 1 x253 + 1 x254 + 1 x255 + 1 x256 + 1 x257 + 1 x258 + 1 x259 + 1 x260 + 1 x261 + 1 x262 + 1 x263 + 1 x264 + 1 x265 + 1 x266 + 1 x267 + 1 x268 + 1 x269 + 1 x270 + 1 x271 + 1 x272 + 1 x273 + 1 x274 + 1 x275 + 1 x276 + 1 x277 + 1 x278 + 1 x279 + 1 x280 + 1 x281 + 1 x282 + 1 x283 + 1 x284 + 1 x285 + 1 x286 + 1 x287 + 1 x288 + 1 x289 + 1 x290 + 1 x291 + 1 x292 + 1 x293 + 1 x294 + 1 x295 + 1 x296 + 1 x297 + 1 x298 + 1 x299 + 1 x300 + 1 x301 + 1 x302 + 1 x303 + 1 x304 + 1 x305 + 1 x306 + 1 x307 + 1 x308 + 1 x309 + 1 x310 + 1 x311 + 1 x312 + 1 x313 + 1 x314 + 1 x315 + 1 x316 + 1 x317 + 1 x318 + 1 x319 + 1 x320 + 1 x321 + 1 x322 + 1 x323 + 1 x324 + 1 x325 + 1 x326 + 1 x327 + 1 x328 + 1 x329 + 1 x330 + 1 x331 + 1 x332 + 1 x333 + 1 x334 + 1 x335 + 1 x336 + 1 x337 + 1 x338 + 1 x339 + 1 x340 + 1 x341 + 1 x342 + 1 x343 + 1 x344 + 1 x345 + 1 x346 + 1 x347 + 1 x348 + 1 x349 + 1 x350 + 1 x351 + 1 x352 + 1 x353 + 1 x354 + 1 x355 + 1 x356 + 1 x357 + 1 x358 + 1 x359 + 1 x360 + 1 x361 + 1 x362 + 1 x363 + 1 x364 + 1 x365 + 1 x366 + 1 x367 + 1 x368 + 1 x369 + 1 x370 + 1 x371 + 1 x372 + 1 x373 + 1 x374 + 1 x375 + 1 x376 + 1 x377 + 1 x378 + 1 x379 + 1 x380 + 1 x381 + 1 x382 + 1 x383 + 1 x384 + 1 x385 + 1 x386 + 1 x387 + 1 x388 + 1 x389 + 1 x390 + 1 x391 + 1 x392 + 1 x393 + 1 x394 + 1 x395 + 1 x396 + 1 x397 + 1 x398 + 1 x399 + 1 x400 + 1 x401 + 1 x402 + 1 x403 + 1 x404 + 1 x405 + 1 x406 + 1 x407 + 1 x408 + 1 x409 + 1 x410 + 1 x411 + 1 x412 + 1 x413 + 1 x414 + 1 x415 + 1 x416 + 1 x417 + 1 x418 + 1 x419 + 1 x420 + 1 x421 + 1 x422 + 1 x423 + 1 x424 + 1 x425 + 1 x426 + 1 x427 + 1 x428 + 1 x429 + 1 x430 + 1 x431 + 1 x432 + 1 x433 + 1 x434 + 1 x435 + 1 x436 + 1 x437 + 1 x438 + 1 x439 + 1 x440 + 1 x441 + 1 x442 + 1 x443 + 1 x444 + 1 x445 + 1 x446 + 1 x447 + 1 x448 + 1 x449 + 1 x450 + 1 x451 + 1 x452 + 1 x453 + 1 x454 + 1 x455 + 1 x456 + 1 x457 + 1 x458 + 1 x459 + 1 x460 + 1 x461 + 1 x462 + 1 x463 + 1 x464 + 1 x465 + 1 x466 + 1 x467 + 1 x468 + 1 x469 + 1 x470 + 1 x471 + 1 x472 + 1 x473 + 1 x474 + 1 x475 + 1 x476 + 1 x477 + 1 x478 + 1 x479 + 1 x480 + 1 x481 + 1 x482 + 1 x483 + 1 x484 + 1 x485 + 1 x486 + 1 x487 + 1 x488 + 1 x489 + 1 x490 + 1 x491 + 1 x492 + 1 x493 + 1 x494 + 1 x495 + 1 x496 + 1 x497 + 1 x498 + 1 x499 + 1 x500

subject to
C1: + x5 + x136 <= 1
C2: + x6 + x32 <= 1
C3: + x262 + x491 <= 1
C4: + x113 + x298 <= 1
C5: + x39 + x125 <= 1
C6: + x59 + x417 <= 1
C7: + x68 + x408 <= 1
C8: + x8 + x26 <= 1
C9: + x95 + x434 <= 1
C10: + x105 + x457 <= 1
C11: + x73 + x93 <= 1
C12: + x156 + x352 <= 1
C13: + x66 + x257 <= 1
C14: + x265 + x444 <= 1
C15: + x6 + x196 <= 1
C16: + x9 + x143 <= 1
C17: + x75 + x95 <= 1
C18: + x14 + x132 <= 1
C19: + x34 + x344 <= 1
C20: + x8 + x462 <= 1
C21: + x20 + x92 <= 1
C22: + x149 + x460 <= 1
C23: + x103 + x385 <= 1
C24: + x12 + x23 <= 1
C25: + x123 + x323 <= 1
C26: + x124 + x433 <= 1
C27: + x163 + x407 <= 1
C28: + x112 + x293 <= 1
C29: + x189 + x269 <= 1
C30: + x24 + x334 <= 1
C31: + x9 + x251 <= 1
C32: + x29 + x230 <= 1
C33: + x115 + x174 <= 1
C34: + x69 + x392 <= 1
C35: + x179 + x324 <= 1
C36: + x244 + x308 <= 1
C37: + x129 + x154 <= 1
C38: + x93 + x286 <= 1
C39: + x8 + x293 <= 1
C40: + x1 + x167 <= 1
C41: + x191 + x460 <= 1
C42: + x188 + x351 <= 1
C43: + x26 + x368 <= 1
C44: + x8 + x23 <= 1
C45: + x219 + x334 <= 1
C46: + x30 + x38 <= 1
C47: + x61 + x166 <= 1
C48: + x27 + x374 <= 1
C49: + x10 + x284 <= 1
C50: + x75 + x300 <= 1
C51: + x11 + x37 <= 1
C52: + x175 + x351 <= 1
C53: + x61 + x267 <= 1
C54: + x79 + x90 <= 1
C55: + x15 + x154 <= 1
C56: + x100 + x245 <= 1
C57: + x9 + x19 <= 1
C58: + x1 + x416 <= 1
C59: + x45 + x191 <= 1
C60: + x38 + x55 <= 1
C61: + x204 + x208 <= 1
C62: + x121 + x173 <= 1
C63: + x6 + x94 <= 1
C64: + x7 + x102 <= 1
C65: + x255 + x327 <= 1
C66: + x64 + x157 <= 1
C67: + x165 + x414 <= 1
C68: + x192 + x359 <= 1
C69: + x12 + x306 <= 1
C70: + x19 + x491 <= 1
C71: + x163 + x192 <= 1
C72: + x24 + x85 <= 1
C73: + x1 + x428 <= 1
C74: + x46 + x72 <= 1
C75: + x67 + x205 <= 1
C76: + x18 + x273 <= 1
C77: + x19 + x415 <= 1
C78: + x74 + x263 <= 1
C79: + x129 + x355 <= 1
C80: + x95 + x263 <= 1
C81: + x280 + x473 <= 1
C82: + x11 + x93 <= 1
C83: + x44 + x427 <= 1
C84: + x13 + x246 <= 1
C85: + x241 + x261 <= 1
C86: + x39 + x204 <= 1
C87: + x223 + x373 <= 1
C88: + x4 + x395 <= 1
C89: + x5 + x186 <= 1
C90: + x262 + x385 <= 1
C91: + x163 + x314 <= 1
C92: + x76 + x83 <= 1
C93: + x175 + x195 <= 1
C94: + x13 + x42 <= 1
C95: + x104 + x105 <= 1
C96: + x9 + x26 <= 1
C97: + x130 + x324 <= 1
C98: + x233 + x430 <= 1
C99: + x17 + x458 <= 1
C100: + x8 + x359 <= 1
C101: + x13 + x185 <= 1
C102: + x217 + x378 <= 1
C103: + x182 + x203 <= 1
C104: + x165 + x183 <= 1
C105: + x46 + x286 <= 1
C106: + x12 + x150 <= 1
C107: + x13 + x30 <= 1
C108: + x31 + x244 <= 1
C109: + x232 + x477 <= 1
C110: + x20 + x31 + x161 <= 1
C111: + x317 + x474 <= 1
C112: + x147 + x322 <= 1
C113: + x267 + x329 <= 1
C114: + x6 + x11 <= 1
C115: + x45 + x399 <= 1
C116: + x19 + x410 <= 1
C117: + x10 + x80 <= 1
C118: + x288 + x496 <= 1
C119: + x281 + x421 <= 1
C120: + x36 + x86 <= 1
C121: + x84 + x432 <= 1
C122: + x49 + x124 <= 1
C123: + x213 + x349 <= 1
C124: + x59 + x287 <= 1
C125: + x63 + x197 <= 1
C126: + x10 + x262 <= 1
C127: + x264 + x393 <= 1
C128: + x127 + x429 <= 1
C129: + x9 + x164 <= 1
C130: + x8 + x150 <= 1
C131: + x101 + x253 <= 1
C132: + x19 + x23 <= 1
C133: + x5 + x70 <= 1
C134: + x25 + x199 <= 1
C135: + x226 + x401 <= 1
C136: + x7 + x427 <= 1
C137: + x149 + x481 <= 1
C138: + x7 + x88 <= 1
C139: + x83 + x157 <= 1
C140: + x54 + x70 <= 1
C141: + x328 + x363 <= 1
C142: + x49 + x346 <= 1
C143: + x75 + x219 <= 1
C144: + x108 + x173 <= 1
C145: + x7 + x326 <= 1
C146: + x63 + x295 <= 1
C147: + x5 + x455 <= 1
C148: + x9 + x77 <= 1
C149: + x45 + x225 <= 1
C150: + x37 + x147 <= 1
C151: + x21 + x482 <= 1
C152: + x261 + x433 <= 1
C153: + x8 + x276 <= 1
C154: + x97 + x256 <= 1
C155: + x6 + x151 <= 1
C156: + x19 + x255 <= 1
C157: + x11 + x292 <= 1
C158: + x213 + x348 <= 1
C159: + x21 + x28 <= 1
C160: + x176 + x397 <= 1
C161: + x34 + x54 <= 1
C162: + x149 + x412 <= 1
C163: + x40 + x277 <= 1
C164: + x5 + x267 <= 1
C165: + x330 + x386 <= 1
C166: + x139 + x338 <= 1
C167: + x113 + x421 <= 1
C168: + x6 + x40 <= 1
C169: + x346 + x487 <= 1
C170: + x10 + x61 <= 1
C171: + x3 + x248 <= 1
C172: + x41 + x63 <= 1
C173: + x34 + x167 <= 1
C174: + x273 + x309 <= 1
C175: + x112 + x486 <= 1
C176: + x6 + x73 <= 1
C177: + x398 + x428 <= 1
C178: + x93 + x371 <= 1
C179: + x274 + x425 <= 1
C180: + x12 + x293 <= 1
C181: + x18 + x190 <= 1
C182: + x19 + x198 <= 1
C183: + x2 + x156 <= 1
C184: + x299 + x433 <= 1
C185: + x8 + x71 <= 1
C186: + x134 + x498 <= 1
C187: + x5 + x113 <= 1
C188: + x12 + x132 <= 1
C189: + x6 + x474 <= 1
C190: + x286 + x289 <= 1
C191: + x304 + x395 <= 1
C192: + x139 + x162 <= 1
C193: + x170 + x422 <= 1
C194: + x19 + x396 <= 1
C195: + x10 + x423 <= 1
C196: + x83 + x277 <= 1
C197: + x5 + x8 <= 1
C198: + x6 + x160 <= 1
C199: + x15 + x320 <= 1
C200: + x146 + x445 <= 1
C201: + x6 + x33 <= 1
C202: + x137 + x210 <= 1
C203: + x373 + x403 <= 1
C204: + x410 + x483 <= 1
C205: + x72 + x125 <= 1
C206: + x12 + x205 <= 1
C207: + x401 + x442 <= 1
C208: + x113 + x313 <= 1
C209: + x144 + x439 <= 1
C210: + x38 + x43 <= 1
C211: + x12 + x44 <= 1
C212: + x35 + x137 <= 1
C213: + x163 + x438 <= 1
C214: + x3 + x98 <= 1
C215: + x12 + x350 <= 1
C216: + x106 + x139 <= 1
C217: + x197 + x411 <= 1
C218: + x16 + x233 <= 1
C219: + x425 + x479 <= 1
C220: + x45 + x50 <= 1
C221: + x346 + x444 <= 1
C222: + x41 + x82 <= 1
C223: + x250 + x304 <= 1
C224: + x5 + x128 <= 1
C225: + x12 + x185 <= 1
C226: + x31 + x229 <= 1
C227: + x134 + x286 <= 1
C228: + x35 + x252 <= 1
C229: + x1 + x440 <= 1
C230: + x49 + x146 <= 1
C231: + x230 + x234 <= 1
C232: + x13 + x309 <= 1
C233: + x255 + x303 <= 1
C234: + x10 + x99 <= 1
C235: + x295 + x352 <= 1
C236: + x10 + x222 <= 1
C237: + x274 + x377 <= 1
C238: + x21 + x42 <= 1
C239: + x77 + x498 <= 1
C240: + x81 + x314 <= 1
C241: + x36 + x387 <= 1
C242: + x8 + x129 <= 1
C243: + x3 + x202 <= 1
C244: + x12 + x198 <= 1
C245: + x104 + x141 <= 1
C246: + x21 + x153 <= 1
C247: + x116 + x168 <= 1
C248: + x6 + x264 <= 1
C249: + x7 + x57 <= 1
C250: + x36 + x276 <= 1
C251: + x256 + x378 <= 1
C252: + x11 + x56 <= 1
C253: + x10 + x27 <= 1
C254: + x241 + x364 <= 1
C255: + x207 + x223 <= 1
C256: + x9 + x98 <= 1
C257: + x390 + x466 <= 1
C258: + x16 + x21 <= 1
C259: + x396 + x446 <= 1
C260: + x6 + x111 <= 1
C261: + x209 + x290 <= 1
C262: + x101 + x280 <= 1
C263: + x164 + x170 <= 1
C264: + x2 + x7 <= 1
C265: + x86 + x209 <= 1
C266: + x123 + x402 <= 1
C267: + x417 + x447 <= 1
C268: + x7 + x347 <= 1
C269: + x51 + x376 <= 1
C270: + x37 + x116 <= 1
C271: + x6 + x19 <= 1
C272: + x1 + x360 <= 1
C273: + x205 + x389 <= 1
C274: + x260 + x381 <= 1
C275: + x6 + x257 <= 1
C276: + x10 + x179 <= 1
C277: + x77 + x106 <= 1
C278: + x4 + x412 <= 1
C279: + x224 + x235 <= 1
C280: + x150 + x345 <= 1
C281: + x71 + x244 <= 1
C282: + x19 + x449 <= 1
C283: + x136 + x342 <= 1
C284: + x7 + x221 <= 1
C285: + x8 + x174 <= 1
C286: + x22 + x228 <= 1
C287: + x10 + x383 <= 1
C288: + x11 + x373 <= 1
C289: + x8 + x465 <= 1
C290: + x310 + x390 <= 1
C291: + x204 + x281 <= 1
C292: + x60 + x256 <= 1
C293: + x243 + x310 <= 1
C294: + x8 + x376 <= 1
C295: + x284 + x385 <= 1
C296: + x431 + x466 <= 1
C297: + x74 + x400 <= 1
C298: + x93 + x126 <= 1
C299: + x38 + x146 <= 1
C300: + x183 + x252 <= 1
C301: + x69 + x82 <= 1
C302: + x31 + x344 <= 1
C303: + x61 + x87 <= 1
C304: + x9 + x85 <= 1
C305: + x134 + x308 <= 1
C306: + x8 + x389 <= 1
C307: + x106 + x306 <= 1
C308: + x14 + x105 <= 1
C309: + x352 + x410 <= 1
C310: + x15 + x79 <= 1
C311: + x137 + x284 <= 1
C312: + x16 + x87 <= 1
C313: + x1 + x65 <= 1
C314: + x37 + x202 <= 1
C315: + x185 + x211 <= 1
C316: + x72 + x342 <= 1
C317: + x9 + x36 <= 1
C318: + x8 + x22 <= 1
C319: + x11 + x268 <= 1
C320: + x12 + x95 <= 1
C321: + x68 + x142 <= 1
C322: + x397 + x456 <= 1
C323: + x49 + x381 <= 1
C324: + x149 + x158 <= 1
C325: + x108 + x130 <= 1
C326: + x198 + x272 <= 1
C327: + x20 + x257 <= 1
C328: + x107 + x356 <= 1
C329: + x53 + x111 <= 1
C330: + x20 + x96 <= 1
C331: + x340 + x394 <= 1
C332: + x33 + x118 <= 1
C333: + x279 + x302 <= 1
C334: + x408 + x477 <= 1
C335: + x47 + x499 <= 1
C336: + x14 + x17 <= 1
C337: + x261 + x305 <= 1
C338: + x16 + x140 <= 1
C339: + x11 + x207 <= 1
C340: + x51 + x362 <= 1
C341: + x4 + x7 <= 1
C342: + x40 + x235 <= 1
C343: + x36 + x219 <= 1
C344: + x12 + x398 <= 1
C345: + x42 + x123 <= 1
C346: + x177 + x461 <= 1
C347: + x11 + x82 <= 1
C348: + x75 + x146 <= 1
C349: + x79 + x488 <= 1
C350: + x1 + x72 <= 1
C351: + x8 + x19 <= 1
C352: + x41 + x191 <= 1
C353: + x223 + x370 <= 1
C354: + x12 + x88 <= 1
C355: + x5 + x282 <= 1
C356: + x153 + x387 <= 1
C357: + x178 + x292 <= 1
C358: + x127 + x326 <= 1
C359: + x11 + x33 <= 1
C360: + x14 + x86 <= 1
C361: + x15 + x158 <= 1
C362: + x61 + x263 <= 1
C363: + x9 + x186 <= 1
C364: + x10 + x14 <= 1
C365: + x41 + x78 <= 1
C366: + x70 + x465 <= 1
C367: + x17 + x170 <= 1
C368: + x71 + x381 <= 1
C369: + x8 + x455 <= 1
C370: + x37 + x165 <= 1
C371: + x239 + x296 <= 1
C372: + x25 + x26 <= 1
C373: + x207 + x333 <= 1
C374: + x9 + x500 <= 1
C375: + x19 + x487 <= 1
C376: + x8 + x358 <= 1
C377: + x11 + x476 <= 1
C378: + x13 + x190 <= 1
C379: + x5 + x227 <= 1
C380: + x61 + x347 <= 1
C381: + x425 + x487 <= 1
C382: + x45 + x74 <= 1
C383: + x120 + x243 <= 1
C384: + x13 + x99 <= 1
C385: + x51 + x174 <= 1
C386: + x13 + x432 <= 1
C387: + x84 + x318 <= 1
C388: + x3 + x9 <= 1
C389: + x15 + x89 <= 1
C390: + x157 + x240 <= 1
C391: + x176 + x233 <= 1
C392: + x24 + x283 <= 1
C393: + x8 + x12 <= 1
C394: + x4 + x60 <= 1
C395: + x40 + x216 <= 1
C396: + x69 + x447 <= 1
C397: + x75 + x236 <= 1
C398: + x51 + x67 <= 1
C399: + x176 + x346 <= 1
C400: + x5 + x166 <= 1
C401: + x114 + x160 <= 1
C402: + x70 + x474 <= 1
C403: + x9 + x30 <= 1
C404: + x8 + x64 <= 1
C405: + x1 + x107 <= 1
C406: + x19 + x189 <= 1
C407: + x183 + x350 <= 1
C408: + x131 + x336 <= 1
C409: + x13 + x472 <= 1
C410: + x61 + x141 <= 1
C411: + x15 + x24 <= 1
C412: + x18 + x466 <= 1
C413: + x19 + x482 <= 1
C414: + x6 + x67 <= 1
C415: + x8 + x355 <= 1
C416: + x4 + x218 <= 1
C417: + x60 + x354 <= 1
C418: + x7 + x327 <= 1
C419: + x206 + x241 <= 1
C420: + x53 + x129 <= 1
C421: + x19 + x369 <= 1
C422: + x101 + x411 <= 1
C423: + x6 + x119 <= 1
C424: + x62 + x122 <= 1
C425: + x255 + x314 <= 1
C426: + x10 + x116 <= 1
C427: + x88 + x415 <= 1
C428: + x27 + x47 <= 1
C429: + x19 + x132 <= 1
C430: + x64 + x104 <= 1
C431: + x95 + x431 <= 1
C432: + x5 + x272 <= 1
C433: + x151 + x379 <= 1
C434: + x252 + x307 <= 1
C435: + x69 + x152 <= 1
C436: + x60 + x171 <= 1
C437: + x153 + x320 <= 1
C438: + x16 + x114 <= 1
C439: + x110 + x119 <= 1
C440: + x127 + x199 <= 1
C441: + x12 + x50 <= 1
C442: + x14 + x473 <= 1
C443: + x9 + x482 <= 1
C444: + x138 + x196 <= 1
C445: + x11 + x252 <= 1
C446: + x153 + x460 <= 1
C447: + x18 + x92 <= 1
C448: + x155 + x500 <= 1
C449: + x30 + x455 <= 1
C450: + x132 + x240 <= 1
C451: + x61 + x224 <= 1
C452: + x40 + x388 <= 1
C453: + x126 + x363 <= 1
C454: + x35 + x428 <= 1
C455: + x250 + x366 <= 1
C456: + x314 + x463 <= 1
C457: + x8 + x413 <= 1
C458: + x72 + x221 <= 1
C459: + x15 + x119 <= 1
C460: + x18 + x134 <= 1
C461: + x1 + x220 <= 1
C462: + x10 + x33 <= 1
C463: + x8 + x143 <= 1
C464: + x211 + x279 <= 1
C465: + x61 + x62 <= 1
C466: + x9 + x12 <= 1
C467: + x11 + x276 <= 1
C468: + x55 + x176 <= 1
C469: + x5 + x315 <= 1
C470: + x17 + x345 <= 1
C471: + x346 + x439 <= 1
C472: + x74 + x429 <= 1
C473: + x18 + x93 <= 1
C474: + x7 + x478 <= 1
C475: + x46 + x175 <= 1
C476: + x10 + x126 <= 1
C477: + x8 + x212 <= 1
C478: + x19 + x81 <= 1
C479: + x132 + x372 <= 1
C480: + x10 + x217 <= 1
C481: + x11 + x215 <= 1
C482: + x51 + x139 <= 1
C483: + x243 + x408 <= 1
C484: + x7 + x10 <= 1
C485: + x110 + x472 <= 1
C486: + x102 + x459 <= 1
C487: + x24 + x407 <= 1
C488: + x7 + x171 <= 1
C489: + x329 + x406 <= 1
C490: + x8 + x136 <= 1
C491: + x83 + x325 <= 1
C492: + x41 + x42 <= 1
C493: + x6 + x283 <= 1
C494: + x80 + x264 <= 1
C495: + x53 + x74 <= 1
C496: + x253 + x391 <= 1
C497: + x71 + x134 <= 1
C498: + x1 + x285 <= 1
C499: + x8 + x330 <= 1
C500: + x75 + x201 <= 1
C501: + x428 + x488 <= 1
C502: + x5 + x199 <= 1
C503: + x61 + x383 <= 1
C504: + x118 + x183 <= 1
C505: + x10 + x22 <= 1
C506: + x111 + x250 <= 1
C507: + x125 + x260 <= 1
C508: + x25 + x304 <= 1
C509: + x341 + x489 <= 1
C510: + x5 + x342 <= 1
C511: + x16 + x431 <= 1
C512: + x147 + x149 <= 1
C513: + x3 + x178 <= 1
C514: + x6 + x133 <= 1
C515: + x241 + x293 <= 1
C516: + x39 + x236 <= 1
C517: + x49 + x101 <= 1
C518: + x31 + x149 <= 1
C519: + x6 + x499 <= 1
C520: + x15 + x424 <= 1
C521: + x11 + x435 <= 1
C522: + x12 + x411 <= 1
C523: + x45 + x428 <= 1
C524: + x185 + x364 <= 1
C525: + x12 + x250 <= 1
C526: + x197 + x204 <= 1
C527: + x11 + x262 <= 1
C528: + x230 + x416 <= 1
C529: + x3 + x359 <= 1
C530: + x41 + x206 <= 1
C531: + x458 + x476 <= 1
C532: + x15 + x500 <= 1
C533: + x7 + x61 <= 1
C534: + x163 + x302 <= 1
C535: + x382 + x451 <= 1
C536: + x103 + x302 <= 1
C537: + x12 + x182 <= 1
C538: + x69 + x470 <= 1
C539: + x269 + x331 <= 1
C540: + x34 + x129 <= 1
C541: + x5 + x99 <= 1
C542: + x24 + x142 <= 1
C543: + x6 + x312 <= 1
C544: + x119 + x321 <= 1
C545: + x227 + x380 <= 1
C546: + x13 + x304 <= 1
C547: + x15 + x64 <= 1
C548: + x7 + x105 <= 1
C549: + x80 + x248 <= 1
C550: + x45 + x367 <= 1
C551: + x208 + x376 <= 1
C552: + x8 + x379 <= 1
C553: + x92 + x367 <= 1
C554: + x201 + x493 <= 1
C555: + x132 + x354 <= 1
C556: + x10 + x203 <= 1
C557: + x30 + x486 <= 1
C558: + x21 + x463 <= 1
C559: + x14 + x108 <= 1
C560: + x185 + x371 <= 1
C561: + x41 + x266 <= 1
C562: + x73 + x94 <= 1
C563: + x11 + x59 <= 1
C564: + x374 + x396 <= 1
C565: + x362 + x436 <= 1
C566: + x6 + x195 <= 1
C567: + x9 + x379 <= 1
C568: + x53 + x402 <= 1
C569: + x265 + x282 <= 1
C570: + x56 + x84 <= 1
C571: + x39 + x42 <= 1
C572: + x141 + x437 <= 1
C573: + x132 + x474 <= 1
C574: + x198 + x241 <= 1
C575: + x147 + x409 <= 1
C576: + x20 + x91 <= 1
C577: + x4 + x332 <= 1
C578: + x9 + x458 <= 1
C579: + x8 + x372 <= 1
C580: + x10 + x478 <= 1
C581: + x147 + x318 <= 1
C582: + x328 + x383 <= 1
C583: + x2 + x425 <= 1
C584: + x32 + x122 <= 1
C585: + x4 + x6 <= 1
C586: + x60 + x97 <= 1
C587: + x27 + x175 <= 1
C588: + x11 + x421 <= 1
C589: + x241 + x448 <= 1
C590: + x113 + x453 <= 1
C591: + x150 + x253 <= 1
C592: + x6 + x8 <= 1
C593: + x7 + x160 <= 1
C594: + x13 + x256 <= 1
C595: + x61 + x405 <= 1
C596: + x298 + x498 <= 1
C597: + x8 + x18 <= 1
C598: + x37 + x246 <= 1
C599: + x12 + x83 <= 1
C600: + x82 + x112 <= 1
C601: + x5 + x180 <= 1
C602: + x225 + x424 <= 1
C603: + x9 + x20 <= 1
C604: + x152 + x463 <= 1
C605: + x12 + x15 <= 1
C606: + x61 + x251 <= 1
C607: + x189 + x424 <= 1
C608: + x118 + x456 <= 1
C609: + x110 + x299 <= 1
C610: + x33 + x471 <= 1
C611: + x10 + x245 <= 1
C612: + x137 + x440 <= 1
C613: + x33 + x249 <= 1
C614: + x96 + x401 <= 1
C615: + x104 + x494 <= 1
C616: + x9 + x96 <= 1
C617: + x403 + x423 <= 1
C618: + x314 + x335 <= 1
C619: + x10 + x70 <= 1
C620: + x246 + x306 <= 1
C621: + x107 + x234 <= 1
C622: + x17 + x301 <= 1
C623: + x44 + x113 <= 1
C624: + x6 + x383 <= 1
C625: + x64 + x126 <= 1
C626: + x249 + x361 <= 1
C627: + x12 + x76 <= 1
C628: + x314 + x448 <= 1
C629: + x6 + x53 <= 1
C630: + x18 + x151 <= 1
C631: + x10 + x50 <= 1
C632: + x282 + x450 <= 1
C633: + x15 + x376 <= 1
C634: + x19 + x322 <= 1
C635: + x76 + x305 <= 1
C636: + x10 + x464 <= 1
C637: + x247 + x316 <= 1
C638: + x1 + x309 <= 1
C639: + x67 + x86 <= 1
C640: + x55 + x124 <= 1
C641: + x132 + x341 <= 1
C642: + x5 + x239 <= 1
C643: + x91 + x352 <= 1
C644: + x1 + x7 <= 1
C645: + x27 + x32 <= 1
C646: + x293 + x461 <= 1
C647: + x242 + x343 <= 1
C648: + x8 + x84 <= 1
C649: + x47 + x91 <= 1
C650: + x61 + x97 <= 1
C651: + x73 + x391 <= 1
C652: + x66 + x108 <= 1
C653: + x3 + x5 <= 1
C654: + x252 + x321 <= 1
C655: + x345 + x479 <= 1
C656: + x19 + x100 <= 1
C657: + x273 + x486 <= 1
C658: + x58 + x69 <= 1
C659: + x95 + x271 <= 1
C660: + x12 + x230 <= 1
C661: + x68 + x398 <= 1
C662: + x33 + x442 <= 1
C663: + x108 + x227 <= 1
C664: + x9 + x214 <= 1
C665: + x7 + x384 <= 1
C666: + x90 + x372 <= 1
C667: + x18 + x255 <= 1
C668: + x12 + x65 <= 1
C669: + x15 + x464 <= 1
C670: + x24 + x33 <= 1
C671: + x139 + x344 <= 1
C672: + x151 + x193 <= 1
C673: + x10 + x59 <= 1
C674: + x110 + x215 <= 1
C675: + x13 + x34 <= 1
C676: + x5 + x71 <= 1
C677: + x32 + x275 <= 1
C678: + x53 + x121 <= 1
C679: + x198 + x236 <= 1
C680: + x5 + x404 <= 1
C681: + x49 + x169 <= 1
C682: + x204 + x260 <= 1
C683: + x115 + x274 <= 1
C684: + x133 + x177 <= 1
C685: + x357 + x471 <= 1
C686: + x217 + x322 <= 1
C687: + x111 + x233 <= 1
C688: + x13 + x419 <= 1
C689: + x87 + x442 <= 1
C690: + x45 + x226 <= 1
C691: + x72 + x176 <= 1
C692: + x176 + x287 <= 1
C693: + x52 + x178 <= 1
C694: + x5 + x357 <= 1
C695: + x91 + x157 <= 1
C696: + x329 + x448 <= 1
C697: + x62 + x118 <= 1
C698: + x8 + x275 <= 1
C699: + x15 + x193 <= 1
C700: + x9 + x221 <= 1
C701: + x33 + x286 <= 1
C702: + x5 + x268 <= 1
C703: + x46 + x109 <= 1
C704: + x39 + x489 <= 1
C705: + x14 + x68 <= 1
C706: + x6 + x39 <= 1
C707: + x18 + x318 <= 1
C708: + x10 + x36 <= 1
C709: + x75 + x116 <= 1
C710: + x31 + x55 <= 1
C711: + x98 + x179 <= 1
C712: + x24 + x175 <= 1
C713: + x18 + x36 <= 1
C714: + x81 + x476 <= 1
C715: + x119 + x168 <= 1
C716: + x139 + x290 <= 1
C717: + x276 + x302 <= 1
C718: + x157 + x476 <= 1
C719: + x306 + x337 <= 1
C720: + x14 + x469 <= 1
C721: + x74 + x186 <= 1
C722: + x1 + x259 <= 1
C723: + x439 + x469 <= 1
C724: + x4 + x195 <= 1
C725: + x34 + x484 <= 1
C726: + x5 + x221 <= 1
C727: + x18 + x362 <= 1
C728: + x117 + x378 <= 1
C729: + x1 + x21 <= 1
C730: + x260 + x410 <= 1
C731: + x134 + x497 <= 1
C732: + x8 + x66 <= 1
C733: + x10 + x240 <= 1
C734: + x32 + x336 <= 1
C735: + x69 + x215 <= 1
C736: + x23 + x478 <= 1
C737: + x6 + x124 <= 1
C738: + x155 + x206 <= 1
C739: + x300 + x339 <= 1
C740: + x6 + x159 <= 1
C741: + x10 + x220 <= 1
C742: + x11 + x300 <= 1
C743: + x84 + x445 <= 1
C744: + x31 + x175 <= 1
C745: + x7 + x11 <= 1
C746: + x390 + x403 <= 1
C747: + x37 + x79 <= 1
C748: + x147 + x357 <= 1
C749: + x67 + x235 <= 1
C750: + x7 + x184 <= 1
C751: + x46 + x340 <= 1
C752: + x38 + x375 <= 1
C753: + x5 + x53 <= 1
C754: + x17 + x147 <= 1
C755: + x189 + x231 <= 1
C756: + x227 + x274 <= 1
C757: + x251 + x412 <= 1
C758: + x14 + x462 <= 1
C759: + x347 + x408 <= 1
C760: + x156 + x179 <= 1
C761: + x123 + x452 <= 1
C762: + x176 + x192 <= 1
C763: + x14 + x49 <= 1
C764: + x69 + x335 <= 1
C765: + x25 + x400 <= 1
C766: + x91 + x297 <= 1
C767: + x6 + x212 <= 1
C768: + x7 + x228 <= 1
C769: + x12 + x188 <= 1
C770: + x18 + x81 <= 1
C771: + x37 + x130 <= 1
C772: + x33 + x98 <= 1
C773: + x138 + x181 <= 1
C774: + x94 + x244 <= 1
C775: + x156 + x207 <= 1
C776: + x5 + x16 <= 1
C777: + x443 + x446 <= 1
C778: + x325 + x338 <= 1
C779: + x7 + x8 + x9 + x138 <= 1
C780: + x151 + x265 <= 1
C781: + x36 + x295 <= 1
C782: + x7 + x14 <= 1
C783: + x130 + x225 <= 1
C784: + x20 + x459 <= 1
C785: + x150 + x238 <= 1
C786: + x110 + x194 <= 1
C787: + x11 + x166 <= 1
C788: + x1 + x215 <= 1
C789: + x72 + x452 <= 1
C790: + x5 + x52 <= 1
C791: + x61 + x396 <= 1
C792: + x9 + x55 <= 1
C793: + x219 + x382 <= 1
C794: + x64 + x70 <= 1
C795: + x20 + x133 <= 1
C796: + x68 + x332 <= 1
C797: + x10 + x492 <= 1
C798: + x37 + x58 <= 1
C799: + x5 + x195 <= 1
C800: + x127 + x435 <= 1
C801: + x9 + x369 <= 1
C802: + x172 + x237 <= 1
C803: + x56 + x90 <= 1
C804: + x20 + x246 <= 1
C805: + x5 + x104 <= 1
C806: + x116 + x243 <= 1
C807: + x11 + x331 <= 1
C808: + x55 + x247 <= 1
C809: + x12 + x32 <= 1
C810: + x35 + x341 <= 1
C811: + x19 + x72 <= 1
C812: + x2 + x6 <= 1
C813: + x358 + x400 <= 1
C814: + x25 + x419 <= 1
C815: + x53 + x468 <= 1
C816: + x72 + x300 <= 1
C817: + x68 + x247 <= 1
C818: + x10 + x87 <= 1
C819: + x102 + x238 <= 1
C820: + x192 + x315 <= 1
C821: + x188 + x328 <= 1
C822: + x117 + x296 <= 1
C823: + x18 + x23 <= 1
C824: + x64 + x67 <= 1
C825: + x24 + x25 <= 1
C826: + x9 + x411 <= 1
C827: + x102 + x127 <= 1
C828: + x411 + x441 <= 1
C829: + x38 + x458 <= 1
C830: + x234 + x252 <= 1
C831: + x6 + x198 <= 1
C832: + x7 + x222 <= 1
C833: + x27 + x123 <= 1
C834: + x100 + x206 <= 1
C835: + x227 + x403 <= 1
C836: + x280 + x413 <= 1
C837: + x14 + x134 <= 1
C838: + x289 + x397 <= 1
C839: + x39 + x345 <= 1
C840: + x4 + x327 <= 1
C841: + x350 + x473 <= 1
C842: + x117 + x454 <= 1
C843: + x146 + x177 <= 1
C844: + x41 + x496 <= 1
C845: + x368 + x466 <= 1
C846: + x197 + x446 <= 1
C847: + x53 + x475 <= 1
C848: + x44 + x75 <= 1
C849: + x16 + x142 <= 1
C850: + x8 + x97 <= 1
C851: + x113 + x224 <= 1
C852: + x176 + x420 <= 1
C853: + x60 + x112 <= 1
C854: + x15 + x435 <= 1
C855: + x127 + x152 <= 1
C856: + x24 + x94 <= 1
C857: + x45 + x250 <= 1
C858: + x63 + x233 <= 1
C859: + x61 + x309 <= 1
C860: + x25 + x473 <= 1
C861: + x7 + x153 <= 1
C862: + x70 + x272 <= 1
C863: + x10 + x96 <= 1
C864: + x75 + x152 <= 1
C865: + x284 + x480 <= 1
C866: + x22 + x40 <= 1
C867: + x153 + x288 <= 1
C868: + x62 + x380 <= 1
C869: + x466 + x486 <= 1
C870: + x12 + x485 <= 1
C871: + x4 + x388 <= 1
C872: + x7 + x44 <= 1
C873: + x1 + x495 <= 1
C874: + x67 + x140 <= 1
C875: + x114 + x258 <= 1
C876: + x51 + x82 <= 1
C877: + x14 + x92 <= 1
C878: + x346 + x398 <= 1
C879: + x7 + x213 <= 1
C880: + x7 + x282 <= 1
C881: + x9 + x17 <= 1
C882: + x8 + x457 <= 1
C883: + x110 + x395 <= 1
C884: + x94 + x497 <= 1
C885: + x222 + x316 <= 1
C886: + x141 + x163 <= 1
C887: + x142 + x248 <= 1
C888: + x207 + x331 <= 1
C889: + x265 + x493 <= 1
C890: + x150 + x152 <= 1
C891: + x5 + x229 <= 1
C892: + x9 + x256 <= 1
C893: + x139 + x409 <= 1
C894: + x77 + x288 <= 1
C895: + x51 + x180 <= 1
C896: + x5 + x471 <= 1
C897: + x35 + x218 <= 1
C898: + x1 + x426 <= 1
C899: + x37 + x99 <= 1
C900: + x241 + x436 <= 1
C901: + x23 + x54 <= 1
C902: + x7 + x148 <= 1
C903: + x18 + x275 <= 1
C904: + x11 + x95 <= 1
C905: + x156 + x226 <= 1
C906: + x29 + x274 <= 1
C907: + x113 + x294 <= 1
C908: + x58 + x63 <= 1
C909: + x1 + x89 <= 1
C910: + x75 + x500 <= 1
C911: + x33 + x269 <= 1
C912: + x13 + x89 <= 1
C913: + x31 + x268 <= 1
C914: + x7 + x35 <= 1
C915: + x84 + x260 <= 1
C916: + x11 + x34 <= 1
C917: + x136 + x490 <= 1
C918: + x5 + x426 <= 1
C919: + x189 + x420 <= 1
C920: + x62 + x172 <= 1
C921: + x55 + x101 <= 1
C922: + x419 + x462 <= 1
C923: + x5 + x228 <= 1
C924: + x7 + x333 <= 1
C925: + x36 + x104 <= 1
C926: + x311 + x448 <= 1
C927: + x86 + x334 <= 1
C928: + x13 + x100 <= 1
C929: + x4 + x353 <= 1
C930: + x23 + x461 <= 1
C931: + x142 + x165 <= 1
C932: + x119 + x400 <= 1
C933: + x64 + x283 <= 1
C934: + x66 + x357 <= 1
C935: + x2 + x37 <= 1
C936: + x6 + x379 <= 1
C937: + x8 + x11 <= 1
C938: + x12 + x80 <= 1
C939: + x31 + x186 <= 1
C940: + x51 + x159 <= 1
C941: + x19 + x58 + x61 <= 1
C942: + x325 + x415 <= 1
C943: + x7 + x38 <= 1
C944: + x45 + x292 <= 1
C945: + x48 + x430 <= 1
C946: + x184 + x326 <= 1
C947: + x6 + x49 <= 1
C948: + x91 + x219 <= 1
C949: + x290 + x443 <= 1
C950: + x19 + x25 <= 1
C951: + x9 + x365 <= 1
C952: + x192 + x262 <= 1
C953: + x5 + x92 <= 1
C954: + x16 + x108 <= 1
C955: + x41 + x296 <= 1
C956: + x33 + x133 <= 1
C957: + x6 + x66 <= 1
C958: + x163 + x422 <= 1
C959: + x11 + x29 <= 1
C960: + x114 + x368 <= 1
C961: + x79 + x114 <= 1
C962: + x281 + x414 <= 1
C963: + x91 + x348 <= 1
C964: + x12 + x137 <= 1
C965: + x176 + x447 <= 1
C966: + x6 + x467 <= 1
C967: + x78 + x136 <= 1
C968: + x10 + x115 <= 1
C969: + x93 + x251 <= 1
C970: + x49 + x404 <= 1
C971: + x175 + x259 <= 1
C972: + x58 + x73 <= 1
C973: + x70 + x414 <= 1
C974: + x345 + x384 <= 1
C975: + x6 + x169 <= 1
C976: + x101 + x107 <= 1
C977: + x10 + x174 <= 1
C978: + x12 + x69 <= 1
C979: + x282 + x350 <= 1
C980: + x13 + x412 <= 1
C981: + x5 + x265 <= 1
C982: + x14 + x484 <= 1
C983: + x320 + x401 <= 1
C984: + x95 + x158 <= 1
C985: + x19 + x20 <= 1
C986: + x176 + x197 <= 1
C987: + x161 + x356 <= 1
C988: + x8 + x56 <= 1
C989: + x93 + x468 <= 1
C990: + x123 + x176 <= 1
C991: + x261 + x394 <= 1
C992: + x211 + x432 <= 1
C993: + x6 + x238 <= 1
C994: + x55 + x226 <= 1
C995: + x75 + x414 <= 1
C996: + x46 + x181 <= 1
C997: + x42 + x109 <= 1
C998: + x333 + x393 <= 1
C999: + x10 + x417 <= 1
C1000: + x10 + x124 <= 1
C1001: + x8 + x214 <= 1
C1002: + x171 + x209 <= 1
C1003: + x108 + x291 <= 1
C1004: + x98 + x251 <= 1
C1005: + x157 + x260 <= 1
C1006: + x7 + x24 <= 1
C1007: + x62 + x227 <= 1
C1008: + x138 + x325 <= 1
C1009: + x18 + x407 <= 1
C1010: + x1 + x459 <= 1
C1011: + x55 + x62 <= 1
C1012: + x5 + x149 <= 1
C1013: + x163 + x325 <= 1
C1014: + x36 + x47 <= 1
C1015: + x273 + x397 <= 1
C1016: + x94 + x178 <= 1
C1017: + x157 + x179 <= 1
C1018: + x212 + x480 <= 1
C1019: + x98 + x183 <= 1
C1020: + x10 + x11 + x18 <= 1
C1021: + x6 + x273 <= 1
C1022: + x9 + x13 <= 1
C1023: + x3 + x406 <= 1
C1024: + x222 + x288 <= 1
C1025: + x5 + x316 <= 1
C1026: + x7 + x68 <= 1
C1027: + x164 + x320 <= 1
C1028: + x19 + x465 <= 1
C1029: + x24 + x365 <= 1
C1030: + x73 + x135 <= 1
C1031: + x444 + x451 <= 1
C1032: + x91 + x241 <= 1
C1033: + x4 + x102 <= 1
C1034: + x298 + x321 <= 1
C1035: + x145 + x401 <= 1
C1036: + x45 + x213 <= 1
C1037: + x12 + x425 <= 1
C1038: + x49 + x386 <= 1
C1039: + x5 + x13 <= 1
C1040: + x6 + x155 <= 1
C1041: + x1 + x37 <= 1
C1042: + x21 + x48 <= 1
C1043: + x97 + x105 <= 1
C1044: + x24 + x51 <= 1
C1045: + x7 + x15 <= 1
C1046: + x15 + x478 <= 1
C1047: + x11 + x393 <= 1
C1048: + x9 + x52 <= 1
C1049: + x11 + x284 <= 1
C1050: + x67 + x429 <= 1
C1051: + x21 + x116 <= 1
C1052: + x196 + x337 <= 1
C1053: + x17 + x52 <= 1
C1054: + x8 + x329 <= 1
C1055: + x75 + x317 <= 1
C1056: + x229 + x255 <= 1
C1057: + x5 + x200 <= 1
C1058: + x80 + x121 <= 1
C1059: + x73 + x323 <= 1
C1060: + x110 + x249 <= 1
C1061: + x20 + x241 <= 1
C1062: + x12 + x192 <= 1
C1063: + x144 + x291 <= 1
C1064: + x34 + x348 <= 1
C1065: + x98 + x156 <= 1
C1066: + x397 + x423 <= 1
C1067: + x210 + x224 <= 1
C1068: + x12 + x27 <= 1
C1069: + x101 + x163 <= 1
C1070: + x8 + x204 <= 1
C1071: + x164 + x168 <= 1
C1072: + x188 + x375 <= 1
C1073: + x16 + x188 <= 1
C1074: + x20 + x189 <= 1
C1075: + x49 + x102 <= 1
C1076: + x259 + x307 <= 1
C1077: + x25 + x178 <= 1
C1078: + x73 + x108 <= 1
C1079: + x74 + x100 <= 1
C1080: + x38 + x78 <= 1
C1081: + x94 + x438 <= 1
C1082: + x113 + x472 <= 1
C1083: + x150 + x234 <= 1
C1084: + x12 + x249 <= 1
C1085: + x96 + x127 <= 1
C1086: + x36 + x188 <= 1
C1087: + x77 + x112 <= 1
C1088: + x51 + x247 <= 1
C1089: + x43 + x44 <= 1
C1090: + x1 + x277 <= 1
C1091: + x28 + x406 <= 1
C1092: + x56 + x311 <= 1
C1093: + x6 + x217 <= 1
C1094: + x309 + x363 <= 1
C1095: + x46 + x381 <= 1
C1096: + x192 + x238 <= 1
C1097: + x104 + x128 <= 1
C1098: + x51 + x317 <= 1
C1099: + x52 + x110 <= 1
C1100: + x24 + x141 <= 1
C1101: + x10 + x377 <= 1
C1102: + x211 + x223 <= 1
C1103: + x11 + x375 <= 1
C1104: + x12 + x20 <= 1
C1105: + x155 + x462 <= 1
C1106: + x7 + x106 <= 1
C1107: + x93 + x223 <= 1
C1108: + x7 + x352 <= 1
C1109: + x1 + x51 <= 1
C1110: + x192 + x210 <= 1
C1111: + x132 + x416 <= 1
C1112: + x33 + x295 <= 1
C1113: + x62 + x270 <= 1
C1114: + x63 + x230 <= 1
C1115: + x101 + x484 <= 1
C1116: + x127 + x145 <= 1
C1117: + x41 + x380 <= 1
C1118: + x6 + x30 <= 1
C1119: + x10 + x91 <= 1
C1120: + x101 + x158 <= 1
C1121: + x94 + x157 <= 1
C1122: + x13 + x194 <= 1
C1123: + x90 + x165 <= 1
C1124: + x15 + x230 <= 1
C1125: + x101 + x115 <= 1
C1126: + x256 + x399 <= 1
C1127: + x12 + x93 <= 1
C1128: + x179 + x443 <= 1
C1129: + x168 + x314 <= 1
C1130: + x11 + x60 <= 1
C1131: + x67 + x141 <= 1
C1132: + x32 + x53 <= 1
C1133: + x6 + x194 <= 1
C1134: + x118 + x333 <= 1
C1135: + x454 + x483 <= 1
C1136: + x13 + x54 <= 1
C1137: + x25 + x319 <= 1
C1138: + x7 + x97 <= 1
C1139: + x10 + x477 <= 1
C1140: + x113 + x375 <= 1
C1141: + x104 + x198 <= 1
C1142: + x14 + x19 <= 1
C1143: + x69 + x365 <= 1
C1144: + x97 + x145 <= 1
C1145: + x16 + x138 <= 1
C1146: + x1 + x10 <= 1
C1147: + x181 + x201 <= 1
C1148: + x56 + x103 <= 1
C1149: + x4 + x5 <= 1
C1150: + x3 + x455 <= 1
C1151: + x14 + x100 <= 1
C1152: + x118 + x258 <= 1
C1153: + x72 + x103 <= 1
C1154: + x9 + x311 <= 1
C1155: + x55 + x496 <= 1
C1156: + x10 + x68 <= 1
C1157: + x234 + x344 <= 1
C1158: + x2 + x47 <= 1
C1159: + x7 + x387 <= 1
C1160: + x8 + x17 <= 1
C1161: + x64 + x120 <= 1
C1162: + x10 + x191 <= 1
C1163: + x174 + x350 <= 1
C1164: + x16 + x94 <= 1
C1165: + x42 + x307 <= 1
C1166: + x109 + x490 <= 1
C1167: + x74 + x90 <= 1
C1168: + x64 + x354 <= 1
C1169: + x108 + x133 <= 1
C1170: + x15 + x160 <= 1
C1171: + x10 + x16 <= 1
C1172: + x55 + x316 <= 1
C1173: + x34 + x146 <= 1
C1174: + x18 + x64 <= 1
C1175: + x11 + x377 <= 1
C1176: + x127 + x308 <= 1
C1177: + x61 + x345 <= 1
C1178: + x180 + x361 <= 1
C1179: + x71 + x394 <= 1
C1180: + x7 + x330 <= 1
C1181: + x37 + x266 <= 1
C1182: + x15 + x442 <= 1
C1183: + x200 + x313 <= 1
C1184: + x359 + x405 <= 1
C1185: + x61 + x208 <= 1
C1186: + x27 + x460 <= 1
C1187: + x61 + x429 <= 1
C1188: + x15 + x297 <= 1
C1189: + x100 + x111 <= 1
C1190: + x8 + x10 <= 1
C1191: + x28 + x222 <= 1
C1192: + x11 + x320 <= 1
C1193: + x7 + x390 <= 1
C1194: + x38 + x202 <= 1
C1195: + x22 + x315 <= 1
C1196: + x45 + x289 <= 1
C1197: + x11 + x46 <= 1
C1198: + x185 + x497 <= 1
C1199: + x159 + x254 <= 1
C1200: + x7 + x277 <= 1
C1201: + x10 + x49 <= 1
C1202: + x102 + x208 <= 1
C1203: + x282 + x449 <= 1
C1204: + x54 + x389 <= 1
C1205: + x104 + x107 <= 1
C1206: + x107 + x155 <= 1
C1207: + x257 + x358 <= 1
C1208: + x61 + x481 <= 1
C1209: + x24 + x156 <= 1
C1210: + x11 + x356 <= 1
C1211: + x239 + x297 <= 1
C1212: + x6 + x69 <= 1
C1213: + x7 + x83 <= 1
C1214: + x8 + x353 <= 1
C1215: + x424 + x431 <= 1
C1216: + x49 + x421 <= 1
C1217: + x232 + x380 <= 1
C1218: + x6 + x232 <= 1
C1219: + x117 + x373 <= 1
C1220: + x18 + x194 <= 1
C1221: + x1 + x8 <= 1
C1222: + x7 + x494 <= 1
C1223: + x8 + x498 <= 1
C1224: + x264 + x471 <= 1
C1225: + x3 + x6 <= 1
C1226: + x61 + x199 <= 1
C1227: + x58 + x76 <= 1
C1228: + x12 + x229 <= 1
C1229: + x5 + x20 <= 1
C1230: + x6 + x172 <= 1
C1231: + x10 + x169 <= 1
C1232: + x201 + x300 <= 1
C1233: + x21 + x31 <= 1
C1234: + x118 + x389 <= 1
C1235: + x129 + x166 <= 1
C1236: + x330 + x415 <= 1
C1237: + x64 + x217 <= 1
C1238: + x15 + x106 <= 1
C1239: + x127 + x467 <= 1
C1240: + x5 + x6 + x15 + x46 <= 1
C1241: + x64 + x459 <= 1
C1242: + x37 + x169 <= 1
C1243: + x49 + x170 <= 1
C1244: + x149 + x483 <= 1
C1245: + x14 + x475 <= 1
C1246: + x16 + x395 <= 1
C1247: + x177 + x353 <= 1
C1248: + x118 + x364 <= 1
C1249: + x1 + x31 <= 1
C1250: + x83 + x393 <= 1
C1251: + x11 + x254 <= 1
C1252: + x77 + x266 <= 1
C1253: + x49 + x57 <= 1
C1254: + x320 + x374 <= 1
C1255: + x300 + x464 <= 1
C1256: + x24 + x101 <= 1
C1257: + x9 + x79 <= 1
C1258: + x16 + x60 <= 1
C1259: + x36 + x208 <= 1
C1260: + x58 + x242 <= 1
C1261: + x203 + x357 <= 1
C1262: + x5 + x358 <= 1
C1263: + x10 + x420 <= 1
C1264: + x8 + x217 <= 1
C1265: + x93 + x247 <= 1
C1266: + x212 + x399 <= 1
C1267: + x5 + x27 <= 1
C1268: + x10 + x210 <= 1
C1269: + x68 + x273 <= 1
C1270: + x268 + x272 <= 1
C1271: + x4 + x40 <= 1
C1272: + x32 + x374 <= 1
C1273: + x61 + x77 <= 1
C1274: + x387 + x495 <= 1
C1275: + x84 + x278 <= 1
C1276: + x21 + x312 <= 1
C1277: + x5 + x170 <= 1
C1278: + x7 + x190 <= 1
C1279: + x16 + x355 <= 1
C1280: + x10 + x35 <= 1
C1281: + x72 + x461 <= 1
C1282: + x12 + x202 <= 1
C1283: + x304 + x321 <= 1
C1284: + x19 + x177 <= 1
C1285: + x102 + x341 <= 1
C1286: + x23 + x41 + x110 <= 1
C1287: + x203 + x285 <= 1
C1288: + x5 + x222 <= 1
C1289: + x15 + x189 <= 1
C1290: + x7 + x234 <= 1
C1291: + x7 + x307 <= 1
C1292: + x8 + x65 <= 1
C1293: + x9 + x324 <= 1
C1294: + x190 + x413 <= 1
C1295: + x225 + x410 <= 1
C1296: + x13 + x14 <= 1
C1297: + x6 + x456 <= 1
C1298: + x9 + x118 <= 1
C1299: + x182 + x382 <= 1
C1300: + x49 + x290 <= 1
C1301: + x195 + x257 <= 1
C1302: + x5 + x365 <= 1
C1303: + x90 + x111 <= 1
C1304: + x71 + x185 <= 1
C1305: + x110 + x148 <= 1
C1306: + x10 + x128 <= 1
C1307: + x24 + x296 <= 1
C1308: + x9 + x197 <= 1
C1309: + x381 + x409 <= 1
C1310: + x11 + x297 <= 1
C1311: + x1 + x34 <= 1
C1312: + x12 + x114 <= 1
C1313: + x141 + x450 <= 1
C1314: + x144 + x493 <= 1
C1315: + x21 + x45 <= 1
C1316: + x4 + x45 <= 1
C1317: + x186 + x236 <= 1
C1318: + x128 + x372 <= 1
C1319: + x25 + x453 <= 1
C1320: + x160 + x237 <= 1
C1321: + x62 + x66 <= 1
C1322: + x7 + x181 <= 1
C1323: + x180 + x441 <= 1
C1324: + x55 + x264 <= 1
C1325: + x217 + x418 <= 1
C1326: + x34 + x190 <= 1
C1327: + x90 + x265 <= 1
C1328: + x43 + x312 <= 1
C1329: + x8 + x41 <= 1
C1330: + x10 + x135 <= 1
C1331: + x135 + x368 <= 1
C1332: + x77 + x425 <= 1
C1333: + x151 + x323 <= 1
C1334: + x229 + x265 <= 1
C1335: + x56 + x317 <= 1
C1336: + x104 + x231 <= 1
C1337: + x14 + x48 <= 1
C1338: + x6 + x211 <= 1
C1339: + x139 + x441 <= 1
C1340: + x41 + x84 <= 1
C1341: + x18 + x88 <= 1
C1342: + x22 + x494 <= 1
C1343: + x61 + x212 <= 1
C1344: + x11 + x127 <= 1
C1345: + x94 + x243 <= 1
C1346: + x221 + x434 <= 1
C1347: + x97 + x144 <= 1
C1348: + x5 + x9 <= 1
C1349: + x117 + x278 <= 1
C1350: + x207 + x404 <= 1
C1351: + x209 + x458 <= 1
C1352: + x29 + x370 <= 1
C1353: + x106 + x181 <= 1
C1354: + x107 + x203 <= 1
C1355: + x12 + x119 <= 1
C1356: + x15 + x212 <= 1
C1357: + x19 + x239 <= 1
C1358: + x115 + x187 <= 1
C1359: + x223 + x343 <= 1
C1360: + x61 + x67 <= 1
C1361: + x72 + x209 <= 1
C1362: + x75 + x373 <= 1
C1363: + x327 + x408 <= 1
C1364: + x106 + x326 <= 1
C1365: + x206 + x437 <= 1
C1366: + x6 + x24 <= 1
C1367: + x7 + x176 <= 1
C1368: + x82 + x239 <= 1
C1369: + x368 + x407 <= 1
C1370: + x9 + x56 <= 1
C1371: + x1 + x117 <= 1
C1372: + x19 + x163 <= 1
C1373: + x58 + x390 <= 1
C1374: + x193 + x250 <= 1
C1375: + x131 + x159 <= 1
C1376: + x4 + x405 <= 1
C1377: + x12 + x35 <= 1
C1378: + x6 + x441 <= 1
C1379: + x36 + x278 <= 1
C1380: + x19 + x456 <= 1
C1381: + x113 + x385 <= 1
C1382: + x38 + x464 <= 1
C1383: + x261 + x281 <= 1
C1384: + x7 + x301 <= 1
C1385: + x10 + x25 <= 1
C1386: + x55 + x299 <= 1
C1387: + x11 + x151 <= 1
C1388: + x77 + x311 <= 1
C1389: + x149 + x367 <= 1
C1390: + x29 + x218 <= 1
C1391: + x134 + x261 <= 1
C1392: + x91 + x470 <= 1
C1393: + x58 + x338 <= 1
C1394: + x209 + x292 <= 1
C1395: + x199 + x299 <= 1
C1396: + x2 + x5 <= 1
C1397: + x38 + x308 <= 1
C1398: + x37 + x444 <= 1
C1399: + x97 + x135 <= 1
C1400: + x61 + x336 <= 1
C1401: + x157 + x201 <= 1
C1402: + x175 + x284 <= 1
C1403: + x14 + x29 <= 1
C1404: + x8 + x107 <= 1
C1405: + x309 + x436 <= 1
C1406: + x4 + x27 <= 1
C1407: + x135 + x207 <= 1
C1408: + x40 + x481 <= 1
C1409: + x178 + x423 <= 1
C1410: + x6 + x17 <= 1
C1411: + x14 + x110 <= 1
C1412: + x52 + x340 <= 1
C1413: + x51 + x453 <= 1
C1414: + x4 + x172 <= 1
C1415: + x6 + x180 <= 1
C1416: + x289 + x434 <= 1
C1417: + x16 + x76 <= 1
C1418: + x44 + x446 <= 1
C1419: + x45 + x147 <= 1
C1420: + x67 + x420 <= 1
C1421: + x77 + x479 <= 1
C1422: + x102 + x419 <= 1
C1423: + x16 + x270 <= 1
C1424: + x18 + x340 <= 1
C1425: + x9 + x142 <= 1
C1426: + x100 + x205 <= 1
C1427: + x7 + x449 <= 1
C1428: + x11 + x371 <= 1
C1429: + x60 + x242 <= 1
C1430: + x189 + x431 <= 1
C1431: + x7 + x340 <= 1
C1432: + x128 + x140 <= 1
C1433: + x12 + x101 <= 1
C1434: + x31 + x129 <= 1
C1435: + x9 + x87 <= 1
C1436: + x56 + x137 <= 1
C1437: + x85 + x95 <= 1
C1438: + x49 + x259 <= 1
C1439: + x264 + x488 <= 1
C1440: + x23 + x52 <= 1
C1441: + x71 + x90 <= 1
C1442: + x275 + x394 <= 1
C1443: + x4 + x145 <= 1
C1444: + x287 + x485 <= 1
C1445: + x261 + x384 <= 1
C1446: + x15 + x291 <= 1
C1447: + x9 + x38 <= 1
C1448: + x8 + x24 <= 1
C1449: + x102 + x329 <= 1
C1450: + x285 + x358 <= 1
C1451: + x11 + x40 <= 1
C1452: + x103 + x125 <= 1
C1453: + x175 + x346 <= 1
C1454: + x224 + x369 <= 1
C1455: + x189 + x311 <= 1
C1456: + x11 + x153 <= 1
C1457: + x231 + x483 <= 1
C1458: + x371 + x445 <= 1
C1459: + x61 + x495 <= 1
C1460: + x120 + x327 <= 1
C1461: + x11 + x382 <= 1
C1462: + x30 + x422 <= 1
C1463: + x41 + x315 <= 1
C1464: + x28 + x443 <= 1
C1465: + x24 + x332 <= 1
C1466: + x9 + x225 <= 1
C1467: + x7 + x331 <= 1
C1468: + x51 + x360 <= 1
C1469: + x24 + x86 <= 1
C1470: + x68 + x232 <= 1
C1471: + x36 + x444 <= 1
C1472: + x22 + x48 <= 1
C1473: + x6 + x369 <= 1
C1474: + x9 + x45 <= 1
C1475: + x8 + x13 <= 1
C1476: + x37 + x243 <= 1
C1477: + x63 + x356 <= 1
C1478: + x4 + x53 <= 1
C1479: + x31 + x184 <= 1
C1480: + x316 + x430 <= 1
C1481: + x399 + x493 <= 1
C1482: + x132 + x167 <= 1
C1483: + x34 + x392 <= 1
C1484: + x18 + x334 <= 1
C1485: + x18 + x145 <= 1
C1486: + x19 + x31 <= 1
C1487: + x11 + x132 <= 1
C1488: + x122 + x330 <= 1
C1489: + x112 + x187 <= 1
C1490: + x9 + x25 <= 1
C1491: + x175 + x468 <= 1
C1492: + x80 + x193 <= 1
C1493: + x101 + x271 <= 1
C1494: + x61 + x341 <= 1
C1495: + x90 + x239 <= 1
C1496: + x35 + x452 <= 1
C1497: + x1 + x5 <= 1
C1498: + x20 + x216 <= 1
C1499: + x112 + x143 <= 1
C1500: + x60 + x125 <= 1
C1501: + x44 + x231 <= 1
C1502: + x1 + x418 <= 1
C1503: + x3 + x7 <= 1
C1504: + x41 + x366 <= 1
C1505: + x61 + x204 <= 1
C1506: + x9 + x290 <= 1
C1507: + x36 + x417 <= 1
C1508: + x101 + x144 <= 1
C1509: + x11 + x71 <= 1
C1510: + x3 + x172 <= 1
C1511: + x261 + x366 <= 1
C1512: + x126 + x130 <= 1
C1513: + x88 + x388 <= 1
C1514: + x101 + x109 <= 1
C1515: + x64 + x121 <= 1
C1516: + x4 + x62 <= 1
C1517: + x69 + x171 <= 1
C1518: + x14 + x77 <= 1
C1519: + x44 + x306 <= 1
C1520: + x7 + x200 <= 1
C1521: + x9 + x163 <= 1
C1522: + x382 + x489 <= 1
C1523: + x154 + x223 <= 1
C1524: + x192 + x261 <= 1
C1525: + x268 + x355 <= 1
C1526: + x202 + x235 <= 1
C1527: + x47 + x237 <= 1
C1528: + x250 + x430 <= 1
C1529: + x331 + x463 <= 1
C1530: + x40 + x337 <= 1
C1531: + x6 + x65 <= 1
C1532: + x261 + x388 <= 1
C1533: + x337 + x469 <= 1
C1534: + x66 + x254 <= 1
C1535: + x66 + x289 <= 1
C1536: + x95 + x200 <= 1
C1537: + x326 + x330 <= 1
C1538: + x28 + x155 <= 1
C1539: + x119 + x218 <= 1
C1540: + x10 + x225 <= 1
C1541: + x11 + x255 <= 1
C1542: + x1 + x28 <= 1
C1543: + x150 + x439 <= 1
C1544: + x16 + x63 <= 1
C1545: + x111 + x328 <= 1
C1546: + x58 + x237 <= 1
C1547: + x176 + x285 <= 1
C1548: + x6 + x117 <= 1
C1549: + x7 + x131 <= 1
C1550: + x173 + x338 <= 1
C1551: + x185 + x269 <= 1
C1552: + x87 + x98 <= 1
C1553: + x18 + x242 <= 1
C1554: + x67 + x392 <= 1
C1555: + x7 + x30 <= 1
C1556: + x208 + x259 <= 1
C1557: + x337 + x416 <= 1
C1558: + x19 + x291 <= 1
C1559: + x12 + x362 <= 1
C1560: + x60 + x173 <= 1
C1561: + x7 + x191 <= 1
C1562: + x1 + x14 + x39 <= 1
C1563: + x98 + x360 <= 1
C1564: + x98 + x451 <= 1
C1565: + x64 + x137 <= 1
C1566: + x38 + x465 <= 1
C1567: + x87 + x173 <= 1
C1568: + x197 + x403 <= 1
C1569: + x9 + x150 <= 1
C1570: + x71 + x281 <= 1
C1571: + x236 + x348 <= 1
C1572: + x8 + x491 <= 1
C1573: + x58 + x323 <= 1
C1574: + x404 + x482 <= 1
C1575: + x6 + x126 <= 1
C1576: + x15 + x41 <= 1
C1577: + x10 + x123 <= 1
C1578: + x49 + x396 <= 1
C1579: + x176 + x249 <= 1
C1580: + x42 + x253 <= 1
C1581: + x104 + x467 <= 1
C1582: + x7 + x21 <= 1
C1583: + x139 + x149 <= 1
C1584: + x353 + x426 <= 1
C1585: + x209 + x367 <= 1
C1586: + x28 + x490 <= 1
C1587: + x13 + x214 <= 1
C1588: + x190 + x211 <= 1
C1589: + x62 + x339 <= 1
C1590: + x56 + x210 <= 1
C1591: + x41 + x279 <= 1
C1592: + x31 + x298 <= 1
C1593: + x398 + x422 <= 1
C1594: + x9 + x491 <= 1
C1595: + x11 + x16 <= 1
C1596: + x123 + x454 <= 1
C1597: + x22 + x128 <= 1
C1598: + x444 + x454 <= 1
C1599: + x8 + x189 <= 1
C1600: + x65 + x298 <= 1
C1601: + x73 + x349 <= 1
C1602: + x48 + x102 <= 1
C1603: + x379 + x468 <= 1
C1604: + x39 + x59 <= 1
C1605: + x21 + x229 <= 1
C1606: + x18 + x83 <= 1
C1607: + x72 + x164 <= 1
C1608: + x9 + x122 <= 1
C1609: + x38 + x427 <= 1
C1610: + x22 + x481 <= 1
C1611: + x5 + x361 <= 1
C1612: + x6 + x103 <= 1
C1613: + x90 + x115 <= 1
C1614: + x364 + x384 <= 1
C1615: + x38 + x270 <= 1
C1616: + x269 + x294 <= 1
C1617: + x206 + x295 <= 1
C1618: + x17 + x220 <= 1
C1619: + x117 + x267 <= 1
C1620: + x61 + x438 <= 1
C1621: + x8 + x113 <= 1
C1622: + x206 + x213 <= 1
C1623: + x15 + x419 <= 1
C1624: + x7 + x16 <= 1
C1625: + x18 + x399 <= 1
C1626: + x92 + x303 <= 1
C1627: + x14 + x219 <= 1
C1628: + x23 + x305 <= 1
C1629: + x189 + x228 <= 1
C1630: + x82 + x480 <= 1
C1631: + x8 + x37 <= 1
C1632: + x11 + x281 <= 1
C1633: + x54 + x319 <= 1
C1634: + x12 + x34 <= 1
C1635: + x15 + x495 <= 1
C1636: + x58 + x151 <= 1
C1637: + x95 + x185 <= 1
C1638: + x163 + x273 <= 1
C1639: + x10 + x28 <= 1
C1640: + x19 + x55 <= 1
C1641: + x241 + x363 <= 1
C1642: + x23 + x269 <= 1
C1643: + x35 + x246 <= 1
C1644: + x244 + x283 <= 1
C1645: + x45 + x205 <= 1
C1646: + x5 + x435 <= 1
C1647: + x40 + x436 <= 1
C1648: + x35 + x343 <= 1
C1649: + x164 + x167 <= 1
C1650: + x11 + x123 <= 1
C1651: + x212 + x417 <= 1
C1652: + x75 + x187 <= 1
C1653: + x117 + x207 <= 1
C1654: + x63 + x263 <= 1
C1655: + x166 + x362 <= 1
C1656: + x312 + x479 <= 1
C1657: + x4 + x26 <= 1
C1658: + x200 + x333 <= 1
C1659: + x64 + x244 <= 1
C1660: + x49 + x196 <= 1
C1661: + x56 + x183 <= 1
C1662: + x12 + x413 <= 1
C1663: + x366 + x432 <= 1
C1664: + x255 + x285 <= 1
C1665: + x10 + x81 <= 1
C1666: + x297 + x360 <= 1
C1667: + x5 + x57 <= 1
C1668: + x31 + x38 <= 1
C1669: + x80 + x271 <= 1
C1670: + x7 + x402 <= 1
C1671: + x139 + x477 <= 1
C1672: + x318 + x371 <= 1
C1673: + x37 + x39 <= 1
C1674: + x3 + x115 <= 1
C1675: + x47 + x287 <= 1
C1676: + x60 + x144 <= 1
C1677: + x30 + x319 <= 1
C1678: + x6 + x200 <= 1
C1679: + x26 + x276 <= 1
C1680: + x15 + x147 <= 1
C1681: + x51 + x318 <= 1
C1682: + x14 + x136 <= 1
C1683: + x5 + x351 <= 1
C1684: + x15 + x62 <= 1
C1685: + x199 + x303 <= 1
C1686: + x138 + x161 <= 1
C1687: + x106 + x162 <= 1
C1688: + x33 + x475 <= 1
C1689: + x6 + x140 <= 1
C1690: + x280 + x343 <= 1
C1691: + x35 + x193 <= 1
C1692: + x267 + x347 <= 1
C1693: + x95 + x127 <= 1
C1694: + x70 + x258 <= 1
C1695: + x15 + x74 <= 1
C1696: + x151 + x226 <= 1
C1697: + x7 + x155 <= 1
C1698: + x28 + x32 + x43 <= 1
C1699: + x43 + x294 <= 1
C1700: + x224 + x487 <= 1
C1701: + x6 + x267 <= 1
C1702: + x9 + x35 <= 1
C1703: + x27 + x213 <= 1
C1704: + x154 + x402 <= 1
C1705: + x36 + x164 <= 1
C1706: + x12 + x96 <= 1
C1707: + x1 + x80 <= 1
C1708: + x19 + x154 <= 1
C1709: + x93 + x433 <= 1
C1710: + x5 + x274 <= 1
C1711: + x11 + x496 <= 1
C1712: + x11 + x57 <= 1
C1713: + x185 + x484 <= 1
C1714: + x77 + x197 <= 1
C1715: + x4 + x317 <= 1
C1716: + x36 + x49 <= 1
C1717: + x19 + x41 <= 1
C1718: + x453 + x470 <= 1
C1719: + x266 + x404 <= 1
C1720: + x212 + x450 <= 1
C1721: + x25 + x245 <= 1
C1722: + x317 + x499 <= 1
C1723: + x110 + x397 <= 1
C1724: + x49 + x134 <= 1
C1725: + x33 + x117 <= 1
C1726: + x61 + x254 <= 1
C1727: + x354 + x366 <= 1
C1728: + x117 + x451 <= 1
C1729: + x101 + x261 <= 1
C1730: + x10 + x452 <= 1
C1731: + x46 + x390 <= 1
C1732: + x49 + x440 <= 1
C1733: + x323 + x339 <= 1
C1734: + x164 + x258 <= 1
C1735: + x55 + x112 <= 1
C1736: + x15 + x162 <= 1
C1737: + x6 + x245 <= 1
C1738: + x24 + x335 <= 1
C1739: + x6 + x336 <= 1
C1740: + x41 + x114 <= 1
C1741: + x68 + x497 <= 1
C1742: + x234 + x454 <= 1
C1743: + x51 + x182 <= 1
C1744: + x24 + x89 <= 1
C1745: + x9 + x91 <= 1
C1746: + x36 + x220 <= 1
C1747: + x101 + x329 <= 1
C1748: + x240 + x374 <= 1
C1749: + x26 + x168 <= 1
C1750: + x11 + x310 <= 1
C1751: + x12 + x85 <= 1
C1752: + x161 + x485 <= 1
C1753: + x235 + x280 <= 1
C1754: + x9 + x391 <= 1
C1755: + x135 + x242 <= 1
C1756: + x149 + x156 <= 1
C1757: + x36 + x58 <= 1
C1758: + x128 + x304 <= 1
C1759: + x81 + x150 <= 1
C1760: + x175 + x298 <= 1
C1761: + x24 + x328 <= 1
C1762: + x7 + x335 <= 1
C1763: + x22 + x187 <= 1
C1764: + x151 + x279 <= 1
C1765: + x9 + x66 <= 1
C1766: + x82 + x427 <= 1
C1767: + x7 + x492 <= 1
C1768: + x3 + x12 <= 1
C1769: + x114 + x450 <= 1
C1770: + x20 + x485 <= 1
C1771: + x71 + x85 <= 1
C1772: + x99 + x120 <= 1
C1773: + x19 + x103 <= 1
C1774: + x8 + x287 <= 1
C1775: + x9 + x319 <= 1
C1776: + x21 + x180 <= 1
C1777: + x209 + x322 <= 1
C1778: + x30 + x153 <= 1
C1779: + x77 + x84 + x131 <= 1
C1780: + x118 + x232 <= 1
C1781: + x130 + x437 <= 1
C1782: + x5 + x264 <= 1
C1783: + x5 + x165 <= 1
C1784: + x6 + x51 <= 1
C1785: + x150 + x216 <= 1
C1786: + x7 + x278 <= 1
C1787: + x10 + x56 <= 1
C1788: + x36 + x63 <= 1
C1789: + x6 + x289 <= 1
C1790: + x9 + x29 <= 1
C1791: + x19 + x192 <= 1
C1792: + x45 + x177 <= 1
C1793: + x33 + x131 <= 1
C1794: + x150 + x313 <= 1
C1795: + x87 + x310 <= 1
C1796: + x6 + x231 <= 1
C1797: + x199 + x445 <= 1
C1798: + x24 + x349 <= 1
C1799: + x8 + x78 <= 1
C1800: + x48 + x75 <= 1
C1801: + x4 + x118 <= 1
C1802: + x42 + x203 <= 1
C1803: + x15 + x386 <= 1
C1804: + x155 + x492 <= 1
C1805: + x68 + x209 <= 1
C1806: + x70 + x253 <= 1
C1807: + x44 + x378 <= 1
C1808: + x7 + x144 <= 1
C1809: + x1 + x184 <= 1
C1810: + x5 + x29 <= 1
C1811: + x24 + x224 <= 1
C1812: + x9 + x216 <= 1
C1813: + x90 + x370 <= 1
C1814: + x130 + x398 <= 1
C1815: + x132 + x418 <= 1
C1816: + x34 + x50 <= 1
C1817: + x36 + x310 <= 1
C1818: + x190 + x364 <= 1
C1819: + x165 + x475 <= 1
C1820: + x11 + x409 <= 1
C1821: + x14 + x73 <= 1
C1822: + x6 + x60 <= 1
C1823: + x7 + x188 <= 1
C1824: + x52 + x73 <= 1
C1825: + x306 + x499 <= 1
C1826: + x116 + x424 <= 1
C1827: + x6 + x77 <= 1
C1828: + x80 + x214 <= 1
C1829: + x137 + x182 <= 1
C1830: + x27 + x279 <= 1
C1831: + x100 + x418 <= 1
C1832: + x52 + x232 <= 1
C1833: + x163 + x447 <= 1
C1834: + x3 + x13 + x22 <= 1
C1835: + x7 + x248 <= 1
C1836: + x8 + x75 <= 1
C1837: + x28 + x159 <= 1
C1838: + x49 + x58 <= 1
C1839: + x114 + x206 <= 1
C1840: + x5 + x117 <= 1
C1841: + x16 + x59 <= 1
C1842: + x8 + x490 <= 1
C1843: + x76 + x171 <= 1
C1844: + x124 + x405 <= 1
C1845: + x7 + x135 <= 1
C1846: + x347 + x472 <= 1
C1847: + x1 + x143 <= 1
C1848: + x9 + x301 <= 1
C1849: + x59 + x68 <= 1
C1850: + x5 + x28 <= 1
C1851: + x6 + x148 <= 1
C1852: + x11 + x303 <= 1
C1853: + x113 + x182 <= 1
C1854: + x268 + x271 <= 1
C1855: + x7 + x18 <= 1
C1856: + x60 + x161 <= 1
C1857: + x45 + x437 <= 1
C1858: + x135 + x457 <= 1
C1859: + x265 + x312 <= 1
C1860: + x192 + x266 <= 1
C1861: + x12 + x201 <= 1
C1862: + x292 + x439 <= 1
C1863: + x185 + x349 <= 1
C1864: + x56 + x434 <= 1
C1865: + x35 + x44 <= 1
C1866: + x143 + x313 <= 1
C1867: + x142 + x443 <= 1
C1868: + x75 + x467 <= 1
C1869: + x38 + x47 <= 1
C1870: + x186 + x353 <= 1
C1871: + x6 + x438 <= 1
C1872: + x80 + x211 <= 1
C1873: + x9 + x488 <= 1
C1874: + x37 + x54 <= 1
C1875: + x31 + x72 <= 1
C1876: + x70 + x76 <= 1
C1877: + x80 + x324 <= 1
C1878: + x20 + x69 <= 1
C1879: + x47 + x377 <= 1
C1880: + x3 + x21 <= 1
C1881: + x12 + x45 + x139 <= 1
C1882: + x136 + x288 <= 1
C1883: + x384 + x387 <= 1
C1884: + x8 + x120 <= 1
C1885: + x49 + x109 <= 1
C1886: + x12 + x113 <= 1
C1887: + x123 + x240 <= 1
C1888: + x58 + x440 <= 1
C1889: + x14 + x280 <= 1
C1890: + x41 + x154 <= 1
C1891: + x4 + x48 <= 1
C1892: + x94 + x106 <= 1
C1893: + x150 + x227 <= 1
C1894: + x336 + x354 <= 1
C1895: + x10 + x43 <= 1
C1896: + x28 + x81 <= 1
C1897: + x72 + x122 <= 1
C1898: + x164 + x342 <= 1
C1899: + x433 + x470 <= 1
C1900: + x32 + x184 <= 1
C1901: + x14 + x361 <= 1
C1902: + x219 + x480 <= 1
C1903: + x24 + x162 <= 1
C1904: + x20 + x130 <= 1
C1905: + x93 + x325 <= 1
C1906: + x11 + x12 <= 1
C1907: + x275 + x301 <= 1
C1908: + x12 + x351 <= 1
C1909: + x189 + x299 <= 1
C1910: + x9 + x332 <= 1
C1911: + x372 + x392 <= 1
C1912: + x46 + x262 <= 1
C1913: + x20 + x78 <= 1
C1914: + x105 + x391 <= 1
C1915: + x4 + x347 <= 1
C1916: + x19 + x386 <= 1
C1917: + x19 + x75 <= 1
C1918: + x295 + x339 <= 1
C1919: + x5 + x10 <= 1
C1920: + x33 + x449 <= 1
C1921: + x7 + x359 <= 1
C1922: + x274 + x382 <= 1
C1923: + x67 + x406 <= 1
C1924: + x139 + x494 <= 1
C1925: + x4 + x492 <= 1
C1926: + x70 + x121 <= 1
C1927: + x24 + x74 <= 1
C1928: + x244 + x294 <= 1
C1929: + x3 + x36 <= 1
C1930: + x80 + x270 <= 1
C1931: + x19 + x164 <= 1
C1932: + x351 + x426 <= 1
C1933: + x14 + x453 <= 1
C1934: + x7 + x64 <= 1
C1935: + x8 + x328 <= 1
C1936: + x100 + x469 <= 1
C1937: + x11 + x51 <= 1
C1938: + x229 + x305 <= 1
C1939: + x1 + x275 <= 1
C1940: + x3 + x120 <= 1
C1941: + x261 + x282 <= 1
C1942: + x18 + x346 <= 1
C1943: + x75 + x88 <= 1
C1944: + x188 + x196 <= 1
C1945: + x6 + x457 <= 1
C1946: + x18 + x80 <= 1
C1947: + x218 + x280 <= 1
C1948: + x58 + x337 <= 1
C1949: + x30 + x104 <= 1
C1950: + x104 + x368 <= 1
C1951: + x314 + x370 <= 1
C1952: + x13 + x148 <= 1
C1953: + x23 + x79 <= 1
C1954: + x464 + x489 <= 1
C1955: + x24 + x71 <= 1
C1956: + x19 + x268 <= 1

binary
x1 x2 x3 x4 x5 x6 x7 x8 x9 x10 x11 x12 x13 x14 x15 x16 x17 x18 x19 x20 x21 x22 x23 x24 x25 x26 x27 x28 x29 x30 x31 x32 x33 x34 x35 x36 x37 x38 x39 x40 x41 x42 x43 x44 x45 x46 x47 x48 x49 x50 x51 x52 x53 x54 x55 x56 x57 x58 x59 x60 x61 x62 x63 x64 x65 x66 x67 x68 x69 x70 x71 x72 x73 x74 x75 x76 x77 x78 x79 x80 x81 x82 x83 x84 x85 x86 x87 x88 x89 x90 x91 x92 x93 x94 x95 x96 x97 x98 x99 x100 x101 x102 x103 x104 x105 x106 x107 x108 x109 x110 x111 x112 x113 x114 x115 x116 x117 x118 x119 x120 x121 x122 x123 x124 x125 x126 x127 x128 x129 x130 x131 x132 x133 x134 x135 x136 x137 x138 x139 x140 x141 x142 x143 x144 x145 x146 x147 x148 x149 x150 x151 x152 x153 x154 x155 x156 x157 x158 x159 x160 x161 x162 x163 x164 x165 x166 x167 x168 x169 x170 x171 x172 x173 x174 x175 x176 x177 x178 x179 x180 x181 x182 x183 x184 x185 x186 x187 x188 x189 x190 x191 x192 x193 x194 x195 x196 x197 x198 x199 x200 x201 x202 x203 x204 x205 x206 x207 x208 x209 x210 x211 x212 x213 x214 x215 x216 x217 x218 x219 x220 x221 x222 x223 x224 x225 x226 x227 x228 x229 x230 x231 x232 x233 x234 x235 x236 x237 x238 x239 x240 x241 x242 x243 x244 x245 x246 x247 x248 x249 x250 x251 x252 x253 x254 x255 x256 x257 x258 x259 x260 x261 x262 x263 x264 x265 x266 x267 x268 x269 x270 x271 x272 x273 x274 x275 x276 x277 x278 x279 x280 x281 x282 x283 x284 x285 x286 x287 x288 x289 x290 x291 x292 x293 x294 x295 x296 x297 x298 x299 x300 x301 x302 x303 x304 x305 x306 x307 x308 x309 x310 x311 x312 x313 x314 x315 x316 x317 x318 x319 x320 x321 x322 x323 x324 x325 x326 x327 x328 x329 x330 x331 x332 x333 x334 x335 x336 x337 x338 x339 x340 x341 x342 x343 x344 x345 x346 x347 x348 x349 x350 x351 x352 x353 x354 x355 x356 x357 x358 x359 x360 x361 x362 x363 x364 x365 x366 x367 x368 x369 x370 x371 x372 x373 x374 x375 x376 x377 x378 x379 x380 x381 x382 x383 x384 x385 x386 x387 x388 x389 x390 x391 x392 x393 x394 x395 x396 x397 x398 x399 x400 x401 x402 x403 x404 x405 x406 x407 x408 x409 x410 x411 x412 x413 x414 x415 x416 x417 x418 x419 x420 x421 x422 x423 x424 x425 x426 x427 x428 x429 x430 x431 x432 x433 x434 x435 x436 x437 x438 x439 x440 x441 x442 x443 x444 x445 x446 x447 x448 x449 x450 x451 x452 x453 x454 x455 x456 x457 x458 x459 x460 x461 x462 x463 x464 x465 x466 x467 x468 x469 x470 x471 x472 x473 x474 x475 x476 x477 x478 x479 x480 x481 x482 x483 x484 x485 x486 x487 x488 x489 x490 x491 x492 x493 x494 x495 x496 x497 x498 x499 x500
