maximize
OBJ: + 1 x1 + 1 x2 + 1 x3 + 1 x4 + 1 x5 + 1 x6 + 1 x7 + 1 x8 + 1 x9 + 1 x10 + 1 x11 + 1 x12 + 1 x13 + 1 x14 + 1 x15 + 1 x16 + 1 x17 + 1 x18 + 1 x19 + 1 x20 + 1 x21 + 1 x22 + 1 x23 + 1 x24 + 1 x25 + 1 x26 + 1 x27 + 1 x28 + 1 x29 + 1 x30 + 1 x31 + 1 x32 + 1 x33 + 1 x34 + 1 x35 + 1 x36 + 1 x37 + 1 x38 + 1 x39 + 1 x40 + 1 x41 + 1 x42 + 1 x43 + 1 x44 + 1 x45 + 1 x46 + 1 x47 + 1 x48 + 1 x49 + 1 x50 + 1 x51 + 1 x52 + 1 x53 + 1 x54 + 1 x55 + 1 x56 + 1 x57 + 1 x58 + 1 x59 + 1 x60 + 1 x61 + 1 x62 + 1 x63 + 1 x64 + 1 x65 + 1 x66 + 1 x67 + 1 x68 + 1 x69 + 1 x70 + 1 x71 + 1 x72 + 1 x73 + 1 x74 + 1 x75 + 1 x76 + 1 x77 + 1 x78 + 1 x79 + 1 x80 + 1 x81 + 1 x82 + 1 x83 + 1 x84 + 1 x85 + 1 x86 + 1 x87 + 1 x88 + 1 x89 + 1 x90 + 1 x91 + 1 x92 + 1 x93 + 1 x94 + 1 x95 + 1 x96 + 1 x97 + 1 x98 + 1 x99 + 1 x100 + 1 x101 + 1 x102 + 1 x103 + 1 x104 + 1 x105 + 1 x106 + 1 x107 + 1 x108 + 1 x109 + 1 x110 + 1 x111 + 1 x112 + 1 x113 + 1 x114 + 1 x115 + 1 x116 + 1 x117 + 1 x118 + 1 x119 + 1 x120 + 1 x121 + 1 x122 + 1 x123 + 1 x124 + 1 x125 + 1 x126 + 1 x127 + 1 x128 + 1 x129 + 1 x130 + 1 x131 + 1 x132 + 1 x133 + 1 x134 + 1 x135 + 1 x136 + 1 x137 + 1 x138 + 1 x139 + 1 x140 + 1 x141 + 1 x142 + 1 x143 + 1 x144 + 1 x145 + 1 x146 + 1 x147 + 1 x148 + 1 x149 + 1 x150 + 1 x151 + 1 x152 + 1 x153 + 1 x154 + 1 x155 + 1 x156 + 1 x157 + 1 x158 + 1 x159 + 1 x160 + 1 x161 + 1 x162 + 1 x163 + 1 x164 + 1 x165 + 1 x166 + 1 x167 + 1 x168 + 1 x169 + 1 x170 + 1 x171 + 1 x172 + 1 x173 + 1 x174 + 1 x175 + 1 x176 + 1 x177 + 1 x178 + 1 x179 + 1 x180 + 1 x181 + 1 x182 + 1 x183 + 1 x184 + 1 x185 + 1 x186 + 1 x187 + 1 x188 + 1 x189 + 1 x190 + 1 x191 + 1 x192 + 1 x193 + 1 x194 + 1 x195 + 1 x196 + 1 x197 + 1 x198 + 1 x199 + 1 x200 + 1 x201 + 1 x202 + 1 x203 + 1 x204 + 1 x205 + 1 x206 + 1 x207 + 1 x208 + 1 x209 + 1 x210 + 1 x211 + 1 x212 + 1 x213 + 1 x214 + 1 x215 + 1 x216 + 1 x217 + 1 x218 + 1 x219 + 1 x220 + 1 x221 + 1 x222 + 1 x223 + 1 x224 + 1 x225 + 1 x226 + 1 x227 + 1 x228 + 1 x229 + 1 x230 + 1 x231 + 1 x232 + 1 x233 + 1 x234 + 1 x235 + 1 x236 + 1 x237 + 1 x238 + 1 x239 + 1 x240 + 1 x241 + 1 x242 + 1 x243 + 1 x244 + 1 x245 + 1 x246 + 1 x247 + 1 x248 + 1 x249 + 1 x250 + 1 x251 + 1 x252 + 1 x253 + 1 x254 + 1 x255 + 1 x256 + 1 x257 + 1 x258 + 1 x259 + 1 x260 + 1 x261 + 1 x262 + 1 x263 + 1 x264 + 1 x265 + 1 x266 + 1 x267 + 1 x268 + 1 x269 + 1 x270 + 1 x271 + 1 x272 + 1 x273 + 1 x274 + 1 x275 + 1 x276 + 1 x277 + 1 x278 + 1 x279 + 1 x280 + 1 x281 + 1 x282 + 1 x283 + 1 x284 + 1 x285 + 1 x286 + 1 x287 + 1 x288 + 1 x289 + 1 x290 + 1 x291 + 1 x292 + 1 x293 + 1 x294 + 1 x295 + 1 x296 + 1 x297 + 1 x298 + 1 x299 + 1 x300 + 1 x301 + 1 x302 + 1 x303 + 1 x304 + 1 x305 + 1 x306 + 1 x307 + 1 x308 + 1 x309 + 1 x310 + 1 x311 + 1 x312 + 1 x313 + 1 x314 + 1 x315 + 1 x316 + 1 x317 + 1 x318 + 1 x319 + 1 x320 + 1 x321 + 1 x322 + 1 x323 + 1 x324 + 1 x325 + 1 x326 + 1 x327 + 1 x328 + 1 x329 + 1 x330 + 1 x331 + 1 x332 + 1 x333 + 1 x334 + 1 x335 + 1 x336 + 1 x337 + 1 x338 + 1 x339 + 1 x340 + 1 x341 + 1 x342 + 1 x343 + 1 x344 + 1 x345 + 1 x346 + 1 x347 + 1 x348 + 1 x349 + 1 x350 + 1 x351 + 1 x352 + 1 x353 + 1 x354 + 1 x355 + 1 x356 + 1 x357 + 1 x358 + 1 x359 + 1 x360 + 1 x361 + 1 x362 + 1 x363 + 1 x364 + 1 x365 + 1 x366 + 1 x367 + 1 x368 + 1 x369 + 1 x370 + 1 x371 + 1 x372 + 1 x373 + 1 x374 + 1 x375 + 1 x376 + 1 x377 + 1 x378 + 1 x379 + 1 x380 + 1 x381 + 1 x382 + 1 x383 + 1 x384 + 1 x385 + 1 x386 + 1 x387 + 1 x388 + 1 x389 + 1 x390 + 1 x391 + 1 x392 + 1 x393 + 1 x394 + 1 x395 + 1 x396 + 1 x397 + 1 x398 + 1 x399 + 1 x400 + 1 x401 + 1 x402 + 1 x403 + 1 x404 + 1 x405 + 1 x406 + 1 x407 + 1 x408 + 1 x409 + 1 x410 + 1 x411 + 1 x412 + 1 x413 + 1 x414 + 1 x415 + 1 x416 + 1 x417 + 1 x418 + 1 x419 + 1 x420 + 1 x421 + 1 x422 + 1 x423 + 1 x424 + 1 x425 + 1 x426 + 1 x427 + 1 x428 + 1 x429 + 1 x430 + 1 x431 + 1 x432 + 1 x433 + 1 x434 + 1 x435 + 1 x436 + 1 x437 + 1 x438 + 1 x439 + 1 x440 + 1 x441 + 1 x442 + 1 x443 + 1 x444 + 1 x445 + 1 x446 + 1 x447 + 1 x448 + 1 x449 + 1 x450 + 1 x451 + 1 x452 + 1 x453 + 1 x454 + 1 x455 + 1 x456 + 1 x457 + 1 x458 + 1 x459 + 1 x460 + 1 x461 + 1 x462 + 1 x463 + 1 x464 + 1 x465 + 1 x466 + 1 x467 + 1 x468 + 1 x469 + 1 x470 + 1 x471 + 1 x472 + 1 x473 + 1 x474 + 1 x475 + 1 x476 + 1 x477 + 1 x478 + 1 x479 + 1 x480 + 1 x481 + 1 x482 + 1 x483 + 1 x484 + 1 x485 + 1 x486 + 1 x487 + 1 x488 + 1 x489 + 1 x490 + 1 x491 + 1 x492 + 1 x493 + 1 x494 + 1 x495 + 1 x496 + 1 x497 + 1 x498 + 1 x499 + 1 x500

subject to
C1: + x51 + x97 <= 1
C2: + x70 + x261 <= 1
C3: + x31 + x397 <= 1
C4: + x5 + x37 <= 1
C5: + x87 + x91 <= 1
C6: + x227 + x290 <= 1
C7: + x24 + x27 <= 1
C8: + x74 + x83 <= 1
C9: + x55 + x93 <= 1
C10: + x10 + x275 <= 1
C11: + x3 + x79 <= 1
C12: + x49 + x377 <= 1
C13: + x11 + x159 <= 1
C14: + x5 + x422 <= 1
C15: + x16 + x31 <= 1
C16: + x138 + x439 <= 1
C17: + x133 + x219 <= 1
C18: + x5 + x347 <= 1
C19: + x7 + x99 <= 1
C20: + x173 + x306 <= 1
C21: + x55 + x105 <= 1
C22: + x194 + x264 <= 1
C23: + x104 + x204 <= 1
C24: + x51 + x393 <= 1
C25: + x15 + x163 <= 1
C26: + x5 + x256 <= 1
C27: + x6 + x323 <= 1
C28: + x63 + x270 <= 1
C29: + x55 + x383 <= 1
C30: + x116 + x381 <= 1
C31: + x15 + x433 <= 1
C32: + x10 + x304 <= 1
C33: + x330 + x419 <= 1
C34: + x50 + x140 <= 1
C35: + x33 + x78 <= 1
C36: + x48 + x342 <= 1
C37: + x364 + x414 <= 1
C38: + x119 + x436 <= 1
C39: + x29 + x277 <= 1
C40: + x9 + x39 <= 1
C41: + x100 + x104 <= 1
C42: + x247 + x459 <= 1
C43: + x103 + x336 <= 1
C44: + x30 + x38 <= 1
C45: + x7 + x42 <= 1
C46: + x28 + x354 <= 1
C47: + x247 + x280 <= 1
C48: + x115 + x400 <= 1
C49: + x6 + x205 <= 1
C50: + x27 + x68 <= 1
C51: + x145 + x350 <= 1
C52: + x76 + x94 <= 1
C53: + x213 + x446 <= 1
C54: + x227 + x269 <= 1
C55: + x7 + x441 <= 1
C56: + x94 + x463 <= 1
C57: + x230 + x375 <= 1
C58: + x131 + x166 <= 1
C59: + x112 + x463 <= 1
C60: + x184 + x487 <= 1
C61: + x216 + x296 <= 1
C62: + x7 + x102 <= 1
C63: + x44 + x70 <= 1
C64: + x136 + x423 <= 1
C65: + x232 + x424 <= 1
C66: + x205 + x244 <= 1
C67: + x31 + x350 <= 1
C68: + x17 + x98 <= 1
C69: + x36 + x224 <= 1
C70: + x253 + x470 <= 1
C71: + x156 + x274 <= 1
C72: + x20 + x484 <= 1
C73: + x195 + x314 <= 1
C74: + x18 + x273 <= 1
C75: + x209 + x335 <= 1
C76: + x20 + x319 <= 1
C77: + x8 + x16 <= 1
C78: + x165 + x372 <= 1
C79: + x86 + x407 <= 1
C80: + x42 + x137 <= 1
C81: + x45 + x295 <= 1
C82: + x101 + x476 <= 1
C83: + x20 + x432 <= 1
C84: + x6 + x54 <= 1
C85: + x80 + x83 <= 1
C86: + x9 + x189 <= 1
C87: + x8 + x157 <= 1
C88: + x36 + x62 <= 1
C89: + x19 + x32 <= 1
C90: + x237 + x286 <= 1
C91: + x20 + x106 <= 1
C92: + x3 + x391 <= 1
C93: + x59 + x149 <= 1
C94: + x78 + x89 <= 1
C95: + x5 + x329 <= 1
C96: + x177 + x395 <= 1
C97: + x46 + x48 <= 1
C98: + x55 + x123 <= 1
C99: + x118 + x357 <= 1
C100: + x36 + x106 <= 1
C101: + x51 + x288 <= 1
C102: + x42 + x198 <= 1
C103: + x33 + x255 <= 1
C104: + x136 + x195 <= 1
C105: + x247 + x342 <= 1
C106: + x3 + x8 <= 1
C107: + x34 + x68 <= 1
C108: + x89 + x361 <= 1
C109: + x126 + x499 <= 1
C110: + x6 + x11 <= 1
C111: + x27 + x469 <= 1
C112: + x57 + x338 <= 1
C113: + x5 + x18 <= 1
C114: + x17 + x291 <= 1
C115: + x7 + x383 <= 1
C116: + x18 + x256 <= 1
C117: + x201 + x298 <= 1
C118: + x186 + x220 <= 1
C119: + x56 + x174 <= 1
C120: + x3 + x92 <= 1
C121: + x311 + x363 <= 1
C122: + x27 + x86 <= 1
C123: + x299 + x390 <= 1
C124: + x102 + x203 <= 1
C125: + x1 + x110 <= 1
C126: + x49 + x184 <= 1
C127: + x51 + x209 <= 1
C128: + x6 + x80 <= 1
C129: + x46 + x500 <= 1
C130: + x3 + x112 <= 1
C131: + x20 + x385 <= 1
C132: + x22 + x109 <= 1
C133: + x23 + x107 <= 1
C134: + x181 + x367 <= 1
C135: + x1 + x29 <= 1
C136: + x182 + x212 <= 1
C137: + x50 + x393 <= 1
C138: + x13 + x21 <= 1
C139: + x69 + x74 <= 1
C140: + x124 + x309 <= 1
C141: + x24 + x107 <= 1
C142: + x33 + x321 <= 1
C143: + x75 + x401 <= 1
C144: + x14 + x401 <= 1
C145: + x7 + x132 <= 1
C146: + x155 + x198 <= 1
C147: + x121 + x409 <= 1
C148: + x148 + x205 <= 1
C149: + x12 + x284 <= 1
C150: + x5 + x25 <= 1
C151: + x10 + x212 <= 1
C152: + x137 + x401 <= 1
C153: + x201 + x337 <= 1
C154: + x111 + x312 <= 1
C155: + x13 + x73 <= 1
C156: + x181 + x240 <= 1
C157: + x63 + x208 <= 1
C158: + x97 + x367 <= 1
C159: + x9 + x171 <= 1
C160: + x7 + x257 <= 1
C161: + x202 + x312 <= 1
C162: + x3 + x248 <= 1
C163: + x114 + x150 <= 1
C164: + x59 + x393 <= 1
C165: + x371 + x423 <= 1
C166: + x107 + x348 <= 1
C167: + x36 + x135 <= 1
C168: + x1 + x101 <= 1
C169: + x7 + x430 <= 1
C170: + x20 + x120 <= 1
C171: + x8 + x50 <= 1
C172: + x51 + x204 <= 1
C173: + x209 + x264 <= 1
C174: + x7 + x79 <= 1
C175: + x15 + x30 <= 1
C176: + x3 + x103 <= 1
C177: + x14 + x57 <= 1
C178: + x34 + x493 <= 1
C179: + x61 + x364 <= 1
C180: + x25 + x392 <= 1
C181: + x27 + x97 <= 1
C182: + x246 + x413 <= 1
C183: + x21 + x223 <= 1
C184: + x14 + x156 <= 1
C185: + x170 + x267 <= 1
C186: + x142 + x370 <= 1
C187: + x8 + x486 <= 1
C188: + x399 + x443 <= 1
C189: + x248 + x304 <= 1
C190: + x47 + x374 <= 1
C191: + x267 + x379 <= 1
C192: + x75 + x138 <= 1
C193: + x22 + x58 <= 1
C194: + x5 + x8 <= 1
C195: + x61 + x448 <= 1
C196: + x33 + x439 <= 1
C197: + x27 + x53 <= 1
C198: + x21 + x35 <= 1
C199: + x40 + x199 <= 1
C200: + x251 + x471 <= 1
C201: + x43 + x244 <= 1
C202: + x44 + x132 <= 1
C203: + x199 + x342 <= 1
C204: + x74 + x120 <= 1
C205: + x147 + x360 <= 1
C206: + x7 + x22 <= 1
C207: + x7 + x183 <= 1
C208: + x9 + x285 <= 1
C209: + x173 + x203 <= 1
C210: + x427 + x443 <= 1
C211: + x97 + x195 <= 1
C212: + x133 + x460 <= 1
C213: + x74 + x449 <= 1
C214: + x131 + x349 <= 1
C215: + x59 + x162 <= 1
C216: + x298 + x310 <= 1
C217: + x7 + x66 <= 1
C218: + x62 + x181 <= 1
C219: + x3 + x98 <= 1
C220: + x123 + x451 <= 1
C221: + x108 + x155 <= 1
C222: + x36 + x458 <= 1
C223: + x6 + x213 <= 1
C224: + x74 + x338 <= 1
C225: + x9 + x158 <= 1
C226: + x112 + x165 <= 1
C227: + x51 + x265 <= 1
C228: + x89 + x108 <= 1
C229: + x150 + x456 <= 1
C230: + x201 + x208 <= 1
C231: + x255 + x462 <= 1
C232: + x230 + x351 <= 1
C233: + x323 + x327 <= 1
C234: + x14 + x387 <= 1
C235: + x31 + x475 <= 1
C236: + x55 + x461 <= 1
C237: + x58 + x89 <= 1
C238: + x3 + x182 <= 1
C239: + x28 + x168 <= 1
C240: + x4 + x20 <= 1
C241: + x79 + x356 <= 1
C242: + x2 + x460 <= 1
C243: + x3 + x37 <= 1
C244: + x221 + x295 <= 1
C245: + x69 + x294 <= 1
C246: + x111 + x270 <= 1
C247: + x2 + x357 <= 1
C248: + x3 + x363 <= 1
C249: + x157 + x297 <= 1
C250: + x140 + x417 <= 1
C251: + x133 + x173 <= 1
C252: + x414 + x440 <= 1
C253: + x137 + x168 <= 1
C254: + x110 + x265 <= 1
C255: + x46 + x479 <= 1
C256: + x55 + x71 <= 1
C257: + x1 + x288 <= 1
C258: + x3 + x121 <= 1
C259: + x278 + x307 <= 1
C260: + x16 + x242 <= 1
C261: + x1 + x226 <= 1
C262: + x273 + x434 <= 1
C263: + x56 + x95 <= 1
C264: + x136 + x388 <= 1
C265: + x29 + x224 <= 1
C266: + x14 + x345 <= 1
C267: + x26 + x32 <= 1
C268: + x119 + x333 <= 1
C269: + x12 + x29 <= 1
C270: + x39 + x289 <= 1
C271: + x413 + x452 <= 1
C272: + x14 + x444 <= 1
C273: + x6 + x111 <= 1
C274: + x2 + x7 <= 1
C275: + x3 + x141 <= 1
C276: + x39 + x398 <= 1
C277: + x146 + x431 <= 1
C278: + x49 + x104 <= 1
C279: + x43 + x230 <= 1
C280: + x81 + x305 <= 1
C281: + x66 + x141 <= 1
C282: + x94 + x127 <= 1
C283: + x19 + x434 <= 1
C284: + x57 + x442 <= 1
C285: + x184 + x207 <= 1
C286: + x31 + x43 <= 1
C287: + x14 + x211 <= 1
C288: + x90 + x162 <= 1
C289: + x15 + x225 <= 1
C290: + x60 + x274 <= 1
C291: + x5 + x58 <= 1
C292: + x165 + x323 <= 1
C293: + x79 + x406 <= 1
C294: + x131 + x303 <= 1
C295: + x64 + x68 <= 1
C296: + x133 + x172 <= 1
C297: + x6 + x420 <= 1
C298: + x138 + x289 <= 1
C299: + x93 + x133 <= 1
C300: + x251 + x258 <= 1
C301: + x5 + x201 <= 1
C302: + x168 + x226 <= 1
C303: + x44 + x457 <= 1
C304: + x220 + x493 <= 1
C305: + x42 + x344 <= 1
C306: + x142 + x413 <= 1
C307: + x16 + x30 <= 1
C308: + x11 + x373 <= 1
C309: + x59 + x136 <= 1
C310: + x21 + x390 <= 1
C311: + x107 + x414 <= 1
C312: + x17 + x473 <= 1
C313: + x150 + x301 <= 1
C314: + x7 + x112 <= 1
C315: + x101 + x287 <= 1
C316: + x292 + x358 <= 1
C317: + x9 + x454 <= 1
C318: + x11 + x99 <= 1
C319: + x295 + x330 <= 1
C320: + x5 + x253 <= 1
C321: + x206 + x472 <= 1
C322: + x14 + x24 <= 1
C323: + x1 + x53 <= 1
C324: + x9 + x85 <= 1
C325: + x6 + x9 + x10 + x19 <= 1
C326: + x3 + x462 <= 1
C327: + x5 + x132 <= 1
C328: + x16 + x325 <= 1
C329: + x11 + x87 <= 1
C330: + x37 + x405 <= 1
C331: + x33 + x408 <= 1
C332: + x5 + x33 <= 1
C333: + x2 + x375 <= 1
C334: + x3 + x381 <= 1
C335: + x258 + x344 <= 1
C336: + x31 + x260 <= 1
C337: + x5 + x275 <= 1
C338: + x129 + x264 <= 1
C339: + x51 + x81 <= 1
C340: + x165 + x217 <= 1
C341: + x2 + x232 <= 1
C342: + x30 + x218 <= 1
C343: + x142 + x249 <= 1
C344: + x134 + x172 <= 1
C345: + x136 + x188 <= 1
C346: + x55 + x466 <= 1
C347: + x59 + x100 <= 1
C348: + x77 + x186 <= 1
C349: + x14 + x17 <= 1
C350: + x35 + x120 <= 1
C351: + x18 + x214 <= 1
C352: + x1 + x12 <= 1
C353: + x20 + x205 <= 1
C354: + x31 + x134 <= 1
C355: + x4 + x7 <= 1
C356: + x40 + x235 <= 1
C357: + x9 + x92 <= 1
C358: + x2 + x479 <= 1
C359: + x34 + x438 <= 1
C360: + x7 + x147 <= 1
C361: + x43 + x302 <= 1
C362: + x15 + x243 <= 1
C363: + x37 + x241 <= 1
C364: + x196 + x330 <= 1
C365: + x61 + x162 <= 1
C366: + x7 + x46 <= 1
C367: + x82 + x109 <= 1
C368: + x9 + x392 <= 1
C369: + x15 + x158 <= 1
C370: + x36 + x486 <= 1
C371: + x262 + x388 <= 1
C372: + x27 + x403 <= 1
C373: + x202 + x257 <= 1
C374: + x177 + x230 <= 1
C375: + x225 + x443 <= 1
C376: + x43 + x338 <= 1
C377: + x13 + x47 <= 1
C378: + x34 + x365 <= 1
C379: + x9 + x23 <= 1
C380: + x155 + x478 <= 1
C381: + x36 + x152 <= 1
C382: + x3 + x5 + x7 + x237 <= 1
C383: + x123 + x157 <= 1
C384: + x247 + x296 <= 1
C385: + x7 + x336 <= 1
C386: + x285 + x422 <= 1
C387: + x132 + x400 <= 1
C388: + x51 + x174 <= 1
C389: + x1 + x432 <= 1
C390: + x97 + x281 <= 1
C391: + x106 + x292 <= 1
C392: + x6 + x14 <= 1
C393: + x1 + x333 <= 1
C394: + x1 + x178 <= 1
C395: + x55 + x485 <= 1
C396: + x85 + x200 <= 1
C397: + x97 + x230 <= 1
C398: + x5 + x23 <= 1
C399: + x100 + x145 <= 1
C400: + x85 + x293 <= 1
C401: + x9 + x399 <= 1
C402: + x167 + x263 <= 1
C403: + x35 + x265 <= 1
C404: + x73 + x172 <= 1
C405: + x18 + x140 <= 1
C406: + x17 + x447 <= 1
C407: + x202 + x266 <= 1
C408: + x3 + x226 <= 1
C409: + x281 + x465 <= 1
C410: + x353 + x359 <= 1
C411: + x281 + x366 <= 1
C412: + x1 + x107 <= 1
C413: + x46 + x137 <= 1
C414: + x13 + x472 <= 1
C415: + x133 + x181 <= 1
C416: + x406 + x499 <= 1
C417: + x173 + x292 <= 1
C418: + x66 + x256 <= 1
C419: + x247 + x319 <= 1
C420: + x85 + x251 <= 1
C421: + x40 + x54 <= 1
C422: + x23 + x88 <= 1
C423: + x87 + x152 <= 1
C424: + x16 + x291 <= 1
C425: + x118 + x220 <= 1
C426: + x84 + x104 <= 1
C427: + x51 + x165 <= 1
C428: + x25 + x144 <= 1
C429: + x29 + x450 <= 1
C430: + x411 + x460 <= 1
C431: + x14 + x404 <= 1
C432: + x45 + x395 <= 1
C433: + x46 + x427 <= 1
C434: + x375 + x481 <= 1
C435: + x5 + x30 <= 1
C436: + x82 + x308 <= 1
C437: + x157 + x268 <= 1
C438: + x51 + x336 <= 1
C439: + x397 + x493 <= 1
C440: + x54 + x190 <= 1
C441: + x46 + x113 <= 1
C442: + x392 + x442 <= 1
C443: + x239 + x252 <= 1
C444: + x32 + x46 <= 1
C445: + x254 + x313 <= 1
C446: + x164 + x254 <= 1
C447: + x173 + x209 <= 1
C448: + x125 + x314 <= 1
C449: + x387 + x389 <= 1
C450: + x99 + x338 <= 1
C451: + x80 + x306 <= 1
C452: + x36 + x134 <= 1
C453: + x156 + x472 <= 1
C454: + x199 + x239 <= 1
C455: + x2 + x278 <= 1
C456: + x395 + x453 <= 1
C457: + x45 + x64 <= 1
C458: + x27 + x102 <= 1
C459: + x57 + x75 <= 1
C460: + x331 + x448 <= 1
C461: + x6 + x128 <= 1
C462: + x7 + x136 <= 1
C463: + x9 + x302 <= 1
C464: + x13 + x232 <= 1
C465: + x14 + x240 <= 1
C466: + x169 + x204 <= 1
C467: + x170 + x196 <= 1
C468: + x45 + x116 <= 1
C469: + x121 + x250 <= 1
C470: + x115 + x135 <= 1
C471: + x23 + x329 <= 1
C472: + x7 + x23 <= 1
C473: + x318 + x431 <= 1
C474: + x367 + x440 <= 1
C475: + x13 + x375 <= 1
C476: + x9 + x175 <= 1
C477: + x1 + x220 <= 1
C478: + x10 + x33 <= 1
C479: + x157 + x178 <= 1
C480: + x40 + x91 <= 1
C481: + x89 + x93 <= 1
C482: + x45 + x168 <= 1
C483: + x96 + x380 <= 1
C484: + x388 + x435 <= 1
C485: + x125 + x424 <= 1
C486: + x6 + x216 <= 1
C487: + x211 + x331 <= 1
C488: + x20 + x233 <= 1
C489: + x105 + x175 <= 1
C490: + x41 + x111 <= 1
C491: + x4 + x99 <= 1
C492: + x70 + x75 <= 1
C493: + x150 + x443 <= 1
C494: + x5 + x458 <= 1
C495: + x37 + x134 <= 1
C496: + x87 + x273 <= 1
C497: + x6 + x121 <= 1
C498: + x53 + x300 <= 1
C499: + x410 + x475 <= 1
C500: + x36 + x342 <= 1
C501: + x180 + x495 <= 1
C502: + x55 + x458 <= 1
C503: + x13 + x159 <= 1
C504: + x217 + x408 <= 1
C505: + x307 + x448 <= 1
C506: + x109 + x171 <= 1
C507: + x7 + x365 <= 1
C508: + x154 + x374 <= 1
C509: + x227 + x473 <= 1
C510: + x49 + x110 <= 1
C511: + x40 + x195 <= 1
C512: + x48 + x176 <= 1
C513: + x106 + x109 <= 1
C514: + x51 + x322 <= 1
C515: + x62 + x253 <= 1
C516: + x305 + x435 <= 1
C517: + x194 + x429 <= 1
C518: + x3 + x42 <= 1
C519: + x36 + x386 <= 1
C520: + x173 + x378 <= 1
C521: + x45 + x159 <= 1
C522: + x11 + x283 <= 1
C523: + x183 + x295 <= 1
C524: + x83 + x139 <= 1
C525: + x156 + x184 <= 1
C526: + x20 + x403 <= 1
C527: + x11 + x238 <= 1
C528: + x3 + x287 <= 1
C529: + x277 + x287 <= 1
C530: + x14 + x145 <= 1
C531: + x34 + x144 <= 1
C532: + x26 + x27 <= 1
C533: + x391 + x483 <= 1
C534: + x148 + x461 <= 1
C535: + x184 + x411 <= 1
C536: + x331 + x418 <= 1
C537: + x189 + x411 <= 1
C538: + x36 + x347 <= 1
C539: + x54 + x104 <= 1
C540: + x255 + x339 <= 1
C541: + x59 + x83 <= 1
C542: + x119 + x249 <= 1
C543: + x55 + x366 <= 1
C544: + x49 + x101 <= 1
C545: + x459 + x488 <= 1
C546: + x199 + x321 <= 1
C547: + x28 + x327 <= 1
C548: + x15 + x65 <= 1
C549: + x6 + x22 <= 1
C550: + x190 + x473 <= 1
C551: + x233 + x337 <= 1
C552: + x31 + x40 <= 1
C553: + x14 + x214 <= 1
C554: + x107 + x330 <= 1
C555: + x35 + x59 <= 1
C556: + x53 + x81 <= 1
C557: + x8 + x36 <= 1
C558: + x7 + x61 <= 1
C559: + x27 + x353 <= 1
C560: + x11 + x487 <= 1
C561: + x5 + x206 <= 1
C562: + x100 + x307 <= 1
C563: + x27 + x127 <= 1
C564: + x10 + x31 <= 1
C565: + x18 + x164 <= 1
C566: + x39 + x55 <= 1
C567: + x278 + x402 <= 1
C568: + x267 + x361 <= 1
C569: + x10 + x112 <= 1
C570: + x64 + x293 <= 1
C571: + x280 + x498 <= 1
C572: + x175 + x282 <= 1
C573: + x148 + x232 <= 1
C574: + x14 + x27 <= 1
C575: + x6 + x142 <= 1
C576: + x1 + x50 <= 1
C577: + x11 + x217 <= 1
C578: + x21 + x61 <= 1
C579: + x123 + x255 <= 1
C580: + x31 + x160 <= 1
C581: + x26 + x48 <= 1
C582: + x18 + x123 <= 1
C583: + x66 + x129 <= 1
C584: + x393 + x444 <= 1
C585: + x25 + x75 + x174 <= 1
C586: + x91 + x185 <= 1
C587: + x7 + x165 <= 1
C588: + x263 + x490 <= 1
C589: + x55 + x280 <= 1
C590: + x202 + x303 <= 1
C591: + x284 + x476 <= 1
C592: + x8 + x25 <= 1
C593: + x291 + x428 <= 1
C594: + x85 + x268 <= 1
C595: + x20 + x143 <= 1
C596: + x61 + x176 <= 1
C597: + x23 + x426 <= 1
C598: + x69 + x192 <= 1
C599: + x9 + x144 <= 1
C600: + x158 + x349 <= 1
C601: + x222 + x413 <= 1
C602: + x4 + x90 <= 1
C603: + x14 + x334 <= 1
C604: + x202 + x246 <= 1
C605: + x121 + x167 <= 1
C606: + x5 + x348 <= 1
C607: + x159 + x286 <= 1
C608: + x7 + x100 <= 1
C609: + x80 + x253 <= 1
C610: + x179 + x498 <= 1
C611: + x6 + x322 <= 1
C612: + x1 + x9 <= 1
C613: + x4 + x6 <= 1
C614: + x24 + x95 <= 1
C615: + x27 + x175 <= 1
C616: + x46 + x78 <= 1
C617: + x156 + x284 <= 1
C618: + x6 + x8 <= 1
C619: + x7 + x160 <= 1
C620: + x54 + x62 <= 1
C621: + x54 + x489 <= 1
C622: + x10 + x93 <= 1
C623: + x46 + x444 <= 1
C624: + x303 + x365 <= 1
C625: + x225 + x364 <= 1
C626: + x44 + x124 <= 1
C627: + x256 + x437 <= 1
C628: + x56 + x60 <= 1
C629: + x31 + x179 <= 1
C630: + x172 + x265 <= 1
C631: + x18 + x331 <= 1
C632: + x55 + x315 <= 1
C633: + x57 + x401 <= 1
C634: + x5 + x81 <= 1
C635: + x253 + x259 <= 1
C636: + x134 + x373 <= 1
C637: + x140 + x399 <= 1
C638: + x40 + x349 <= 1
C639: + x14 + x426 <= 1
C640: + x7 + x91 <= 1
C641: + x74 + x135 <= 1
C642: + x2 + x21 <= 1
C643: + x15 + x171 <= 1
C644: + x35 + x116 <= 1
C645: + x17 + x198 <= 1
C646: + x100 + x164 <= 1
C647: + x378 + x454 <= 1
C648: + x60 + x122 <= 1
C649: + x26 + x58 <= 1
C650: + x53 + x191 <= 1
C651: + x12 + x386 <= 1
C652: + x59 + x223 <= 1
C653: + x70 + x246 <= 1
C654: + x14 + x414 <= 1
C655: + x18 + x280 <= 1
C656: + x74 + x243 <= 1
C657: + x36 + x446 <= 1
C658: + x190 + x484 <= 1
C659: + x119 + x154 <= 1
C660: + x246 + x469 <= 1
C661: + x186 + x210 <= 1
C662: + x225 + x464 <= 1
C663: + x187 + x379 <= 1
C664: + x46 + x454 <= 1
C665: + x413 + x438 <= 1
C666: + x217 + x303 <= 1
C667: + x34 + x390 <= 1
C668: + x344 + x374 <= 1
C669: + x66 + x445 <= 1
C670: + x68 + x433 <= 1
C671: + x53 + x114 <= 1
C672: + x253 + x282 <= 1
C673: + x7 + x433 <= 1
C674: + x10 + x365 <= 1
C675: + x21 + x91 <= 1
C676: + x30 + x445 <= 1
C677: + x11 + x456 <= 1
C678: + x156 + x176 <= 1
C679: + x112 + x310 <= 1
C680: + x27 + x32 <= 1
C681: + x40 + x299 <= 1
C682: + x7 + x493 <= 1
C683: + x16 + x52 <= 1
C684: + x49 + x238 <= 1
C685: + x67 + x197 <= 1
C686: + x211 + x255 <= 1
C687: + x41 + x368 <= 1
C688: + x229 + x327 <= 1
C689: + x158 + x276 <= 1
C690: + x225 + x378 <= 1
C691: + x30 + x55 <= 1
C692: + x26 + x79 <= 1
C693: + x7 + x25 <= 1
C694: + x57 + x141 <= 1
C695: + x186 + x489 <= 1
C696: + x9 + x368 <= 1
C697: + x85 + x152 <= 1
C698: + x41 + x57 <= 1
C699: + x228 + x408 <= 1
C700: + x168 + x282 <= 1
C701: + x2 + x103 <= 1
C702: + x51 + x435 <= 1
C703: + x99 + x153 <= 1
C704: + x154 + x233 <= 1
C705: + x10 + x231 <= 1
C706: + x40 + x149 <= 1
C707: + x4 + x464 <= 1
C708: + x67 + x275 <= 1
C709: + x25 + x49 <= 1
C710: + x15 + x40 <= 1
C711: + x16 + x352 <= 1
C712: + x44 + x381 <= 1
C713: + x9 + x299 <= 1
C714: + x3 + x161 <= 1
C715: + x24 + x457 <= 1
C716: + x10 + x120 <= 1
C717: + x5 + x26 <= 1
C718: + x15 + x310 <= 1
C719: + x9 + x221 <= 1
C720: + x3 + x326 <= 1
C721: + x51 + x332 <= 1
C722: + x60 + x68 <= 1
C723: + x3 + x487 <= 1
C724: + x32 + x42 <= 1
C725: + x7 + x258 <= 1
C726: + x10 + x36 <= 1
C727: + x157 + x183 <= 1
C728: + x78 + x348 <= 1
C729: + x85 + x500 <= 1
C730: + x77 + x126 <= 1
C731: + x40 + x332 <= 1
C732: + x259 + x377 <= 1
C733: + x53 + x229 <= 1
C734: + x28 + x388 <= 1
C735: + x164 + x316 <= 1
C736: + x55 + x447 <= 1
C737: + x266 + x283 <= 1
C738: + x38 + x479 <= 1
C739: + x14 + x56 <= 1
C740: + x99 + x148 <= 1
C741: + x16 + x227 <= 1
C742: + x62 + x457 <= 1
C743: + x233 + x300 <= 1
C744: + x34 + x242 <= 1
C745: + x1 + x434 <= 1
C746: + x85 + x125 <= 1
C747: + x49 + x289 <= 1
C748: + x1 + x132 <= 1
C749: + x2 + x12 <= 1
C750: + x3 + x188 <= 1
C751: + x104 + x163 <= 1
C752: + x170 + x200 <= 1
C753: + x218 + x433 <= 1
C754: + x8 + x118 <= 1
C755: + x111 + x320 <= 1
C756: + x276 + x359 <= 1
C757: + x42 + x304 <= 1
C758: + x132 + x430 <= 1
C759: + x4 + x481 <= 1
C760: + x15 + x474 <= 1
C761: + x86 + x191 <= 1
C762: + x332 + x376 <= 1
C763: + x5 + x152 <= 1
C764: + x279 + x339 <= 1
C765: + x82 + x247 <= 1
C766: + x137 + x211 <= 1
C767: + x4 + x187 <= 1
C768: + x1 + x125 <= 1
C769: + x302 + x322 <= 1
C770: + x70 + x166 <= 1
C771: + x44 + x191 <= 1
C772: + x138 + x310 <= 1
C773: + x203 + x263 <= 1
C774: + x33 + x499 <= 1
C775: + x14 + x49 <= 1
C776: + x78 + x294 <= 1
C777: + x145 + x162 <= 1
C778: + x18 + x182 <= 1
C779: + x16 + x236 <= 1
C780: + x91 + x297 <= 1
C781: + x107 + x187 <= 1
C782: + x17 + x79 <= 1
C783: + x57 + x86 <= 1
C784: + x20 + x76 <= 1
C785: + x200 + x449 <= 1
C786: + x112 + x277 <= 1
C787: + x41 + x482 <= 1
C788: + x33 + x463 <= 1
C789: + x27 + x61 <= 1
C790: + x21 + x43 <= 1
C791: + x69 + x109 <= 1
C792: + x7 + x14 <= 1
C793: + x85 + x403 <= 1
C794: + x6 + x41 <= 1
C795: + x10 + x46 <= 1
C796: + x264 + x278 <= 1
C797: + x266 + x444 <= 1
C798: + x49 + x497 <= 1
C799: + x5 + x52 <= 1
C800: + x36 + x184 <= 1
C801: + x9 + x55 <= 1
C802: + x8 + x39 <= 1
C803: + x28 + x243 <= 1
C804: + x131 + x341 <= 1
C805: + x59 + x381 <= 1
C806: + x248 + x489 <= 1
C807: + x8 + x326 <= 1
C808: + x129 + x198 <= 1
C809: + x2 + x74 <= 1
C810: + x123 + x459 <= 1
C811: + x60 + x137 <= 1
C812: + x9 + x369 <= 1
C813: + x145 + x366 <= 1
C814: + x32 + x231 <= 1
C815: + x34 + x345 <= 1
C816: + x54 + x193 <= 1
C817: + x49 + x138 <= 1
C818: + x311 + x316 <= 1
C819: + x222 + x298 <= 1
C820: + x13 + x301 <= 1
C821: + x148 + x465 <= 1
C822: + x36 + x351 <= 1
C823: + x8 + x197 <= 1
C824: + x2 + x6 <= 1
C825: + x64 + x316 <= 1
C826: + x31 + x128 <= 1
C827: + x6 + x129 <= 1
C828: + x9 + x242 <= 1
C829: + x4 + x28 <= 1
C830: + x17 + x114 <= 1
C831: + x6 + x18 <= 1
C832: + x15 + x69 <= 1
C833: + x22 + x148 + x467 <= 1
C834: + x10 + x87 <= 1
C835: + x137 + x278 <= 1
C836: + x31 + x44 <= 1
C837: + x9 + x62 <= 1
C838: + x67 + x419 <= 1
C839: + x25 + x65 <= 1
C840: + x16 + x496 <= 1
C841: + x212 + x352 <= 1
C842: + x14 + x35 <= 1
C843: + x108 + x140 <= 1
C844: + x279 + x441 <= 1
C845: + x7 + x222 <= 1
C846: + x299 + x427 <= 1
C847: + x46 + x378 <= 1
C848: + x20 + x251 <= 1
C849: + x13 + x58 <= 1
C850: + x31 + x216 <= 1
C851: + x134 + x271 <= 1
C852: + x82 + x387 <= 1
C853: + x49 + x129 <= 1
C854: + x240 + x393 <= 1
C855: + x87 + x295 <= 1
C856: + x199 + x301 <= 1
C857: + x1 + x292 <= 1
C858: + x100 + x392 <= 1
C859: + x156 + x221 <= 1
C860: + x33 + x477 <= 1
C861: + x24 + x255 <= 1
C862: + x36 + x122 <= 1
C863: + x8 + x97 <= 1
C864: + x99 + x415 <= 1
C865: + x27 + x164 <= 1
C866: + x93 + x260 <= 1
C867: + x3 + x459 <= 1
C868: + x406 + x427 <= 1
C869: + x7 + x153 <= 1
C870: + x8 + x299 <= 1
C871: + x155 + x306 <= 1
C872: + x63 + x415 <= 1
C873: + x190 + x494 <= 1
C874: + x242 + x305 <= 1
C875: + x87 + x96 <= 1
C876: + x99 + x197 <= 1
C877: + x253 + x308 <= 1
C878: + x142 + x417 <= 1
C879: + x9 + x37 <= 1
C880: + x122 + x209 <= 1
C881: + x13 + x495 <= 1
C882: + x108 + x486 <= 1
C883: + x7 + x44 <= 1
C884: + x347 + x353 <= 1
C885: + x37 + x48 <= 1
C886: + x184 + x376 <= 1
C887: + x60 + x135 <= 1
C888: + x34 + x400 <= 1
C889: + x15 + x156 <= 1
C890: + x9 + x383 <= 1
C891: + x7 + x282 <= 1
C892: + x10 + x12 <= 1
C893: + x365 + x370 <= 1
C894: + x238 + x435 <= 1
C895: + x205 + x369 <= 1
C896: + x23 + x236 <= 1
C897: + x324 + x424 <= 1
C898: + x26 + x233 <= 1
C899: + x9 + x17 <= 1
C900: + x18 + x60 <= 1
C901: + x36 + x146 <= 1
C902: + x6 + x96 <= 1
C903: + x12 + x320 <= 1
C904: + x60 + x101 <= 1
C905: + x206 + x254 <= 1
C906: + x207 + x246 <= 1
C907: + x191 + x276 <= 1
C908: + x47 + x355 <= 1
C909: + x169 + x315 <= 1
C910: + x209 + x333 <= 1
C911: + x10 + x398 <= 1
C912: + x184 + x224 <= 1
C913: + x170 + x240 <= 1
C914: + x190 + x245 <= 1
C915: + x29 + x183 <= 1
C916: + x133 + x155 <= 1
C917: + x17 + x28 <= 1
C918: + x7 + x35 <= 1
C919: + x160 + x343 <= 1
C920: + x69 + x163 <= 1
C921: + x9 + x187 <= 1
C922: + x1 + x248 <= 1
C923: + x111 + x151 <= 1
C924: + x8 + x163 <= 1
C925: + x173 + x228 <= 1
C926: + x52 + x125 <= 1
C927: + x31 + x312 <= 1
C928: + x6 + x89 <= 1
C929: + x226 + x229 <= 1
C930: + x44 + x343 <= 1
C931: + x97 + x171 <= 1
C932: + x168 + x203 <= 1
C933: + x5 + x228 <= 1
C934: + x24 + x322 <= 1
C935: + x234 + x274 <= 1
C936: + x4 + x15 <= 1
C937: + x14 + x311 <= 1
C938: + x32 + x349 <= 1
C939: + x208 + x247 <= 1
C940: + x7 + x490 <= 1
C941: + x221 + x268 <= 1
C942: + x12 + x390 <= 1
C943: + x98 + x398 <= 1
C944: + x6 + x13 <= 1
C945: + x7 + x139 <= 1
C946: + x408 + x425 <= 1
C947: + x8 + x232 <= 1
C948: + x15 + x90 <= 1
C949: + x5 + x24 <= 1
C950: + x116 + x131 <= 1
C951: + x206 + x317 <= 1
C952: + x9 + x211 <= 1
C953: + x226 + x455 <= 1
C954: + x240 + x468 <= 1
C955: + x40 + x215 <= 1
C956: + x332 + x410 <= 1
C957: + x31 + x186 <= 1
C958: + x9 + x400 <= 1
C959: + x60 + x149 <= 1
C960: + x5 + x167 <= 1
C961: + x6 + x49 <= 1
C962: + x38 + x328 <= 1
C963: + x217 + x464 <= 1
C964: + x99 + x344 <= 1
C965: + x9 + x31 <= 1
C966: + x61 + x142 <= 1
C967: + x54 + x72 <= 1
C968: + x55 + x128 <= 1
C969: + x55 + x417 <= 1
C970: + x128 + x438 <= 1
C971: + x116 + x128 <= 1
C972: + x206 + x450 <= 1
C973: + x18 + x372 <= 1
C974: + x31 + x245 <= 1
C975: + x40 + x156 <= 1
C976: + x35 + x236 <= 1
C977: + x218 + x314 <= 1
C978: + x8 + x499 <= 1
C979: + x183 + x367 <= 1
C980: + x103 + x484 <= 1
C981: + x7 + x142 <= 1
C982: + x63 + x127 <= 1
C983: + x37 + x387 <= 1
C984: + x431 + x440 <= 1
C985: + x4 + x133 <= 1
C986: + x40 + x105 <= 1
C987: + x170 + x218 <= 1
C988: + x6 + x169 <= 1
C989: + x101 + x107 <= 1
C990: + x157 + x261 <= 1
C991: + x21 + x26 <= 1
C992: + x223 + x353 <= 1
C993: + x30 + x51 <= 1
C994: + x12 + x69 <= 1
C995: + x24 + x61 <= 1
C996: + x82 + x94 <= 1
C997: + x13 + x412 <= 1
C998: + x256 + x262 <= 1
C999: + x180 + x432 <= 1
C1000: + x92 + x133 <= 1
C1001: + x301 + x415 <= 1
C1002: + x171 + x343 <= 1
C1003: + x45 + x170 <= 1
C1004: + x10 + x154 <= 1
C1005: + x144 + x195 <= 1
C1006: + x1 + x272 <= 1
C1007: + x12 + x291 <= 1
C1008: + x61 + x362 <= 1
C1009: + x99 + x149 <= 1
C1010: + x172 + x254 <= 1
C1011: + x13 + x18 <= 1
C1012: + x32 + x248 <= 1
C1013: + x5 + x119 <= 1
C1014: + x5 + x452 <= 1
C1015: + x27 + x136 <= 1
C1016: + x191 + x261 <= 1
C1017: + x8 + x492 <= 1
C1018: + x3 + x28 <= 1
C1019: + x67 + x220 <= 1
C1020: + x6 + x127 <= 1
C1021: + x138 + x143 <= 1
C1022: + x433 + x485 <= 1
C1023: + x5 + x6 <= 1
C1024: + x326 + x360 <= 1
C1025: + x276 + x358 <= 1
C1026: + x33 + x199 <= 1
C1027: + x14 + x285 <= 1
C1028: + x7 + x24 <= 1
C1029: + x36 + x317 <= 1
C1030: + x55 + x62 <= 1
C1031: + x111 + x406 <= 1
C1032: + x275 + x384 <= 1
C1033: + x447 + x461 <= 1
C1034: + x5 + x391 <= 1
C1035: + x6 + x273 <= 1
C1036: + x9 + x13 <= 1
C1037: + x8 + x45 <= 1
C1038: + x20 + x123 <= 1
C1039: + x50 + x300 <= 1
C1040: + x8 + x340 <= 1
C1041: + x338 + x470 <= 1
C1042: + x11 + x15 <= 1
C1043: + x9 + x156 <= 1
C1044: + x8 + x190 <= 1
C1045: + x18 + x177 <= 1
C1046: + x55 + x352 <= 1
C1047: + x260 + x313 <= 1
C1048: + x154 + x460 <= 1
C1049: + x8 + x481 <= 1
C1050: + x293 + x340 <= 1
C1051: + x169 + x279 <= 1
C1052: + x100 + x405 <= 1
C1053: + x348 + x369 <= 1
C1054: + x15 + x257 <= 1
C1055: + x36 + x71 <= 1
C1056: + x45 + x108 <= 1
C1057: + x31 + x147 <= 1
C1058: + x23 + x321 <= 1
C1059: + x3 + x39 <= 1
C1060: + x184 + x337 <= 1
C1061: + x4 + x260 <= 1
C1062: + x335 + x372 <= 1
C1063: + x40 + x83 <= 1
C1064: + x225 + x328 <= 1
C1065: + x25 + x357 <= 1
C1066: + x32 + x178 <= 1
C1067: + x247 + x488 <= 1
C1068: + x322 + x362 <= 1
C1069: + x458 + x466 <= 1
C1070: + x267 + x315 <= 1
C1071: + x78 + x290 <= 1
C1072: + x31 + x77 <= 1
C1073: + x87 + x186 <= 1
C1074: + x69 + x331 <= 1
C1075: + x9 + x131 <= 1
C1076: + x31 + x234 <= 1
C1077: + x87 + x464 <= 1
C1078: + x54 + x196 <= 1
C1079: + x12 + x27 <= 1
C1080: + x123 + x319 <= 1
C1081: + x5 + x343 <= 1
C1082: + x26 + x437 <= 1
C1083: + x15 + x54 <= 1
C1084: + x63 + x421 <= 1
C1085: + x157 + x205 <= 1
C1086: + x33 + x451 <= 1
C1087: + x5 + x12 <= 1
C1088: + x36 + x80 <= 1
C1089: + x291 + x478 <= 1
C1090: + x27 + x57 <= 1
C1091: + x47 + x64 <= 1
C1092: + x31 + x150 <= 1
C1093: + x34 + x219 <= 1
C1094: + x5 + x155 <= 1
C1095: + x65 + x166 <= 1
C1096: + x10 + x82 <= 1
C1097: + x101 + x151 <= 1
C1098: + x40 + x76 <= 1
C1099: + x368 + x404 <= 1
C1100: + x126 + x336 <= 1
C1101: + x100 + x124 <= 1
C1102: + x8 + x35 <= 1
C1103: + x16 + x80 <= 1
C1104: + x123 + x185 <= 1
C1105: + x359 + x371 <= 1
C1106: + x32 + x425 <= 1
C1107: + x489 + x494 <= 1
C1108: + x18 + x445 <= 1
C1109: + x23 + x408 <= 1
C1110: + x20 + x411 <= 1
C1111: + x48 + x406 <= 1
C1112: + x16 + x258 <= 1
C1113: + x18 + x352 <= 1
C1114: + x189 + x206 <= 1
C1115: + x10 + x111 <= 1
C1116: + x219 + x412 <= 1
C1117: + x238 + x334 <= 1
C1118: + x13 + x142 <= 1
C1119: + x42 + x483 <= 1
C1120: + x45 + x90 <= 1
C1121: + x39 + x228 <= 1
C1122: + x50 + x355 <= 1
C1123: + x10 + x293 <= 1
C1124: + x58 + x214 <= 1
C1125: + x184 + x423 <= 1
C1126: + x154 + x189 <= 1
C1127: + x63 + x71 <= 1
C1128: + x6 + x177 <= 1
C1129: + x334 + x356 <= 1
C1130: + x9 + x34 <= 1
C1131: + x10 + x182 <= 1
C1132: + x80 + x277 <= 1
C1133: + x35 + x394 <= 1
C1134: + x36 + x161 <= 1
C1135: + x55 + x178 <= 1
C1136: + x17 + x34 <= 1
C1137: + x83 + x126 <= 1
C1138: + x93 + x130 <= 1
C1139: + x203 + x309 <= 1
C1140: + x50 + x77 <= 1
C1141: + x61 + x270 <= 1
C1142: + x278 + x327 <= 1
C1143: + x7 + x210 <= 1
C1144: + x7 + x283 <= 1
C1145: + x270 + x490 <= 1
C1146: + x253 + x261 <= 1
C1147: + x245 + x410 <= 1
C1148: + x56 + x242 <= 1
C1149: + x9 + x459 <= 1
C1150: + x199 + x289 <= 1
C1151: + x340 + x355 <= 1
C1152: + x6 + x246 <= 1
C1153: + x1 + x10 <= 1
C1154: + x95 + x371 <= 1
C1155: + x4 + x5 <= 1
C1156: + x78 + x491 <= 1
C1157: + x48 + x70 <= 1
C1158: + x79 + x375 <= 1
C1159: + x69 + x386 <= 1
C1160: + x33 + x227 <= 1
C1161: + x46 + x77 <= 1
C1162: + x148 + x426 <= 1
C1163: + x357 + x394 <= 1
C1164: + x94 + x115 <= 1
C1165: + x106 + x309 <= 1
C1166: + x5 + x137 <= 1
C1167: + x27 + x449 <= 1
C1168: + x2 + x47 <= 1
C1169: + x37 + x402 <= 1
C1170: + x11 + x84 <= 1
C1171: + x6 + x186 <= 1
C1172: + x15 + x237 <= 1
C1173: + x9 + x41 <= 1
C1174: + x7 + x387 <= 1
C1175: + x16 + x94 <= 1
C1176: + x86 + x396 <= 1
C1177: + x41 + x189 <= 1
C1178: + x225 + x458 <= 1
C1179: + x24 + x46 <= 1
C1180: + x11 + x490 <= 1
C1181: + x2 + x96 <= 1
C1182: + x57 + x309 <= 1
C1183: + x106 + x353 <= 1
C1184: + x10 + x16 <= 1
C1185: + x28 + x118 <= 1
C1186: + x284 + x496 <= 1
C1187: + x13 + x45 <= 1
C1188: + x5 + x82 <= 1
C1189: + x53 + x108 <= 1
C1190: + x9 + x21 <= 1
C1191: + x113 + x124 <= 1
C1192: + x41 + x318 <= 1
C1193: + x46 + x53 <= 1
C1194: + x75 + x286 <= 1
C1195: + x31 + x110 <= 1
C1196: + x24 + x244 <= 1
C1197: + x16 + x151 <= 1
C1198: + x122 + x146 <= 1
C1199: + x60 + x438 <= 1
C1200: + x7 + x491 <= 1
C1201: + x3 + x11 <= 1
C1202: + x42 + x126 <= 1
C1203: + x333 + x416 <= 1
C1204: + x9 + x318 <= 1
C1205: + x2 + x40 <= 1
C1206: + x94 + x239 <= 1
C1207: + x106 + x217 <= 1
C1208: + x5 + x21 <= 1
C1209: + x279 + x480 <= 1
C1210: + x6 + x382 <= 1
C1211: + x11 + x320 <= 1
C1212: + x49 + x71 <= 1
C1213: + x13 + x85 <= 1
C1214: + x31 + x272 <= 1
C1215: + x24 + x43 <= 1
C1216: + x66 + x273 <= 1
C1217: + x3 + x95 <= 1
C1218: + x284 + x346 <= 1
C1219: + x32 + x59 <= 1
C1220: + x6 + x52 <= 1
C1221: + x80 + x93 <= 1
C1222: + x18 + x150 <= 1
C1223: + x115 + x234 <= 1
C1224: + x14 + x180 <= 1
C1225: + x42 + x325 <= 1
C1226: + x7 + x434 <= 1
C1227: + x47 + x233 <= 1
C1228: + x123 + x154 <= 1
C1229: + x331 + x451 <= 1
C1230: + x97 + x450 <= 1
C1231: + x158 + x497 <= 1
C1232: + x6 + x69 <= 1
C1233: + x13 + x470 <= 1
C1234: + x138 + x258 <= 1
C1235: + x55 + x121 <= 1
C1236: + x30 + x351 <= 1
C1237: + x26 + x308 <= 1
C1238: + x118 + x355 <= 1
C1239: + x201 + x384 <= 1
C1240: + x248 + x437 <= 1
C1241: + x149 + x331 <= 1
C1242: + x9 + x72 <= 1
C1243: + x138 + x403 <= 1
C1244: + x3 + x6 <= 1
C1245: + x184 + x398 <= 1
C1246: + x89 + x363 <= 1
C1247: + x152 + x250 <= 1
C1248: + x27 + x467 <= 1
C1249: + x5 + x20 <= 1
C1250: + x36 + x88 <= 1
C1251: + x13 + x84 <= 1
C1252: + x24 + x36 <= 1
C1253: + x6 + x410 <= 1
C1254: + x310 + x363 <= 1
C1255: + x189 + x456 <= 1
C1256: + x18 + x143 <= 1
C1257: + x246 + x334 <= 1
C1258: + x14 + x173 <= 1
C1259: + x5 + x72 <= 1
C1260: + x20 + x113 <= 1
C1261: + x49 + x170 <= 1
C1262: + x42 + x164 <= 1
C1263: + x40 + x334 <= 1
C1264: + x4 + x418 <= 1
C1265: + x100 + x447 <= 1
C1266: + x64 + x348 <= 1
C1267: + x56 + x303 <= 1
C1268: + x44 + x495 <= 1
C1269: + x7 + x247 <= 1
C1270: + x46 + x277 <= 1
C1271: + x13 + x23 <= 1
C1272: + x80 + x380 <= 1
C1273: + x16 + x60 <= 1
C1274: + x18 + x102 <= 1
C1275: + x236 + x360 <= 1
C1276: + x147 + x439 <= 1
C1277: + x3 + x29 <= 1
C1278: + x32 + x485 <= 1
C1279: + x61 + x222 <= 1
C1280: + x10 + x420 <= 1
C1281: + x237 + x346 <= 1
C1282: + x10 + x119 <= 1
C1283: + x20 + x335 <= 1
C1284: + x67 + x98 <= 1
C1285: + x61 + x419 <= 1
C1286: + x45 + x114 <= 1
C1287: + x463 + x481 <= 1
C1288: + x42 + x294 <= 1
C1289: + x179 + x351 <= 1
C1290: + x7 + x17 <= 1
C1291: + x45 + x279 <= 1
C1292: + x55 + x63 <= 1
C1293: + x66 + x192 <= 1
C1294: + x203 + x297 <= 1
C1295: + x9 + x173 <= 1
C1296: + x54 + x407 <= 1
C1297: + x20 + x283 <= 1
C1298: + x12 + x202 <= 1
C1299: + x312 + x382 <= 1
C1300: + x14 + x166 <= 1
C1301: + x23 + x241 <= 1
C1302: + x54 + x298 <= 1
C1303: + x30 + x67 <= 1
C1304: + x97 + x480 <= 1
C1305: + x395 + x450 <= 1
C1306: + x2 + x396 <= 1
C1307: + x13 + x169 <= 1
C1308: + x241 + x384 <= 1
C1309: + x13 + x14 <= 1
C1310: + x5 + x115 <= 1
C1311: + x24 + x126 <= 1
C1312: + x69 + x216 <= 1
C1313: + x61 + x213 <= 1
C1314: + x7 + x121 <= 1
C1315: + x2 + x11 <= 1
C1316: + x277 + x389 <= 1
C1317: + x31 + x115 <= 1
C1318: + x35 + x421 <= 1
C1319: + x57 + x63 <= 1
C1320: + x41 + x153 <= 1
C1321: + x13 + x399 <= 1
C1322: + x205 + x207 <= 1
C1323: + x90 + x416 <= 1
C1324: + x56 + x190 <= 1
C1325: + x113 + x478 <= 1
C1326: + x51 + x114 <= 1
C1327: + x87 + x239 <= 1
C1328: + x109 + x371 <= 1
C1329: + x8 + x319 <= 1
C1330: + x10 + x44 <= 1
C1331: + x66 + x391 <= 1
C1332: + x63 + x491 <= 1
C1333: + x110 + x200 <= 1
C1334: + x6 + x285 <= 1
C1335: + x218 + x324 <= 1
C1336: + x63 + x328 <= 1
C1337: + x2 + x354 <= 1
C1338: + x13 + x451 <= 1
C1339: + x32 + x423 <= 1
C1340: + x153 + x425 <= 1
C1341: + x106 + x494 <= 1
C1342: + x110 + x270 <= 1
C1343: + x5 + x197 <= 1
C1344: + x35 + x492 <= 1
C1345: + x7 + x225 <= 1
C1346: + x9 + x160 <= 1
C1347: + x64 + x429 <= 1
C1348: + x12 + x187 <= 1
C1349: + x43 + x380 <= 1
C1350: + x89 + x110 <= 1
C1351: + x125 + x207 <= 1
C1352: + x263 + x284 <= 1
C1353: + x44 + x366 <= 1
C1354: + x437 + x461 <= 1
C1355: + x3 + x180 <= 1
C1356: + x156 + x194 <= 1
C1357: + x85 + x218 <= 1
C1358: + x5 + x9 <= 1
C1359: + x20 + x188 <= 1
C1360: + x33 + x210 <= 1
C1361: + x116 + x368 <= 1
C1362: + x26 + x33 <= 1
C1363: + x93 + x271 <= 1
C1364: + x103 + x462 <= 1
C1365: + x38 + x412 <= 1
C1366: + x4 + x264 <= 1
C1367: + x6 + x24 <= 1
C1368: + x207 + x259 <= 1
C1369: + x90 + x274 <= 1
C1370: + x235 + x389 <= 1
C1371: + x1 + x117 <= 1
C1372: + x9 + x56 <= 1
C1373: + x167 + x448 <= 1
C1374: + x129 + x268 <= 1
C1375: + x41 + x446 <= 1
C1376: + x24 + x354 <= 1
C1377: + x62 + x474 <= 1
C1378: + x223 + x302 <= 1
C1379: + x26 + x30 <= 1
C1380: + x207 + x221 <= 1
C1381: + x12 + x31 <= 1
C1382: + x123 + x130 <= 1
C1383: + x17 + x484 <= 1
C1384: + x144 + x225 <= 1
C1385: + x8 + x377 <= 1
C1386: + x2 + x5 <= 1
C1387: + x11 + x122 <= 1
C1388: + x206 + x477 <= 1
C1389: + x89 + x228 <= 1
C1390: + x7 + x345 <= 1
C1391: + x236 + x476 <= 1
C1392: + x11 + x219 <= 1
C1393: + x1 + x64 <= 1
C1394: + x20 + x193 <= 1
C1395: + x61 + x90 <= 1
C1396: + x26 + x42 <= 1
C1397: + x58 + x209 <= 1
C1398: + x24 + x427 <= 1
C1399: + x154 + x192 <= 1
C1400: + x3 + x223 <= 1
C1401: + x305 + x318 <= 1
C1402: + x6 + x180 <= 1
C1403: + x6 + x271 <= 1
C1404: + x9 + x63 <= 1
C1405: + x7 + x405 <= 1
C1406: + x80 + x175 <= 1
C1407: + x92 + x426 <= 1
C1408: + x411 + x442 <= 1
C1409: + x203 + x266 <= 1
C1410: + x15 + x146 <= 1
C1411: + x209 + x396 <= 1
C1412: + x208 + x462 <= 1
C1413: + x4 + x88 <= 1
C1414: + x173 + x404 <= 1
C1415: + x50 + x217 <= 1
C1416: + x9 + x456 <= 1
C1417: + x74 + x160 <= 1
C1418: + x23 + x65 <= 1
C1419: + x14 + x22 <= 1
C1420: + x90 + x157 <= 1
C1421: + x45 + x86 <= 1
C1422: + x8 + x100 <= 1
C1423: + x63 + x269 <= 1
C1424: + x103 + x275 <= 1
C1425: + x7 + x340 <= 1
C1426: + x305 + x422 <= 1
C1427: + x159 + x185 <= 1
C1428: + x183 + x250 <= 1
C1429: + x94 + x118 <= 1
C1430: + x60 + x206 <= 1
C1431: + x6 + x26 <= 1
C1432: + x54 + x64 <= 1
C1433: + x110 + x179 <= 1
C1434: + x146 + x311 <= 1
C1435: + x4 + x145 <= 1
C1436: + x39 + x357 <= 1
C1437: + x37 + x41 <= 1
C1438: + x11 + x40 <= 1
C1439: + x103 + x125 <= 1
C1440: + x3 + x73 <= 1
C1441: + x9 + x384 <= 1
C1442: + x27 + x67 <= 1
C1443: + x8 + x165 <= 1
C1444: + x365 + x371 <= 1
C1445: + x3 + x238 <= 1
C1446: + x49 + x476 <= 1
C1447: + x132 + x477 <= 1
C1448: + x53 + x105 <= 1
C1449: + x12 + x13 <= 1
C1450: + x12 + x468 <= 1
C1451: + x39 + x446 <= 1
C1452: + x277 + x409 <= 1
C1453: + x13 + x129 <= 1
C1454: + x1 + x14 <= 1
C1455: + x122 + x141 <= 1
C1456: + x196 + x201 <= 1
C1457: + x4 + x9 <= 1
C1458: + x16 + x41 <= 1
C1459: + x18 + x119 <= 1
C1460: + x46 + x73 <= 1
C1461: + x247 + x350 <= 1
C1462: + x321 + x480 <= 1
C1463: + x167 + x179 <= 1
C1464: + x35 + x74 <= 1
C1465: + x6 + x369 <= 1
C1466: + x8 + x13 <= 1
C1467: + x31 + x184 <= 1
C1468: + x141 + x474 <= 1
C1469: + x249 + x452 <= 1
C1470: + x147 + x199 <= 1
C1471: + x51 + x74 <= 1
C1472: + x104 + x267 <= 1
C1473: + x78 + x201 <= 1
C1474: + x24 + x397 <= 1
C1475: + x27 + x78 <= 1
C1476: + x8 + x158 <= 1
C1477: + x4 + x70 <= 1
C1478: + x6 + x293 <= 1
C1479: + x15 + x370 <= 1
C1480: + x36 + x154 <= 1
C1481: + x249 + x307 <= 1
C1482: + x91 + x431 <= 1
C1483: + x20 + x103 <= 1
C1484: + x77 + x385 <= 1
C1485: + x207 + x339 <= 1
C1486: + x74 + x138 <= 1
C1487: + x55 + x102 <= 1
C1488: + x1 + x307 <= 1
C1489: + x2 + x421 <= 1
C1490: + x149 + x235 <= 1
C1491: + x132 + x339 <= 1
C1492: + x34 + x468 <= 1
C1493: + x7 + x249 <= 1
C1494: + x1 + x5 <= 1
C1495: + x2 + x139 <= 1
C1496: + x55 + x332 <= 1
C1497: + x6 + x489 <= 1
C1498: + x27 + x179 <= 1
C1499: + x46 + x66 <= 1
C1500: + x56 + x159 <= 1
C1501: + x186 + x287 <= 1
C1502: + x331 + x396 <= 1
C1503: + x98 + x397 <= 1
C1504: + x11 + x425 <= 1
C1505: + x237 + x360 <= 1
C1506: + x156 + x250 <= 1
C1507: + x193 + x441 <= 1
C1508: + x303 + x377 <= 1
C1509: + x2 + x60 <= 1
C1510: + x5 + x17 <= 1
C1511: + x126 + x130 <= 1
C1512: + x143 + x482 <= 1
C1513: + x17 + x20 <= 1
C1514: + x5 + x69 <= 1
C1515: + x5 + x402 <= 1
C1516: + x90 + x314 <= 1
C1517: + x190 + x193 <= 1
C1518: + x54 + x292 <= 1
C1519: + x273 + x317 <= 1
C1520: + x49 + x183 <= 1
C1521: + x175 + x475 <= 1
C1522: + x22 + x267 <= 1
C1523: + x7 + x87 <= 1
C1524: + x182 + x455 <= 1
C1525: + x228 + x241 <= 1
C1526: + x203 + x279 <= 1
C1527: + x425 + x496 <= 1
C1528: + x9 + x346 <= 1
C1529: + x36 + x112 <= 1
C1530: + x56 + x113 <= 1
C1531: + x158 + x382 <= 1
C1532: + x13 + x28 <= 1
C1533: + x78 + x409 <= 1
C1534: + x23 + x380 <= 1
C1535: + x162 + x430 <= 1
C1536: + x10 + x324 <= 1
C1537: + x66 + x111 <= 1
C1538: + x94 + x406 <= 1
C1539: + x13 + x262 <= 1
C1540: + x31 + x492 <= 1
C1541: + x6 + x117 <= 1
C1542: + x7 + x131 <= 1
C1543: + x74 + x306 <= 1
C1544: + x77 + x158 <= 1
C1545: + x5 + x32 <= 1
C1546: + x205 + x213 <= 1
C1547: + x34 + x55 <= 1
C1548: + x8 + x418 <= 1
C1549: + x165 + x454 <= 1
C1550: + x139 + x337 <= 1
C1551: + x53 + x364 <= 1
C1552: + x154 + x168 <= 1
C1553: + x152 + x373 <= 1
C1554: + x8 + x148 <= 1
C1555: + x134 + x463 <= 1
C1556: + x69 + x311 <= 1
C1557: + x107 + x130 <= 1
C1558: + x20 + x117 <= 1
C1559: + x12 + x455 <= 1
C1560: + x90 + x94 <= 1
C1561: + x88 + x180 <= 1
C1562: + x44 + x328 <= 1
C1563: + x80 + x215 <= 1
C1564: + x2 + x122 <= 1
C1565: + x30 + x340 <= 1
C1566: + x40 + x45 <= 1
C1567: + x22 + x119 <= 1
C1568: + x340 + x382 <= 1
C1569: + x32 + x84 <= 1
C1570: + x299 + x436 <= 1
C1571: + x1 + x19 <= 1
C1572: + x55 + x326 <= 1
C1573: + x20 + x230 <= 1
C1574: + x177 + x194 <= 1
C1575: + x14 + x157 <= 1
C1576: + x170 + x177 <= 1
C1577: + x17 + x86 <= 1
C1578: + x91 + x453 <= 1
C1579: + x61 + x117 <= 1
C1580: + x2 + x296 <= 1
C1581: + x310 + x428 <= 1
C1582: + x7 + x473 <= 1
C1583: + x184 + x391 <= 1
C1584: + x34 + x95 <= 1
C1585: + x35 + x325 <= 1
C1586: + x208 + x411 <= 1
C1587: + x10 + x424 <= 1
C1588: + x246 + x271 <= 1
C1589: + x2 + x54 <= 1
C1590: + x47 + x466 <= 1
C1591: + x26 + x325 <= 1
C1592: + x27 + x56 <= 1
C1593: + x8 + x124 <= 1
C1594: + x9 + x194 <= 1
C1595: + x11 + x302 <= 1
C1596: + x31 + x169 <= 1
C1597: + x42 + x253 <= 1
C1598: + x70 + x116 <= 1
C1599: + x10 + x305 <= 1
C1600: + x141 + x241 <= 1
C1601: + x4 + x286 <= 1
C1602: + x6 + x34 <= 1
C1603: + x1 + x222 <= 1
C1604: + x173 + x202 <= 1
C1605: + x12 + x206 <= 1
C1606: + x40 + x85 <= 1
C1607: + x175 + x215 <= 1
C1608: + x5 + x392 <= 1
C1609: + x72 + x368 <= 1
C1610: + x89 + x305 <= 1
C1611: + x271 + x345 <= 1
C1612: + x93 + x329 <= 1
C1613: + x158 + x173 <= 1
C1614: + x14 + x51 <= 1
C1615: + x80 + x115 <= 1
C1616: + x199 + x430 <= 1
C1617: + x47 + x106 <= 1
C1618: + x3 + x262 <= 1
C1619: + x4 + x101 <= 1
C1620: + x42 + x359 <= 1
C1621: + x6 + x452 <= 1
C1622: + x201 + x207 <= 1
C1623: + x49 + x145 <= 1
C1624: + x31 + x470 <= 1
C1625: + x6 + x103 <= 1
C1626: + x45 + x379 <= 1
C1627: + x8 + x263 <= 1
C1628: + x273 + x457 <= 1
C1629: + x2 + x15 <= 1
C1630: + x157 + x247 <= 1
C1631: + x1 + x38 <= 1
C1632: + x94 + x281 <= 1
C1633: + x86 + x428 <= 1
C1634: + x97 + x415 <= 1
C1635: + x34 + x193 <= 1
C1636: + x99 + x399 <= 1
C1637: + x7 + x16 <= 1
C1638: + x45 + x266 <= 1
C1639: + x28 + x324 <= 1
C1640: + x221 + x249 <= 1
C1641: + x331 + x361 <= 1
C1642: + x91 + x181 <= 1
C1643: + x45 + x431 <= 1
C1644: + x2 + x219 <= 1
C1645: + x99 + x354 <= 1
C1646: + x64 + x92 <= 1
C1647: + x230 + x405 <= 1
C1648: + x148 + x259 <= 1
C1649: + x42 + x146 <= 1
C1650: + x138 + x244 <= 1
C1651: + x95 + x185 <= 1
C1652: + x50 + x82 <= 1
C1653: + x27 + x441 <= 1
C1654: + x355 + x465 <= 1
C1655: + x18 + x76 <= 1
C1656: + x9 + x97 <= 1
C1657: + x27 + x151 <= 1
C1658: + x68 + x374 <= 1
C1659: + x5 + x344 <= 1
C1660: + x207 + x379 <= 1
C1661: + x27 + x300 <= 1
C1662: + x142 + x200 <= 1
C1663: + x8 + x203 <= 1
C1664: + x1 + x299 <= 1
C1665: + x67 + x80 <= 1
C1666: + x5 + x245 <= 1
C1667: + x372 + x469 <= 1
C1668: + x7 + x358 <= 1
C1669: + x39 + x234 <= 1
C1670: + x213 + x376 <= 1
C1671: + x332 + x389 <= 1
C1672: + x43 + x229 <= 1
C1673: + x49 + x196 <= 1
C1674: + x70 + x281 <= 1
C1675: + x6 + x20 <= 1
C1676: + x137 + x223 <= 1
C1677: + x94 + x131 <= 1
C1678: + x29 + x167 <= 1
C1679: + x48 + x251 <= 1
C1680: + x294 + x361 <= 1
C1681: + x77 + x105 <= 1
C1682: + x70 + x170 <= 1
C1683: + x15 + x498 <= 1
C1684: + x8 + x321 <= 1
C1685: + x119 + x472 <= 1
C1686: + x11 + x50 <= 1
C1687: + x5 + x208 <= 1
C1688: + x26 + x276 <= 1
C1689: + x16 + x256 <= 1
C1690: + x383 + x471 <= 1
C1691: + x86 + x362 <= 1
C1692: + x39 + x53 <= 1
C1693: + x278 + x416 <= 1
C1694: + x61 + x469 <= 1
C1695: + x26 + x226 <= 1
C1696: + x56 + x252 <= 1
C1697: + x41 + x252 <= 1
C1698: + x76 + x272 <= 1
C1699: + x61 + x231 <= 1
C1700: + x63 + x429 <= 1
C1701: + x46 + x397 <= 1
C1702: + x14 + x25 <= 1
C1703: + x1 + x52 <= 1
C1704: + x219 + x318 <= 1
C1705: + x38 + x147 <= 1
C1706: + x41 + x139 <= 1
C1707: + x62 + x269 <= 1
C1708: + x131 + x227 <= 1
C1709: + x8 + x297 <= 1
C1710: + x25 + x372 <= 1
C1711: + x6 + x192 <= 1
C1712: + x201 + x312 <= 1
C1713: + x12 + x483 <= 1
C1714: + x18 + x437 <= 1
C1715: + x75 + x304 <= 1
C1716: + x183 + x468 <= 1
C1717: + x51 + x84 <= 1
C1718: + x7 + x215 <= 1
C1719: + x7 + x284 <= 1
C1720: + x246 + x370 <= 1
C1721: + x18 + x155 <= 1
C1722: + x105 + x134 <= 1
C1723: + x112 + x177 <= 1
C1724: + x23 + x214 <= 1
C1725: + x25 + x320 <= 1
C1726: + x36 + x240 <= 1
C1727: + x399 + x402 <= 1
C1728: + x7 + x453 <= 1
C1729: + x77 + x92 <= 1
C1730: + x2 + x18 <= 1
C1731: + x184 + x266 <= 1
C1732: + x44 + x66 <= 1
C1733: + x1 + x11 <= 1
C1734: + x119 + x201 <= 1
C1735: + x56 + x98 <= 1
C1736: + x70 + x88 <= 1
C1737: + x111 + x439 <= 1
C1738: + x56 + x133 <= 1
C1739: + x251 + x335 <= 1
C1740: + x16 + x323 <= 1
C1741: + x5 + x47 <= 1
C1742: + x7 + x388 <= 1
C1743: + x245 + x478 <= 1
C1744: + x55 + x138 <= 1
C1745: + x241 + x257 <= 1
C1746: + x14 + x500 <= 1
C1747: + x150 + x364 <= 1
C1748: + x6 + x407 <= 1
C1749: + x7 + x45 <= 1
C1750: + x6 + x202 <= 1
C1751: + x152 + x191 <= 1
C1752: + x118 + x341 <= 1
C1753: + x126 + x224 <= 1
C1754: + x9 + x22 <= 1
C1755: + x54 + x222 <= 1
C1756: + x98 + x436 <= 1
C1757: + x70 + x208 <= 1
C1758: + x134 + x150 <= 1
C1759: + x15 + x16 <= 1
C1760: + x156 + x358 <= 1
C1761: + x255 + x326 <= 1
C1762: + x171 + x189 <= 1
C1763: + x7 + x335 <= 1
C1764: + x136 + x420 <= 1
C1765: + x42 + x194 <= 1
C1766: + x289 + x341 <= 1
C1767: + x15 + x447 <= 1
C1768: + x2 + x465 <= 1
C1769: + x20 + x50 <= 1
C1770: + x6 + x15 <= 1
C1771: + x10 + x76 <= 1
C1772: + x2 + x39 <= 1
C1773: + x37 + x410 <= 1
C1774: + x112 + x243 <= 1
C1775: + x22 + x44 <= 1
C1776: + x95 + x262 <= 1
C1777: + x31 + x188 <= 1
C1778: + x133 + x136 <= 1
C1779: + x134 + x235 <= 1
C1780: + x138 + x341 <= 1
C1781: + x11 + x43 <= 1
C1782: + x51 + x70 <= 1
C1783: + x61 + x285 <= 1
C1784: + x261 + x498 <= 1
C1785: + x32 + x38 <= 1
C1786: + x80 + x395 <= 1
C1787: + x49 + x471 <= 1
C1788: + x114 + x153 <= 1
C1789: + x13 + x37 <= 1
C1790: + x133 + x474 <= 1
C1791: + x61 + x482 <= 1
C1792: + x44 + x47 <= 1
C1793: + x18 + x56 <= 1
C1794: + x9 + x29 <= 1
C1795: + x59 + x359 <= 1
C1796: + x258 + x383 <= 1
C1797: + x35 + x57 + x313 <= 1
C1798: + x57 + x212 <= 1
C1799: + x141 + x316 <= 1
C1800: + x17 + x362 <= 1
C1801: + x199 + x445 <= 1
C1802: + x326 + x333 <= 1
C1803: + x91 + x350 <= 1
C1804: + x27 + x417 <= 1
C1805: + x9 + x236 <= 1
C1806: + x149 + x332 <= 1
C1807: + x141 + x409 <= 1
C1808: + x45 + x229 <= 1
C1809: + x7 + x483 <= 1
C1810: + x8 + x497 <= 1
C1811: + x29 + x449 <= 1
C1812: + x13 + x267 <= 1
C1813: + x34 + x65 <= 1
C1814: + x90 + x100 <= 1
C1815: + x91 + x148 <= 1
C1816: + x106 + x294 <= 1
C1817: + x110 + x161 <= 1
C1818: + x127 + x488 <= 1
C1819: + x143 + x486 <= 1
C1820: + x1 + x85 <= 1
C1821: + x2 + x347 <= 1
C1822: + x3 + x329 <= 1
C1823: + x45 + x281 <= 1
C1824: + x19 + x296 <= 1
C1825: + x57 + x143 <= 1
C1826: + x93 + x291 <= 1
C1827: + x3 + x87 <= 1
C1828: + x239 + x251 <= 1
C1829: + x14 + x73 <= 1
C1830: + x110 + x213 <= 1
C1831: + x2 + x204 <= 1
C1832: + x12 + x212 <= 1
C1833: + x33 + x376 <= 1
C1834: + x225 + x440 <= 1
C1835: + x53 + x123 <= 1
C1836: + x317 + x416 <= 1
C1837: + x165 + x298 <= 1
C1838: + x48 + x227 <= 1
C1839: + x123 + x347 <= 1
C1840: + x7 + x75 <= 1
C1841: + x143 + x211 <= 1
C1842: + x54 + x67 <= 1
C1843: + x11 + x26 <= 1
C1844: + x55 + x113 <= 1
C1845: + x113 + x413 <= 1
C1846: + x87 + x170 <= 1
C1847: + x44 + x482 <= 1
C1848: + x45 + x63 <= 1
C1849: + x154 + x290 <= 1
C1850: + x121 + x301 <= 1
C1851: + x56 + x77 <= 1
C1852: + x20 + x225 <= 1
C1853: + x125 + x269 <= 1
C1854: + x40 + x385 <= 1
C1855: + x1 + x346 <= 1
C1856: + x19 + x89 <= 1
C1857: + x11 + x78 <= 1
C1858: + x51 + x485 <= 1
C1859: + x99 + x280 <= 1
C1860: + x152 + x260 <= 1
C1861: + x49 + x118 <= 1
C1862: + x3 + x324 <= 1
C1863: + x221 + x231 <= 1
C1864: + x3 + x82 <= 1
C1865: + x39 + x495 <= 1
C1866: + x60 + x161 <= 1
C1867: + x14 + x66 <= 1
C1868: + x8 + x144 <= 1
C1869: + x18 + x34 <= 1
C1870: + x45 + x167 <= 1
C1871: + x51 + x199 <= 1
C1872: + x116 + x429 <= 1
C1873: + x17 + x59 <= 1
C1874: + x121 + x471 <= 1
C1875: + x57 + x279 <= 1
C1876: + x224 + x288 <= 1
C1877: + x26 + x317 <= 1
C1878: + x82 + x176 <= 1
C1879: + x7 + x308 <= 1
C1880: + x463 + x477 <= 1
C1881: + x93 + x96 <= 1
C1882: + x44 + x487 <= 1
C1883: + x243 + x419 <= 1
C1884: + x127 + x181 <= 1
C1885: + x1 + x436 <= 1
C1886: + x30 + x356 <= 1
C1887: + x31 + x116 <= 1
C1888: + x217 + x407 <= 1
C1889: + x35 + x422 <= 1
C1890: + x18 + x239 <= 1
C1891: + x103 + x367 <= 1
C1892: + x4 + x48 <= 1
C1893: + x40 + x196 <= 1
C1894: + x206 + x216 <= 1
C1895: + x18 + x394 <= 1
C1896: + x398 + x494 <= 1
C1897: + x62 + x254 <= 1
C1898: + x178 + x428 <= 1
C1899: + x7 + x182 <= 1
C1900: + x28 + x81 <= 1
C1901: + x275 + x414 <= 1
C1902: + x39 + x67 <= 1
C1903: + x7 + x412 <= 1
C1904: + x170 + x488 <= 1
C1905: + x15 + x492 <= 1
C1906: + x263 + x394 <= 1
C1907: + x234 + x272 <= 1
C1908: + x18 + x172 <= 1
C1909: + x281 + x497 <= 1
C1910: + x373 + x418 <= 1
C1911: + x121 + x315 <= 1
C1912: + x377 + x496 <= 1
C1913: + x27 + x140 <= 1
C1914: + x75 + x386 <= 1
C1915: + x242 + x475 <= 1
C1916: + x396 + x442 <= 1
C1917: + x8 + x259 <= 1
C1918: + x66 + x323 <= 1
C1919: + x370 + x404 <= 1
C1920: + x5 + x10 <= 1
C1921: + x180 + x276 <= 1
C1922: + x118 + x252 <= 1
C1923: + x12 + x106 <= 1
C1924: + x6 + x500 <= 1
C1925: + x1 + x455 <= 1
C1926: + x256 + x311 <= 1
C1927: + x2 + x8 + x51 <= 1
C1928: + x3 + x36 <= 1
C1929: + x94 + x99 <= 1
C1930: + x49 + x278 <= 1
C1931: + x353 + x421 <= 1
C1932: + x1 + x169 <= 1
C1933: + x238 + x395 <= 1
C1934: + x380 + x385 <= 1
C1935: + x8 + x33 <= 1
C1936: + x2 + x378 <= 1
C1937: + x241 + x288 <= 1
C1938: + x14 + x453 <= 1
C1939: + x329 + x491 <= 1
C1940: + x30 + x290 <= 1
C1941: + x42 + x49 <= 1
C1942: + x45 + x479 <= 1
C1943: + x20 + x248 <= 1
C1944: + x40 + x190 <= 1
C1945: + x132 + x466 <= 1
C1946: + x25 + x235 <= 1
C1947: + x153 + x480 <= 1
C1948: + x17 + x72 <= 1
C1949: + x55 + x245 <= 1
C1950: + x47 + x210 <= 1
C1951: + x183 + x373 <= 1
C1952: + x40 + x432 <= 1
C1953: + x32 + x467 <= 1
C1954: + x6 + x108 <= 1
C1955: + x318 + x330 <= 1
C1956: + x93 + x221 <= 1
C1957: + x157 + x202 <= 1
C1958: + x168 + x218 <= 1
C1959: + x146 + x420 <= 1
C1960: + x68 + x263 <= 1
C1961: + x39 + x238 <= 1
C1962: + x33 + x234 <= 1
C1963: + x32 + x356 <= 1
C1964: + x16 + x38 <= 1
C1965: + x54 + x147 <= 1
C1966: + x3 + x59 <= 1

binary
x1 x2 x3 x4 x5 x6 x7 x8 x9 x10 x11 x12 x13 x14 x15 x16 x17 x18 x19 x20 x21 x22 x23 x24 x25 x26 x27 x28 x29 x30 x31 x32 x33 x34 x35 x36 x37 x38 x39 x40 x41 x42 x43 x44 x45 x46 x47 x48 x49 x50 x51 x52 x53 x54 x55 x56 x57 x58 x59 x60 x61 x62 x63 x64 x65 x66 x67 x68 x69 x70 x71 x72 x73 x74 x75 x76 x77 x78 x79 x80 x81 x82 x83 x84 x85 x86 x87 x88 x89 x90 x91 x92 x93 x94 x95 x96 x97 x98 x99 x100 x101 x102 x103 x104 x105 x106 x107 x108 x109 x110 x111 x112 x113 x114 x115 x116 x117 x118 x119 x120 x121 x122 x123 x124 x125 x126 x127 x128 x129 x130 x131 x132 x133 x134 x135 x136 x137 x138 x139 x140 x141 x142 x143 x144 x145 x146 x147 x148 x149 x150 x151 x152 x153 x154 x155 x156 x157 x158 x159 x160 x161 x162 x163 x164 x165 x166 x167 x168 x169 x170 x171 x172 x173 x174 x175 x176 x177 x178 x179 x180 x181 x182 x183 x184 x185 x186 x187 x188 x189 x190 x191 x192 x193 x194 x195 x196 x197 x198 x199 x200 x201 x202 x203 x204 x205 x206 x207 x208 x209 x210 x211 x212 x213 x214 x215 x216 x217 x218 x219 x220 x221 x222 x223 x224 x225 x226 x227 x228 x229 x230 x231 x232 x233 x234 x235 x236 x237 x238 x239 x240 x241 x242 x243 x244 x245 x246 x247 x248 x249 x250 x251 x252 x253 x254 x255 x256 x257 x258 x259 x260 x261 x262 x263 x264 x265 x266 x267 x268 x269 x270 x271 x272 x273 x274 x275 x276 x277 x278 x279 x280 x281 x282 x283 x284 x285 x286 x287 x288 x289 x290 x291 x292 x293 x294 x295 x296 x297 x298 x299 x300 x301 x302 x303 x304 x305 x306 x307 x308 x309 x310 x311 x312 x313 x314 x315 x316 x317 x318 x319 x320 x321 x322 x323 x324 x325 x326 x327 x328 x329 x330 x331 x332 x333 x334 x335 x336 x337 x338 x339 x340 x341 x342 x343 x344 x345 x346 x347 x348 x349 x350 x351 x352 x353 x354 x355 x356 x357 x358 x359 x360 x361 x362 x363 x364 x365 x366 x367 x368 x369 x370 x371 x372 x373 x374 x375 x376 x377 x378 x379 x380 x381 x382 x383 x384 x385 x386 x387 x388 x389 x390 x391 x392 x393 x394 x395 x396 x397 x398 x399 x400 x401 x402 x403 x404 x405 x406 x407 x408 x409 x410 x411 x412 x413 x414 x415 x416 x417 x418 x419 x420 x421 x422 x423 x424 x425 x426 x427 x428 x429 x430 x431 x432 x433 x434 x435 x436 x437 x438 x439 x440 x441 x442 x443 x444 x445 x446 x447 x448 x449 x450 x451 x452 x453 x454 x455 x456 x457 x458 x459 x460 x461 x462 x463 x464 x465 x466 x467 x468 x469 x470 x471 x472 x473 x474 x475 x476 x477 x478 x479 x480 x481 x482 x483 x484 x485 x486 x487 x488 x489 x490 x491 x492 x493 x494 x495 x496 x497 x498 x499 x500
