maximize
OBJ: + 1 x1 + 1 x2 + 1 x3 + 1 x4 + 1 x5 + 1 x6 + 1 x7 + 1 x8 + 1 x9 + 1 x10 + 1 x11 + 1 x12 + 1 x13 + 1 x14 + 1 x15 + 1 x16 + 1 x17 + 1 x18 + 1 x19 + 1 x20 + 1 x21 + 1 x22 + 1 x23 + 1 x24 + 1 x25 + 1 x26 + 1 x27 + 1 x28 + 1 x29 + 1 x30 + 1 x31 + 1 x32 + 1 x33 + 1 x34 + 1 x35 + 1 x36 + 1 x37 + 1 x38 + 1 x39 + 1 x40 + 1 x41 + 1 x42 + 1 x43 + 1 x44 + 1 x45 + 1 x46 + 1 x47 + 1 x48 + 1 x49 + 1 x50 + 1 x51 + 1 x52 + 1 x53 + 1 x54 + 1 x55 + 1 x56 + 1 x57 + 1 x58 + 1 x59 + 1 x60 + 1 x61 + 1 x62 + 1 x63 + 1 x64 + 1 x65 + 1 x66 + 1 x67 + 1 x68 + 1 x69 + 1 x70 + 1 x71 + 1 x72 + 1 x73 + 1 x74 + 1 x75 + 1 x76 + 1 x77 + 1 x78 + 1 x79 + 1 x80 + 1 x81 + 1 x82 + 1 x83 + 1 x84 + 1 x85 + 1 x86 + 1 x87 + 1 x88 + 1 x89 + 1 x90 + 1 x91 + 1 x92 + 1 x93 + 1 x94 + 1 x95 + 1 x96 + 1 x97 + 1 x98 + 1 x99 + 1 x100 + 1 x101 + 1 x102 + 1 x103 + 1 x104 + 1 x105 + 1 x106 + 1 x107 + 1 x108 + 1 x109 + 1 x110 + 1 x111 + 1 x112 + 1 x113 + 1 x114 + 1 x115 + 1 x116 + 1 x117 + 1 x118 + 1 x119 + 1 x120 + 1 x121 + 1 x122 + 1 x123 + 1 x124 + 1 x125 + 1 x126 + 1 x127 + 1 x128 + 1 x129 + 1 x130 + 1 x131 + 1 x132 + 1 x133 + 1 x134 + 1 x135 + 1 x136 + 1 x137 + 1 x138 + 1 x139 + 1 x140 + 1 x141 + 1 x142 + 1 x143 + 1 x144 + 1 x145 + 1 x146 + 1 x147 + 1 x148 + 1 x149 + 1 x150 + 1 x151 + 1 x152 + 1 x153 + 1 x154 + 1 x155 + 1 x156 + 1 x157 + 1 x158 + 1 x159 + 1 x160 + 1 x161 + 1 x162 + 1 x163 + 1 x164 + 1 x165 + 1 x166 + 1 x167 + 1 x168 + 1 x169 + 1 x170 + 1 x171 + 1 x172 + 1 x173 + 1 x174 + 1 x175 + 1 x176 + 1 x177 + 1 x178 + 1 x179 + 1 x180 + 1 x181 + 1 x182 + 1 x183 + 1 x184 + 1 x185 + 1 x186 + 1 x187 + 1 x188 + 1 x189 + 1 x190 + 1 x191 + 1 x192 + 1 x193 + 1 x194 + 1 x195 + 1 x196 + 1 x197 + 1 x198 + 1 x199 + 1 x200 + 1 x201 + 1 x202 + 1 x203 + 1 x204 + 1 x205 + 1 x206 + 1 x207 + 1 x208 + 1 x209 + 1 x210 + 1 x211 + 1 x212 + 1 x213 + 1 x214 + 1 x215 + 1 x216 + 1 x217 + 1 x218 + 1 x219 + 1 x220 + 1 x221 + 1 x222 + 1 x223 + 1 x224 + 1 x225 + 1 x226 + 1 x227 + 1 x228 + 1 x229 + 1 x230 + 1 x231 + 1 x232 + 1 x233 + 1 x234 + 1 x235 + 1 x236 + 1 x237 + 1 x238 + 1 x239 + 1 x240 + 1 x241 + 1 x242 + 1 x243 + 1 x244 + 1 x245 + 1 x246 + 1 x247 + 1 x248 + 1 x249 + 1 x250 + 1 x251 + 1 x252 + 1 x253 + 1 x254 + 1 x255 + 1 x256 + 1 x257 + 1 x258 + 1 x259 + 1 x260 + 1 x261 + 1 x262 + 1 x263 + 1 x264 + 1 x265 + 1 x266 + 1 x267 + 1 x268 + 1 x269 + 1 x270 + 1 x271 + 1 x272 + 1 x273 + 1 x274 + 1 x275 + 1 x276 + 1 x277 + 1 x278 + 1 x279 + 1 x280 + 1 x281 + 1 x282 + 1 x283 + 1 x284 + 1 x285 + 1 x286 + 1 x287 + 1 x288 + 1 x289 + 1 x290 + 1 x291 + 1 x292 + 1 x293 + 1 x294 + 1 x295 + 1 x296 + 1 x297 + 1 x298 + 1 x299 + 1 x300 + 1 x301 + 1 x302 + 1 x303 + 1 x304 + 1 x305 + 1 x306 + 1 x307 + 1 x308 + 1 x309 + 1 x310 + 1 x311 + 1 x312 + 1 x313 + 1 x314 + 1 x315 + 1 x316 + 1 x317 + 1 x318 + 1 x319 + 1 x320 + 1 x321 + 1 x322 + 1 x323 + 1 x324 + 1 x325 + 1 x326 + 1 x327 + 1 x328 + 1 x329 + 1 x330 + 1 x331 + 1 x332 + 1 x333 + 1 x334 + 1 x335 + 1 x336 + 1 x337 + 1 x338 + 1 x339 + 1 x340 + 1 x341 + 1 x342 + 1 x343 + 1 x344 + 1 x345 + 1 x346 + 1 x347 + 1 x348 + 1 x349 + 1 x350 + 1 x351 + 1 x352 + 1 x353 + 1 x354 + 1 x355 + 1 x356 + 1 x357 + 1 x358 + 1 x359 + 1 x360 + 1 x361 + 1 x362 + 1 x363 + 1 x364 + 1 x365 + 1 x366 + 1 x367 + 1 x368 + 1 x369 + 1 x370 + 1 x371 + 1 x372 + 1 x373 + 1 x374 + 1 x375 + 1 x376 + 1 x377 + 1 x378 + 1 x379 + 1 x380 + 1 x381 + 1 x382 + 1 x383 + 1 x384 + 1 x385 + 1 x386 + 1 x387 + 1 x388 + 1 x389 + 1 x390 + 1 x391 + 1 x392 + 1 x393 + 1 x394 + 1 x395 + 1 x396 + 1 x397 + 1 x398 + 1 x399 + 1 x400 + 1 x401 + 1 x402 + 1 x403 + 1 x404 + 1 x405 + 1 x406 + 1 x407 + 1 x408 + 1 x409 + 1 x410 + 1 x411 + 1 x412 + 1 x413 + 1 x414 + 1 x415 + 1 x416 + 1 x417 + 1 x418 + 1 x419 + 1 x420 + 1 x421 + 1 x422 + 1 x423 + 1 x424 + 1 x425 + 1 x426 + 1 x427 + 1 x428 + 1 x429 + 1 x430 + 1 x431 + 1 x432 + 1 x433 + 1 x434 + 1 x435 + 1 x436 + 1 x437 + 1 x438 + 1 x439 + 1 x440 + 1 x441 + 1 x442 + 1 x443 + 1 x444 + 1 x445 + 1 x446 + 1 x447 + 1 x448 + 1 x449 + 1 x450 + 1 x451 + 1 x452 + 1 x453 + 1 x454 + 1 x455 + 1 x456 + 1 x457 + 1 x458 + 1 x459 + 1 x460 + 1 x461 + 1 x462 + 1 x463 + 1 x464 + 1 x465 + 1 x466 + 1 x467 + 1 x468 + 1 x469 + 1 x470 + 1 x471 + 1 x472 + 1 x473 + 1 x474 + 1 x475 + 1 x476 + 1 x477 + 1 x478 + 1 x479 + 1 x480 + 1 x481 + 1 x482 + 1 x483 + 1 x484 + 1 x485 + 1 x486 + 1 x487 + 1 x488 + 1 x489 + 1 x490 + 1 x491 + 1 x492 + 1 x493 + 1 x494 + 1 x495 + 1 x496 + 1 x497 + 1 x498 + 1 x499 + 1 x500

subject to
C1: + x198 + x480 <= 1
C2: + x146 + x317 <= 1
C3: + x121 + x381 <= 1
C4: + x212 + x497 <= 1
C5: + x6 + x270 <= 1
C6: + x9 + x64 <= 1
C7: + x85 + x267 <= 1
C8: + x96 + x344 <= 1
C9: + x150 + x358 <= 1
C10: + x81 + x368 <= 1
C11: + x244 + x375 <= 1
C12: + x337 + x437 <= 1
C13: + x21 + x274 <= 1
C14: + x115 + x405 <= 1
C15: + x5 + x204 <= 1
C16: + x6 + x196 <= 1
C17: + x14 + x33 <= 1
C18: + x199 + x404 <= 1
C19: + x105 + x131 <= 1
C20: + x12 + x172 <= 1
C21: + x14 + x132 <= 1
C22: + x23 + x284 <= 1
C23: + x116 + x305 <= 1
C24: + x227 + x374 <= 1
C25: + x121 + x166 <= 1
C26: + x251 + x384 <= 1
C27: + x82 + x83 + x281 <= 1
C28: + x18 + x484 <= 1
C29: + x419 + x442 <= 1
C30: + x148 + x238 <= 1
C31: + x68 + x81 <= 1
C32: + x31 + x101 <= 1
C33: + x287 + x314 <= 1
C34: + x2 + x192 <= 1
C35: + x97 + x124 <= 1
C36: + x28 + x342 <= 1
C37: + x11 + x424 <= 1
C38: + x41 + x353 <= 1
C39: + x224 + x336 <= 1
C40: + x62 + x108 <= 1
C41: + x1 + x167 <= 1
C42: + x9 + x39 <= 1
C43: + x29 + x186 <= 1
C44: + x68 + x316 <= 1
C45: + x21 + x444 <= 1
C46: + x34 + x35 <= 1
C47: + x325 + x427 <= 1
C48: + x62 + x221 <= 1
C49: + x75 + x300 <= 1
C50: + x11 + x37 <= 1
C51: + x48 + x125 <= 1
C52: + x12 + x161 <= 1
C53: + x161 + x172 <= 1
C54: + x4 + x96 <= 1
C55: + x5 + x88 <= 1
C56: + x109 + x127 <= 1
C57: + x9 + x19 <= 1
C58: + x66 + x72 <= 1
C59: + x203 + x248 <= 1
C60: + x11 + x379 <= 1
C61: + x50 + x209 <= 1
C62: + x44 + x340 <= 1
C63: + x62 + x145 <= 1
C64: + x415 + x473 <= 1
C65: + x9 + x226 <= 1
C66: + x62 + x447 <= 1
C67: + x21 + x194 <= 1
C68: + x22 + x190 <= 1
C69: + x77 + x282 <= 1
C70: + x79 + x380 <= 1
C71: + x9 + x95 <= 1
C72: + x45 + x243 <= 1
C73: + x46 + x72 <= 1
C74: + x18 + x118 <= 1
C75: + x4 + x382 <= 1
C76: + x14 + x415 <= 1
C77: + x146 + x220 <= 1
C78: + x1 + x329 <= 1
C79: + x6 + x165 <= 1
C80: + x227 + x308 <= 1
C81: + x11 + x306 <= 1
C82: + x1 + x91 <= 1
C83: + x48 + x149 <= 1
C84: + x31 + x181 <= 1
C85: + x2 + x9 + x13 <= 1
C86: + x11 + x48 <= 1
C87: + x428 + x449 <= 1
C88: + x150 + x203 <= 1
C89: + x6 + x54 <= 1
C90: + x9 + x360 <= 1
C91: + x160 + x248 <= 1
C92: + x228 + x305 <= 1
C93: + x11 + x129 <= 1
C94: + x1 + x202 <= 1
C95: + x14 + x321 <= 1
C96: + x131 + x372 <= 1
C97: + x179 + x483 <= 1
C98: + x27 + x257 <= 1
C99: + x156 + x378 <= 1
C100: + x66 + x303 <= 1
C101: + x374 + x419 <= 1
C102: + x105 + x288 <= 1
C103: + x34 + x467 <= 1
C104: + x1 + x6 <= 1
C105: + x20 + x215 <= 1
C106: + x149 + x329 <= 1
C107: + x13 + x30 <= 1
C108: + x14 + x309 <= 1
C109: + x17 + x89 <= 1
C110: + x9 + x70 <= 1
C111: + x134 + x291 <= 1
C112: + x93 + x276 <= 1
C113: + x41 + x367 <= 1
C114: + x115 + x462 <= 1
C115: + x71 + x73 <= 1
C116: + x182 + x385 <= 1
C117: + x45 + x399 <= 1
C118: + x2 + x59 <= 1
C119: + x22 + x56 <= 1
C120: + x52 + x453 <= 1
C121: + x82 + x320 <= 1
C122: + x119 + x148 <= 1
C123: + x1 + x82 <= 1
C124: + x72 + x325 <= 1
C125: + x38 + x245 <= 1
C126: + x13 + x82 <= 1
C127: + x106 + x127 <= 1
C128: + x146 + x451 <= 1
C129: + x9 + x434 <= 1
C130: + x318 + x410 <= 1
C131: + x130 + x159 <= 1
C132: + x112 + x368 <= 1
C133: + x105 + x347 <= 1
C134: + x9 + x367 <= 1
C135: + x7 + x266 <= 1
C136: + x18 + x137 <= 1
C137: + x91 + x278 <= 1
C138: + x143 + x402 <= 1
C139: + x222 + x489 <= 1
C140: + x13 + x33 <= 1
C141: + x161 + x186 <= 1
C142: + x33 + x373 <= 1
C143: + x223 + x271 <= 1
C144: + x18 + x44 <= 1
C145: + x1 + x110 <= 1
C146: + x203 + x250 <= 1
C147: + x40 + x340 <= 1
C148: + x7 + x88 <= 1
C149: + x83 + x157 <= 1
C150: + x408 + x496 <= 1
C151: + x57 + x216 <= 1
C152: + x38 + x471 <= 1
C153: + x41 + x455 <= 1
C154: + x234 + x281 <= 1
C155: + x82 + x261 <= 1
C156: + x10 + x232 <= 1
C157: + x60 + x450 <= 1
C158: + x13 + x21 <= 1
C159: + x55 + x237 <= 1
C160: + x212 + x251 <= 1
C161: + x93 + x491 <= 1
C162: + x22 + x49 <= 1
C163: + x5 + x25 <= 1
C164: + x13 + x236 <= 1
C165: + x44 + x112 <= 1
C166: + x51 + x490 <= 1
C167: + x20 + x172 <= 1
C168: + x30 + x49 <= 1
C169: + x13 + x73 <= 1
C170: + x104 + x469 <= 1
C171: + x19 + x292 <= 1
C172: + x113 + x421 <= 1
C173: + x32 + x47 <= 1
C174: + x16 + x224 <= 1
C175: + x28 + x71 <= 1
C176: + x13 + x224 <= 1
C177: + x5 + x77 <= 1
C178: + x81 + x475 <= 1
C179: + x200 + x242 <= 1
C180: + x115 + x268 <= 1
C181: + x176 + x465 <= 1
C182: + x32 + x83 <= 1
C183: + x1 + x20 <= 1
C184: + x19 + x198 <= 1
C185: + x11 + x231 <= 1
C186: + x242 + x322 <= 1
C187: + x18 + x89 <= 1
C188: + x111 + x336 <= 1
C189: + x275 + x330 <= 1
C190: + x267 + x379 <= 1
C191: + x7 + x123 <= 1
C192: + x57 + x352 <= 1
C193: + x94 + x252 <= 1
C194: + x67 + x123 <= 1
C195: + x157 + x249 <= 1
C196: + x116 + x147 <= 1
C197: + x6 + x160 <= 1
C198: + x33 + x439 <= 1
C199: + x7 + x361 <= 1
C200: + x10 + x213 <= 1
C201: + x64 + x106 <= 1
C202: + x13 + x397 <= 1
C203: + x82 + x85 <= 1
C204: + x47 + x141 <= 1
C205: + x259 + x452 <= 1
C206: + x14 + x126 <= 1
C207: + x9 + x285 <= 1
C208: + x144 + x165 <= 1
C209: + x255 + x276 <= 1
C210: + x11 + x190 <= 1
C211: + x18 + x38 <= 1
C212: + x9 + x15 <= 1
C213: + x37 + x221 <= 1
C214: + x134 + x362 <= 1
C215: + x30 + x94 <= 1
C216: + x48 + x248 <= 1
C217: + x96 + x357 <= 1
C218: + x227 + x246 <= 1
C219: + x214 + x447 <= 1
C220: + x1 + x235 <= 1
C221: + x41 + x82 <= 1
C222: + x52 + x98 <= 1
C223: + x46 + x172 <= 1
C224: + x70 + x235 <= 1
C225: + x7 + x126 <= 1
C226: + x28 + x470 <= 1
C227: + x246 + x279 <= 1
C228: + x147 + x153 <= 1
C229: + x53 + x460 <= 1
C230: + x290 + x467 <= 1
C231: + x182 + x234 <= 1
C232: + x302 + x392 <= 1
C233: + x48 + x169 <= 1
C234: + x27 + x337 <= 1
C235: + x76 + x333 <= 1
C236: + x51 + x107 <= 1
C237: + x23 + x36 <= 1
C238: + x6 + x42 <= 1
C239: + x14 + x119 <= 1
C240: + x8 + x129 <= 1
C241: + x228 + x301 <= 1
C242: + x5 + x51 <= 1
C243: + x333 + x360 <= 1
C244: + x16 + x65 <= 1
C245: + x254 + x427 <= 1
C246: + x75 + x474 <= 1
C247: + x5 + x301 <= 1
C248: + x87 + x339 <= 1
C249: + x335 + x481 <= 1
C250: + x127 + x337 <= 1
C251: + x2 + x75 <= 1
C252: + x359 + x475 <= 1
C253: + x143 + x439 <= 1
C254: + x74 + x347 <= 1
C255: + x9 + x133 <= 1
C256: + x102 + x170 <= 1
C257: + x4 + x109 <= 1
C258: + x24 + x114 <= 1
C259: + x9 + x98 <= 1
C260: + x62 + x319 <= 1
C261: + x18 + x75 <= 1
C262: + x59 + x324 <= 1
C263: + x6 + x111 <= 1
C264: + x2 + x7 <= 1
C265: + x148 + x228 <= 1
C266: + x66 + x327 <= 1
C267: + x5 + x246 <= 1
C268: + x14 + x31 <= 1
C269: + x10 + x199 <= 1
C270: + x50 + x368 <= 1
C271: + x240 + x498 <= 1
C272: + x7 + x8 <= 1
C273: + x400 + x451 <= 1
C274: + x3 + x64 <= 1
C275: + x5 + x133 <= 1
C276: + x14 + x112 <= 1
C277: + x11 + x176 <= 1
C278: + x29 + x259 <= 1
C279: + x378 + x417 <= 1
C280: + x237 + x414 <= 1
C281: + x8 + x29 <= 1
C282: + x33 + x163 <= 1
C283: + x168 + x259 <= 1
C284: + x489 + x496 <= 1
C285: + x208 + x301 <= 1
C286: + x416 + x445 <= 1
C287: + x57 + x244 <= 1
C288: + x11 + x63 <= 1
C289: + x49 + x326 <= 1
C290: + x192 + x393 <= 1
C291: + x2 + x68 <= 1
C292: + x79 + x84 <= 1
C293: + x18 + x350 <= 1
C294: + x27 + x385 <= 1
C295: + x2 + x239 <= 1
C296: + x21 + x236 <= 1
C297: + x51 + x315 <= 1
C298: + x179 + x273 <= 1
C299: + x16 + x30 <= 1
C300: + x18 + x68 <= 1
C301: + x392 + x491 <= 1
C302: + x18 + x495 <= 1
C303: + x9 + x454 <= 1
C304: + x280 + x499 <= 1
C305: + x32 + x126 <= 1
C306: + x159 + x187 <= 1
C307: + x16 + x34 <= 1
C308: + x36 + x214 <= 1
C309: + x207 + x271 <= 1
C310: + x44 + x278 <= 1
C311: + x9 + x306 <= 1
C312: + x263 + x493 <= 1
C313: + x11 + x87 <= 1
C314: + x51 + x450 <= 1
C315: + x53 + x91 <= 1
C316: + x142 + x418 <= 1
C317: + x9 + x36 <= 1
C318: + x2 + x375 <= 1
C319: + x30 + x41 <= 1
C320: + x5 + x275 <= 1
C321: + x89 + x263 <= 1
C322: + x51 + x81 <= 1
C323: + x117 + x349 <= 1
C324: + x18 + x154 <= 1
C325: + x39 + x45 <= 1
C326: + x1 + x413 <= 1
C327: + x66 + x67 <= 1
C328: + x49 + x135 <= 1
C329: + x412 + x418 <= 1
C330: + x42 + x79 <= 1
C331: + x34 + x122 <= 1
C332: + x142 + x249 <= 1
C333: + x74 + x131 <= 1
C334: + x2 + x17 <= 1
C335: + x46 + x389 <= 1
C336: + x47 + x499 <= 1
C337: + x42 + x490 <= 1
C338: + x50 + x63 <= 1
C339: + x119 + x202 <= 1
C340: + x57 + x473 <= 1
C341: + x50 + x410 <= 1
C342: + x79 + x373 <= 1
C343: + x16 + x47 <= 1
C344: + x9 + x92 <= 1
C345: + x50 + x144 <= 1
C346: + x9 + x313 <= 1
C347: + x66 + x365 <= 1
C348: + x121 + x392 <= 1
C349: + x48 + x53 <= 1
C350: + x222 + x479 <= 1
C351: + x6 + x168 <= 1
C352: + x146 + x469 <= 1
C353: + x8 + x19 <= 1
C354: + x130 + x435 <= 1
C355: + x41 + x191 <= 1
C356: + x17 + x27 <= 1
C357: + x35 + x173 <= 1
C358: + x16 + x274 <= 1
C359: + x9 + x23 <= 1
C360: + x90 + x479 <= 1
C361: + x46 + x144 <= 1
C362: + x11 + x359 <= 1
C363: + x6 + x90 <= 1
C364: + x9 + x500 <= 1
C365: + x8 + x358 <= 1
C366: + x272 + x488 <= 1
C367: + x85 + x337 <= 1
C368: + x7 + x489 <= 1
C369: + x101 + x404 <= 1
C370: + x147 + x323 <= 1
C371: + x121 + x125 <= 1
C372: + x3 + x9 <= 1
C373: + x59 + x222 <= 1
C374: + x139 + x177 <= 1
C375: + x230 + x242 <= 1
C376: + x118 + x265 <= 1
C377: + x9 + x320 <= 1
C378: + x185 + x260 <= 1
C379: + x5 + x23 <= 1
C380: + x19 + x137 <= 1
C381: + x8 + x12 <= 1
C382: + x12 + x77 <= 1
C383: + x196 + x252 <= 1
C384: + x70 + x132 <= 1
C385: + x75 + x351 <= 1
C386: + x20 + x436 <= 1
C387: + x21 + x292 <= 1
C388: + x151 + x205 <= 1
C389: + x18 + x321 <= 1
C390: + x9 + x161 <= 1
C391: + x188 + x296 <= 1
C392: + x24 + x150 <= 1
C393: + x117 + x189 <= 1
C394: + x57 + x120 <= 1
C395: + x113 + x117 <= 1
C396: + x59 + x145 <= 1
C397: + x395 + x478 <= 1
C398: + x5 + x309 <= 1
C399: + x96 + x374 <= 1
C400: + x7 + x81 <= 1
C401: + x174 + x428 <= 1
C402: + x11 + x32 <= 1
C403: + x30 + x349 <= 1
C404: + x6 + x230 <= 1
C405: + x145 + x192 <= 1
C406: + x9 + x237 <= 1
C407: + x16 + x154 <= 1
C408: + x1 + x26 <= 1
C409: + x201 + x354 <= 1
C410: + x4 + x117 <= 1
C411: + x18 + x99 <= 1
C412: + x39 + x313 <= 1
C413: + x6 + x119 <= 1
C414: + x7 + x141 <= 1
C415: + x11 + x68 <= 1
C416: + x48 + x59 <= 1
C417: + x97 + x253 <= 1
C418: + x261 + x363 <= 1
C419: + x172 + x178 <= 1
C420: + x1 + x86 <= 1
C421: + x309 + x474 <= 1
C422: + x75 + x485 <= 1
C423: + x222 + x372 <= 1
C424: + x239 + x486 <= 1
C425: + x9 + x217 <= 1
C426: + x12 + x70 <= 1
C427: + x35 + x191 <= 1
C428: + x7 + x32 <= 1
C429: + x83 + x101 <= 1
C430: + x2 + x485 <= 1
C431: + x248 + x362 <= 1
C432: + x3 + x88 <= 1
C433: + x20 + x441 <= 1
C434: + x81 + x246 <= 1
C435: + x18 + x314 <= 1
C436: + x38 + x322 <= 1
C437: + x29 + x315 <= 1
C438: + x5 + x66 <= 1
C439: + x96 + x480 <= 1
C440: + x1 + x98 <= 1
C441: + x51 + x205 <= 1
C442: + x90 + x96 <= 1
C443: + x9 + x351 <= 1
C444: + x62 + x461 <= 1
C445: + x55 + x328 <= 1
C446: + x38 + x182 <= 1
C447: + x59 + x466 <= 1
C448: + x13 + x17 <= 1
C449: + x297 + x445 <= 1
C450: + x34 + x254 <= 1
C451: + x6 + x477 <= 1
C452: + x173 + x426 <= 1
C453: + x185 + x437 <= 1
C454: + x9 + x302 <= 1
C455: + x74 + x226 <= 1
C456: + x1 + x144 <= 1
C457: + x147 + x163 <= 1
C458: + x148 + x209 <= 1
C459: + x158 + x234 <= 1
C460: + x149 + x195 <= 1
C461: + x6 + x147 <= 1
C462: + x6 + x366 <= 1
C463: + x71 + x438 <= 1
C464: + x120 + x277 <= 1
C465: + x240 + x487 <= 1
C466: + x13 + x69 <= 1
C467: + x13 + x402 <= 1
C468: + x25 + x163 <= 1
C469: + x120 + x444 <= 1
C470: + x38 + x93 <= 1
C471: + x41 + x390 <= 1
C472: + x13 + x375 <= 1
C473: + x132 + x156 <= 1
C474: + x4 + x284 <= 1
C475: + x16 + x365 <= 1
C476: + x1 + x220 <= 1
C477: + x120 + x134 <= 1
C478: + x52 + x414 <= 1
C479: + x333 + x366 <= 1
C480: + x18 + x33 <= 1
C481: + x38 + x46 <= 1
C482: + x340 + x422 <= 1
C483: + x175 + x487 <= 1
C484: + x70 + x186 <= 1
C485: + x17 + x60 <= 1
C486: + x4 + x425 <= 1
C487: + x146 + x151 <= 1
C488: + x130 + x168 <= 1
C489: + x12 + x345 <= 1
C490: + x31 + x69 <= 1
C491: + x14 + x53 <= 1
C492: + x99 + x175 <= 1
C493: + x13 + x16 <= 1
C494: + x98 + x311 <= 1
C495: + x9 + x120 <= 1
C496: + x293 + x339 <= 1
C497: + x81 + x184 <= 1
C498: + x199 + x319 <= 1
C499: + x149 + x202 <= 1
C500: + x169 + x179 <= 1
C501: + x53 + x457 <= 1
C502: + x117 + x265 <= 1
C503: + x6 + x343 <= 1
C504: + x464 + x486 <= 1
C505: + x264 + x490 <= 1
C506: + x7 + x10 <= 1
C507: + x80 + x151 <= 1
C508: + x84 + x285 <= 1
C509: + x18 + x393 <= 1
C510: + x4 + x192 <= 1
C511: + x252 + x434 <= 1
C512: + x302 + x447 <= 1
C513: + x233 + x391 <= 1
C514: + x105 + x476 <= 1
C515: + x51 + x255 <= 1
C516: + x148 + x257 <= 1
C517: + x191 + x423 <= 1
C518: + x129 + x194 <= 1
C519: + x216 + x427 <= 1
C520: + x10 + x22 <= 1
C521: + x26 + x27 <= 1
C522: + x48 + x200 <= 1
C523: + x48 + x371 <= 1
C524: + x13 + x305 <= 1
C525: + x65 + x233 <= 1
C526: + x273 + x462 <= 1
C527: + x51 + x408 <= 1
C528: + x107 + x201 <= 1
C529: + x30 + x31 <= 1
C530: + x17 + x411 <= 1
C531: + x9 + x264 <= 1
C532: + x1 + x170 <= 1
C533: + x211 + x265 <= 1
C534: + x97 + x222 <= 1
C535: + x141 + x330 <= 1
C536: + x269 + x279 <= 1
C537: + x122 + x204 <= 1
C538: + x20 + x138 <= 1
C539: + x181 + x328 <= 1
C540: + x18 + x164 <= 1
C541: + x101 + x218 <= 1
C542: + x11 + x149 <= 1
C543: + x47 + x118 <= 1
C544: + x19 + x52 <= 1
C545: + x260 + x296 <= 1
C546: + x6 + x312 <= 1
C547: + x10 + x378 <= 1
C548: + x12 + x17 <= 1
C549: + x50 + x275 <= 1
C550: + x168 + x374 <= 1
C551: + x6 + x107 <= 1
C552: + x416 + x488 <= 1
C553: + x2 + x27 <= 1
C554: + x111 + x116 <= 1
C555: + x9 + x245 <= 1
C556: + x10 + x203 <= 1
C557: + x40 + x241 <= 1
C558: + x34 + x221 <= 1
C559: + x20 + x34 <= 1
C560: + x34 + x105 + x341 <= 1
C561: + x50 + x146 <= 1
C562: + x19 + x430 <= 1
C563: + x174 + x195 <= 1
C564: + x46 + x323 <= 1
C565: + x30 + x137 <= 1
C566: + x33 + x405 <= 1
C567: + x90 + x166 <= 1
C568: + x24 + x183 <= 1
C569: + x153 + x284 <= 1
C570: + x466 + x482 <= 1
C571: + x186 + x200 <= 1
C572: + x490 + x492 <= 1
C573: + x9 + x414 <= 1
C574: + x164 + x468 <= 1
C575: + x63 + x209 <= 1
C576: + x66 + x221 <= 1
C577: + x56 + x269 <= 1
C578: + x29 + x398 <= 1
C579: + x5 + x181 <= 1
C580: + x14 + x96 <= 1
C581: + x270 + x491 <= 1
C582: + x16 + x251 <= 1
C583: + x19 + x43 <= 1
C584: + x143 + x446 <= 1
C585: + x16 + x26 <= 1
C586: + x239 + x282 <= 1
C587: + x30 + x128 <= 1
C588: + x141 + x167 <= 1
C589: + x292 + x362 <= 1
C590: + x70 + x380 <= 1
C591: + x253 + x379 <= 1
C592: + x290 + x481 <= 1
C593: + x1 + x9 <= 1
C594: + x148 + x332 <= 1
C595: + x6 + x485 <= 1
C596: + x16 + x46 <= 1
C597: + x56 + x370 <= 1
C598: + x6 + x8 <= 1
C599: + x128 + x464 <= 1
C600: + x147 + x187 <= 1
C601: + x242 + x310 <= 1
C602: + x13 + x256 <= 1
C603: + x224 + x494 <= 1
C604: + x226 + x458 <= 1
C605: + x101 + x121 <= 1
C606: + x119 + x135 <= 1
C607: + x1 + x69 <= 1
C608: + x30 + x37 <= 1
C609: + x13 + x93 <= 1
C610: + x96 + x352 <= 1
C611: + x199 + x367 <= 1
C612: + x37 + x43 <= 1
C613: + x82 + x139 <= 1
C614: + x427 + x456 <= 1
C615: + x74 + x329 <= 1
C616: + x22 + x233 <= 1
C617: + x205 + x372 <= 1
C618: + x43 + x176 <= 1
C619: + x116 + x313 <= 1
C620: + x18 + x57 <= 1
C621: + x62 + x333 <= 1
C622: + x5 + x430 <= 1
C623: + x175 + x463 <= 1
C624: + x22 + x263 <= 1
C625: + x181 + x453 <= 1
C626: + x18 + x476 <= 1
C627: + x11 + x106 <= 1
C628: + x307 + x420 <= 1
C629: + x38 + x135 <= 1
C630: + x94 + x383 <= 1
C631: + x115 + x166 <= 1
C632: + x231 + x477 <= 1
C633: + x37 + x110 <= 1
C634: + x163 + x355 <= 1
C635: + x118 + x268 <= 1
C636: + x10 + x70 <= 1
C637: + x30 + x155 <= 1
C638: + x108 + x305 <= 1
C639: + x142 + x471 <= 1
C640: + x147 + x471 <= 1
C641: + x13 + x92 <= 1
C642: + x33 + x181 <= 1
C643: + x28 + x378 <= 1
C644: + x310 + x355 <= 1
C645: + x67 + x130 <= 1
C646: + x52 + x368 <= 1
C647: + x352 + x439 <= 1
C648: + x16 + x286 <= 1
C649: + x28 + x76 <= 1
C650: + x21 + x91 <= 1
C651: + x22 + x272 <= 1
C652: + x53 + x279 <= 1
C653: + x18 + x477 <= 1
C654: + x55 + x124 <= 1
C655: + x15 + x174 <= 1
C656: + x33 + x331 <= 1
C657: + x13 + x428 <= 1
C658: + x53 + x134 <= 1
C659: + x16 + x52 <= 1
C660: + x28 + x291 <= 1
C661: + x10 + x345 <= 1
C662: + x1 + x420 <= 1
C663: + x12 + x391 <= 1
C664: + x4 + x358 <= 1
C665: + x396 + x401 <= 1
C666: + x126 + x498 <= 1
C667: + x16 + x343 <= 1
C668: + x1 + x182 <= 1
C669: + x29 + x364 <= 1
C670: + x36 + x85 <= 1
C671: + x18 + x255 <= 1
C672: + x38 + x244 <= 1
C673: + x52 + x218 <= 1
C674: + x28 + x383 <= 1
C675: + x366 + x458 <= 1
C676: + x259 + x463 <= 1
C677: + x142 + x150 <= 1
C678: + x9 + x165 <= 1
C679: + x10 + x59 <= 1
C680: + x227 + x443 <= 1
C681: + x16 + x210 <= 1
C682: + x41 + x57 <= 1
C683: + x51 + x292 <= 1
C684: + x333 + x380 <= 1
C685: + x17 + x165 <= 1
C686: + x168 + x443 <= 1
C687: + x89 + x293 <= 1
C688: + x7 + x85 <= 1
C689: + x155 + x326 <= 1
C690: + x138 + x268 <= 1
C691: + x247 + x307 <= 1
C692: + x3 + x109 <= 1
C693: + x4 + x222 <= 1
C694: + x90 + x246 <= 1
C695: + x7 + x315 <= 1
C696: + x94 + x369 <= 1
C697: + x114 + x208 <= 1
C698: + x178 + x211 <= 1
C699: + x13 + x419 <= 1
C700: + x2 + x301 <= 1
C701: + x293 + x297 <= 1
C702: + x204 + x384 <= 1
C703: + x252 + x346 <= 1
C704: + x2 + x51 <= 1
C705: + x5 + x26 <= 1
C706: + x15 + x193 <= 1
C707: + x45 + x113 <= 1
C708: + x118 + x236 <= 1
C709: + x94 + x261 <= 1
C710: + x51 + x149 <= 1
C711: + x395 + x413 <= 1
C712: + x6 + x388 <= 1
C713: + x155 + x441 <= 1
C714: + x60 + x175 <= 1
C715: + x6 + x39 <= 1
C716: + x288 + x357 <= 1
C717: + x7 + x258 <= 1
C718: + x173 + x205 <= 1
C719: + x210 + x396 <= 1
C720: + x146 + x332 <= 1
C721: + x41 + x64 <= 1
C722: + x89 + x90 <= 1
C723: + x5 + x78 <= 1
C724: + x126 + x237 <= 1
C725: + x334 + x381 <= 1
C726: + x56 + x219 <= 1
C727: + x157 + x476 <= 1
C728: + x213 + x297 <= 1
C729: + x7 + x80 <= 1
C730: + x263 + x401 <= 1
C731: + x416 + x449 <= 1
C732: + x128 + x448 <= 1
C733: + x3 + x104 <= 1
C734: + x41 + x463 <= 1
C735: + x13 + x176 <= 1
C736: + x176 + x183 <= 1
C737: + x1 + x21 <= 1
C738: + x8 + x66 <= 1
C739: + x70 + x78 <= 1
C740: + x81 + x280 <= 1
C741: + x92 + x497 <= 1
C742: + x221 + x277 <= 1
C743: + x184 + x385 <= 1
C744: + x19 + x86 <= 1
C745: + x149 + x207 <= 1
C746: + x4 + x143 <= 1
C747: + x98 + x256 <= 1
C748: + x70 + x388 <= 1
C749: + x9 + x196 <= 1
C750: + x28 + x162 <= 1
C751: + x181 + x248 <= 1
C752: + x148 + x308 <= 1
C753: + x13 + x65 <= 1
C754: + x205 + x206 <= 1
C755: + x128 + x369 <= 1
C756: + x20 + x454 <= 1
C757: + x160 + x238 <= 1
C758: + x1 + x224 <= 1
C759: + x144 + x275 <= 1
C760: + x37 + x377 <= 1
C761: + x112 + x212 <= 1
C762: + x380 + x394 <= 1
C763: + x18 + x37 <= 1
C764: + x55 + x164 <= 1
C765: + x2 + x355 <= 1
C766: + x21 + x429 <= 1
C767: + x51 + x196 <= 1
C768: + x5 + x295 <= 1
C769: + x32 + x424 <= 1
C770: + x247 + x269 <= 1
C771: + x11 + x14 <= 1
C772: + x428 + x483 <= 1
C773: + x11 + x497 <= 1
C774: + x58 + x148 <= 1
C775: + x56 + x318 <= 1
C776: + x4 + x204 <= 1
C777: + x8 + x191 <= 1
C778: + x218 + x265 <= 1
C779: + x85 + x124 <= 1
C780: + x105 + x389 <= 1
C781: + x51 + x56 <= 1
C782: + x74 + x239 <= 1
C783: + x11 + x114 <= 1
C784: + x267 + x456 <= 1
C785: + x18 + x226 <= 1
C786: + x19 + x242 <= 1
C787: + x283 + x419 <= 1
C788: + x185 + x250 <= 1
C789: + x241 + x290 <= 1
C790: + x33 + x300 <= 1
C791: + x4 + x19 <= 1
C792: + x212 + x216 <= 1
C793: + x3 + x38 <= 1
C794: + x196 + x453 <= 1
C795: + x215 + x353 <= 1
C796: + x101 + x350 <= 1
C797: + x7 + x21 + x319 <= 1
C798: + x18 + x30 <= 1
C799: + x138 + x452 <= 1
C800: + x222 + x278 <= 1
C801: + x89 + x314 <= 1
C802: + x17 + x55 <= 1
C803: + x18 + x441 <= 1
C804: + x1 + x273 <= 1
C805: + x428 + x476 <= 1
C806: + x2 + x74 <= 1
C807: + x12 + x342 <= 1
C808: + x350 + x431 <= 1
C809: + x96 + x132 <= 1
C810: + x23 + x38 + x67 <= 1
C811: + x27 + x116 <= 1
C812: + x11 + x234 <= 1
C813: + x14 + x141 <= 1
C814: + x17 + x70 <= 1
C815: + x82 + x394 <= 1
C816: + x16 + x24 <= 1
C817: + x247 + x439 <= 1
C818: + x35 + x244 <= 1
C819: + x182 + x321 <= 1
C820: + x175 + x442 <= 1
C821: + x111 + x351 <= 1
C822: + x70 + x211 <= 1
C823: + x288 + x304 <= 1
C824: + x59 + x254 <= 1
C825: + x328 + x482 <= 1
C826: + x1 + x146 <= 1
C827: + x2 + x6 <= 1
C828: + x219 + x416 <= 1
C829: + x5 + x338 <= 1
C830: + x5 + x247 <= 1
C831: + x38 + x152 <= 1
C832: + x312 + x473 <= 1
C833: + x4 + x495 <= 1
C834: + x92 + x411 <= 1
C835: + x10 + x289 <= 1
C836: + x3 + x61 <= 1
C837: + x206 + x431 <= 1
C838: + x17 + x415 <= 1
C839: + x21 + x161 <= 1
C840: + x126 + x333 <= 1
C841: + x18 + x23 <= 1
C842: + x71 + x344 <= 1
C843: + x9 + x62 <= 1
C844: + x5 + x277 <= 1
C845: + x142 + x267 <= 1
C846: + x325 + x418 <= 1
C847: + x2 + x67 <= 1
C848: + x367 + x402 <= 1
C849: + x51 + x87 <= 1
C850: + x124 + x450 <= 1
C851: + x90 + x210 <= 1
C852: + x13 + x58 <= 1
C853: + x197 + x303 <= 1
C854: + x23 + x262 <= 1
C855: + x24 + x138 <= 1
C856: + x156 + x459 <= 1
C857: + x12 + x21 <= 1
C858: + x400 + x422 <= 1
C859: + x112 + x283 <= 1
C860: + x431 + x471 <= 1
C861: + x288 + x460 <= 1
C862: + x126 + x189 <= 1
C863: + x272 + x312 <= 1
C864: + x12 + x102 <= 1
C865: + x56 + x373 <= 1
C866: + x105 + x447 <= 1
C867: + x13 + x288 <= 1
C868: + x124 + x395 <= 1
C869: + x6 + x27 <= 1
C870: + x7 + x153 <= 1
C871: + x53 + x330 <= 1
C872: + x182 + x433 <= 1
C873: + x74 + x288 <= 1
C874: + x17 + x307 <= 1
C875: + x35 + x50 <= 1
C876: + x101 + x126 <= 1
C877: + x113 + x140 <= 1
C878: + x185 + x212 <= 1
C879: + x41 + x270 <= 1
C880: + x42 + x130 <= 1
C881: + x30 + x40 <= 1
C882: + x134 + x231 <= 1
C883: + x407 + x412 <= 1
C884: + x149 + x159 <= 1
C885: + x42 + x61 <= 1
C886: + x34 + x400 <= 1
C887: + x353 + x397 <= 1
C888: + x426 + x459 <= 1
C889: + x163 + x238 <= 1
C890: + x1 + x241 <= 1
C891: + x9 + x383 <= 1
C892: + x25 + x485 <= 1
C893: + x39 + x46 <= 1
C894: + x174 + x243 <= 1
C895: + x48 + x115 <= 1
C896: + x16 + x102 <= 1
C897: + x50 + x272 <= 1
C898: + x6 + x96 <= 1
C899: + x7 + x104 <= 1
C900: + x24 + x486 <= 1
C901: + x11 + x466 <= 1
C902: + x75 + x171 <= 1
C903: + x20 + x369 <= 1
C904: + x301 + x321 <= 1
C905: + x192 + x357 <= 1
C906: + x106 + x169 <= 1
C907: + x17 + x195 <= 1
C908: + x21 + x200 <= 1
C909: + x205 + x293 <= 1
C910: + x51 + x180 <= 1
C911: + x155 + x488 <= 1
C912: + x38 + x440 <= 1
C913: + x2 + x36 <= 1
C914: + x223 + x470 <= 1
C915: + x34 + x280 <= 1
C916: + x9 + x44 <= 1
C917: + x1 + x89 <= 1
C918: + x8 + x14 <= 1
C919: + x10 + x164 <= 1
C920: + x134 + x333 <= 1
C921: + x460 + x478 <= 1
C922: + x42 + x139 <= 1
C923: + x30 + x33 <= 1
C924: + x44 + x155 <= 1
C925: + x7 + x35 <= 1
C926: + x158 + x417 <= 1
C927: + x127 + x331 <= 1
C928: + x176 + x340 <= 1
C929: + x19 + x34 <= 1
C930: + x10 + x13 <= 1
C931: + x52 + x125 <= 1
C932: + x6 + x294 <= 1
C933: + x45 + x188 <= 1
C934: + x30 + x117 <= 1
C935: + x33 + x142 <= 1
C936: + x40 + x345 <= 1
C937: + x81 + x152 <= 1
C938: + x174 + x434 <= 1
C939: + x38 + x304 <= 1
C940: + x68 + x93 <= 1
C941: + x91 + x232 <= 1
C942: + x18 + x206 <= 1
C943: + x16 + x293 <= 1
C944: + x1 + x417 <= 1
C945: + x327 + x499 <= 1
C946: + x42 + x99 <= 1
C947: + x170 + x438 <= 1
C948: + x16 + x342 <= 1
C949: + x10 + x74 <= 1
C950: + x19 + x101 <= 1
C951: + x103 + x159 <= 1
C952: + x108 + x309 <= 1
C953: + x244 + x429 <= 1
C954: + x30 + x58 <= 1
C955: + x104 + x478 <= 1
C956: + x63 + x199 <= 1
C957: + x46 + x119 <= 1
C958: + x247 + x356 <= 1
C959: + x374 + x410 <= 1
C960: + x14 + x78 <= 1
C961: + x150 + x214 <= 1
C962: + x2 + x241 <= 1
C963: + x3 + x255 <= 1
C964: + x5 + x92 <= 1
C965: + x389 + x443 <= 1
C966: + x230 + x379 <= 1
C967: + x7 + x82 <= 1
C968: + x111 + x472 <= 1
C969: + x59 + x115 <= 1
C970: + x33 + x482 <= 1
C971: + x109 + x309 <= 1
C972: + x27 + x28 <= 1
C973: + x16 + x153 <= 1
C974: + x91 + x348 <= 1
C975: + x68 + x481 <= 1
C976: + x51 + x281 <= 1
C977: + x81 + x286 <= 1
C978: + x143 + x377 <= 1
C979: + x110 + x433 <= 1
C980: + x248 + x341 <= 1
C981: + x11 + x65 <= 1
C982: + x5 + x31 <= 1
C983: + x90 + x376 <= 1
C984: + x172 + x177 <= 1
C985: + x187 + x258 <= 1
C986: + x216 + x253 <= 1
C987: + x28 + x371 <= 1
C988: + x46 + x112 <= 1
C989: + x38 + x494 <= 1
C990: + x50 + x117 <= 1
C991: + x142 + x146 <= 1
C992: + x7 + x186 <= 1
C993: + x91 + x287 <= 1
C994: + x1 + x198 <= 1
C995: + x465 + x499 <= 1
C996: + x23 + x387 <= 1
C997: + x16 + x408 <= 1
C998: + x9 + x483 <= 1
C999: + x192 + x404 <= 1
C1000: + x41 + x460 <= 1
C1001: + x96 + x145 <= 1
C1002: + x24 + x344 <= 1
C1003: + x163 + x258 <= 1
C1004: + x290 + x400 <= 1
C1005: + x346 + x429 <= 1
C1006: + x48 + x94 <= 1
C1007: + x13 + x18 <= 1
C1008: + x51 + x276 <= 1
C1009: + x450 + x500 <= 1
C1010: + x5 + x452 <= 1
C1011: + x143 + x324 <= 1
C1012: + x11 + x350 <= 1
C1013: + x20 + x66 <= 1
C1014: + x14 + x396 <= 1
C1015: + x9 + x303 <= 1
C1016: + x91 + x153 <= 1
C1017: + x85 + x215 <= 1
C1018: + x122 + x274 <= 1
C1019: + x13 + x225 <= 1
C1020: + x53 + x64 <= 1
C1021: + x91 + x375 <= 1
C1022: + x4 + x41 <= 1
C1023: + x118 + x395 <= 1
C1024: + x143 + x144 <= 1
C1025: + x21 + x307 <= 1
C1026: + x33 + x36 <= 1
C1027: + x197 + x469 <= 1
C1028: + x9 + x283 <= 1
C1029: + x94 + x178 <= 1
C1030: + x6 + x273 <= 1
C1031: + x334 + x377 <= 1
C1032: + x247 + x493 <= 1
C1033: + x36 + x142 <= 1
C1034: + x6 + x436 <= 1
C1035: + x9 + x490 <= 1
C1036: + x2 + x116 <= 1
C1037: + x38 + x475 <= 1
C1038: + x11 + x15 <= 1
C1039: + x30 + x302 <= 1
C1040: + x69 + x324 <= 1
C1041: + x287 + x444 <= 1
C1042: + x342 + x378 <= 1
C1043: + x17 + x76 <= 1
C1044: + x25 + x298 <= 1
C1045: + x10 + x335 <= 1
C1046: + x111 + x337 <= 1
C1047: + x20 + x71 <= 1
C1048: + x3 + x19 <= 1
C1049: + x204 + x361 <= 1
C1050: + x102 + x262 <= 1
C1051: + x17 + x489 <= 1
C1052: + x7 + x128 <= 1
C1053: + x20 + x345 <= 1
C1054: + x34 + x308 <= 1
C1055: + x5 + x13 <= 1
C1056: + x16 + x179 <= 1
C1057: + x85 + x307 <= 1
C1058: + x286 + x336 <= 1
C1059: + x51 + x140 <= 1
C1060: + x13 + x394 <= 1
C1061: + x138 + x334 <= 1
C1062: + x50 + x103 <= 1
C1063: + x31 + x385 <= 1
C1064: + x52 + x327 <= 1
C1065: + x454 + x461 <= 1
C1066: + x10 + x41 <= 1
C1067: + x5 + x49 <= 1
C1068: + x14 + x220 <= 1
C1069: + x189 + x227 <= 1
C1070: + x9 + x52 <= 1
C1071: + x62 + x365 <= 1
C1072: + x18 + x25 <= 1
C1073: + x14 + x458 <= 1
C1074: + x35 + x134 <= 1
C1075: + x53 + x240 <= 1
C1076: + x5 + x291 <= 1
C1077: + x23 + x122 <= 1
C1078: + x44 + x466 <= 1
C1079: + x9 + x334 <= 1
C1080: + x28 + x111 <= 1
C1081: + x11 + x235 <= 1
C1082: + x19 + x58 <= 1
C1083: + x48 + x100 <= 1
C1084: + x60 + x467 <= 1
C1085: + x89 + x113 <= 1
C1086: + x150 + x451 <= 1
C1087: + x101 + x433 <= 1
C1088: + x174 + x295 <= 1
C1089: + x48 + x382 <= 1
C1090: + x12 + x418 <= 1
C1091: + x142 + x201 <= 1
C1092: + x1 + x298 <= 1
C1093: + x28 + x32 <= 1
C1094: + x101 + x163 <= 1
C1095: + x85 + x229 <= 1
C1096: + x12 + x269 <= 1
C1097: + x74 + x294 <= 1
C1098: + x20 + x354 <= 1
C1099: + x126 + x380 <= 1
C1100: + x186 + x407 <= 1
C1101: + x167 + x209 <= 1
C1102: + x206 + x289 <= 1
C1103: + x5 + x12 <= 1
C1104: + x20 + x189 <= 1
C1105: + x21 + x55 <= 1
C1106: + x24 + x229 <= 1
C1107: + x316 + x353 <= 1
C1108: + x207 + x407 <= 1
C1109: + x226 + x334 <= 1
C1110: + x11 + x223 <= 1
C1111: + x33 + x213 <= 1
C1112: + x37 + x114 <= 1
C1113: + x221 + x292 <= 1
C1114: + x5 + x155 <= 1
C1115: + x182 + x427 <= 1
C1116: + x1 + x171 <= 1
C1117: + x173 + x370 <= 1
C1118: + x35 + x60 <= 1
C1119: + x184 + x479 <= 1
C1120: + x45 + x316 <= 1
C1121: + x144 + x218 <= 1
C1122: + x28 + x406 <= 1
C1123: + x66 + x219 <= 1
C1124: + x197 + x399 <= 1
C1125: + x108 + x151 <= 1
C1126: + x18 + x352 <= 1
C1127: + x290 + x403 <= 1
C1128: + x46 + x381 <= 1
C1129: + x66 + x425 <= 1
C1130: + x89 + x120 <= 1
C1131: + x126 + x207 <= 1
C1132: + x18 + x78 <= 1
C1133: + x200 + x279 <= 1
C1134: + x57 + x97 <= 1
C1135: + x3 + x444 <= 1
C1136: + x21 + x79 <= 1
C1137: + x41 + x251 <= 1
C1138: + x7 + x461 <= 1
C1139: + x36 + x323 <= 1
C1140: + x10 + x111 <= 1
C1141: + x83 + x260 <= 1
C1142: + x1 + x150 <= 1
C1143: + x5 + x243 <= 1
C1144: + x22 + x170 <= 1
C1145: + x33 + x295 <= 1
C1146: + x23 + x339 <= 1
C1147: + x82 + x442 <= 1
C1148: + x200 + x331 <= 1
C1149: + x11 + x443 <= 1
C1150: + x122 + x406 <= 1
C1151: + x12 + x403 <= 1
C1152: + x114 + x465 <= 1
C1153: + x70 + x259 <= 1
C1154: + x81 + x211 <= 1
C1155: + x18 + x293 <= 1
C1156: + x9 + x272 <= 1
C1157: + x1 + x162 <= 1
C1158: + x273 + x498 <= 1
C1159: + x263 + x495 <= 1
C1160: + x242 + x308 <= 1
C1161: + x85 + x184 <= 1
C1162: + x51 + x452 <= 1
C1163: + x15 + x230 <= 1
C1164: + x51 + x62 + x103 <= 1
C1165: + x10 + x182 <= 1
C1166: + x46 + x229 <= 1
C1167: + x95 + x440 <= 1
C1168: + x12 + x484 <= 1
C1169: + x16 + x492 <= 1
C1170: + x176 + x330 <= 1
C1171: + x82 + x145 <= 1
C1172: + x127 + x442 <= 1
C1173: + x157 + x340 <= 1
C1174: + x449 + x472 <= 1
C1175: + x13 + x54 <= 1
C1176: + x293 + x492 <= 1
C1177: + x16 + x25 <= 1
C1178: + x320 + x458 <= 1
C1179: + x6 + x83 <= 1
C1180: + x7 + x97 <= 1
C1181: + x83 + x178 <= 1
C1182: + x66 + x240 <= 1
C1183: + x59 + x102 <= 1
C1184: + x367 + x482 <= 1
C1185: + x90 + x341 <= 1
C1186: + x2 + x190 <= 1
C1187: + x41 + x113 <= 1
C1188: + x4 + x5 <= 1
C1189: + x21 + x197 <= 1
C1190: + x50 + x412 <= 1
C1191: + x54 + x154 <= 1
C1192: + x58 + x300 <= 1
C1193: + x192 + x457 <= 1
C1194: + x6 + x7 <= 1
C1195: + x91 + x129 <= 1
C1196: + x26 + x467 <= 1
C1197: + x8 + x238 <= 1
C1198: + x2 + x47 <= 1
C1199: + x148 + x188 <= 1
C1200: + x37 + x402 <= 1
C1201: + x11 + x84 <= 1
C1202: + x117 + x232 <= 1
C1203: + x108 + x315 <= 1
C1204: + x218 + x348 <= 1
C1205: + x93 + x399 <= 1
C1206: + x8 + x440 <= 1
C1207: + x75 + x298 <= 1
C1208: + x55 + x415 <= 1
C1209: + x10 + x16 <= 1
C1210: + x212 + x456 <= 1
C1211: + x447 + x469 <= 1
C1212: + x13 + x45 <= 1
C1213: + x161 + x174 <= 1
C1214: + x3 + x233 <= 1
C1215: + x112 + x191 <= 1
C1216: + x78 + x94 <= 1
C1217: + x14 + x425 <= 1
C1218: + x261 + x409 <= 1
C1219: + x352 + x474 <= 1
C1220: + x126 + x420 <= 1
C1221: + x26 + x158 <= 1
C1222: + x26 + x57 <= 1
C1223: + x24 + x87 <= 1
C1224: + x82 + x428 <= 1
C1225: + x96 + x311 <= 1
C1226: + x138 + x160 <= 1
C1227: + x22 + x45 <= 1
C1228: + x9 + x48 <= 1
C1229: + x8 + x10 <= 1
C1230: + x19 + x139 <= 1
C1231: + x7 + x39 <= 1
C1232: + x263 + x364 <= 1
C1233: + x2 + x494 <= 1
C1234: + x11 + x46 <= 1
C1235: + x149 + x162 <= 1
C1236: + x21 + x290 <= 1
C1237: + x41 + x406 <= 1
C1238: + x160 + x242 <= 1
C1239: + x13 + x44 <= 1
C1240: + x5 + x89 <= 1
C1241: + x160 + x484 <= 1
C1242: + x16 + x111 <= 1
C1243: + x144 + x422 <= 1
C1244: + x9 + x28 <= 1
C1245: + x293 + x383 <= 1
C1246: + x21 + x92 <= 1
C1247: + x8 + x62 <= 1
C1248: + x11 + x356 <= 1
C1249: + x67 + x325 <= 1
C1250: + x8 + x353 <= 1
C1251: + x64 + x136 <= 1
C1252: + x1 + x310 <= 1
C1253: + x57 + x264 <= 1
C1254: + x27 + x420 <= 1
C1255: + x409 + x422 <= 1
C1256: + x55 + x335 <= 1
C1257: + x10 + x253 <= 1
C1258: + x106 + x396 <= 1
C1259: + x70 + x91 <= 1
C1260: + x80 + x371 <= 1
C1261: + x56 + x327 <= 1
C1262: + x79 + x158 <= 1
C1263: + x207 + x286 <= 1
C1264: + x46 + x208 <= 1
C1265: + x5 + x270 <= 1
C1266: + x51 + x128 <= 1
C1267: + x6 + x61 <= 1
C1268: + x82 + x335 <= 1
C1269: + x18 + x143 <= 1
C1270: + x454 + x478 <= 1
C1271: + x2 + x245 <= 1
C1272: + x20 + x278 <= 1
C1273: + x132 + x464 <= 1
C1274: + x23 + x250 <= 1
C1275: + x34 + x164 <= 1
C1276: + x15 + x384 <= 1
C1277: + x18 + x42 <= 1
C1278: + x1 + x112 <= 1
C1279: + x57 + x125 <= 1
C1280: + x43 + x159 <= 1
C1281: + x11 + x363 <= 1
C1282: + x394 + x457 <= 1
C1283: + x138 + x267 <= 1
C1284: + x2 + x102 <= 1
C1285: + x6 + x225 <= 1
C1286: + x18 + x187 <= 1
C1287: + x9 + x146 <= 1
C1288: + x283 + x398 <= 1
C1289: + x38 + x184 <= 1
C1290: + x51 + x162 <= 1
C1291: + x53 + x142 <= 1
C1292: + x66 + x100 <= 1
C1293: + x68 + x215 <= 1
C1294: + x43 + x104 <= 1
C1295: + x352 + x500 <= 1
C1296: + x83 + x207 <= 1
C1297: + x94 + x225 <= 1
C1298: + x161 + x231 <= 1
C1299: + x108 + x290 <= 1
C1300: + x119 + x233 <= 1
C1301: + x11 + x290 <= 1
C1302: + x131 + x272 <= 1
C1303: + x33 + x287 <= 1
C1304: + x4 + x40 <= 1
C1305: + x70 + x120 <= 1
C1306: + x40 + x204 <= 1
C1307: + x35 + x285 <= 1
C1308: + x62 + x500 <= 1
C1309: + x20 + x283 <= 1
C1310: + x114 + x140 <= 1
C1311: + x23 + x241 <= 1
C1312: + x9 + x10 <= 1
C1313: + x10 + x158 <= 1
C1314: + x20 + x122 <= 1
C1315: + x321 + x393 <= 1
C1316: + x46 + x491 <= 1
C1317: + x14 + x55 <= 1
C1318: + x1 + x22 <= 1
C1319: + x11 + x229 <= 1
C1320: + x56 + x75 <= 1
C1321: + x240 + x282 <= 1
C1322: + x13 + x14 <= 1
C1323: + x9 + x118 <= 1
C1324: + x18 + x95 <= 1
C1325: + x46 + x177 <= 1
C1326: + x148 + x454 <= 1
C1327: + x58 + x251 <= 1
C1328: + x67 + x121 <= 1
C1329: + x6 + x361 <= 1
C1330: + x9 + x197 <= 1
C1331: + x53 + x60 <= 1
C1332: + x51 + x324 <= 1
C1333: + x200 + x348 <= 1
C1334: + x129 + x180 <= 1
C1335: + x1 + x463 <= 1
C1336: + x97 + x360 <= 1
C1337: + x18 + x310 <= 1
C1338: + x19 + x446 <= 1
C1339: + x164 + x234 <= 1
C1340: + x11 + x188 <= 1
C1341: + x66 + x391 <= 1
C1342: + x32 + x181 <= 1
C1343: + x334 + x373 <= 1
C1344: + x290 + x300 <= 1
C1345: + x9 + x49 <= 1
C1346: + x10 + x135 <= 1
C1347: + x7 + x411 <= 1
C1348: + x21 + x113 <= 1
C1349: + x186 + x363 <= 1
C1350: + x37 + x457 <= 1
C1351: + x130 + x187 <= 1
C1352: + x14 + x48 <= 1
C1353: + x90 + x199 <= 1
C1354: + x23 + x123 <= 1
C1355: + x11 + x240 <= 1
C1356: + x3 + x257 <= 1
C1357: + x105 + x148 <= 1
C1358: + x14 + x147 <= 1
C1359: + x6 + x449 <= 1
C1360: + x231 + x347 <= 1
C1361: + x175 + x440 <= 1
C1362: + x7 + x116 <= 1
C1363: + x11 + x127 <= 1
C1364: + x13 + x156 <= 1
C1365: + x25 + x349 <= 1
C1366: + x32 + x138 <= 1
C1367: + x20 + x188 <= 1
C1368: + x41 + x160 <= 1
C1369: + x286 + x332 <= 1
C1370: + x33 + x210 <= 1
C1371: + x13 + x390 <= 1
C1372: + x59 + x298 <= 1
C1373: + x182 + x267 <= 1
C1374: + x83 + x84 <= 1
C1375: + x3 + x35 <= 1
C1376: + x257 + x421 <= 1
C1377: + x12 + x409 <= 1
C1378: + x6 + x24 <= 1
C1379: + x7 + x176 <= 1
C1380: + x160 + x214 <= 1
C1381: + x309 + x348 <= 1
C1382: + x55 + x287 <= 1
C1383: + x85 + x174 <= 1
C1384: + x334 + x366 <= 1
C1385: + x18 + x29 <= 1
C1386: + x9 + x56 <= 1
C1387: + x45 + x156 <= 1
C1388: + x27 + x194 <= 1
C1389: + x30 + x416 <= 1
C1390: + x25 + x123 <= 1
C1391: + x307 + x338 <= 1
C1392: + x7 + x63 <= 1
C1393: + x101 + x302 <= 1
C1394: + x11 + x54 <= 1
C1395: + x105 + x382 <= 1
C1396: + x181 + x326 <= 1
C1397: + x9 + x370 <= 1
C1398: + x1 + x228 <= 1
C1399: + x427 + x472 <= 1
C1400: + x161 + x322 <= 1
C1401: + x18 + x73 <= 1
C1402: + x183 + x376 <= 1
C1403: + x21 + x68 <= 1
C1404: + x50 + x168 <= 1
C1405: + x101 + x274 <= 1
C1406: + x2 + x5 <= 1
C1407: + x8 + x107 <= 1
C1408: + x38 + x151 <= 1
C1409: + x20 + x193 <= 1
C1410: + x124 + x227 <= 1
C1411: + x53 + x175 <= 1
C1412: + x2 + x451 <= 1
C1413: + x38 + x74 <= 1
C1414: + x136 + x213 <= 1
C1415: + x47 + x157 <= 1
C1416: + x6 + x17 <= 1
C1417: + x19 + x121 <= 1
C1418: + x75 + x110 <= 1
C1419: + x34 + x261 <= 1
C1420: + x18 + x22 <= 1
C1421: + x34 + x43 <= 1
C1422: + x192 + x395 <= 1
C1423: + x50 + x80 <= 1
C1424: + x63 + x449 <= 1
C1425: + x32 + x239 <= 1
C1426: + x14 + x336 <= 1
C1427: + x1 + x392 <= 1
C1428: + x294 + x346 <= 1
C1429: + x32 + x473 <= 1
C1430: + x21 + x357 <= 1
C1431: + x8 + x100 <= 1
C1432: + x285 + x338 <= 1
C1433: + x14 + x260 <= 1
C1434: + x43 + x235 <= 1
C1435: + x38 + x398 <= 1
C1436: + x6 + x26 <= 1
C1437: + x85 + x180 <= 1
C1438: + x161 + x223 <= 1
C1439: + x142 + x480 <= 1
C1440: + x8 + x24 <= 1
C1441: + x65 + x387 <= 1
C1442: + x39 + x212 <= 1
C1443: + x258 + x342 <= 1
C1444: + x161 + x481 <= 1
C1445: + x18 + x426 <= 1
C1446: + x1 + x496 <= 1
C1447: + x11 + x40 <= 1
C1448: + x192 + x436 <= 1
C1449: + x86 + x157 <= 1
C1450: + x51 + x79 <= 1
C1451: + x238 + x434 <= 1
C1452: + x30 + x216 <= 1
C1453: + x371 + x445 <= 1
C1454: + x164 + x424 <= 1
C1455: + x55 + x194 <= 1
C1456: + x41 + x230 <= 1
C1457: + x6 + x95 <= 1
C1458: + x74 + x129 <= 1
C1459: + x1 + x316 <= 1
C1460: + x2 + x23 <= 1
C1461: + x58 + x114 <= 1
C1462: + x149 + x228 <= 1
C1463: + x246 + x387 <= 1
C1464: + x290 + x327 <= 1
C1465: + x9 + x94 <= 1
C1466: + x64 + x227 <= 1
C1467: + x58 + x304 <= 1
C1468: + x258 + x318 <= 1
C1469: + x14 + x416 <= 1
C1470: + x45 + x407 <= 1
C1471: + x10 + x72 <= 1
C1472: + x105 + x196 <= 1
C1473: + x5 + x42 <= 1
C1474: + x96 + x105 <= 1
C1475: + x9 + x45 <= 1
C1476: + x144 + x405 <= 1
C1477: + x13 + x90 <= 1
C1478: + x13 + x487 <= 1
C1479: + x215 + x230 <= 1
C1480: + x6 + x404 <= 1
C1481: + x185 + x494 <= 1
C1482: + x149 + x167 <= 1
C1483: + x13 + x332 <= 1
C1484: + x132 + x167 <= 1
C1485: + x108 + x121 <= 1
C1486: + x5 + x185 <= 1
C1487: + x16 + x207 <= 1
C1488: + x61 + x257 <= 1
C1489: + x22 + x244 <= 1
C1490: + x13 + x41 <= 1
C1491: + x104 + x106 <= 1
C1492: + x125 + x294 <= 1
C1493: + x9 + x25 <= 1
C1494: + x27 + x239 <= 1
C1495: + x51 + x299 <= 1
C1496: + x18 + x52 <= 1
C1497: + x50 + x203 <= 1
C1498: + x178 + x286 <= 1
C1499: + x3 + x152 <= 1
C1500: + x94 + x215 <= 1
C1501: + x141 + x320 <= 1
C1502: + x9 + x339 <= 1
C1503: + x181 + x359 <= 1
C1504: + x280 + x354 <= 1
C1505: + x1 + x5 <= 1
C1506: + x122 + x150 <= 1
C1507: + x19 + x211 <= 1
C1508: + x124 + x138 <= 1
C1509: + x243 + x437 <= 1
C1510: + x3 + x7 <= 1
C1511: + x230 + x256 <= 1
C1512: + x6 + x12 <= 1
C1513: + x92 + x243 <= 1
C1514: + x11 + x71 <= 1
C1515: + x37 + x389 <= 1
C1516: + x58 + x71 <= 1
C1517: + x20 + x325 <= 1
C1518: + x11 + x316 <= 1
C1519: + x41 + x168 <= 1
C1520: + x244 + x331 <= 1
C1521: + x83 + x108 <= 1
C1522: + x28 + x381 <= 1
C1523: + x11 + x413 <= 1
C1524: + x41 + x410 <= 1
C1525: + x88 + x198 <= 1
C1526: + x21 + x131 <= 1
C1527: + x159 + x472 <= 1
C1528: + x227 + x258 <= 1
C1529: + x8 + x58 <= 1
C1530: + x174 + x263 <= 1
C1531: + x18 + x53 <= 1
C1532: + x21 + x413 <= 1
C1533: + x51 + x212 <= 1
C1534: + x259 + x356 <= 1
C1535: + x25 + x99 <= 1
C1536: + x7 + x87 <= 1
C1537: + x2 + x97 <= 1
C1538: + x47 + x259 <= 1
C1539: + x23 + x86 <= 1
C1540: + x127 + x412 <= 1
C1541: + x163 + x177 <= 1
C1542: + x8 + x79 <= 1
C1543: + x1 + x28 <= 1
C1544: + x381 + x435 <= 1
C1545: + x33 + x245 <= 1
C1546: + x90 + x454 <= 1
C1547: + x326 + x493 <= 1
C1548: + x13 + x262 <= 1
C1549: + x315 + x329 <= 1
C1550: + x405 + x459 <= 1
C1551: + x137 + x254 <= 1
C1552: + x8 + x273 <= 1
C1553: + x67 + x99 <= 1
C1554: + x290 + x450 <= 1
C1555: + x10 + x173 <= 1
C1556: + x37 + x225 <= 1
C1557: + x85 + x302 <= 1
C1558: + x6 + x390 <= 1
C1559: + x7 + x30 <= 1
C1560: + x75 + x328 <= 1
C1561: + x175 + x371 <= 1
C1562: + x73 + x213 <= 1
C1563: + x62 + x76 <= 1
C1564: + x9 + x170 <= 1
C1565: + x3 + x247 <= 1
C1566: + x13 + x223 <= 1
C1567: + x102 + x344 <= 1
C1568: + x56 + x217 <= 1
C1569: + x33 + x157 <= 1
C1570: + x51 + x203 <= 1
C1571: + x15 + x29 <= 1
C1572: + x31 + x295 <= 1
C1573: + x414 + x423 <= 1
C1574: + x90 + x249 <= 1
C1575: + x17 + x356 <= 1
C1576: + x18 + x364 <= 1
C1577: + x30 + x247 <= 1
C1578: + x124 + x136 <= 1
C1579: + x107 + x182 <= 1
C1580: + x68 + x219 <= 1
C1581: + x7 + x134 <= 1
C1582: + x16 + x347 <= 1
C1583: + x5 + x7 <= 1
C1584: + x90 + x133 <= 1
C1585: + x201 + x343 <= 1
C1586: + x144 + x484 <= 1
C1587: + x58 + x436 <= 1
C1588: + x21 + x34 <= 1
C1589: + x194 + x220 <= 1
C1590: + x61 + x73 <= 1
C1591: + x160 + x228 <= 1
C1592: + x16 + x367 <= 1
C1593: + x9 + x284 <= 1
C1594: + x28 + x93 <= 1
C1595: + x231 + x399 <= 1
C1596: + x50 + x464 <= 1
C1597: + x9 + x14 <= 1
C1598: + x27 + x252 <= 1
C1599: + x18 + x39 <= 1
C1600: + x38 + x44 <= 1
C1601: + x35 + x140 <= 1
C1602: + x84 + x358 <= 1
C1603: + x2 + x115 <= 1
C1604: + x192 + x255 <= 1
C1605: + x140 + x314 <= 1
C1606: + x5 + x127 <= 1
C1607: + x11 + x326 <= 1
C1608: + x3 + x20 <= 1
C1609: + x26 + x435 <= 1
C1610: + x90 + x115 <= 1
C1611: + x8 + x206 <= 1
C1612: + x1 + x38 <= 1
C1613: + x92 + x101 <= 1
C1614: + x3 + x346 <= 1
C1615: + x174 + x190 <= 1
C1616: + x22 + x338 <= 1
C1617: + x51 + x137 <= 1
C1618: + x161 + x260 <= 1
C1619: + x19 + x277 <= 1
C1620: + x243 + x247 <= 1
C1621: + x83 + x250 <= 1
C1622: + x20 + x296 <= 1
C1623: + x5 + x50 <= 1
C1624: + x17 + x152 <= 1
C1625: + x9 + x53 <= 1
C1626: + x248 + x495 <= 1
C1627: + x403 + x468 <= 1
C1628: + x104 + x448 <= 1
C1629: + x244 + x366 <= 1
C1630: + x74 + x166 <= 1
C1631: + x9 + x335 <= 1
C1632: + x111 + x256 <= 1
C1633: + x222 + x393 <= 1
C1634: + x178 + x200 <= 1
C1635: + x6 + x461 <= 1
C1636: + x16 + x22 <= 1
C1637: + x110 + x411 <= 1
C1638: + x9 + x97 <= 1
C1639: + x30 + x108 <= 1
C1640: + x140 + x414 <= 1
C1641: + x71 + x184 <= 1
C1642: + x199 + x312 <= 1
C1643: + x1 + x160 <= 1
C1644: + x2 + x8 <= 1
C1645: + x157 + x206 <= 1
C1646: + x59 + x81 <= 1
C1647: + x104 + x132 + x136 <= 1
C1648: + x23 + x75 <= 1
C1649: + x26 + x343 <= 1
C1650: + x9 + x208 <= 1
C1651: + x67 + x401 <= 1
C1652: + x60 + x85 <= 1
C1653: + x5 + x487 <= 1
C1654: + x33 + x214 <= 1
C1655: + x13 + x386 <= 1
C1656: + x46 + x90 <= 1
C1657: + x22 + x446 <= 1
C1658: + x6 + x20 <= 1
C1659: + x12 + x252 <= 1
C1660: + x5 + x57 <= 1
C1661: + x6 + x183 <= 1
C1662: + x161 + x197 <= 1
C1663: + x470 + x498 <= 1
C1664: + x199 + x210 <= 1
C1665: + x90 + x433 <= 1
C1666: + x44 + x171 <= 1
C1667: + x74 + x175 <= 1
C1668: + x96 + x143 <= 1
C1669: + x270 + x496 <= 1
C1670: + x10 + x12 + x18 <= 1
C1671: + x239 + x390 + x426 <= 1
C1672: + x1 + x232 <= 1
C1673: + x302 + x455 <= 1
C1674: + x449 + x466 <= 1
C1675: + x4 + x83 <= 1
C1676: + x7 + x462 <= 1
C1677: + x132 + x197 <= 1
C1678: + x97 + x318 <= 1
C1679: + x6 + x105 <= 1
C1680: + x407 + x479 <= 1
C1681: + x20 + x362 <= 1
C1682: + x57 + x465 <= 1
C1683: + x38 + x147 <= 1
C1684: + x11 + x199 <= 1
C1685: + x62 + x269 <= 1
C1686: + x198 + x477 <= 1
C1687: + x27 + x455 <= 1
C1688: + x255 + x264 <= 1
C1689: + x122 + x376 <= 1
C1690: + x5 + x40 <= 1
C1691: + x116 + x179 <= 1
C1692: + x215 + x474 <= 1
C1693: + x80 + x280 <= 1
C1694: + x89 + x262 <= 1
C1695: + x346 + x365 <= 1
C1696: + x75 + x304 <= 1
C1697: + x264 + x415 <= 1
C1698: + x6 + x193 <= 1
C1699: + x126 + x313 <= 1
C1700: + x18 + x155 <= 1
C1701: + x57 + x396 <= 1
C1702: + x50 + x431 <= 1
C1703: + x13 + x55 <= 1
C1704: + x89 + x128 <= 1
C1705: + x58 + x351 <= 1
C1706: + x50 + x266 <= 1
C1707: + x41 + x312 <= 1
C1708: + x123 + x322 <= 1
C1709: + x321 + x430 <= 1
C1710: + x11 + x109 <= 1
C1711: + x85 + x236 <= 1
C1712: + x2 + x18 <= 1
C1713: + x13 + x107 <= 1
C1714: + x208 + x240 <= 1
C1715: + x20 + x480 <= 1
C1716: + x24 + x448 <= 1
C1717: + x18 + x285 <= 1
C1718: + x6 + x372 <= 1
C1719: + x9 + x42 <= 1
C1720: + x317 + x438 <= 1
C1721: + x13 + x95 <= 1
C1722: + x13 + x492 <= 1
C1723: + x87 + x359 <= 1
C1724: + x235 + x280 <= 1
C1725: + x71 + x237 <= 1
C1726: + x27 + x369 <= 1
C1727: + x67 + x133 <= 1
C1728: + x41 + x432 <= 1
C1729: + x426 + x462 <= 1
C1730: + x7 + x202 <= 1
C1731: + x227 + x423 <= 1
C1732: + x252 + x403 <= 1
C1733: + x18 + x63 <= 1
C1734: + x127 + x216 <= 1
C1735: + x7 + x448 <= 1
C1736: + x66 + x69 <= 1
C1737: + x391 + x470 <= 1
C1738: + x150 + x320 <= 1
C1739: + x70 + x208 <= 1
C1740: + x11 + x24 <= 1
C1741: + x185 + x311 <= 1
C1742: + x340 + x363 <= 1
C1743: + x13 + x189 <= 1
C1744: + x5 + x226 <= 1
C1745: + x24 + x328 <= 1
C1746: + x13 + x98 <= 1
C1747: + x87 + x430 <= 1
C1748: + x118 + x119 <= 1
C1749: + x19 + x377 <= 1
C1750: + x33 + x72 <= 1
C1751: + x6 + x15 <= 1
C1752: + x28 + x50 <= 1
C1753: + x68 + x391 <= 1
C1754: + x380 + x425 <= 1
C1755: + x261 + x355 <= 1
C1756: + x11 + x317 <= 1
C1757: + x3 + x370 <= 1
C1758: + x13 + x86 <= 1
C1759: + x253 + x421 <= 1
C1760: + x18 + x423 <= 1
C1761: + x9 + x398 <= 1
C1762: + x16 + x288 <= 1
C1763: + x71 + x470 <= 1
C1764: + x111 + x156 <= 1
C1765: + x29 + x291 <= 1
C1766: + x76 + x88 <= 1
C1767: + x13 + x37 <= 1
C1768: + x124 + x178 <= 1
C1769: + x4 + x74 <= 1
C1770: + x25 + x195 <= 1
C1771: + x18 + x56 <= 1
C1772: + x23 + x297 <= 1
C1773: + x8 + x61 <= 1
C1774: + x30 + x80 <= 1
C1775: + x332 + x468 <= 1
C1776: + x7 + x84 <= 1
C1777: + x83 + x161 <= 1
C1778: + x338 + x486 <= 1
C1779: + x11 + x31 <= 1
C1780: + x2 + x100 <= 1
C1781: + x38 + x299 <= 1
C1782: + x89 + x253 <= 1
C1783: + x108 + x169 <= 1
C1784: + x51 + x283 <= 1
C1785: + x122 + x432 <= 1
C1786: + x12 + x441 <= 1
C1787: + x4 + x360 <= 1
C1788: + x18 + x271 <= 1
C1789: + x208 + x401 <= 1
C1790: + x273 + x488 <= 1
C1791: + x75 + x131 <= 1
C1792: + x5 + x29 <= 1
C1793: + x6 + x171 <= 1
C1794: + x11 + x296 <= 1
C1795: + x68 + x299 <= 1
C1796: + x13 + x77 <= 1
C1797: + x18 + x416 <= 1
C1798: + x83 + x104 <= 1
C1799: + x57 + x143 <= 1
C1800: + x94 + x429 <= 1
C1801: + x11 + x409 <= 1
C1802: + x8 + x421 <= 1
C1803: + x196 + x468 <= 1
C1804: + x32 + x35 <= 1
C1805: + x6 + x60 <= 1
C1806: + x24 + x386 <= 1
C1807: + x82 + x334 <= 1
C1808: + x181 + x294 <= 1
C1809: + x18 + x142 <= 1
C1810: + x5 + x65 <= 1
C1811: + x161 + x354 <= 1
C1812: + x142 + x386 <= 1
C1813: + x91 + x438 <= 1
C1814: + x26 + x254 <= 1
C1815: + x8 + x54 <= 1
C1816: + x11 + x364 <= 1
C1817: + x465 + x497 <= 1
C1818: + x48 + x282 <= 1
C1819: + x23 + x397 <= 1
C1820: + x6 + x77 <= 1
C1821: + x62 + x192 <= 1
C1822: + x101 + x306 <= 1
C1823: + x144 + x193 <= 1
C1824: + x1 + x270 <= 1
C1825: + x23 + x106 <= 1
C1826: + x16 + x297 <= 1
C1827: + x1 + x32 <= 1
C1828: + x16 + x59 <= 1
C1829: + x194 + x409 <= 1
C1830: + x142 + x217 <= 1
C1831: + x18 + x264 <= 1
C1832: + x16 + x346 <= 1
C1833: + x1 + x8 + x16 <= 1
C1834: + x103 + x139 <= 1
C1835: + x33 + x435 <= 1
C1836: + x9 + x223 <= 1
C1837: + x13 + x76 <= 1
C1838: + x97 + x389 <= 1
C1839: + x3 + x5 + x6 + x11 <= 1
C1840: + x76 + x231 <= 1
C1841: + x14 + x66 <= 1
C1842: + x9 + x174 <= 1
C1843: + x1 + x219 <= 1
C1844: + x66 + x397 <= 1
C1845: + x148 + x158 <= 1
C1846: + x276 + x465 <= 1
C1847: + x5 + x80 <= 1
C1848: + x9 + x11 <= 1
C1849: + x8 + x51 <= 1
C1850: + x38 + x47 <= 1
C1851: + x61 + x130 <= 1
C1852: + x16 + x403 <= 1
C1853: + x182 + x460 <= 1
C1854: + x66 + x318 <= 1
C1855: + x95 + x179 <= 1
C1856: + x21 + x261 <= 1
C1857: + x26 + x317 <= 1
C1858: + x16 + x306 <= 1
C1859: + x254 + x263 <= 1
C1860: + x427 + x483 <= 1
C1861: + x9 + x154 <= 1
C1862: + x13 + x15 <= 1
C1863: + x488 + x493 <= 1
C1864: + x322 + x431 <= 1
C1865: + x52 + x185 <= 1
C1866: + x235 + x249 <= 1
C1867: + x6 + x122 <= 1
C1868: + x81 + x183 <= 1
C1869: + x338 + x388 <= 1
C1870: + x17 + x276 <= 1
C1871: + x113 + x173 <= 1
C1872: + x13 + x400 <= 1
C1873: + x97 + x412 <= 1
C1874: + x35 + x180 <= 1
C1875: + x7 + x9 <= 1
C1876: + x135 + x222 <= 1
C1877: + x339 + x419 <= 1
C1878: + x29 + x62 <= 1
C1879: + x376 + x407 <= 1
C1880: + x178 + x428 <= 1
C1881: + x79 + x185 <= 1
C1882: + x24 + x408 <= 1
C1883: + x10 + x408 <= 1
C1884: + x10 + x43 <= 1
C1885: + x11 + x185 <= 1
C1886: + x2 + x198 <= 1
C1887: + x94 + x141 <= 1
C1888: + x214 + x459 <= 1
C1889: + x20 + x130 <= 1
C1890: + x5 + x289 <= 1
C1891: + x17 + x50 <= 1
C1892: + x93 + x325 <= 1
C1893: + x229 + x266 <= 1
C1894: + x37 + x303 <= 1
C1895: + x64 + x432 <= 1
C1896: + x4 + x105 <= 1
C1897: + x287 + x445 <= 1
C1898: + x14 + x349 <= 1
C1899: + x24 + x118 <= 1
C1900: + x334 + x424 <= 1
C1901: + x28 + x268 <= 1
C1902: + x88 + x310 <= 1
C1903: + x73 + x446 <= 1
C1904: + x9 + x475 <= 1
C1905: + x329 + x432 <= 1
C1906: + x64 + x317 <= 1
C1907: + x13 + x149 <= 1
C1908: + x5 + x10 <= 1
C1909: + x296 + x417 <= 1
C1910: + x287 + x464 <= 1
C1911: + x9 + x205 <= 1
C1912: + x8 + x109 <= 1
C1913: + x288 + x456 <= 1
C1914: + x17 + x224 <= 1
C1915: + x37 + x275 <= 1
C1916: + x57 + x455 <= 1
C1917: + x59 + x311 <= 1
C1918: + x351 + x382 <= 1
C1919: + x18 + x387 <= 1
C1920: + x147 + x350 <= 1
C1921: + x112 + x392 <= 1
C1922: + x104 + x299 <= 1
C1923: + x96 + x218 <= 1
C1924: + x61 + x289 <= 1
C1925: + x7 + x173 <= 1
C1926: + x1 + x169 <= 1
C1927: + x102 + x227 <= 1
C1928: + x382 + x400 <= 1
C1929: + x41 + x48 <= 1
C1930: + x13 + x201 <= 1
C1931: + x5 + x395 <= 1
C1932: + x18 + x20 <= 1
C1933: + x77 + x110 <= 1
C1934: + x25 + x124 <= 1
C1935: + x81 + x361 <= 1
C1936: + x9 + x406 <= 1
C1937: + x199 + x384 <= 1
C1938: + x19 + x453 <= 1
C1939: + x11 + x51 <= 1
C1940: + x13 + x352 <= 1
C1941: + x89 + x217 <= 1
C1942: + x260 + x394 <= 1
C1943: + x57 + x386 <= 1
C1944: + x148 + x376 <= 1
C1945: + x239 + x437 <= 1
C1946: + x161 + x323 <= 1
C1947: + x71 + x271 <= 1
C1948: + x170 + x405 <= 1
C1949: + x6 + x108 <= 1
C1950: + x190 + x287 <= 1
C1951: + x2 + x28 <= 1
C1952: + x58 + x103 <= 1
C1953: + x30 + x374 <= 1
C1954: + x13 + x148 <= 1
C1955: + x22 + x359 <= 1
C1956: + x14 + x266 <= 1
C1957: + x90 + x489 <= 1
C1958: + x72 + x201 <= 1
C1959: + x38 + x388 <= 1

binary
x1 x2 x3 x4 x5 x6 x7 x8 x9 x10 x11 x12 x13 x14 x15 x16 x17 x18 x19 x20 x21 x22 x23 x24 x25 x26 x27 x28 x29 x30 x31 x32 x33 x34 x35 x36 x37 x38 x39 x40 x41 x42 x43 x44 x45 x46 x47 x48 x49 x50 x51 x52 x53 x54 x55 x56 x57 x58 x59 x60 x61 x62 x63 x64 x65 x66 x67 x68 x69 x70 x71 x72 x73 x74 x75 x76 x77 x78 x79 x80 x81 x82 x83 x84 x85 x86 x87 x88 x89 x90 x91 x92 x93 x94 x95 x96 x97 x98 x99 x100 x101 x102 x103 x104 x105 x106 x107 x108 x109 x110 x111 x112 x113 x114 x115 x116 x117 x118 x119 x120 x121 x122 x123 x124 x125 x126 x127 x128 x129 x130 x131 x132 x133 x134 x135 x136 x137 x138 x139 x140 x141 x142 x143 x144 x145 x146 x147 x148 x149 x150 x151 x152 x153 x154 x155 x156 x157 x158 x159 x160 x161 x162 x163 x164 x165 x166 x167 x168 x169 x170 x171 x172 x173 x174 x175 x176 x177 x178 x179 x180 x181 x182 x183 x184 x185 x186 x187 x188 x189 x190 x191 x192 x193 x194 x195 x196 x197 x198 x199 x200 x201 x202 x203 x204 x205 x206 x207 x208 x209 x210 x211 x212 x213 x214 x215 x216 x217 x218 x219 x220 x221 x222 x223 x224 x225 x226 x227 x228 x229 x230 x231 x232 x233 x234 x235 x236 x237 x238 x239 x240 x241 x242 x243 x244 x245 x246 x247 x248 x249 x250 x251 x252 x253 x254 x255 x256 x257 x258 x259 x260 x261 x262 x263 x264 x265 x266 x267 x268 x269 x270 x271 x272 x273 x274 x275 x276 x277 x278 x279 x280 x281 x282 x283 x284 x285 x286 x287 x288 x289 x290 x291 x292 x293 x294 x295 x296 x297 x298 x299 x300 x301 x302 x303 x304 x305 x306 x307 x308 x309 x310 x311 x312 x313 x314 x315 x316 x317 x318 x319 x320 x321 x322 x323 x324 x325 x326 x327 x328 x329 x330 x331 x332 x333 x334 x335 x336 x337 x338 x339 x340 x341 x342 x343 x344 x345 x346 x347 x348 x349 x350 x351 x352 x353 x354 x355 x356 x357 x358 x359 x360 x361 x362 x363 x364 x365 x366 x367 x368 x369 x370 x371 x372 x373 x374 x375 x376 x377 x378 x379 x380 x381 x382 x383 x384 x385 x386 x387 x388 x389 x390 x391 x392 x393 x394 x395 x396 x397 x398 x399 x400 x401 x402 x403 x404 x405 x406 x407 x408 x409 x410 x411 x412 x413 x414 x415 x416 x417 x418 x419 x420 x421 x422 x423 x424 x425 x426 x427 x428 x429 x430 x431 x432 x433 x434 x435 x436 x437 x438 x439 x440 x441 x442 x443 x444 x445 x446 x447 x448 x449 x450 x451 x452 x453 x454 x455 x456 x457 x458 x459 x460 x461 x462 x463 x464 x465 x466 x467 x468 x469 x470 x471 x472 x473 x474 x475 x476 x477 x478 x479 x480 x481 x482 x483 x484 x485 x486 x487 x488 x489 x490 x491 x492 x493 x494 x495 x496 x497 x498 x499 x500
