maximize
OBJ: + 1 x1 + 1 x2 + 1 x3 + 1 x4 + 1 x5 + 1 x6 + 1 x7 + 1 x8 + 1 x9 + 1 x10 + 1 x11 + 1 x12 + 1 x13 + 1 x14 + 1 x15 + 1 x16 + 1 x17 + 1 x18 + 1 x19 + 1 x20 + 1 x21 + 1 x22 + 1 x23 + 1 x24 + 1 x25 + 1 x26 + 1 x27 + 1 x28 + 1 x29 + 1 x30 + 1 x31 + 1 x32 + 1 x33 + 1 x34 + 1 x35 + 1 x36 + 1 x37 + 1 x38 + 1 x39 + 1 x40 + 1 x41 + 1 x42 + 1 x43 + 1 x44 + 1 x45 + 1 x46 + 1 x47 + 1 x48 + 1 x49 + 1 x50 + 1 x51 + 1 x52 + 1 x53 + 1 x54 + 1 x55 + 1 x56 + 1 x57 + 1 x58 + 1 x59 + 1 x60 + 1 x61 + 1 x62 + 1 x63 + 1 x64 + 1 x65 + 1 x66 + 1 x67 + 1 x68 + 1 x69 + 1 x70 + 1 x71 + 1 x72 + 1 x73 + 1 x74 + 1 x75 + 1 x76 + 1 x77 + 1 x78 + 1 x79 + 1 x80 + 1 x81 + 1 x82 + 1 x83 + 1 x84 + 1 x85 + 1 x86 + 1 x87 + 1 x88 + 1 x89 + 1 x90 + 1 x91 + 1 x92 + 1 x93 + 1 x94 + 1 x95 + 1 x96 + 1 x97 + 1 x98 + 1 x99 + 1 x100 + 1 x101 + 1 x102 + 1 x103 + 1 x104 + 1 x105 + 1 x106 + 1 x107 + 1 x108 + 1 x109 + 1 x110 + 1 x111 + 1 x112 + 1 x113 + 1 x114 + 1 x115 + 1 x116 + 1 x117 + 1 x118 + 1 x119 + 1 x120 + 1 x121 + 1 x122 + 1 x123 + 1 x124 + 1 x125 + 1 x126 + 1 x127 + 1 x128 + 1 x129 + 1 x130 + 1 x131 + 1 x132 + 1 x133 + 1 x134 + 1 x135 + 1 x136 + 1 x137 + 1 x138 + 1 x139 + 1 x140 + 1 x141 + 1 x142 + 1 x143 + 1 x144 + 1 x145 + 1 x146 + 1 x147 + 1 x148 + 1 x149 + 1 x150 + 1 x151 + 1 x152 + 1 x153 + 1 x154 + 1 x155 + 1 x156 + 1 x157 + 1 x158 + 1 x159 + 1 x160 + 1 x161 + 1 x162 + 1 x163 + 1 x164 + 1 x165 + 1 x166 + 1 x167 + 1 x168 + 1 x169 + 1 x170 + 1 x171 + 1 x172 + 1 x173 + 1 x174 + 1 x175 + 1 x176 + 1 x177 + 1 x178 + 1 x179 + 1 x180 + 1 x181 + 1 x182 + 1 x183 + 1 x184 + 1 x185 + 1 x186 + 1 x187 + 1 x188 + 1 x189 + 1 x190 + 1 x191 + 1 x192 + 1 x193 + 1 x194 + 1 x195 + 1 x196 + 1 x197 + 1 x198 + 1 x199 + 1 x200 + 1 x201 + 1 x202 + 1 x203 + 1 x204 + 1 x205 + 1 x206 + 1 x207 + 1 x208 + 1 x209 + 1 x210 + 1 x211 + 1 x212 + 1 x213 + 1 x214 + 1 x215 + 1 x216 + 1 x217 + 1 x218 + 1 x219 + 1 x220 + 1 x221 + 1 x222 + 1 x223 + 1 x224 + 1 x225 + 1 x226 + 1 x227 + 1 x228 + 1 x229 + 1 x230 + 1 x231 + 1 x232 + 1 x233 + 1 x234 + 1 x235 + 1 x236 + 1 x237 + 1 x238 + 1 x239 + 1 x240 + 1 x241 + 1 x242 + 1 x243 + 1 x244 + 1 x245 + 1 x246 + 1 x247 + 1 x248 + 1 x249 + 1 x250 + 1 x251 + 1 x252 + 1 x253 + 1 x254 + 1 x255 + 1 x256 + 1 x257 + 1 x258 + 1 x259 + 1 x260 + 1 x261 + 1 x262 + 1 x263 + 1 x264 + 1 x265 + 1 x266 + 1 x267 + 1 x268 + 1 x269 + 1 x270 + 1 x271 + 1 x272 + 1 x273 + 1 x274 + 1 x275 + 1 x276 + 1 x277 + 1 x278 + 1 x279 + 1 x280 + 1 x281 + 1 x282 + 1 x283 + 1 x284 + 1 x285 + 1 x286 + 1 x287 + 1 x288 + 1 x289 + 1 x290 + 1 x291 + 1 x292 + 1 x293 + 1 x294 + 1 x295 + 1 x296 + 1 x297 + 1 x298 + 1 x299 + 1 x300 + 1 x301 + 1 x302 + 1 x303 + 1 x304 + 1 x305 + 1 x306 + 1 x307 + 1 x308 + 1 x309 + 1 x310 + 1 x311 + 1 x312 + 1 x313 + 1 x314 + 1 x315 + 1 x316 + 1 x317 + 1 x318 + 1 x319 + 1 x320 + 1 x321 + 1 x322 + 1 x323 + 1 x324 + 1 x325 + 1 x326 + 1 x327 + 1 x328 + 1 x329 + 1 x330 + 1 x331 + 1 x332 + 1 x333 + 1 x334 + 1 x335 + 1 x336 + 1 x337 + 1 x338 + 1 x339 + 1 x340 + 1 x341 + 1 x342 + 1 x343 + 1 x344 + 1 x345 + 1 x346 + 1 x347 + 1 x348 + 1 x349 + 1 x350 + 1 x351 + 1 x352 + 1 x353 + 1 x354 + 1 x355 + 1 x356 + 1 x357 + 1 x358 + 1 x359 + 1 x360 + 1 x361 + 1 x362 + 1 x363 + 1 x364 + 1 x365 + 1 x366 + 1 x367 + 1 x368 + 1 x369 + 1 x370 + 1 x371 + 1 x372 + 1 x373 + 1 x374 + 1 x375 + 1 x376 + 1 x377 + 1 x378 + 1 x379 + 1 x380 + 1 x381 + 1 x382 + 1 x383 + 1 x384 + 1 x385 + 1 x386 + 1 x387 + 1 x388 + 1 x389 + 1 x390 + 1 x391 + 1 x392 + 1 x393 + 1 x394 + 1 x395 + 1 x396 + 1 x397 + 1 x398 + 1 x399 + 1 x400 + 1 x401 + 1 x402 + 1 x403 + 1 x404 + 1 x405 + 1 x406 + 1 x407 + 1 x408 + 1 x409 + 1 x410 + 1 x411 + 1 x412 + 1 x413 + 1 x414 + 1 x415 + 1 x416 + 1 x417 + 1 x418 + 1 x419 + 1 x420 + 1 x421 + 1 x422 + 1 x423 + 1 x424 + 1 x425 + 1 x426 + 1 x427 + 1 x428 + 1 x429 + 1 x430 + 1 x431 + 1 x432 + 1 x433 + 1 x434 + 1 x435 + 1 x436 + 1 x437 + 1 x438 + 1 x439 + 1 x440 + 1 x441 + 1 x442 + 1 x443 + 1 x444 + 1 x445 + 1 x446 + 1 x447 + 1 x448 + 1 x449 + 1 x450 + 1 x451 + 1 x452 + 1 x453 + 1 x454 + 1 x455 + 1 x456 + 1 x457 + 1 x458 + 1 x459 + 1 x460 + 1 x461 + 1 x462 + 1 x463 + 1 x464 + 1 x465 + 1 x466 + 1 x467 + 1 x468 + 1 x469 + 1 x470 + 1 x471 + 1 x472 + 1 x473 + 1 x474 + 1 x475 + 1 x476 + 1 x477 + 1 x478 + 1 x479 + 1 x480 + 1 x481 + 1 x482 + 1 x483 + 1 x484 + 1 x485 + 1 x486 + 1 x487 + 1 x488 + 1 x489 + 1 x490 + 1 x491 + 1 x492 + 1 x493 + 1 x494 + 1 x495 + 1 x496 + 1 x497 + 1 x498 + 1 x499 + 1 x500

subject to
C1: + x13 + x355 <= 1
C2: + x180 + x394 <= 1
C3: + x62 + x83 <= 1
C4: + x329 + x387 <= 1
C5: + x57 + x445 <= 1
C6: + x104 + x135 <= 1
C7: + x5 + x37 <= 1
C8: + x15 + x232 <= 1
C9: + x334 + x358 <= 1
C10: + x165 + x334 <= 1
C11: + x85 + x267 <= 1
C12: + x33 + x166 <= 1
C13: + x13 + x498 <= 1
C14: + x5 + x279 <= 1
C15: + x6 + x417 <= 1
C16: + x28 + x361 <= 1
C17: + x229 + x320 <= 1
C18: + x332 + x340 <= 1
C19: + x207 + x471 <= 1
C20: + x8 + x175 <= 1
C21: + x75 + x95 <= 1
C22: + x213 + x439 <= 1
C23: + x13 + x60 <= 1
C24: + x125 + x273 <= 1
C25: + x52 + x446 <= 1
C26: + x41 + x67 <= 1
C27: + x23 + x284 <= 1
C28: + x128 + x294 <= 1
C29: + x171 + x369 <= 1
C30: + x166 + x398 <= 1
C31: + x39 + x150 <= 1
C32: + x84 + x485 <= 1
C33: + x4 + x329 <= 1
C34: + x134 + x176 <= 1
C35: + x120 + x496 <= 1
C36: + x30 + x335 <= 1
C37: + x96 + x191 <= 1
C38: + x13 + x112 <= 1
C39: + x169 + x409 <= 1
C40: + x43 + x236 <= 1
C41: + x117 + x119 <= 1
C42: + x8 + x386 <= 1
C43: + x57 + x178 <= 1
C44: + x175 + x403 <= 1
C45: + x16 + x322 <= 1
C46: + x11 + x86 <= 1
C47: + x166 + x240 <= 1
C48: + x21 + x170 <= 1
C49: + x285 + x450 <= 1
C50: + x5 + x36 <= 1
C51: + x20 + x149 <= 1
C52: + x93 + x159 <= 1
C53: + x55 + x409 <= 1
C54: + x38 + x497 <= 1
C55: + x11 + x37 <= 1
C56: + x96 + x244 <= 1
C57: + x104 + x269 <= 1
C58: + x154 + x212 <= 1
C59: + x3 + x235 <= 1
C60: + x60 + x488 <= 1
C61: + x44 + x53 <= 1
C62: + x18 + x58 <= 1
C63: + x117 + x170 <= 1
C64: + x75 + x443 <= 1
C65: + x38 + x55 <= 1
C66: + x77 + x88 <= 1
C67: + x113 + x122 <= 1
C68: + x134 + x169 <= 1
C69: + x19 + x491 <= 1
C70: + x319 + x348 <= 1
C71: + x77 + x181 <= 1
C72: + x232 + x321 <= 1
C73: + x96 + x168 <= 1
C74: + x19 + x217 <= 1
C75: + x46 + x293 <= 1
C76: + x38 + x136 <= 1
C77: + x98 + x304 <= 1
C78: + x70 + x84 <= 1
C79: + x27 + x169 <= 1
C80: + x14 + x316 <= 1
C81: + x32 + x338 <= 1
C82: + x76 + x373 <= 1
C83: + x186 + x277 <= 1
C84: + x43 + x120 <= 1
C85: + x98 + x395 <= 1
C86: + x24 + x444 <= 1
C87: + x146 + x220 <= 1
C88: + x28 + x458 <= 1
C89: + x20 + x319 <= 1
C90: + x85 + x188 <= 1
C91: + x17 + x300 <= 1
C92: + x46 + x217 <= 1
C93: + x17 + x30 <= 1
C94: + x7 + x33 <= 1
C95: + x19 + x306 <= 1
C96: + x200 + x371 <= 1
C97: + x86 + x165 <= 1
C98: + x96 + x249 <= 1
C99: + x6 + x54 <= 1
C100: + x14 + x83 <= 1
C101: + x80 + x394 <= 1
C102: + x73 + x168 <= 1
C103: + x64 + x452 <= 1
C104: + x76 + x83 <= 1
C105: + x77 + x349 <= 1
C106: + x197 + x236 <= 1
C107: + x20 + x106 <= 1
C108: + x12 + x460 <= 1
C109: + x51 + x218 <= 1
C110: + x133 + x201 <= 1
C111: + x5 + x329 <= 1
C112: + x414 + x468 <= 1
C113: + x191 + x394 <= 1
C114: + x15 + x20 <= 1
C115: + x11 + x20 <= 1
C116: + x66 + x303 <= 1
C117: + x229 + x274 <= 1
C118: + x92 + x371 <= 1
C119: + x2 + x111 <= 1
C120: + x58 + x122 <= 1
C121: + x93 + x170 <= 1
C122: + x367 + x494 <= 1
C123: + x150 + x159 <= 1
C124: + x2 + x138 <= 1
C125: + x11 + x245 <= 1
C126: + x13 + x30 <= 1
C127: + x13 + x427 <= 1
C128: + x254 + x475 <= 1
C129: + x54 + x238 <= 1
C130: + x3 + x8 <= 1
C131: + x95 + x109 <= 1
C132: + x38 + x447 <= 1
C133: + x83 + x218 <= 1
C134: + x201 + x461 <= 1
C135: + x2 + x59 <= 1
C136: + x93 + x254 <= 1
C137: + x51 + x495 <= 1
C138: + x5 + x18 <= 1
C139: + x165 + x379 <= 1
C140: + x240 + x478 <= 1
C141: + x17 + x21 <= 1
C142: + x15 + x463 <= 1
C143: + x178 + x389 <= 1
C144: + x18 + x137 <= 1
C145: + x92 + x130 <= 1
C146: + x4 + x78 <= 1
C147: + x240 + x418 <= 1
C148: + x167 + x405 <= 1
C149: + x168 + x287 <= 1
C150: + x6 + x80 <= 1
C151: + x7 + x88 <= 1
C152: + x52 + x258 <= 1
C153: + x18 + x197 <= 1
C154: + x19 + x203 <= 1
C155: + x369 + x396 <= 1
C156: + x59 + x470 <= 1
C157: + x86 + x341 <= 1
C158: + x13 + x21 <= 1
C159: + x6 + x465 <= 1
C160: + x50 + x393 <= 1
C161: + x161 + x315 <= 1
C162: + x11 + x337 <= 1
C163: + x58 + x313 <= 1
C164: + x315 + x330 <= 1
C165: + x15 + x39 <= 1
C166: + x8 + x223 <= 1
C167: + x7 + x11 + x82 <= 1
C168: + x22 + x49 <= 1
C169: + x23 + x167 <= 1
C170: + x143 + x490 <= 1
C171: + x391 + x400 <= 1
C172: + x13 + x73 <= 1
C173: + x95 + x430 <= 1
C174: + x97 + x386 <= 1
C175: + x38 + x81 <= 1
C176: + x31 + x50 <= 1
C177: + x253 + x303 <= 1
C178: + x110 + x116 <= 1
C179: + x10 + x160 <= 1
C180: + x4 + x421 <= 1
C181: + x96 + x384 <= 1
C182: + x14 + x470 <= 1
C183: + x15 + x30 <= 1
C184: + x16 + x402 <= 1
C185: + x54 + x79 <= 1
C186: + x55 + x117 <= 1
C187: + x140 + x165 <= 1
C188: + x177 + x358 <= 1
C189: + x73 + x130 <= 1
C190: + x145 + x383 <= 1
C191: + x63 + x298 <= 1
C192: + x66 + x476 <= 1
C193: + x166 + x307 <= 1
C194: + x95 + x361 <= 1
C195: + x50 + x386 <= 1
C196: + x33 + x328 <= 1
C197: + x244 + x272 <= 1
C198: + x99 + x417 <= 1
C199: + x8 + x486 <= 1
C200: + x211 + x244 <= 1
C201: + x19 + x359 <= 1
C202: + x92 + x498 <= 1
C203: + x21 + x489 <= 1
C204: + x382 + x422 <= 1
C205: + x94 + x252 <= 1
C206: + x23 + x336 <= 1
C207: + x27 + x330 <= 1
C208: + x57 + x154 <= 1
C209: + x66 + x179 <= 1
C210: + x76 + x155 <= 1
C211: + x22 + x427 <= 1
C212: + x23 + x41 <= 1
C213: + x6 + x33 <= 1
C214: + x52 + x324 <= 1
C215: + x8 + x317 <= 1
C216: + x429 + x448 <= 1
C217: + x63 + x485 <= 1
C218: + x103 + x251 <= 1
C219: + x53 + x372 <= 1
C220: + x39 + x80 <= 1
C221: + x14 + x161 <= 1
C222: + x35 + x40 <= 1
C223: + x143 + x317 <= 1
C224: + x165 + x349 <= 1
C225: + x39 + x169 <= 1
C226: + x68 + x151 <= 1
C227: + x6 + x434 <= 1
C228: + x17 + x63 <= 1
C229: + x7 + x227 <= 1
C230: + x34 + x140 <= 1
C231: + x27 + x141 <= 1
C232: + x168 + x321 <= 1
C233: + x10 + x99 <= 1
C234: + x8 + x205 <= 1
C235: + x17 + x221 <= 1
C236: + x16 + x189 <= 1
C237: + x72 + x308 <= 1
C238: + x218 + x443 <= 1
C239: + x151 + x268 <= 1
C240: + x20 + x21 <= 1
C241: + x13 + x361 <= 1
C242: + x89 + x138 <= 1
C243: + x6 + x42 <= 1
C244: + x18 + x297 <= 1
C245: + x10 + x47 <= 1
C246: + x111 + x177 <= 1
C247: + x85 + x164 <= 1
C248: + x272 + x344 <= 1
C249: + x33 + x410 <= 1
C250: + x132 + x289 <= 1
C251: + x230 + x404 <= 1
C252: + x41 + x202 <= 1
C253: + x255 + x358 <= 1
C254: + x47 + x277 <= 1
C255: + x76 + x208 <= 1
C256: + x258 + x481 <= 1
C257: + x5 + x194 <= 1
C258: + x82 + x165 <= 1
C259: + x172 + x295 <= 1
C260: + x20 + x243 <= 1
C261: + x8 + x476 <= 1
C262: + x20 + x82 <= 1
C263: + x41 + x331 <= 1
C264: + x404 + x495 <= 1
C265: + x16 + x428 <= 1
C266: + x2 + x7 <= 1
C267: + x90 + x329 <= 1
C268: + x7 + x347 <= 1
C269: + x273 + x366 <= 1
C270: + x43 + x230 <= 1
C271: + x74 + x98 <= 1
C272: + x155 + x405 <= 1
C273: + x404 + x443 <= 1
C274: + x28 + x46 <= 1
C275: + x8 + x250 <= 1
C276: + x229 + x430 <= 1
C277: + x74 + x280 <= 1
C278: + x113 + x311 <= 1
C279: + x222 + x461 <= 1
C280: + x205 + x389 <= 1
C281: + x15 + x342 <= 1
C282: + x278 + x459 <= 1
C283: + x6 + x257 <= 1
C284: + x8 + x29 <= 1
C285: + x10 + x179 <= 1
C286: + x124 + x356 <= 1
C287: + x92 + x344 <= 1
C288: + x11 + x486 <= 1
C289: + x11 + x63 <= 1
C290: + x12 + x332 <= 1
C291: + x6 + x199 <= 1
C292: + x127 + x437 <= 1
C293: + x16 + x255 <= 1
C294: + x19 + x47 <= 1
C295: + x86 + x361 <= 1
C296: + x43 + x185 <= 1
C297: + x319 + x497 <= 1
C298: + x86 + x460 <= 1
C299: + x33 + x127 <= 1
C300: + x34 + x97 <= 1
C301: + x141 + x171 <= 1
C302: + x87 + x290 <= 1
C303: + x19 + x66 <= 1
C304: + x11 + x99 <= 1
C305: + x95 + x237 <= 1
C306: + x245 + x260 <= 1
C307: + x19 + x227 <= 1
C308: + x20 + x200 <= 1
C309: + x22 + x184 <= 1
C310: + x154 + x488 <= 1
C311: + x74 + x107 <= 1
C312: + x215 + x382 <= 1
C313: + x273 + x500 <= 1
C314: + x20 + x309 <= 1
C315: + x149 + x303 <= 1
C316: + x32 + x162 <= 1
C317: + x28 + x194 <= 1
C318: + x255 + x408 <= 1
C319: + x229 + x239 <= 1
C320: + x249 + x443 <= 1
C321: + x55 + x390 <= 1
C322: + x96 + x247 <= 1
C323: + x27 + x69 <= 1
C324: + x19 + x42 <= 1
C325: + x74 + x325 <= 1
C326: + x185 + x322 <= 1
C327: + x228 + x263 <= 1
C328: + x47 + x388 <= 1
C329: + x5 + x85 <= 1
C330: + x6 + x318 <= 1
C331: + x99 + x325 <= 1
C332: + x20 + x96 <= 1
C333: + x258 + x356 <= 1
C334: + x42 + x79 <= 1
C335: + x5 + x327 <= 1
C336: + x211 + x454 <= 1
C337: + x264 + x334 <= 1
C338: + x149 + x226 <= 1
C339: + x188 + x391 <= 1
C340: + x261 + x305 <= 1
C341: + x171 + x272 <= 1
C342: + x6 + x335 <= 1
C343: + x289 + x498 <= 1
C344: + x144 + x455 <= 1
C345: + x13 + x108 <= 1
C346: + x176 + x426 <= 1
C347: + x22 + x177 <= 1
C348: + x60 + x102 <= 1
C349: + x27 + x174 <= 1
C350: + x82 + x212 <= 1
C351: + x155 + x316 <= 1
C352: + x10 + x66 <= 1
C353: + x73 + x249 <= 1
C354: + x20 + x318 <= 1
C355: + x22 + x34 <= 1
C356: + x5 + x48 <= 1
C357: + x90 + x180 <= 1
C358: + x9 + x43 <= 1
C359: + x27 + x221 <= 1
C360: + x121 + x229 <= 1
C361: + x305 + x407 <= 1
C362: + x9 + x392 <= 1
C363: + x11 + x408 <= 1
C364: + x95 + x147 <= 1
C365: + x60 + x157 <= 1
C366: + x162 + x181 <= 1
C367: + x9 + x186 <= 1
C368: + x10 + x14 <= 1
C369: + x11 + x134 <= 1
C370: + x14 + x324 <= 1
C371: + x9 + x23 <= 1
C372: + x134 + x370 <= 1
C373: + x92 + x467 <= 1
C374: + x57 + x113 <= 1
C375: + x52 + x153 <= 1
C376: + x7 + x90 <= 1
C377: + x194 + x285 <= 1
C378: + x77 + x177 <= 1
C379: + x68 + x94 <= 1
C380: + x352 + x383 <= 1
C381: + x4 + x16 <= 1
C382: + x82 + x426 <= 1
C383: + x201 + x216 <= 1
C384: + x155 + x482 <= 1
C385: + x76 + x192 <= 1
C386: + x56 + x332 <= 1
C387: + x21 + x480 <= 1
C388: + x67 + x201 <= 1
C389: + x6 + x14 <= 1
C390: + x15 + x89 <= 1
C391: + x8 + x282 <= 1
C392: + x10 + x75 <= 1
C393: + x105 + x201 <= 1
C394: + x42 + x415 <= 1
C395: + x5 + x23 <= 1
C396: + x368 + x425 <= 1
C397: + x30 + x59 <= 1
C398: + x305 + x398 <= 1
C399: + x101 + x456 <= 1
C400: + x11 + x44 <= 1
C401: + x10 + x55 <= 1
C402: + x383 + x457 <= 1
C403: + x384 + x475 <= 1
C404: + x221 + x484 <= 1
C405: + x22 + x255 <= 1
C406: + x19 + x189 <= 1
C407: + x67 + x323 <= 1
C408: + x13 + x472 <= 1
C409: + x116 + x418 <= 1
C410: + x15 + x24 <= 1
C411: + x2 + x448 <= 1
C412: + x32 + x105 <= 1
C413: + x11 + x342 <= 1
C414: + x38 + x112 <= 1
C415: + x185 + x430 <= 1
C416: + x47 + x187 <= 1
C417: + x34 + x72 <= 1
C418: + x15 + x36 <= 1
C419: + x101 + x384 <= 1
C420: + x101 + x181 <= 1
C421: + x192 + x352 <= 1
C422: + x2 + x63 <= 1
C423: + x188 + x353 <= 1
C424: + x189 + x339 <= 1
C425: + x55 + x153 <= 1
C426: + x58 + x421 <= 1
C427: + x303 + x479 <= 1
C428: + x26 + x84 <= 1
C429: + x155 + x445 <= 1
C430: + x5 + x173 <= 1
C431: + x38 + x322 <= 1
C432: + x134 + x255 + x314 <= 1
C433: + x52 + x76 <= 1
C434: + x189 + x212 <= 1
C435: + x134 + x356 <= 1
C436: + x32 + x288 <= 1
C437: + x59 + x367 <= 1
C438: + x68 + x173 <= 1
C439: + x15 + x31 <= 1
C440: + x71 + x140 <= 1
C441: + x67 + x73 + x477 <= 1
C442: + x138 + x265 <= 1
C443: + x57 + x273 <= 1
C444: + x37 + x453 <= 1
C445: + x40 + x51 <= 1
C446: + x5 + x209 <= 1
C447: + x13 + x180 <= 1
C448: + x27 + x425 <= 1
C449: + x91 + x233 <= 1
C450: + x63 + x299 <= 1
C451: + x188 + x192 <= 1
C452: + x15 + x394 <= 1
C453: + x5 + x451 <= 1
C454: + x6 + x477 <= 1
C455: + x293 + x300 <= 1
C456: + x239 + x382 <= 1
C457: + x19 + x90 <= 1
C458: + x286 + x469 <= 1
C459: + x134 + x441 <= 1
C460: + x249 + x378 <= 1
C461: + x148 + x304 <= 1
C462: + x21 + x40 <= 1
C463: + x25 + x163 <= 1
C464: + x70 + x118 <= 1
C465: + x107 + x309 <= 1
C466: + x10 + x307 <= 1
C467: + x88 + x379 <= 1
C468: + x367 + x440 <= 1
C469: + x78 + x246 <= 1
C470: + x152 + x197 <= 1
C471: + x104 + x155 <= 1
C472: + x9 + x12 <= 1
C473: + x8 + x46 <= 1
C474: + x11 + x276 <= 1
C475: + x15 + x482 <= 1
C476: + x6 + x437 <= 1
C477: + x134 + x144 <= 1
C478: + x87 + x162 <= 1
C479: + x24 + x366 <= 1
C480: + x90 + x196 <= 1
C481: + x52 + x267 <= 1
C482: + x8 + x67 <= 1
C483: + x135 + x262 <= 1
C484: + x198 + x280 <= 1
C485: + x18 + x367 <= 1
C486: + x20 + x233 <= 1
C487: + x47 + x197 <= 1
C488: + x123 + x311 <= 1
C489: + x40 + x441 <= 1
C490: + x333 + x391 <= 1
C491: + x173 + x326 <= 1
C492: + x8 + x212 <= 1
C493: + x2 + x9 <= 1
C494: + x185 + x281 <= 1
C495: + x30 + x355 <= 1
C496: + x13 + x159 <= 1
C497: + x44 + x89 <= 1
C498: + x92 + x99 <= 1
C499: + x55 + x363 <= 1
C500: + x66 + x183 <= 1
C501: + x58 + x274 <= 1
C502: + x257 + x432 <= 1
C503: + x359 + x492 <= 1
C504: + x5 + x147 <= 1
C505: + x198 + x493 <= 1
C506: + x6 + x45 <= 1
C507: + x209 + x356 <= 1
C508: + x117 + x448 <= 1
C509: + x202 + x317 <= 1
C510: + x275 + x411 <= 1
C511: + x8 + x136 <= 1
C512: + x13 + x211 <= 1
C513: + x5 + x397 <= 1
C514: + x162 + x359 <= 1
C515: + x134 + x342 <= 1
C516: + x75 + x475 <= 1
C517: + x49 + x90 <= 1
C518: + x213 + x240 <= 1
C519: + x259 + x335 <= 1
C520: + x52 + x245 <= 1
C521: + x57 + x234 <= 1
C522: + x2 + x118 <= 1
C523: + x211 + x417 <= 1
C524: + x86 + x144 <= 1
C525: + x5 + x199 <= 1
C526: + x224 + x264 <= 1
C527: + x9 + x333 <= 1
C528: + x18 + x360 <= 1
C529: + x10 + x22 <= 1
C530: + x69 + x495 <= 1
C531: + x23 + x198 <= 1
C532: + x15 + x412 <= 1
C533: + x28 + x267 <= 1
C534: + x59 + x242 <= 1
C535: + x163 + x390 <= 1
C536: + x64 + x320 <= 1
C537: + x12 + x270 <= 1
C538: + x5 + x11 <= 1
C539: + x188 + x376 <= 1
C540: + x21 + x54 <= 1
C541: + x253 + x458 <= 1
C542: + x74 + x125 <= 1
C543: + x92 + x391 <= 1
C544: + x130 + x230 <= 1
C545: + x41 + x372 <= 1
C546: + x51 + x103 <= 1
C547: + x87 + x232 <= 1
C548: + x74 + x275 <= 1
C549: + x38 + x381 <= 1
C550: + x105 + x209 <= 1
C551: + x33 + x414 <= 1
C552: + x34 + x258 <= 1
C553: + x5 + x396 <= 1
C554: + x197 + x383 <= 1
C555: + x135 + x357 <= 1
C556: + x325 + x422 <= 1
C557: + x15 + x500 <= 1
C558: + x75 + x295 <= 1
C559: + x3 + x117 <= 1
C560: + x22 + x388 <= 1
C561: + x5 + x206 <= 1
C562: + x417 + x487 <= 1
C563: + x91 + x319 <= 1
C564: + x19 + x52 <= 1
C565: + x11 + x149 <= 1
C566: + x71 + x483 <= 1
C567: + x126 + x208 <= 1
C568: + x6 + x312 <= 1
C569: + x93 + x500 <= 1
C570: + x239 + x279 <= 1
C571: + x12 + x424 <= 1
C572: + x26 + x447 <= 1
C573: + x92 + x367 <= 1
C574: + x65 + x341 <= 1
C575: + x68 + x107 <= 1
C576: + x177 + x324 <= 1
C577: + x188 + x397 <= 1
C578: + x204 + x340 <= 1
C579: + x97 + x376 <= 1
C580: + x6 + x31 <= 1
C581: + x245 + x251 <= 1
C582: + x92 + x315 <= 1
C583: + x265 + x302 <= 1
C584: + x97 + x213 <= 1
C585: + x5 + x38 <= 1
C586: + x31 + x47 <= 1
C587: + x26 + x217 <= 1
C588: + x13 + x193 <= 1
C589: + x93 + x439 <= 1
C590: + x195 + x235 <= 1
C591: + x26 + x124 <= 1
C592: + x7 + x56 <= 1
C593: + x27 + x364 <= 1
C594: + x11 + x482 <= 1
C595: + x66 + x264 <= 1
C596: + x229 + x313 <= 1
C597: + x15 + x152 <= 1
C598: + x10 + x18 + x38 <= 1
C599: + x12 + x27 + x71 <= 1
C600: + x88 + x459 <= 1
C601: + x18 + x72 <= 1
C602: + x151 + x462 <= 1
C603: + x11 + x470 <= 1
C604: + x261 + x310 <= 1
C605: + x63 + x307 <= 1
C606: + x38 + x158 <= 1
C607: + x4 + x6 <= 1
C608: + x70 + x106 <= 1
C609: + x194 + x440 <= 1
C610: + x187 + x385 <= 1
C611: + x22 + x450 <= 1
C612: + x11 + x83 <= 1
C613: + x260 + x362 <= 1
C614: + x8 + x18 <= 1
C615: + x49 + x79 <= 1
C616: + x285 + x360 <= 1
C617: + x51 + x236 <= 1
C618: + x176 + x497 <= 1
C619: + x60 + x61 <= 1
C620: + x150 + x366 <= 1
C621: + x164 + x473 <= 1
C622: + x55 + x85 <= 1
C623: + x93 + x339 <= 1
C624: + x82 + x112 <= 1
C625: + x66 + x214 <= 1
C626: + x6 + x204 <= 1
C627: + x152 + x189 <= 1
C628: + x62 + x490 <= 1
C629: + x38 + x339 <= 1
C630: + x276 + x444 <= 1
C631: + x116 + x313 <= 1
C632: + x57 + x110 <= 1
C633: + x12 + x15 <= 1
C634: + x96 + x260 <= 1
C635: + x6 + x93 <= 1
C636: + x5 + x323 <= 1
C637: + x143 + x195 <= 1
C638: + x147 + x309 <= 1
C639: + x53 + x429 <= 1
C640: + x35 + x455 <= 1
C641: + x219 + x258 <= 1
C642: + x4 + x11 <= 1
C643: + x6 + x494 <= 1
C644: + x141 + x146 <= 1
C645: + x19 + x105 <= 1
C646: + x75 + x158 <= 1
C647: + x202 + x473 <= 1
C648: + x11 + x94 <= 1
C649: + x283 + x302 <= 1
C650: + x61 + x404 <= 1
C651: + x8 + x15 <= 1
C652: + x11 + x319 <= 1
C653: + x85 + x282 <= 1
C654: + x123 + x213 <= 1
C655: + x13 + x92 <= 1
C656: + x31 + x271 <= 1
C657: + x96 + x325 <= 1
C658: + x160 + x340 <= 1
C659: + x6 + x402 <= 1
C660: + x10 + x50 <= 1
C661: + x29 + x289 <= 1
C662: + x168 + x446 <= 1
C663: + x9 + x27 <= 1
C664: + x55 + x223 <= 1
C665: + x323 + x423 <= 1
C666: + x354 + x378 <= 1
C667: + x15 + x17 <= 1
C668: + x92 + x374 <= 1
C669: + x1 + x7 <= 1
C670: + x33 + x331 <= 1
C671: + x14 + x308 <= 1
C672: + x135 + x178 <= 1
C673: + x3 + x5 <= 1
C674: + x105 + x432 <= 1
C675: + x270 + x290 <= 1
C676: + x6 + x10 <= 1
C677: + x200 + x470 <= 1
C678: + x237 + x354 <= 1
C679: + x11 + x69 <= 1
C680: + x65 + x403 <= 1
C681: + x5 + x269 <= 1
C682: + x81 + x342 <= 1
C683: + x71 + x217 <= 1
C684: + x7 + x25 <= 1
C685: + x38 + x87 <= 1
C686: + x67 + x153 <= 1
C687: + x150 + x211 <= 1
C688: + x14 + x75 <= 1
C689: + x181 + x348 <= 1
C690: + x245 + x337 <= 1
C691: + x175 + x203 <= 1
C692: + x22 + x251 <= 1
C693: + x18 + x43 <= 1
C694: + x27 + x248 <= 1
C695: + x166 + x424 <= 1
C696: + x11 + x28 <= 1
C697: + x68 + x71 <= 1
C698: + x73 + x337 <= 1
C699: + x92 + x93 <= 1
C700: + x2 + x130 <= 1
C701: + x312 + x314 <= 1
C702: + x369 + x397 <= 1
C703: + x60 + x120 <= 1
C704: + x12 + x142 <= 1
C705: + x13 + x419 <= 1
C706: + x27 + x188 <= 1
C707: + x87 + x442 <= 1
C708: + x50 + x190 <= 1
C709: + x274 + x483 <= 1
C710: + x11 + x80 <= 1
C711: + x149 + x200 <= 1
C712: + x6 + x150 <= 1
C713: + x128 + x149 <= 1
C714: + x40 + x280 <= 1
C715: + x52 + x223 <= 1
C716: + x9 + x442 <= 1
C717: + x10 + x270 <= 1
C718: + x215 + x343 <= 1
C719: + x30 + x161 <= 1
C720: + x33 + x159 <= 1
C721: + x54 + x78 <= 1
C722: + x182 + x462 <= 1
C723: + x30 + x338 <= 1
C724: + x296 + x374 <= 1
C725: + x33 + x345 <= 1
C726: + x43 + x205 <= 1
C727: + x6 + x473 <= 1
C728: + x263 + x292 <= 1
C729: + x63 + x101 <= 1
C730: + x74 + x313 <= 1
C731: + x11 + x119 <= 1
C732: + x36 + x67 <= 1
C733: + x92 + x98 <= 1
C734: + x5 + x499 <= 1
C735: + x57 + x155 <= 1
C736: + x38 + x89 <= 1
C737: + x257 + x429 <= 1
C738: + x367 + x444 <= 1
C739: + x6 + x48 <= 1
C740: + x19 + x171 <= 1
C741: + x11 + x288 <= 1
C742: + x26 + x101 <= 1
C743: + x27 + x283 <= 1
C744: + x16 + x410 <= 1
C745: + x97 + x179 <= 1
C746: + x15 + x135 <= 1
C747: + x17 + x349 <= 1
C748: + x154 + x251 <= 1
C749: + x50 + x442 <= 1
C750: + x5 + x121 <= 1
C751: + x53 + x147 <= 1
C752: + x166 + x414 <= 1
C753: + x348 + x471 <= 1
C754: + x51 + x56 <= 1
C755: + x78 + x183 <= 1
C756: + x156 + x207 <= 1
C757: + x5 + x16 <= 1
C758: + x74 + x413 <= 1
C759: + x93 + x105 <= 1
C760: + x233 + x479 <= 1
C761: + x49 + x276 <= 1
C762: + x23 + x33 <= 1
C763: + x70 + x286 <= 1
C764: + x72 + x452 <= 1
C765: + x200 + x231 <= 1
C766: + x185 + x198 <= 1
C767: + x43 + x48 <= 1
C768: + x224 + x237 <= 1
C769: + x119 + x467 <= 1
C770: + x11 + x53 <= 1
C771: + x47 + x278 <= 1
C772: + x16 + x20 + x97 <= 1
C773: + x187 + x456 <= 1
C774: + x7 + x219 <= 1
C775: + x48 + x199 + x209 <= 1
C776: + x5 + x104 <= 1
C777: + x15 + x416 <= 1
C778: + x18 + x74 <= 1
C779: + x55 + x247 <= 1
C780: + x12 + x32 <= 1
C781: + x68 + x203 <= 1
C782: + x52 + x133 <= 1
C783: + x10 + x472 <= 1
C784: + x2 + x6 <= 1
C785: + x3 + x142 <= 1
C786: + x55 + x453 <= 1
C787: + x4 + x253 <= 1
C788: + x5 + x247 <= 1
C789: + x135 + x301 <= 1
C790: + x19 + x233 <= 1
C791: + x12 + x109 <= 1
C792: + x187 + x282 <= 1
C793: + x87 + x415 <= 1
C794: + x73 + x111 <= 1
C795: + x20 + x29 <= 1
C796: + x87 + x252 <= 1
C797: + x8 + x249 <= 1
C798: + x158 + x268 <= 1
C799: + x171 + x246 <= 1
C800: + x53 + x93 <= 1
C801: + x254 + x419 <= 1
C802: + x146 + x474 <= 1
C803: + x186 + x374 <= 1
C804: + x98 + x492 <= 1
C805: + x62 + x198 <= 1
C806: + x8 + x323 <= 1
C807: + x58 + x158 <= 1
C808: + x106 + x380 <= 1
C809: + x32 + x73 <= 1
C810: + x24 + x52 + x57 <= 1
C811: + x181 + x185 <= 1
C812: + x164 + x193 <= 1
C813: + x2 + x238 <= 1
C814: + x11 + x145 <= 1
C815: + x9 + x106 <= 1
C816: + x39 + x345 <= 1
C817: + x53 + x262 <= 1
C818: + x81 + x154 <= 1
C819: + x134 + x162 <= 1
C820: + x8 + x375 <= 1
C821: + x11 + x100 <= 1
C822: + x20 + x364 <= 1
C823: + x59 + x90 <= 1
C824: + x14 + x23 <= 1
C825: + x277 + x401 <= 1
C826: + x64 + x392 <= 1
C827: + x47 + x70 <= 1
C828: + x2 + x186 <= 1
C829: + x20 + x199 <= 1
C830: + x97 + x122 <= 1
C831: + x14 + x261 <= 1
C832: + x15 + x435 <= 1
C833: + x263 + x321 <= 1
C834: + x38 + x399 <= 1
C835: + x123 + x265 <= 1
C836: + x78 + x157 <= 1
C837: + x98 + x116 <= 1
C838: + x5 + x141 <= 1
C839: + x66 + x363 <= 1
C840: + x2 + x43 <= 1
C841: + x12 + x243 <= 1
C842: + x22 + x40 <= 1
C843: + x87 + x96 <= 1
C844: + x99 + x370 <= 1
C845: + x8 + x21 <= 1
C846: + x174 + x354 <= 1
C847: + x41 + x270 <= 1
C848: + x5 + x276 <= 1
C849: + x194 + x463 <= 1
C850: + x112 + x352 <= 1
C851: + x51 + x82 <= 1
C852: + x163 + x289 <= 1
C853: + x27 + x70 <= 1
C854: + x74 + x332 <= 1
C855: + x11 + x156 <= 1
C856: + x68 + x87 + x121 <= 1
C857: + x68 + x455 <= 1
C858: + x4 + x94 <= 1
C859: + x5 + x86 <= 1
C860: + x32 + x213 <= 1
C861: + x154 + x420 <= 1
C862: + x249 + x299 <= 1
C863: + x29 + x116 <= 1
C864: + x56 + x243 <= 1
C865: + x13 + x291 <= 1
C866: + x209 + x273 <= 1
C867: + x46 + x57 <= 1
C868: + x55 + x471 <= 1
C869: + x21 + x355 <= 1
C870: + x23 + x91 <= 1
C871: + x125 + x413 <= 1
C872: + x71 + x406 <= 1
C873: + x97 + x113 <= 1
C874: + x97 + x422 <= 1
C875: + x60 + x434 <= 1
C876: + x366 + x416 <= 1
C877: + x13 + x279 <= 1
C878: + x79 + x151 <= 1
C879: + x18 + x275 <= 1
C880: + x155 + x246 <= 1
C881: + x113 + x294 <= 1
C882: + x86 + x310 <= 1
C883: + x32 + x170 <= 1
C884: + x44 + x425 <= 1
C885: + x16 + x95 <= 1
C886: + x139 + x461 <= 1
C887: + x4 + x393 <= 1
C888: + x98 + x486 <= 1
C889: + x26 + x65 <= 1
C890: + x143 + x187 <= 1
C891: + x8 + x433 <= 1
C892: + x46 + x126 <= 1
C893: + x11 + x34 <= 1
C894: + x50 + x123 <= 1
C895: + x87 + x194 <= 1
C896: + x88 + x206 <= 1
C897: + x80 + x400 <= 1
C898: + x19 + x34 <= 1
C899: + x10 + x13 <= 1
C900: + x62 + x486 <= 1
C901: + x93 + x478 <= 1
C902: + x13 + x474 <= 1
C903: + x25 + x27 <= 1
C904: + x116 + x476 <= 1
C905: + x165 + x411 <= 1
C906: + x11 + x22 <= 1
C907: + x67 + x87 <= 1
C908: + x13 + x191 <= 1
C909: + x5 + x228 <= 1
C910: + x36 + x104 <= 1
C911: + x28 + x131 <= 1
C912: + x301 + x477 <= 1
C913: + x165 + x181 <= 1
C914: + x325 + x491 <= 1
C915: + x18 + x105 <= 1
C916: + x6 + x490 <= 1
C917: + x47 + x177 <= 1
C918: + x157 + x415 <= 1
C919: + x6 + x13 <= 1
C920: + x7 + x139 <= 1
C921: + x18 + x268 <= 1
C922: + x201 + x459 <= 1
C923: + x95 + x268 <= 1
C924: + x32 + x151 <= 1
C925: + x5 + x24 <= 1
C926: + x319 + x447 <= 1
C927: + x467 + x480 <= 1
C928: + x48 + x148 <= 1
C929: + x4 + x59 <= 1
C930: + x31 + x186 <= 1
C931: + x124 + x195 <= 1
C932: + x285 + x379 <= 1
C933: + x27 + x378 <= 1
C934: + x106 + x436 <= 1
C935: + x15 + x457 <= 1
C936: + x163 + x466 <= 1
C937: + x185 + x500 <= 1
C938: + x52 + x372 <= 1
C939: + x23 + x25 <= 1
C940: + x54 + x386 <= 1
C941: + x252 + x430 <= 1
C942: + x9 + x31 <= 1
C943: + x11 + x367 <= 1
C944: + x94 + x451 <= 1
C945: + x258 + x381 <= 1
C946: + x71 + x146 <= 1
C947: + x27 + x270 <= 1
C948: + x93 + x167 <= 1
C949: + x5 + x235 <= 1
C950: + x188 + x408 <= 1
C951: + x7 + x328 <= 1
C952: + x62 + x435 <= 1
C953: + x84 + x103 <= 1
C954: + x13 + x27 <= 1
C955: + x34 + x252 <= 1
C956: + x16 + x64 <= 1
C957: + x73 + x395 <= 1
C958: + x9 + x75 <= 1
C959: + x148 + x441 <= 1
C960: + x221 + x259 <= 1
C961: + x20 + x496 <= 1
C962: + x389 + x495 <= 1
C963: + x66 + x112 <= 1
C964: + x157 + x406 <= 1
C965: + x7 + x142 <= 1
C966: + x9 + x296 <= 1
C967: + x8 + x221 <= 1
C968: + x18 + x269 <= 1
C969: + x19 + x96 <= 1
C970: + x167 + x176 <= 1
C971: + x22 + x51 <= 1
C972: + x26 + x184 <= 1
C973: + x13 + x412 <= 1
C974: + x24 + x61 <= 1
C975: + x254 + x312 <= 1
C976: + x27 + x95 <= 1
C977: + x65 + x262 <= 1
C978: + x154 + x284 <= 1
C979: + x105 + x253 <= 1
C980: + x70 + x450 <= 1
C981: + x80 + x305 <= 1
C982: + x8 + x56 <= 1
C983: + x55 + x214 <= 1
C984: + x6 + x75 <= 1
C985: + x255 + x374 <= 1
C986: + x374 + x439 <= 1
C987: + x58 + x134 <= 1
C988: + x356 + x449 <= 1
C989: + x40 + x46 <= 1
C990: + x97 + x185 <= 1
C991: + x195 + x406 <= 1
C992: + x27 + x426 <= 1
C993: + x286 + x416 <= 1
C994: + x8 + x69 <= 1
C995: + x197 + x402 <= 1
C996: + x126 + x278 <= 1
C997: + x381 + x457 <= 1
C998: + x5 + x452 <= 1
C999: + x11 + x350 <= 1
C1000: + x123 + x301 <= 1
C1001: + x43 + x99 <= 1
C1002: + x189 + x390 <= 1
C1003: + x88 + x133 <= 1
C1004: + x10 + x417 <= 1
C1005: + x11 + x76 <= 1
C1006: + x361 + x397 <= 1
C1007: + x20 + x175 <= 1
C1008: + x12 + x126 <= 1
C1009: + x8 + x416 <= 1
C1010: + x115 + x438 <= 1
C1011: + x6 + x35 <= 1
C1012: + x39 + x74 <= 1
C1013: + x8 + x45 <= 1
C1014: + x10 + x131 <= 1
C1015: + x12 + x42 <= 1
C1016: + x15 + x487 <= 1
C1017: + x26 + x104 <= 1
C1018: + x138 + x204 <= 1
C1019: + x46 + x488 <= 1
C1020: + x267 + x405 <= 1
C1021: + x234 + x261 <= 1
C1022: + x123 + x453 <= 1
C1023: + x7 + x237 <= 1
C1024: + x17 + x33 + x263 <= 1
C1025: + x65 + x297 <= 1
C1026: + x105 + x176 <= 1
C1027: + x305 + x328 <= 1
C1028: + x232 + x458 <= 1
C1029: + x95 + x366 <= 1
C1030: + x24 + x127 <= 1
C1031: + x130 + x216 <= 1
C1032: + x43 + x110 <= 1
C1033: + x134 + x179 <= 1
C1034: + x8 + x211 <= 1
C1035: + x6 + x155 <= 1
C1036: + x273 + x373 <= 1
C1037: + x28 + x166 <= 1
C1038: + x38 + x226 <= 1
C1039: + x178 + x188 <= 1
C1040: + x33 + x297 <= 1
C1041: + x34 + x194 <= 1
C1042: + x53 + x220 <= 1
C1043: + x176 + x401 <= 1
C1044: + x8 + x405 <= 1
C1045: + x20 + x458 <= 1
C1046: + x14 + x121 <= 1
C1047: + x15 + x127 <= 1
C1048: + x6 + x44 <= 1
C1049: + x8 + x135 <= 1
C1050: + x120 + x158 <= 1
C1051: + x102 + x232 <= 1
C1052: + x14 + x220 <= 1
C1053: + x179 + x296 <= 1
C1054: + x117 + x139 <= 1
C1055: + x27 + x198 <= 1
C1056: + x8 + x38 <= 1
C1057: + x126 + x226 <= 1
C1058: + x307 + x497 <= 1
C1059: + x59 + x171 <= 1
C1060: + x42 + x147 <= 1
C1061: + x179 + x393 <= 1
C1062: + x108 + x499 <= 1
C1063: + x339 + x469 <= 1
C1064: + x112 + x333 <= 1
C1065: + x4 + x208 <= 1
C1066: + x423 + x426 <= 1
C1067: + x18 + x359 <= 1
C1068: + x92 + x175 <= 1
C1069: + x140 + x320 <= 1
C1070: + x224 + x422 <= 1
C1071: + x34 + x143 <= 1
C1072: + x43 + x180 <= 1
C1073: + x169 + x187 <= 1
C1074: + x161 + x248 <= 1
C1075: + x5 + x12 <= 1
C1076: + x160 + x413 <= 1
C1077: + x6 + x132 <= 1
C1078: + x98 + x245 <= 1
C1079: + x35 + x108 + x385 <= 1
C1080: + x13 + x124 <= 1
C1081: + x60 + x86 <= 1
C1082: + x34 + x219 <= 1
C1083: + x255 + x419 <= 1
C1084: + x339 + x412 <= 1
C1085: + x76 + x118 <= 1
C1086: + x4 + x168 <= 1
C1087: + x180 + x290 <= 1
C1088: + x8 + x35 <= 1
C1089: + x1 + x120 <= 1
C1090: + x67 + x424 <= 1
C1091: + x19 + x162 <= 1
C1092: + x94 + x295 <= 1
C1093: + x76 + x465 <= 1
C1094: + x59 + x182 <= 1
C1095: + x5 + x298 <= 1
C1096: + x321 + x410 <= 1
C1097: + x11 + x49 <= 1
C1098: + x78 + x219 <= 1
C1099: + x5 + x207 <= 1
C1100: + x13 + x346 <= 1
C1101: + x57 + x388 <= 1
C1102: + x56 + x86 <= 1
C1103: + x33 + x363 <= 1
C1104: + x4 + x84 <= 1
C1105: + x14 + x340 <= 1
C1106: + x5 + x100 <= 1
C1107: + x22 + x230 <= 1
C1108: + x6 + x311 <= 1
C1109: + x11 + x375 <= 1
C1110: + x59 + x250 <= 1
C1111: + x178 + x496 <= 1
C1112: + x15 + x61 <= 1
C1113: + x19 + x68 <= 1
C1114: + x2 + x26 <= 1
C1115: + x148 + x231 <= 1
C1116: + x198 + x333 <= 1
C1117: + x88 + x446 <= 1
C1118: + x117 + x288 <= 1
C1119: + x26 + x148 <= 1
C1120: + x65 + x499 <= 1
C1121: + x12 + x97 <= 1
C1122: + x4 + x32 <= 1
C1123: + x323 + x462 <= 1
C1124: + x52 + x58 <= 1
C1125: + x404 + x450 <= 1
C1126: + x9 + x272 <= 1
C1127: + x383 + x493 <= 1
C1128: + x301 + x387 <= 1
C1129: + x12 + x242 <= 1
C1130: + x40 + x65 <= 1
C1131: + x216 + x459 <= 1
C1132: + x189 + x241 <= 1
C1133: + x10 + x182 <= 1
C1134: + x165 + x336 <= 1
C1135: + x187 + x362 <= 1
C1136: + x5 + x273 <= 1
C1137: + x7 + x53 <= 1
C1138: + x11 + x60 <= 1
C1139: + x82 + x348 <= 1
C1140: + x120 + x168 <= 1
C1141: + x290 + x428 <= 1
C1142: + x21 + x241 <= 1
C1143: + x133 + x491 <= 1
C1144: + x255 + x481 <= 1
C1145: + x166 + x396 <= 1
C1146: + x359 + x418 <= 1
C1147: + x14 + x432 <= 1
C1148: + x35 + x364 <= 1
C1149: + x5 + x6 + x8 + x19 <= 1
C1150: + x95 + x210 <= 1
C1151: + x245 + x265 <= 1
C1152: + x146 + x411 <= 1
C1153: + x82 + x280 <= 1
C1154: + x4 + x5 <= 1
C1155: + x74 + x110 <= 1
C1156: + x67 + x244 <= 1
C1157: + x13 + x284 <= 1
C1158: + x104 + x347 <= 1
C1159: + x60 + x207 <= 1
C1160: + x23 + x55 <= 1
C1161: + x6 + x7 <= 1
C1162: + x99 + x128 <= 1
C1163: + x147 + x188 <= 1
C1164: + x282 + x436 <= 1
C1165: + x95 + x286 <= 1
C1166: + x15 + x237 <= 1
C1167: + x8 + x17 <= 1
C1168: + x122 + x491 <= 1
C1169: + x5 + x189 <= 1
C1170: + x10 + x16 <= 1
C1171: + x11 + x136 <= 1
C1172: + x13 + x45 <= 1
C1173: + x17 + x184 <= 1
C1174: + x63 + x172 <= 1
C1175: + x33 + x139 <= 1
C1176: + x6 + x92 <= 1
C1177: + x20 + x373 <= 1
C1178: + x22 + x89 <= 1
C1179: + x168 + x202 <= 1
C1180: + x74 + x444 <= 1
C1181: + x137 + x441 <= 1
C1182: + x38 + x134 <= 1
C1183: + x47 + x81 <= 1
C1184: + x179 + x377 <= 1
C1185: + x18 + x108 <= 1
C1186: + x99 + x119 <= 1
C1187: + x71 + x88 <= 1
C1188: + x66 + x360 <= 1
C1189: + x12 + x240 <= 1
C1190: + x60 + x291 <= 1
C1191: + x104 + x183 <= 1
C1192: + x161 + x233 <= 1
C1193: + x141 + x376 <= 1
C1194: + x100 + x111 <= 1
C1195: + x64 + x125 <= 1
C1196: + x20 + x160 <= 1
C1197: + x73 + x77 <= 1
C1198: + x128 + x325 <= 1
C1199: + x18 + x424 <= 1
C1200: + x156 + x304 <= 1
C1201: + x421 + x498 <= 1
C1202: + x10 + x49 <= 1
C1203: + x2 + x244 <= 1
C1204: + x76 + x85 <= 1
C1205: + x30 + x174 <= 1
C1206: + x13 + x44 <= 1
C1207: + x257 + x358 <= 1
C1208: + x32 + x277 <= 1
C1209: + x53 + x115 <= 1
C1210: + x18 + x49 <= 1
C1211: + x71 + x370 <= 1
C1212: + x55 + x224 <= 1
C1213: + x113 + x115 <= 1
C1214: + x5 + x406 <= 1
C1215: + x9 + x28 <= 1
C1216: + x11 + x18 <= 1
C1217: + x118 + x222 <= 1
C1218: + x7 + x321 <= 1
C1219: + x85 + x350 <= 1
C1220: + x33 + x241 <= 1
C1221: + x99 + x429 <= 1
C1222: + x67 + x281 <= 1
C1223: + x3 + x6 <= 1
C1224: + x7 + x143 <= 1
C1225: + x110 + x343 <= 1
C1226: + x146 + x294 <= 1
C1227: + x84 + x211 <= 1
C1228: + x13 + x239 <= 1
C1229: + x268 + x428 <= 1
C1230: + x9 + x215 <= 1
C1231: + x33 + x205 <= 1
C1232: + x61 + x182 <= 1
C1233: + x24 + x36 <= 1
C1234: + x71 + x218 <= 1
C1235: + x182 + x320 <= 1
C1236: + x172 + x475 <= 1
C1237: + x22 + x423 <= 1
C1238: + x23 + x29 <= 1
C1239: + x134 + x451 <= 1
C1240: + x10 + x58 <= 1
C1241: + x30 + x167 <= 1
C1242: + x33 + x375 <= 1
C1243: + x5 + x72 <= 1
C1244: + x117 + x186 <= 1
C1245: + x80 + x312 <= 1
C1246: + x93 + x465 <= 1
C1247: + x120 + x338 <= 1
C1248: + x114 + x385 <= 1
C1249: + x30 + x437 <= 1
C1250: + x261 + x399 <= 1
C1251: + x15 + x25 <= 1
C1252: + x255 + x375 <= 1
C1253: + x185 + x452 <= 1
C1254: + x87 + x169 <= 1
C1255: + x73 + x157 <= 1
C1256: + x56 + x78 <= 1
C1257: + x50 + x399 <= 1
C1258: + x161 + x317 <= 1
C1259: + x11 + x351 <= 1
C1260: + x41 + x344 <= 1
C1261: + x34 + x91 <= 1
C1262: + x15 + x37 <= 1
C1263: + x6 + x114 <= 1
C1264: + x82 + x193 <= 1
C1265: + x11 + x77 <= 1
C1266: + x23 + x165 <= 1
C1267: + x80 + x489 <= 1
C1268: + x8 + x128 <= 1
C1269: + x58 + x432 <= 1
C1270: + x233 + x466 <= 1
C1271: + x40 + x279 <= 1
C1272: + x61 + x77 <= 1
C1273: + x7 + x17 <= 1
C1274: + x262 + x350 <= 1
C1275: + x7 + x190 <= 1
C1276: + x92 + x153 <= 1
C1277: + x5 + x79 <= 1
C1278: + x16 + x125 <= 1
C1279: + x9 + x10 <= 1
C1280: + x27 + x256 <= 1
C1281: + x13 + x460 <= 1
C1282: + x200 + x407 <= 1
C1283: + x419 + x476 <= 1
C1284: + x7 + x234 <= 1
C1285: + x18 + x180 <= 1
C1286: + x12 + x134 <= 1
C1287: + x25 + x156 <= 1
C1288: + x79 + x339 <= 1
C1289: + x11 + x346 <= 1
C1290: + x15 + x48 <= 1
C1291: + x8 + x267 <= 1
C1292: + x10 + x421 <= 1
C1293: + x12 + x275 <= 1
C1294: + x53 + x60 <= 1
C1295: + x15 + x479 <= 1
C1296: + x71 + x204 <= 1
C1297: + x73 + x98 <= 1
C1298: + x7 + x12 <= 1
C1299: + x46 + x101 <= 1
C1300: + x13 + x372 <= 1
C1301: + x14 + x124 <= 1
C1302: + x15 + x124 <= 1
C1303: + x118 + x298 <= 1
C1304: + x335 + x365 <= 1
C1305: + x29 + x271 <= 1
C1306: + x175 + x214 <= 1
C1307: + x140 + x335 <= 1
C1308: + x39 + x78 <= 1
C1309: + x12 + x46 <= 1
C1310: + x32 + x423 <= 1
C1311: + x8 + x336 <= 1
C1312: + x255 + x353 <= 1
C1313: + x57 + x285 <= 1
C1314: + x20 + x401 <= 1
C1315: + x73 + x139 <= 1
C1316: + x80 + x128 <= 1
C1317: + x273 + x445 <= 1
C1318: + x154 + x250 <= 1
C1319: + x10 + x24 <= 1
C1320: + x67 + x449 <= 1
C1321: + x48 + x103 <= 1
C1322: + x69 + x493 <= 1
C1323: + x23 + x265 <= 1
C1324: + x24 + x123 <= 1
C1325: + x315 + x389 <= 1
C1326: + x84 + x472 <= 1
C1327: + x41 + x241 <= 1
C1328: + x6 + x100 <= 1
C1329: + x134 + x191 <= 1
C1330: + x8 + x260 <= 1
C1331: + x27 + x304 <= 1
C1332: + x5 + x9 <= 1
C1333: + x6 + x135 <= 1
C1334: + x61 + x433 <= 1
C1335: + x27 + x62 <= 1
C1336: + x21 + x44 <= 1
C1337: + x32 + x380 <= 1
C1338: + x47 + x150 <= 1
C1339: + x5 + x160 <= 1
C1340: + x70 + x285 <= 1
C1341: + x181 + x306 <= 1
C1342: + x8 + x131 <= 1
C1343: + x5 + x61 <= 1
C1344: + x26 + x210 <= 1
C1345: + x19 + x163 <= 1
C1346: + x67 + x425 <= 1
C1347: + x5 + x303 <= 1
C1348: + x11 + x54 <= 1
C1349: + x212 + x346 <= 1
C1350: + x136 + x351 <= 1
C1351: + x348 + x434 <= 1
C1352: + x95 + x192 <= 1
C1353: + x109 + x286 <= 1
C1354: + x27 + x113 <= 1
C1355: + x10 + x25 <= 1
C1356: + x166 + x291 <= 1
C1357: + x233 + x283 <= 1
C1358: + x116 + x246 <= 1
C1359: + x14 + x343 <= 1
C1360: + x334 + x418 <= 1
C1361: + x235 + x329 <= 1
C1362: + x29 + x127 <= 1
C1363: + x103 + x393 <= 1
C1364: + x13 + x302 <= 1
C1365: + x97 + x314 <= 1
C1366: + x15 + x58 <= 1
C1367: + x271 + x371 <= 1
C1368: + x190 + x288 <= 1
C1369: + x144 + x352 <= 1
C1370: + x2 + x5 <= 1
C1371: + x11 + x122 <= 1
C1372: + x4 + x256 <= 1
C1373: + x141 + x275 <= 1
C1374: + x10 + x197 <= 1
C1375: + x20 + x193 <= 1
C1376: + x233 + x455 <= 1
C1377: + x149 + x435 <= 1
C1378: + x4 + x466 <= 1
C1379: + x261 + x468 <= 1
C1380: + x189 + x492 <= 1
C1381: + x345 + x456 <= 1
C1382: + x292 + x427 <= 1
C1383: + x234 + x362 <= 1
C1384: + x33 + x403 <= 1
C1385: + x4 + x172 <= 1
C1386: + x188 + x327 <= 1
C1387: + x6 + x271 <= 1
C1388: + x239 + x464 <= 1
C1389: + x48 + x136 <= 1
C1390: + x131 + x154 <= 1
C1391: + x21 + x436 <= 1
C1392: + x11 + x484 <= 1
C1393: + x23 + x117 <= 1
C1394: + x118 + x336 <= 1
C1395: + x91 + x316 <= 1
C1396: + x13 + x59 <= 1
C1397: + x23 + x283 <= 1
C1398: + x387 + x447 <= 1
C1399: + x263 + x278 <= 1
C1400: + x76 + x257 <= 1
C1401: + x12 + x24 <= 1
C1402: + x285 + x291 <= 1
C1403: + x39 + x346 <= 1
C1404: + x7 + x110 <= 1
C1405: + x172 + x431 <= 1
C1406: + x67 + x70 <= 1
C1407: + x24 + x307 <= 1
C1408: + x26 + x152 <= 1
C1409: + x26 + x349 <= 1
C1410: + x326 + x351 <= 1
C1411: + x19 + x225 <= 1
C1412: + x74 + x398 <= 1
C1413: + x253 + x478 <= 1
C1414: + x143 + x357 <= 1
C1415: + x200 + x327 <= 1
C1416: + x349 + x484 <= 1
C1417: + x9 + x308 <= 1
C1418: + x10 + x396 <= 1
C1419: + x135 + x440 <= 1
C1420: + x27 + x454 <= 1
C1421: + x54 + x64 <= 1
C1422: + x175 + x239 <= 1
C1423: + x96 + x100 <= 1
C1424: + x17 + x249 <= 1
C1425: + x11 + x266 <= 1
C1426: + x130 + x448 <= 1
C1427: + x122 + x216 <= 1
C1428: + x194 + x256 <= 1
C1429: + x68 + x144 <= 1
C1430: + x123 + x377 <= 1
C1431: + x6 + x427 <= 1
C1432: + x30 + x402 <= 1
C1433: + x147 + x259 <= 1
C1434: + x90 + x218 <= 1
C1435: + x82 + x149 <= 1
C1436: + x19 + x40 <= 1
C1437: + x3 + x238 <= 1
C1438: + x13 + x50 <= 1
C1439: + x9 + x13 + x15 <= 1
C1440: + x116 + x311 <= 1
C1441: + x6 + x316 <= 1
C1442: + x244 + x494 <= 1
C1443: + x11 + x382 <= 1
C1444: + x59 + x141 <= 1
C1445: + x271 + x381 <= 1
C1446: + x46 + x56 <= 1
C1447: + x292 + x365 <= 1
C1448: + x94 + x222 <= 1
C1449: + x66 + x228 <= 1
C1450: + x33 + x306 <= 1
C1451: + x4 + x9 <= 1
C1452: + x62 + x102 <= 1
C1453: + x19 + x107 <= 1
C1454: + x64 + x285 <= 1
C1455: + x2 + x35 <= 1
C1456: + x57 + x330 <= 1
C1457: + x292 + x345 <= 1
C1458: + x14 + x195 <= 1
C1459: + x132 + x282 <= 1
C1460: + x5 + x42 <= 1
C1461: + x143 + x287 <= 1
C1462: + x73 + x493 <= 1
C1463: + x23 + x152 <= 1
C1464: + x131 + x414 <= 1
C1465: + x78 + x102 <= 1
C1466: + x51 + x229 <= 1
C1467: + x19 + x305 <= 1
C1468: + x11 + x47 <= 1
C1469: + x95 + x145 <= 1
C1470: + x149 + x167 <= 1
C1471: + x150 + x204 <= 1
C1472: + x9 + x359 <= 1
C1473: + x18 + x145 <= 1
C1474: + x71 + x466 <= 1
C1475: + x11 + x132 <= 1
C1476: + x3 + x229 <= 1
C1477: + x124 + x190 <= 1
C1478: + x23 + x228 <= 1
C1479: + x34 + x355 <= 1
C1480: + x6 + x293 <= 1
C1481: + x162 + x345 <= 1
C1482: + x236 + x306 <= 1
C1483: + x308 + x490 <= 1
C1484: + x41 + x290 <= 1
C1485: + x11 + x19 <= 1
C1486: + x113 + x354 <= 1
C1487: + x40 + x63 <= 1
C1488: + x96 + x174 <= 1
C1489: + x16 + x296 <= 1
C1490: + x1 + x5 <= 1
C1491: + x201 + x381 <= 1
C1492: + x378 + x457 <= 1
C1493: + x51 + x172 <= 1
C1494: + x70 + x94 <= 1
C1495: + x35 + x210 <= 1
C1496: + x212 + x298 <= 1
C1497: + x86 + x91 <= 1
C1498: + x97 + x283 <= 1
C1499: + x6 + x12 <= 1
C1500: + x2 + x60 <= 1
C1501: + x348 + x365 <= 1
C1502: + x5 + x17 <= 1
C1503: + x6 + x378 <= 1
C1504: + x152 + x271 <= 1
C1505: + x194 + x202 <= 1
C1506: + x4 + x62 <= 1
C1507: + x5 + x259 <= 1
C1508: + x160 + x254 <= 1
C1509: + x6 + x64 <= 1
C1510: + x16 + x216 <= 1
C1511: + x185 + x338 <= 1
C1512: + x85 + x150 <= 1
C1513: + x7 + x438 <= 1
C1514: + x76 + x312 <= 1
C1515: + x14 + x478 <= 1
C1516: + x15 + x22 <= 1
C1517: + x19 + x480 <= 1
C1518: + x57 + x215 <= 1
C1519: + x67 + x175 <= 1
C1520: + x13 + x183 <= 1
C1521: + x19 + x206 <= 1
C1522: + x237 + x464 <= 1
C1523: + x12 + x140 <= 1
C1524: + x13 + x28 <= 1
C1525: + x10 + x324 <= 1
C1526: + x8 + x494 <= 1
C1527: + x157 + x407 <= 1
C1528: + x22 + x479 <= 1
C1529: + x359 + x388 <= 1
C1530: + x15 + x34 <= 1
C1531: + x92 + x261 <= 1
C1532: + x11 + x66 <= 1
C1533: + x254 + x326 <= 1
C1534: + x19 + x130 <= 1
C1535: + x60 + x66 <= 1
C1536: + x259 + x295 <= 1
C1537: + x327 + x423 <= 1
C1538: + x29 + x408 <= 1
C1539: + x251 + x292 <= 1
C1540: + x27 + x96 <= 1
C1541: + x110 + x210 <= 1
C1542: + x125 + x225 <= 1
C1543: + x244 + x449 <= 1
C1544: + x16 + x116 <= 1
C1545: + x74 + x473 <= 1
C1546: + x6 + x74 <= 1
C1547: + x55 + x120 <= 1
C1548: + x168 + x252 <= 1
C1549: + x52 + x264 <= 1
C1550: + x27 + x439 <= 1
C1551: + x57 + x496 <= 1
C1552: + x12 + x129 <= 1
C1553: + x232 + x468 <= 1
C1554: + x88 + x289 <= 1
C1555: + x202 + x224 <= 1
C1556: + x20 + x65 <= 1
C1557: + x186 + x297 <= 1
C1558: + x5 + x354 <= 1
C1559: + x163 + x370 <= 1
C1560: + x19 + x395 <= 1
C1561: + x67 + x126 <= 1
C1562: + x48 + x462 <= 1
C1563: + x5 + x7 <= 1
C1564: + x6 + x364 <= 1
C1565: + x100 + x129 <= 1
C1566: + x147 + x454 <= 1
C1567: + x11 + x302 <= 1
C1568: + x12 + x125 <= 1
C1569: + x13 + x71 <= 1
C1570: + x33 + x200 <= 1
C1571: + x8 + x415 <= 1
C1572: + x64 + x206 <= 1
C1573: + x402 + x420 <= 1
C1574: + x362 + x403 <= 1
C1575: + x144 + x166 <= 1
C1576: + x83 + x255 <= 1
C1577: + x8 + x137 <= 1
C1578: + x4 + x185 <= 1
C1579: + x60 + x257 <= 1
C1580: + x98 + x377 <= 1
C1581: + x198 + x224 <= 1
C1582: + x9 + x14 <= 1
C1583: + x18 + x39 <= 1
C1584: + x123 + x184 <= 1
C1585: + x40 + x327 <= 1
C1586: + x209 + x254 <= 1
C1587: + x80 + x224 <= 1
C1588: + x2 + x115 <= 1
C1589: + x130 + x293 + x483 <= 1
C1590: + x120 + x220 <= 1
C1591: + x32 + x256 <= 1
C1592: + x32 + x331 <= 1
C1593: + x7 + x468 <= 1
C1594: + x263 + x293 <= 1
C1595: + x130 + x215 <= 1
C1596: + x221 + x274 <= 1
C1597: + x34 + x88 <= 1
C1598: + x15 + x52 <= 1
C1599: + x54 + x472 <= 1
C1600: + x59 + x74 <= 1
C1601: + x22 + x68 <= 1
C1602: + x5 + x14 <= 1
C1603: + x95 + x254 <= 1
C1604: + x26 + x334 <= 1
C1605: + x207 + x227 <= 1
C1606: + x19 + x277 <= 1
C1607: + x95 + x141 <= 1
C1608: + x13 + x368 <= 1
C1609: + x34 + x420 <= 1
C1610: + x6 + x43 <= 1
C1611: + x73 + x195 <= 1
C1612: + x33 + x409 <= 1
C1613: + x23 + x144 <= 1
C1614: + x52 + x485 <= 1
C1615: + x334 + x369 <= 1
C1616: + x52 + x92 <= 1
C1617: + x319 + x413 <= 1
C1618: + x4 + x404 <= 1
C1619: + x243 + x330 <= 1
C1620: + x82 + x123 <= 1
C1621: + x27 + x360 <= 1
C1622: + x38 + x451 <= 1
C1623: + x141 + x292 <= 1
C1624: + x109 + x240 <= 1
C1625: + x32 + x229 <= 1
C1626: + x5 + x102 <= 1
C1627: + x127 + x163 <= 1
C1628: + x27 + x151 <= 1
C1629: + x255 + x337 <= 1
C1630: + x66 + x328 <= 1
C1631: + x229 + x377 <= 1
C1632: + x13 + x152 <= 1
C1633: + x14 + x32 <= 1
C1634: + x89 + x225 <= 1
C1635: + x226 + x482 <= 1
C1636: + x68 + x259 <= 1
C1637: + x336 + x469 <= 1
C1638: + x66 + x142 <= 1
C1639: + x148 + x411 <= 1
C1640: + x188 + x487 <= 1
C1641: + x6 + x20 <= 1
C1642: + x145 + x226 <= 1
C1643: + x144 + x172 <= 1
C1644: + x74 + x222 <= 1
C1645: + x7 + x164 <= 1
C1646: + x94 + x131 <= 1
C1647: + x172 + x353 <= 1
C1648: + x15 + x341 <= 1
C1649: + x8 + x30 <= 1
C1650: + x310 + x499 <= 1
C1651: + x30 + x81 <= 1
C1652: + x396 + x456 <= 1
C1653: + x100 + x474 <= 1
C1654: + x47 + x287 <= 1
C1655: + x13 + x347 <= 1
C1656: + x23 + x114 <= 1
C1657: + x14 + x37 <= 1
C1658: + x73 + x182 <= 1
C1659: + x152 + x344 <= 1
C1660: + x130 + x467 <= 1
C1661: + x234 + x401 <= 1
C1662: + x25 + x238 <= 1
C1663: + x17 + x187 <= 1
C1664: + x108 + x380 <= 1
C1665: + x60 + x253 <= 1
C1666: + x15 + x62 <= 1
C1667: + x164 + x281 <= 1
C1668: + x83 + x257 <= 1
C1669: + x8 + x196 <= 1
C1670: + x19 + x65 <= 1
C1671: + x68 + x109 <= 1
C1672: + x148 + x234 <= 1
C1673: + x162 + x248 <= 1
C1674: + x6 + x140 <= 1
C1675: + x9 + x247 <= 1
C1676: + x92 + x115 <= 1
C1677: + x205 + x308 <= 1
C1678: + x297 + x480 <= 1
C1679: + x24 + x68 <= 1
C1680: + x324 + x489 <= 1
C1681: + x16 + x39 <= 1
C1682: + x127 + x146 <= 1
C1683: + x130 + x266 <= 1
C1684: + x97 + x266 <= 1
C1685: + x207 + x266 <= 1
C1686: + x19 + x428 <= 1
C1687: + x20 + x310 <= 1
C1688: + x22 + x26 <= 1
C1689: + x162 + x196 <= 1
C1690: + x17 + x305 <= 1
C1691: + x245 + x471 <= 1
C1692: + x113 + x138 <= 1
C1693: + x17 + x35 <= 1
C1694: + x72 + x250 <= 1
C1695: + x147 + x264 <= 1
C1696: + x11 + x57 <= 1
C1697: + x115 + x404 <= 1
C1698: + x96 + x248 <= 1
C1699: + x287 + x369 <= 1
C1700: + x7 + x215 <= 1
C1701: + x27 + x72 <= 1
C1702: + x7 + x284 <= 1
C1703: + x19 + x41 <= 1
C1704: + x157 + x173 <= 1
C1705: + x21 + x242 <= 1
C1706: + x4 + x92 <= 1
C1707: + x14 + x129 <= 1
C1708: + x125 + x276 <= 1
C1709: + x8 + x463 <= 1
C1710: + x30 + x126 <= 1
C1711: + x50 + x221 <= 1
C1712: + x64 + x145 <= 1
C1713: + x2 + x431 <= 1
C1714: + x55 + x465 <= 1
C1715: + x234 + x299 <= 1
C1716: + x126 + x269 <= 1
C1717: + x280 + x368 <= 1
C1718: + x4 + x8 <= 1
C1719: + x22 + x464 <= 1
C1720: + x5 + x138 <= 1
C1721: + x109 + x348 <= 1
C1722: + x19 + x419 <= 1
C1723: + x10 + x400 <= 1
C1724: + x11 + x81 <= 1
C1725: + x60 + x301 <= 1
C1726: + x268 + x445 <= 1
C1727: + x16 + x93 <= 1
C1728: + x11 + x310 <= 1
C1729: + x113 + x129 <= 1
C1730: + x13 + x95 <= 1
C1731: + x42 + x133 <= 1
C1732: + x17 + x26 <= 1
C1733: + x6 + x407 <= 1
C1734: + x7 + x45 <= 1
C1735: + x256 + x278 <= 1
C1736: + x93 + x301 <= 1
C1737: + x34 + x387 <= 1
C1738: + x80 + x87 <= 1
C1739: + x85 + x132 <= 1
C1740: + x86 + x380 <= 1
C1741: + x125 + x299 <= 1
C1742: + x327 + x449 <= 1
C1743: + x38 + x52 <= 1
C1744: + x67 + x331 <= 1
C1745: + x184 + x484 <= 1
C1746: + x68 + x192 <= 1
C1747: + x5 + x333 <= 1
C1748: + x6 + x91 <= 1
C1749: + x27 + x261 <= 1
C1750: + x70 + x208 <= 1
C1751: + x319 + x351 <= 1
C1752: + x15 + x16 <= 1
C1753: + x264 + x332 <= 1
C1754: + x88 + x161 <= 1
C1755: + x146 + x173 <= 1
C1756: + x255 + x326 <= 1
C1757: + x111 + x463 <= 1
C1758: + x18 + x474 <= 1
C1759: + x40 + x62 <= 1
C1760: + x8 + x85 <= 1
C1761: + x4 + x13 <= 1
C1762: + x187 + x309 <= 1
C1763: + x5 + x369 <= 1
C1764: + x19 + x103 <= 1
C1765: + x75 + x156 <= 1
C1766: + x57 + x334 <= 1
C1767: + x8 + x9 <= 1
C1768: + x38 + x201 <= 1
C1769: + x148 + x287 <= 1
C1770: + x33 + x258 <= 1
C1771: + x42 + x315 <= 1
C1772: + x130 + x437 <= 1
C1773: + x129 + x176 <= 1
C1774: + x348 + x409 <= 1
C1775: + x174 + x231 <= 1
C1776: + x124 + x178 <= 1
C1777: + x31 + x203 <= 1
C1778: + x125 + x239 <= 1
C1779: + x9 + x29 <= 1
C1780: + x210 + x315 <= 1
C1781: + x11 + x353 <= 1
C1782: + x139 + x318 <= 1
C1783: + x319 + x485 <= 1
C1784: + x6 + x68 <= 1
C1785: + x327 + x357 <= 1
C1786: + x156 + x379 <= 1
C1787: + x200 + x420 <= 1
C1788: + x67 + x84 <= 1
C1789: + x12 + x300 <= 1
C1790: + x9 + x343 <= 1
C1791: + x7 + x322 <= 1
C1792: + x2 + x143 <= 1
C1793: + x242 + x341 <= 1
C1794: + x361 + x373 <= 1
C1795: + x257 + x389 <= 1
C1796: + x19 + x98 <= 1
C1797: + x11 + x67 <= 1
C1798: + x66 + x384 <= 1
C1799: + x114 + x166 <= 1
C1800: + x12 + x232 <= 1
C1801: + x171 + x236 <= 1
C1802: + x90 + x191 <= 1
C1803: + x18 + x253 <= 1
C1804: + x481 + x488 <= 1
C1805: + x92 + x433 <= 1
C1806: + x2 + x32 + x114 <= 1
C1807: + x50 + x119 <= 1
C1808: + x19 + x22 <= 1
C1809: + x21 + x143 <= 1
C1810: + x13 + x36 <= 1
C1811: + x40 + x163 <= 1
C1812: + x125 + x230 <= 1
C1813: + x52 + x73 <= 1
C1814: + x18 + x41 <= 1
C1815: + x188 + x318 <= 1
C1816: + x8 + x54 <= 1
C1817: + x121 + x190 <= 1
C1818: + x123 + x347 <= 1
C1819: + x6 + x77 <= 1
C1820: + x18 + x460 <= 1
C1821: + x191 + x440 <= 1
C1822: + x11 + x461 <= 1
C1823: + x67 + x171 <= 1
C1824: + x20 + x225 <= 1
C1825: + x5 + x117 <= 1
C1826: + x23 + x384 <= 1
C1827: + x49 + x231 <= 1
C1828: + x38 + x421 <= 1
C1829: + x186 + x300 <= 1
C1830: + x4 + x365 <= 1
C1831: + x14 + x398 <= 1
C1832: + x198 + x433 <= 1
C1833: + x43 + x101 <= 1
C1834: + x154 + x160 <= 1
C1835: + x72 + x412 <= 1
C1836: + x47 + x467 <= 1
C1837: + x5 + x28 <= 1
C1838: + x6 + x148 <= 1
C1839: + x27 + x41 <= 1
C1840: + x152 + x260 <= 1
C1841: + x92 + x107 <= 1
C1842: + x13 + x76 <= 1
C1843: + x421 + x481 <= 1
C1844: + x425 + x431 <= 1
C1845: + x32 + x207 <= 1
C1846: + x5 + x80 <= 1
C1847: + x23 + x242 <= 1
C1848: + x189 + x234 <= 1
C1849: + x9 + x11 <= 1
C1850: + x2 + x368 <= 1
C1851: + x8 + x51 <= 1
C1852: + x191 + x222 <= 1
C1853: + x6 + x438 <= 1
C1854: + x54 + x76 <= 1
C1855: + x5 + x223 <= 1
C1856: + x73 + x133 <= 1
C1857: + x3 + x263 <= 1
C1858: + x124 + x156 <= 1
C1859: + x154 + x454 <= 1
C1860: + x308 + x392 <= 1
C1861: + x164 + x395 <= 1
C1862: + x40 + x442 <= 1
C1863: + x14 + x391 <= 1
C1864: + x61 + x214 <= 1
C1865: + x8 + x262 <= 1
C1866: + x74 + x319 <= 1
C1867: + x2 + x10 <= 1
C1868: + x15 + x202 <= 1
C1869: + x47 + x55 <= 1
C1870: + x49 + x109 <= 1
C1871: + x86 + x431 <= 1
C1872: + x41 + x154 <= 1
C1873: + x242 + x435 <= 1
C1874: + x23 + x323 <= 1
C1875: + x116 + x362 <= 1
C1876: + x153 + x414 <= 1
C1877: + x5 + x146 <= 1
C1878: + x150 + x227 <= 1
C1879: + x71 + x118 <= 1
C1880: + x21 + x157 <= 1
C1881: + x90 + x272 <= 1
C1882: + x151 + x487 <= 1
C1883: + x128 + x196 <= 1
C1884: + x17 + x50 <= 1
C1885: + x10 + x481 <= 1
C1886: + x93 + x178 <= 1
C1887: + x221 + x383 <= 1
C1888: + x105 + x376 <= 1
C1889: + x13 + x161 <= 1
C1890: + x32 + x69 <= 1
C1891: + x202 + x399 <= 1
C1892: + x152 + x350 <= 1
C1893: + x164 + x213 <= 1
C1894: + x115 + x200 <= 1
C1895: + x5 + x123 <= 1
C1896: + x34 + x137 <= 1
C1897: + x179 + x286 <= 1
C1898: + x21 + x70 <= 1
C1899: + x7 + x113 <= 1
C1900: + x74 + x296 <= 1
C1901: + x11 + x128 <= 1
C1902: + x229 + x382 <= 1
C1903: + x5 + x10 <= 1
C1904: + x152 + x274 <= 1
C1905: + x272 + x292 <= 1
C1906: + x21 + x53 <= 1
C1907: + x39 + x235 <= 1
C1908: + x23 + x326 <= 1
C1909: + x162 + x400 <= 1
C1910: + x18 + x387 <= 1
C1911: + x92 + x392 <= 1
C1912: + x100 + x489 <= 1
C1913: + x20 + x26 <= 1
C1914: + x221 + x245 <= 1
C1915: + x148 + x410 <= 1
C1916: + x33 + x64 <= 1
C1917: + x133 + x281 <= 1
C1918: + x23 + x39 <= 1
C1919: + x6 + x23 <= 1
C1920: + x98 + x104 <= 1
C1921: + x65 + x164 <= 1
C1922: + x101 + x352 <= 1
C1923: + x208 + x436 <= 1
C1924: + x51 + x106 <= 1
C1925: + x109 + x363 <= 1
C1926: + x19 + x438 <= 1
C1927: + x23 + x132 <= 1
C1928: + x43 + x137 <= 1
C1929: + x61 + x390 <= 1
C1930: + x130 + x429 <= 1
C1931: + x124 + x368 <= 1
C1932: + x489 + x492 <= 1
C1933: + x19 + x453 <= 1
C1934: + x11 + x51 <= 1
C1935: + x39 + x469 <= 1
C1936: + x5 + x205 <= 1
C1937: + x16 + x243 <= 1
C1938: + x272 + x357 <= 1
C1939: + x29 + x219 <= 1
C1940: + x99 + x434 <= 1
C1941: + x101 + x446 <= 1
C1942: + x155 + x464 <= 1
C1943: + x78 + x174 <= 1
C1944: + x6 + x108 <= 1
C1945: + x144 + x228 <= 1
C1946: + x138 + x164 <= 1
C1947: + x64 + x294 <= 1
C1948: + x13 + x148 <= 1
C1949: + x12 + x111 <= 1
C1950: + x51 + x371 <= 1
C1951: + x20 + x31 <= 1

binary
x1 x2 x3 x4 x5 x6 x7 x8 x9 x10 x11 x12 x13 x14 x15 x16 x17 x18 x19 x20 x21 x22 x23 x24 x25 x26 x27 x28 x29 x30 x31 x32 x33 x34 x35 x36 x37 x38 x39 x40 x41 x42 x43 x44 x45 x46 x47 x48 x49 x50 x51 x52 x53 x54 x55 x56 x57 x58 x59 x60 x61 x62 x63 x64 x65 x66 x67 x68 x69 x70 x71 x72 x73 x74 x75 x76 x77 x78 x79 x80 x81 x82 x83 x84 x85 x86 x87 x88 x89 x90 x91 x92 x93 x94 x95 x96 x97 x98 x99 x100 x101 x102 x103 x104 x105 x106 x107 x108 x109 x110 x111 x112 x113 x114 x115 x116 x117 x118 x119 x120 x121 x122 x123 x124 x125 x126 x127 x128 x129 x130 x131 x132 x133 x134 x135 x136 x137 x138 x139 x140 x141 x142 x143 x144 x145 x146 x147 x148 x149 x150 x151 x152 x153 x154 x155 x156 x157 x158 x159 x160 x161 x162 x163 x164 x165 x166 x167 x168 x169 x170 x171 x172 x173 x174 x175 x176 x177 x178 x179 x180 x181 x182 x183 x184 x185 x186 x187 x188 x189 x190 x191 x192 x193 x194 x195 x196 x197 x198 x199 x200 x201 x202 x203 x204 x205 x206 x207 x208 x209 x210 x211 x212 x213 x214 x215 x216 x217 x218 x219 x220 x221 x222 x223 x224 x225 x226 x227 x228 x229 x230 x231 x232 x233 x234 x235 x236 x237 x238 x239 x240 x241 x242 x243 x244 x245 x246 x247 x248 x249 x250 x251 x252 x253 x254 x255 x256 x257 x258 x259 x260 x261 x262 x263 x264 x265 x266 x267 x268 x269 x270 x271 x272 x273 x274 x275 x276 x277 x278 x279 x280 x281 x282 x283 x284 x285 x286 x287 x288 x289 x290 x291 x292 x293 x294 x295 x296 x297 x298 x299 x300 x301 x302 x303 x304 x305 x306 x307 x308 x309 x310 x311 x312 x313 x314 x315 x316 x317 x318 x319 x320 x321 x322 x323 x324 x325 x326 x327 x328 x329 x330 x331 x332 x333 x334 x335 x336 x337 x338 x339 x340 x341 x342 x343 x344 x345 x346 x347 x348 x349 x350 x351 x352 x353 x354 x355 x356 x357 x358 x359 x360 x361 x362 x363 x364 x365 x366 x367 x368 x369 x370 x371 x372 x373 x374 x375 x376 x377 x378 x379 x380 x381 x382 x383 x384 x385 x386 x387 x388 x389 x390 x391 x392 x393 x394 x395 x396 x397 x398 x399 x400 x401 x402 x403 x404 x405 x406 x407 x408 x409 x410 x411 x412 x413 x414 x415 x416 x417 x418 x419 x420 x421 x422 x423 x424 x425 x426 x427 x428 x429 x430 x431 x432 x433 x434 x435 x436 x437 x438 x439 x440 x441 x442 x443 x444 x445 x446 x447 x448 x449 x450 x451 x452 x453 x454 x455 x456 x457 x458 x459 x460 x461 x462 x463 x464 x465 x466 x467 x468 x469 x470 x471 x472 x473 x474 x475 x476 x477 x478 x479 x480 x481 x482 x483 x484 x485 x486 x487 x488 x489 x490 x491 x492 x493 x494 x495 x496 x497 x498 x499 x500
