maximize
OBJ: + 1 x1 + 1 x2 + 1 x3 + 1 x4 + 1 x5 + 1 x6 + 1 x7 + 1 x8 + 1 x9 + 1 x10 + 1 x11 + 1 x12 + 1 x13 + 1 x14 + 1 x15 + 1 x16 + 1 x17 + 1 x18 + 1 x19 + 1 x20 + 1 x21 + 1 x22 + 1 x23 + 1 x24 + 1 x25 + 1 x26 + 1 x27 + 1 x28 + 1 x29 + 1 x30 + 1 x31 + 1 x32 + 1 x33 + 1 x34 + 1 x35 + 1 x36 + 1 x37 + 1 x38 + 1 x39 + 1 x40 + 1 x41 + 1 x42 + 1 x43 + 1 x44 + 1 x45 + 1 x46 + 1 x47 + 1 x48 + 1 x49 + 1 x50 + 1 x51 + 1 x52 + 1 x53 + 1 x54 + 1 x55 + 1 x56 + 1 x57 + 1 x58 + 1 x59 + 1 x60 + 1 x61 + 1 x62 + 1 x63 + 1 x64 + 1 x65 + 1 x66 + 1 x67 + 1 x68 + 1 x69 + 1 x70 + 1 x71 + 1 x72 + 1 x73 + 1 x74 + 1 x75 + 1 x76 + 1 x77 + 1 x78 + 1 x79 + 1 x80 + 1 x81 + 1 x82 + 1 x83 + 1 x84 + 1 x85 + 1 x86 + 1 x87 + 1 x88 + 1 x89 + 1 x90 + 1 x91 + 1 x92 + 1 x93 + 1 x94 + 1 x95 + 1 x96 + 1 x97 + 1 x98 + 1 x99 + 1 x100 + 1 x101 + 1 x102 + 1 x103 + 1 x104 + 1 x105 + 1 x106 + 1 x107 + 1 x108 + 1 x109 + 1 x110 + 1 x111 + 1 x112 + 1 x113 + 1 x114 + 1 x115 + 1 x116 + 1 x117 + 1 x118 + 1 x119 + 1 x120 + 1 x121 + 1 x122 + 1 x123 + 1 x124 + 1 x125 + 1 x126 + 1 x127 + 1 x128 + 1 x129 + 1 x130 + 1 x131 + 1 x132 + 1 x133 + 1 x134 + 1 x135 + 1 x136 + 1 x137 + 1 x138 + 1 x139 + 1 x140 + 1 x141 + 1 x142 + 1 x143 + 1 x144 + 1 x145 + 1 x146 + 1 x147 + 1 x148 + 1 x149 + 1 x150 + 1 x151 + 1 x152 + 1 x153 + 1 x154 + 1 x155 + 1 x156 + 1 x157 + 1 x158 + 1 x159 + 1 x160 + 1 x161 + 1 x162 + 1 x163 + 1 x164 + 1 x165 + 1 x166 + 1 x167 + 1 x168 + 1 x169 + 1 x170 + 1 x171 + 1 x172 + 1 x173 + 1 x174 + 1 x175 + 1 x176 + 1 x177 + 1 x178 + 1 x179 + 1 x180 + 1 x181 + 1 x182 + 1 x183 + 1 x184 + 1 x185 + 1 x186 + 1 x187 + 1 x188 + 1 x189 + 1 x190 + 1 x191 + 1 x192 + 1 x193 + 1 x194 + 1 x195 + 1 x196 + 1 x197 + 1 x198 + 1 x199 + 1 x200 + 1 x201 + 1 x202 + 1 x203 + 1 x204 + 1 x205 + 1 x206 + 1 x207 + 1 x208 + 1 x209 + 1 x210 + 1 x211 + 1 x212 + 1 x213 + 1 x214 + 1 x215 + 1 x216 + 1 x217 + 1 x218 + 1 x219 + 1 x220 + 1 x221 + 1 x222 + 1 x223 + 1 x224 + 1 x225 + 1 x226 + 1 x227 + 1 x228 + 1 x229 + 1 x230 + 1 x231 + 1 x232 + 1 x233 + 1 x234 + 1 x235 + 1 x236 + 1 x237 + 1 x238 + 1 x239 + 1 x240 + 1 x241 + 1 x242 + 1 x243 + 1 x244 + 1 x245 + 1 x246 + 1 x247 + 1 x248 + 1 x249 + 1 x250 + 1 x251 + 1 x252 + 1 x253 + 1 x254 + 1 x255 + 1 x256 + 1 x257 + 1 x258 + 1 x259 + 1 x260 + 1 x261 + 1 x262 + 1 x263 + 1 x264 + 1 x265 + 1 x266 + 1 x267 + 1 x268 + 1 x269 + 1 x270 + 1 x271 + 1 x272 + 1 x273 + 1 x274 + 1 x275 + 1 x276 + 1 x277 + 1 x278 + 1 x279 + 1 x280 + 1 x281 + 1 x282 + 1 x283 + 1 x284 + 1 x285 + 1 x286 + 1 x287 + 1 x288 + 1 x289 + 1 x290 + 1 x291 + 1 x292 + 1 x293 + 1 x294 + 1 x295 + 1 x296 + 1 x297 + 1 x298 + 1 x299 + 1 x300 + 1 x301 + 1 x302 + 1 x303 + 1 x304 + 1 x305 + 1 x306 + 1 x307 + 1 x308 + 1 x309 + 1 x310 + 1 x311 + 1 x312 + 1 x313 + 1 x314 + 1 x315 + 1 x316 + 1 x317 + 1 x318 + 1 x319 + 1 x320 + 1 x321 + 1 x322 + 1 x323 + 1 x324 + 1 x325 + 1 x326 + 1 x327 + 1 x328 + 1 x329 + 1 x330 + 1 x331 + 1 x332 + 1 x333 + 1 x334 + 1 x335 + 1 x336 + 1 x337 + 1 x338 + 1 x339 + 1 x340 + 1 x341 + 1 x342 + 1 x343 + 1 x344 + 1 x345 + 1 x346 + 1 x347 + 1 x348 + 1 x349 + 1 x350 + 1 x351 + 1 x352 + 1 x353 + 1 x354 + 1 x355 + 1 x356 + 1 x357 + 1 x358 + 1 x359 + 1 x360 + 1 x361 + 1 x362 + 1 x363 + 1 x364 + 1 x365 + 1 x366 + 1 x367 + 1 x368 + 1 x369 + 1 x370 + 1 x371 + 1 x372 + 1 x373 + 1 x374 + 1 x375 + 1 x376 + 1 x377 + 1 x378 + 1 x379 + 1 x380 + 1 x381 + 1 x382 + 1 x383 + 1 x384 + 1 x385 + 1 x386 + 1 x387 + 1 x388 + 1 x389 + 1 x390 + 1 x391 + 1 x392 + 1 x393 + 1 x394 + 1 x395 + 1 x396 + 1 x397 + 1 x398 + 1 x399 + 1 x400 + 1 x401 + 1 x402 + 1 x403 + 1 x404 + 1 x405 + 1 x406 + 1 x407 + 1 x408 + 1 x409 + 1 x410 + 1 x411 + 1 x412 + 1 x413 + 1 x414 + 1 x415 + 1 x416 + 1 x417 + 1 x418 + 1 x419 + 1 x420 + 1 x421 + 1 x422 + 1 x423 + 1 x424 + 1 x425 + 1 x426 + 1 x427 + 1 x428 + 1 x429 + 1 x430 + 1 x431 + 1 x432 + 1 x433 + 1 x434 + 1 x435 + 1 x436 + 1 x437 + 1 x438 + 1 x439 + 1 x440 + 1 x441 + 1 x442 + 1 x443 + 1 x444 + 1 x445 + 1 x446 + 1 x447 + 1 x448 + 1 x449 + 1 x450 + 1 x451 + 1 x452 + 1 x453 + 1 x454 + 1 x455 + 1 x456 + 1 x457 + 1 x458 + 1 x459 + 1 x460 + 1 x461 + 1 x462 + 1 x463 + 1 x464 + 1 x465 + 1 x466 + 1 x467 + 1 x468 + 1 x469 + 1 x470 + 1 x471 + 1 x472 + 1 x473 + 1 x474 + 1 x475 + 1 x476 + 1 x477 + 1 x478 + 1 x479 + 1 x480 + 1 x481 + 1 x482 + 1 x483 + 1 x484 + 1 x485 + 1 x486 + 1 x487 + 1 x488 + 1 x489 + 1 x490 + 1 x491 + 1 x492 + 1 x493 + 1 x494 + 1 x495 + 1 x496 + 1 x497 + 1 x498 + 1 x499 + 1 x500

subject to
C1: + x4 + x272 <= 1
C2: + x7 + x168 <= 1
C3: + x19 + x429 <= 1
C4: + x200 + x496 <= 1
C5: + x157 + x158 <= 1
C6: + x194 + x347 <= 1
C7: + x22 + x29 <= 1
C8: + x8 + x26 <= 1
C9: + x144 + x386 <= 1
C10: + x48 + x135 <= 1
C11: + x263 + x380 <= 1
C12: + x8 + x445 <= 1
C13: + x48 + x401 <= 1
C14: + x296 + x355 <= 1
C15: + x90 + x216 <= 1
C16: + x9 + x378 <= 1
C17: + x126 + x316 <= 1
C18: + x210 + x425 <= 1
C19: + x5 + x422 <= 1
C20: + x53 + x99 <= 1
C21: + x16 + x31 <= 1
C22: + x202 + x247 <= 1
C23: + x2 + x271 <= 1
C24: + x7 + x99 <= 1
C25: + x65 + x230 <= 1
C26: + x19 + x500 <= 1
C27: + x108 + x269 <= 1
C28: + x26 + x151 <= 1
C29: + x7 + x337 <= 1
C30: + x4 + x474 <= 1
C31: + x88 + x288 <= 1
C32: + x115 + x375 <= 1
C33: + x310 + x343 <= 1
C34: + x49 + x255 <= 1
C35: + x49 + x260 <= 1
C36: + x3 + x54 <= 1
C37: + x4 + x373 <= 1
C38: + x65 + x178 <= 1
C39: + x155 + x320 <= 1
C40: + x65 + x359 <= 1
C41: + x338 + x419 <= 1
C42: + x49 + x481 <= 1
C43: + x153 + x173 <= 1
C44: + x6 + x375 <= 1
C45: + x15 + x239 <= 1
C46: + x197 + x356 <= 1
C47: + x16 + x84 <= 1
C48: + x3 + x380 <= 1
C49: + x131 + x293 <= 1
C50: + x5 + x286 <= 1
C51: + x90 + x446 <= 1
C52: + x271 + x306 <= 1
C53: + x44 + x168 <= 1
C54: + x10 + x284 <= 1
C55: + x49 + x384 <= 1
C56: + x30 + x308 <= 1
C57: + x14 + x90 <= 1
C58: + x447 + x471 <= 1
C59: + x30 + x215 <= 1
C60: + x49 + x477 <= 1
C61: + x116 + x195 <= 1
C62: + x159 + x491 <= 1
C63: + x168 + x390 <= 1
C64: + x7 + x441 <= 1
C65: + x19 + x330 <= 1
C66: + x47 + x228 <= 1
C67: + x12 + x16 <= 1
C68: + x222 + x229 <= 1
C69: + x2 + x419 <= 1
C70: + x3 + x158 <= 1
C71: + x39 + x435 <= 1
C72: + x8 + x92 <= 1
C73: + x84 + x91 <= 1
C74: + x56 + x126 <= 1
C75: + x112 + x129 <= 1
C76: + x4 + x12 <= 1
C77: + x214 + x382 <= 1
C78: + x49 + x315 <= 1
C79: + x50 + x141 <= 1
C80: + x194 + x394 <= 1
C81: + x34 + x75 <= 1
C82: + x5 + x374 <= 1
C83: + x91 + x142 <= 1
C84: + x117 + x403 <= 1
C85: + x146 + x303 <= 1
C86: + x93 + x231 <= 1
C87: + x45 + x408 <= 1
C88: + x184 + x218 <= 1
C89: + x48 + x50 <= 1
C90: + x70 + x426 <= 1
C91: + x139 + x459 <= 1
C92: + x13 + x91 <= 1
C93: + x26 + x71 <= 1
C94: + x7 + x33 <= 1
C95: + x336 + x491 <= 1
C96: + x51 + x71 <= 1
C97: + x87 + x200 <= 1
C98: + x6 + x54 <= 1
C99: + x109 + x268 <= 1
C100: + x9 + x189 <= 1
C101: + x13 + x42 <= 1
C102: + x250 + x428 <= 1
C103: + x21 + x90 <= 1
C104: + x39 + x329 <= 1
C105: + x403 + x493 <= 1
C106: + x123 + x156 <= 1
C107: + x362 + x491 <= 1
C108: + x116 + x121 <= 1
C109: + x16 + x295 <= 1
C110: + x5 + x238 <= 1
C111: + x1 + x6 <= 1
C112: + x219 + x268 <= 1
C113: + x6 + x250 <= 1
C114: + x222 + x420 <= 1
C115: + x9 + x233 <= 1
C116: + x122 + x149 <= 1
C117: + x123 + x482 <= 1
C118: + x170 + x281 <= 1
C119: + x251 + x497 <= 1
C120: + x15 + x387 <= 1
C121: + x46 + x65 <= 1
C122: + x16 + x49 <= 1
C123: + x20 + x54 <= 1
C124: + x105 + x431 <= 1
C125: + x3 + x8 <= 1
C126: + x56 + x154 <= 1
C127: + x15 + x96 <= 1
C128: + x160 + x201 <= 1
C129: + x72 + x91 <= 1
C130: + x168 + x342 <= 1
C131: + x6 + x11 <= 1
C132: + x7 + x137 <= 1
C133: + x100 + x356 <= 1
C134: + x175 + x250 <= 1
C135: + x125 + x362 <= 1
C136: + x191 + x236 <= 1
C137: + x4 + x61 <= 1
C138: + x7 + x28 <= 1
C139: + x63 + x197 <= 1
C140: + x11 + x414 <= 1
C141: + x230 + x280 <= 1
C142: + x30 + x262 <= 1
C143: + x160 + x253 <= 1
C144: + x18 + x137 <= 1
C145: + x109 + x208 <= 1
C146: + x59 + x386 <= 1
C147: + x13 + x33 <= 1
C148: + x51 + x291 <= 1
C149: + x293 + x380 <= 1
C150: + x6 + x80 <= 1
C151: + x142 + x232 <= 1
C152: + x89 + x193 <= 1
C153: + x168 + x254 <= 1
C154: + x48 + x87 <= 1
C155: + x196 + x269 <= 1
C156: + x170 + x258 <= 1
C157: + x9 + x77 <= 1
C158: + x97 + x275 <= 1
C159: + x15 + x39 <= 1
C160: + x181 + x286 <= 1
C161: + x10 + x113 <= 1
C162: + x2 + x52 <= 1
C163: + x38 + x283 <= 1
C164: + x77 + x159 <= 1
C165: + x212 + x397 <= 1
C166: + x98 + x232 <= 1
C167: + x7 + x370 <= 1
C168: + x75 + x484 <= 1
C169: + x4 + x38 <= 1
C170: + x25 + x95 <= 1
C171: + x165 + x455 <= 1
C172: + x266 + x304 <= 1
C173: + x43 + x430 <= 1
C174: + x14 + x69 <= 1
C175: + x10 + x61 <= 1
C176: + x5 + x77 <= 1
C177: + x25 + x206 <= 1
C178: + x145 + x496 <= 1
C179: + x10 + x160 <= 1
C180: + x39 + x178 <= 1
C181: + x169 + x486 <= 1
C182: + x87 + x321 <= 1
C183: + x15 + x30 <= 1
C184: + x35 + x370 <= 1
C185: + x13 + x175 <= 1
C186: + x69 + x327 <= 1
C187: + x4 + x196 <= 1
C188: + x18 + x363 <= 1
C189: + x5 + x212 <= 1
C190: + x168 + x251 <= 1
C191: + x111 + x243 <= 1
C192: + x56 + x73 <= 1
C193: + x137 + x428 <= 1
C194: + x65 + x468 <= 1
C195: + x13 + x20 <= 1
C196: + x183 + x360 <= 1
C197: + x104 + x381 <= 1
C198: + x72 + x73 <= 1
C199: + x85 + x209 <= 1
C200: + x180 + x266 <= 1
C201: + x142 + x451 <= 1
C202: + x227 + x477 <= 1
C203: + x85 + x310 <= 1
C204: + x34 + x207 <= 1
C205: + x71 + x214 <= 1
C206: + x7 + x22 <= 1
C207: + x38 + x90 <= 1
C208: + x47 + x141 <= 1
C209: + x10 + x403 <= 1
C210: + x5 + x76 <= 1
C211: + x14 + x364 <= 1
C212: + x44 + x192 <= 1
C213: + x7 + x66 <= 1
C214: + x316 + x400 <= 1
C215: + x6 + x434 <= 1
C216: + x17 + x63 <= 1
C217: + x93 + x330 <= 1
C218: + x30 + x300 <= 1
C219: + x13 + x166 <= 1
C220: + x89 + x207 <= 1
C221: + x15 + x130 <= 1
C222: + x109 + x242 <= 1
C223: + x14 + x149 <= 1
C224: + x5 + x437 <= 1
C225: + x62 + x294 <= 1
C226: + x3 + x17 <= 1
C227: + x50 + x169 <= 1
C228: + x40 + x438 <= 1
C229: + x175 + x275 <= 1
C230: + x60 + x333 <= 1
C231: + x170 + x202 <= 1
C232: + x224 + x464 <= 1
C233: + x117 + x193 <= 1
C234: + x99 + x299 <= 1
C235: + x183 + x234 <= 1
C236: + x143 + x149 <= 1
C237: + x7 + x13 <= 1
C238: + x190 + x378 <= 1
C239: + x11 + x439 <= 1
C240: + x47 + x152 <= 1
C241: + x49 + x275 <= 1
C242: + x104 + x298 <= 1
C243: + x245 + x248 <= 1
C244: + x100 + x323 <= 1
C245: + x10 + x412 <= 1
C246: + x109 + x368 <= 1
C247: + x30 + x180 <= 1
C248: + x51 + x464 <= 1
C249: + x21 + x153 <= 1
C250: + x23 + x306 <= 1
C251: + x145 + x478 <= 1
C252: + x11 + x282 <= 1
C253: + x51 + x254 <= 1
C254: + x6 + x443 <= 1
C255: + x11 + x56 <= 1
C256: + x122 + x470 <= 1
C257: + x9 + x336 <= 1
C258: + x10 + x27 <= 1
C259: + x379 + x476 <= 1
C260: + x52 + x103 <= 1
C261: + x6 + x460 <= 1
C262: + x407 + x453 <= 1
C263: + x83 + x190 <= 1
C264: + x8 + x198 <= 1
C265: + x48 + x467 <= 1
C266: + x26 + x137 <= 1
C267: + x82 + x284 <= 1
C268: + x17 + x212 <= 1
C269: + x68 + x262 <= 1
C270: + x158 + x412 <= 1
C271: + x22 + x346 <= 1
C272: + x351 + x354 <= 1
C273: + x63 + x225 <= 1
C274: + x51 + x102 <= 1
C275: + x6 + x19 <= 1
C276: + x72 + x115 <= 1
C277: + x53 + x84 <= 1
C278: + x16 + x74 <= 1
C279: + x7 + x407 <= 1
C280: + x123 + x199 <= 1
C281: + x403 + x460 <= 1
C282: + x30 + x411 <= 1
C283: + x6 + x420 <= 1
C284: + x37 + x40 <= 1
C285: + x177 + x267 <= 1
C286: + x16 + x260 <= 1
C287: + x3 + x277 <= 1
C288: + x42 + x344 <= 1
C289: + x39 + x46 + x48 <= 1
C290: + x8 + x465 <= 1
C291: + x56 + x251 <= 1
C292: + x196 + x392 <= 1
C293: + x42 + x70 <= 1
C294: + x7 + x112 <= 1
C295: + x101 + x287 <= 1
C296: + x83 + x258 <= 1
C297: + x99 + x244 <= 1
C298: + x8 + x98 <= 1
C299: + x323 + x460 <= 1
C300: + x44 + x278 <= 1
C301: + x16 + x325 <= 1
C302: + x8 + x247 <= 1
C303: + x140 + x372 <= 1
C304: + x4 + x175 <= 1
C305: + x97 + x216 <= 1
C306: + x117 + x155 <= 1
C307: + x9 + x36 <= 1
C308: + x7 + x394 <= 1
C309: + x59 + x187 <= 1
C310: + x34 + x46 <= 1
C311: + x66 + x261 <= 1
C312: + x56 + x266 <= 1
C313: + x175 + x348 <= 1
C314: + x208 + x457 <= 1
C315: + x381 + x495 <= 1
C316: + x9 + x179 <= 1
C317: + x175 + x181 <= 1
C318: + x89 + x438 <= 1
C319: + x124 + x437 <= 1
C320: + x343 + x494 <= 1
C321: + x9 + x461 <= 1
C322: + x146 + x171 <= 1
C323: + x113 + x361 <= 1
C324: + x375 + x475 <= 1
C325: + x234 + x298 <= 1
C326: + x14 + x17 <= 1
C327: + x217 + x368 <= 1
C328: + x36 + x128 <= 1
C329: + x19 + x222 <= 1
C330: + x56 + x97 <= 1
C331: + x22 + x364 <= 1
C332: + x125 + x174 <= 1
C333: + x4 + x478 <= 1
C334: + x9 + x92 <= 1
C335: + x82 + x433 <= 1
C336: + x7 + x498 <= 1
C337: + x4 + x377 <= 1
C338: + x34 + x438 <= 1
C339: + x35 + x318 <= 1
C340: + x7 + x147 <= 1
C341: + x172 + x338 <= 1
C342: + x71 + x83 <= 1
C343: + x37 + x404 <= 1
C344: + x4 + x152 <= 1
C345: + x125 + x344 <= 1
C346: + x244 + x421 <= 1
C347: + x8 + x19 <= 1
C348: + x113 + x130 <= 1
C349: + x18 + x429 <= 1
C350: + x93 + x302 <= 1
C351: + x117 + x348 <= 1
C352: + x9 + x186 <= 1
C353: + x50 + x423 <= 1
C354: + x22 + x246 <= 1
C355: + x7 + x445 <= 1
C356: + x19 + x326 <= 1
C357: + x3 + x396 <= 1
C358: + x22 + x260 <= 1
C359: + x7 + x90 <= 1
C360: + x19 + x487 <= 1
C361: + x50 + x56 <= 1
C362: + x5 + x227 <= 1
C363: + x7 + x336 <= 1
C364: + x22 + x373 <= 1
C365: + x167 + x490 <= 1
C366: + x399 + x422 <= 1
C367: + x11 + x427 <= 1
C368: + x275 + x345 <= 1
C369: + x264 + x476 <= 1
C370: + x6 + x14 <= 1
C371: + x101 + x142 <= 1
C372: + x57 + x335 <= 1
C373: + x4 + x157 <= 1
C374: + x8 + x12 <= 1
C375: + x20 + x162 <= 1
C376: + x149 + x402 <= 1
C377: + x158 + x443 <= 1
C378: + x13 + x87 <= 1
C379: + x66 + x279 <= 1
C380: + x136 + x321 <= 1
C381: + x56 + x288 <= 1
C382: + x14 + x79 <= 1
C383: + x151 + x205 <= 1
C384: + x7 + x194 <= 1
C385: + x18 + x140 <= 1
C386: + x27 + x87 <= 1
C387: + x8 + x153 <= 1
C388: + x9 + x161 <= 1
C389: + x46 + x358 <= 1
C390: + x4 + x73 <= 1
C391: + x13 + x38 <= 1
C392: + x9 + x30 <= 1
C393: + x85 + x489 <= 1
C394: + x68 + x168 <= 1
C395: + x48 + x276 <= 1
C396: + x70 + x184 <= 1
C397: + x21 + x403 <= 1
C398: + x10 + x461 <= 1
C399: + x12 + x299 <= 1
C400: + x27 + x418 <= 1
C401: + x7 + x327 <= 1
C402: + x18 + x381 <= 1
C403: + x12 + x138 <= 1
C404: + x63 + x157 <= 1
C405: + x14 + x404 <= 1
C406: + x7 + x141 <= 1
C407: + x266 + x474 <= 1
C408: + x184 + x211 <= 1
C409: + x17 + x236 <= 1
C410: + x16 + x174 <= 1
C411: + x28 + x213 <= 1
C412: + x11 + x293 <= 1
C413: + x20 + x167 <= 1
C414: + x131 + x307 <= 1
C415: + x285 + x369 <= 1
C416: + x42 + x246 <= 1
C417: + x53 + x213 <= 1
C418: + x127 + x376 <= 1
C419: + x139 + x339 <= 1
C420: + x105 + x351 <= 1
C421: + x77 + x243 <= 1
C422: + x6 + x59 <= 1
C423: + x15 + x18 + x40 <= 1
C424: + x27 + x82 <= 1
C425: + x100 + x231 <= 1
C426: + x228 + x318 <= 1
C427: + x3 + x249 <= 1
C428: + x85 + x147 <= 1
C429: + x107 + x132 <= 1
C430: + x7 + x431 <= 1
C431: + x15 + x31 <= 1
C432: + x6 + x76 <= 1
C433: + x81 + x133 <= 1
C434: + x338 + x478 <= 1
C435: + x9 + x482 <= 1
C436: + x20 + x389 <= 1
C437: + x184 + x280 <= 1
C438: + x22 + x105 <= 1
C439: + x61 + x361 <= 1
C440: + x39 + x417 <= 1
C441: + x7 + x245 <= 1
C442: + x80 + x423 <= 1
C443: + x266 + x279 <= 1
C444: + x192 + x401 <= 1
C445: + x32 + x82 <= 1
C446: + x73 + x159 <= 1
C447: + x2 + x135 <= 1
C448: + x22 + x204 <= 1
C449: + x210 + x239 <= 1
C450: + x8 + x219 <= 1
C451: + x3 + x192 <= 1
C452: + x22 + x61 <= 1
C453: + x14 + x240 <= 1
C454: + x280 + x330 <= 1
C455: + x111 + x316 <= 1
C456: + x20 + x176 <= 1
C457: + x286 + x376 <= 1
C458: + x97 + x390 <= 1
C459: + x125 + x143 <= 1
C460: + x3 + x47 <= 1
C461: + x12 + x365 <= 1
C462: + x3 + x244 <= 1
C463: + x105 + x227 <= 1
C464: + x4 + x183 <= 1
C465: + x13 + x220 <= 1
C466: + x14 + x164 <= 1
C467: + x197 + x265 <= 1
C468: + x9 + x12 <= 1
C469: + x126 + x234 <= 1
C470: + x140 + x332 <= 1
C471: + x55 + x176 <= 1
C472: + x48 + x290 <= 1
C473: + x89 + x303 <= 1
C474: + x44 + x187 <= 1
C475: + x227 + x247 <= 1
C476: + x27 + x287 <= 1
C477: + x49 + x341 <= 1
C478: + x175 + x324 <= 1
C479: + x167 + x237 <= 1
C480: + x284 + x358 <= 1
C481: + x6 + x216 <= 1
C482: + x80 + x113 <= 1
C483: + x70 + x349 <= 1
C484: + x83 + x386 <= 1
C485: + x19 + x194 <= 1
C486: + x7 + x478 <= 1
C487: + x174 + x303 <= 1
C488: + x139 + x273 <= 1
C489: + x192 + x495 <= 1
C490: + x68 + x194 <= 1
C491: + x13 + x314 <= 1
C492: + x14 + x390 <= 1
C493: + x371 + x490 <= 1
C494: + x6 + x343 <= 1
C495: + x9 + x199 <= 1
C496: + x7 + x365 <= 1
C497: + x136 + x446 <= 1
C498: + x49 + x110 <= 1
C499: + x123 + x237 <= 1
C500: + x300 + x499 <= 1
C501: + x13 + x16 + x35 + x85 <= 1
C502: + x25 + x170 <= 1
C503: + x194 + x429 <= 1
C504: + x50 + x104 <= 1
C505: + x69 + x134 <= 1
C506: + x48 + x442 <= 1
C507: + x207 + x314 <= 1
C508: + x18 + x300 <= 1
C509: + x120 + x131 <= 1
C510: + x3 + x203 <= 1
C511: + x356 + x383 <= 1
C512: + x170 + x241 <= 1
C513: + x9 + x51 <= 1
C514: + x8 + x43 <= 1
C515: + x100 + x116 <= 1
C516: + x22 + x296 <= 1
C517: + x52 + x245 <= 1
C518: + x19 + x459 <= 1
C519: + x140 + x210 <= 1
C520: + x7 + x300 <= 1
C521: + x10 + x22 <= 1
C522: + x11 + x238 <= 1
C523: + x219 + x481 <= 1
C524: + x105 + x150 <= 1
C525: + x40 + x136 <= 1
C526: + x10 + x369 <= 1
C527: + x75 + x399 <= 1
C528: + x476 + x485 <= 1
C529: + x169 + x285 <= 1
C530: + x22 + x492 <= 1
C531: + x7 + x114 <= 1
C532: + x435 + x494 <= 1
C533: + x36 + x77 <= 1
C534: + x8 + x112 <= 1
C535: + x2 + x173 <= 1
C536: + x30 + x31 <= 1
C537: + x48 + x181 <= 1
C538: + x285 + x350 <= 1
C539: + x31 + x362 <= 1
C540: + x482 + x498 <= 1
C541: + x143 + x153 <= 1
C542: + x64 + x242 <= 1
C543: + x29 + x264 <= 1
C544: + x169 + x230 <= 1
C545: + x189 + x249 <= 1
C546: + x7 + x404 <= 1
C547: + x8 + x36 <= 1
C548: + x64 + x71 <= 1
C549: + x191 + x205 <= 1
C550: + x65 + x439 <= 1
C551: + x48 + x312 <= 1
C552: + x35 + x59 <= 1
C553: + x18 + x19 <= 1
C554: + x162 + x384 <= 1
C555: + x131 + x340 <= 1
C556: + x65 + x212 <= 1
C557: + x75 + x295 <= 1
C558: + x153 + x207 <= 1
C559: + x117 + x331 <= 1
C560: + x15 + x141 <= 1
C561: + x15 + x355 <= 1
C562: + x11 + x330 <= 1
C563: + x50 + x166 <= 1
C564: + x200 + x443 <= 1
C565: + x272 + x405 <= 1
C566: + x60 + x346 <= 1
C567: + x196 + x221 <= 1
C568: + x34 + x221 <= 1
C569: + x35 + x195 <= 1
C570: + x10 + x385 <= 1
C571: + x21 + x164 <= 1
C572: + x169 + x237 <= 1
C573: + x11 + x269 <= 1
C574: + x322 + x357 <= 1
C575: + x4 + x416 <= 1
C576: + x34 + x41 <= 1
C577: + x9 + x414 <= 1
C578: + x175 + x341 <= 1
C579: + x4 + x315 <= 1
C580: + x363 + x452 <= 1
C581: + x455 + x500 <= 1
C582: + x157 + x339 <= 1
C583: + x105 + x132 <= 1
C584: + x43 + x165 <= 1
C585: + x6 + x305 <= 1
C586: + x37 + x179 <= 1
C587: + x259 + x405 <= 1
C588: + x179 + x498 <= 1
C589: + x7 + x100 <= 1
C590: + x83 + x177 <= 1
C591: + x11 + x111 <= 1
C592: + x275 + x468 <= 1
C593: + x4 + x231 <= 1
C594: + x144 + x454 <= 1
C595: + x192 + x224 <= 1
C596: + x4 + x6 <= 1
C597: + x69 + x385 <= 1
C598: + x44 + x235 <= 1
C599: + x17 + x108 <= 1
C600: + x71 + x307 <= 1
C601: + x20 + x39 <= 1
C602: + x194 + x440 <= 1
C603: + x9 + x310 <= 1
C604: + x42 + x66 + x134 <= 1
C605: + x220 + x302 <= 1
C606: + x161 + x209 <= 1
C607: + x24 + x257 <= 1
C608: + x73 + x488 <= 1
C609: + x8 + x18 <= 1
C610: + x131 + x294 <= 1
C611: + x22 + x136 <= 1
C612: + x307 + x322 <= 1
C613: + x44 + x167 <= 1
C614: + x7 + x47 <= 1
C615: + x183 + x469 <= 1
C616: + x11 + x38 <= 1
C617: + x40 + x464 <= 1
C618: + x5 + x180 <= 1
C619: + x9 + x183 <= 1
C620: + x4 + x95 <= 1
C621: + x253 + x259 <= 1
C622: + x16 + x103 <= 1
C623: + x45 + x192 <= 1
C624: + x2 + x263 <= 1
C625: + x75 + x444 <= 1
C626: + x39 + x142 <= 1
C627: + x7 + x442 <= 1
C628: + x8 + x454 <= 1
C629: + x12 + x15 <= 1
C630: + x33 + x138 <= 1
C631: + x32 + x103 <= 1
C632: + x425 + x484 <= 1
C633: + x250 + x275 <= 1
C634: + x177 + x223 <= 1
C635: + x386 + x476 <= 1
C636: + x160 + x304 <= 1
C637: + x9 + x96 <= 1
C638: + x16 + x43 <= 1
C639: + x66 + x147 <= 1
C640: + x122 + x417 <= 1
C641: + x179 + x477 <= 1
C642: + x207 + x278 <= 1
C643: + x7 + x151 <= 1
C644: + x68 + x389 <= 1
C645: + x4 + x156 <= 1
C646: + x206 + x257 <= 1
C647: + x26 + x376 <= 1
C648: + x35 + x72 <= 1
C649: + x8 + x15 <= 1
C650: + x48 + x152 <= 1
C651: + x149 + x161 <= 1
C652: + x132 + x169 <= 1
C653: + x22 + x415 <= 1
C654: + x217 + x303 <= 1
C655: + x7 + x195 <= 1
C656: + x172 + x213 <= 1
C657: + x33 + x383 <= 1
C658: + x65 + x88 <= 1
C659: + x49 + x178 <= 1
C660: + x157 + x454 <= 1
C661: + x222 + x253 <= 1
C662: + x204 + x267 <= 1
C663: + x4 + x442 <= 1
C664: + x12 + x459 <= 1
C665: + x7 + x94 <= 1
C666: + x16 + x387 <= 1
C667: + x39 + x427 <= 1
C668: + x31 + x88 <= 1
C669: + x32 + x112 <= 1
C670: + x78 + x315 <= 1
C671: + x91 + x227 <= 1
C672: + x9 + x341 <= 1
C673: + x63 + x317 <= 1
C674: + x70 + x92 <= 1
C675: + x179 + x371 <= 1
C676: + x227 + x345 <= 1
C677: + x3 + x5 <= 1
C678: + x204 + x327 <= 1
C679: + x60 + x222 <= 1
C680: + x4 + x358 <= 1
C681: + x28 + x53 <= 1
C682: + x155 + x252 <= 1
C683: + x126 + x341 <= 1
C684: + x90 + x372 <= 1
C685: + x281 + x422 <= 1
C686: + x18 + x255 <= 1
C687: + x49 + x125 <= 1
C688: + x13 + x416 <= 1
C689: + x104 + x479 <= 1
C690: + x10 + x261 <= 1
C691: + x203 + x289 <= 1
C692: + x48 + x431 <= 1
C693: + x132 + x146 <= 1
C694: + x28 + x65 <= 1
C695: + x135 + x468 <= 1
C696: + x19 + x24 <= 1
C697: + x307 + x451 <= 1
C698: + x153 + x317 <= 1
C699: + x243 + x347 <= 1
C700: + x351 + x439 <= 1
C701: + x28 + x395 <= 1
C702: + x255 + x370 <= 1
C703: + x220 + x357 <= 1
C704: + x86 + x241 <= 1
C705: + x40 + x50 <= 1
C706: + x16 + x230 <= 1
C707: + x47 + x94 <= 1
C708: + x112 + x146 <= 1
C709: + x4 + x121 <= 1
C710: + x60 + x120 <= 1
C711: + x187 + x313 <= 1
C712: + x16 + x57 <= 1
C713: + x46 + x185 <= 1
C714: + x85 + x441 <= 1
C715: + x16 + x352 <= 1
C716: + x7 + x129 <= 1
C717: + x141 + x357 <= 1
C718: + x197 + x346 <= 1
C719: + x44 + x111 <= 1
C720: + x90 + x373 <= 1
C721: + x69 + x418 <= 1
C722: + x33 + x195 <= 1
C723: + x4 + x37 <= 1
C724: + x6 + x388 <= 1
C725: + x7 + x20 <= 1
C726: + x19 + x289 <= 1
C727: + x46 + x109 <= 1
C728: + x120 + x447 <= 1
C729: + x132 + x151 <= 1
C730: + x69 + x148 <= 1
C731: + x14 + x68 <= 1
C732: + x9 + x279 <= 1
C733: + x68 + x447 <= 1
C734: + x4 + x182 <= 1
C735: + x153 + x260 <= 1
C736: + x171 + x342 <= 1
C737: + x11 + x277 <= 1
C738: + x12 + x54 <= 1
C739: + x26 + x100 <= 1
C740: + x7 + x80 <= 1
C741: + x6 + x440 <= 1
C742: + x310 + x313 <= 1
C743: + x113 + x402 <= 1
C744: + x26 + x319 <= 1
C745: + x7 + x233 <= 1
C746: + x172 + x255 <= 1
C747: + x3 + x265 <= 1
C748: + x214 + x280 <= 1
C749: + x18 + x96 <= 1
C750: + x236 + x350 <= 1
C751: + x254 + x492 <= 1
C752: + x16 + x421 <= 1
C753: + x27 + x296 <= 1
C754: + x155 + x273 <= 1
C755: + x292 + x370 <= 1
C756: + x3 + x188 <= 1
C757: + x177 + x339 <= 1
C758: + x44 + x104 <= 1
C759: + x6 + x362 <= 1
C760: + x8 + x118 <= 1
C761: + x162 + x278 <= 1
C762: + x130 + x410 <= 1
C763: + x293 + x423 <= 1
C764: + x69 + x102 <= 1
C765: + x22 + x343 <= 1
C766: + x7 + x11 <= 1
C767: + x196 + x480 <= 1
C768: + x7 + x184 <= 1
C769: + x8 + x320 <= 1
C770: + x18 + x311 <= 1
C771: + x14 + x224 <= 1
C772: + x8 + x42 <= 1
C773: + x77 + x432 <= 1
C774: + x22 + x283 <= 1
C775: + x70 + x166 <= 1
C776: + x7 + x71 <= 1
C777: + x18 + x456 <= 1
C778: + x102 + x434 <= 1
C779: + x265 + x396 <= 1
C780: + x164 + x289 <= 1
C781: + x158 + x171 <= 1
C782: + x3 + x127 <= 1
C783: + x39 + x480 <= 1
C784: + x117 + x321 <= 1
C785: + x7 + x228 <= 1
C786: + x18 + x182 <= 1
C787: + x227 + x385 <= 1
C788: + x98 + x331 <= 1
C789: + x168 + x413 <= 1
C790: + x29 + x103 <= 1
C791: + x20 + x76 <= 1
C792: + x151 + x154 <= 1
C793: + x208 + x366 <= 1
C794: + x128 + x489 <= 1
C795: + x8 + x257 <= 1
C796: + x55 + x462 <= 1
C797: + x11 + x114 <= 1
C798: + x67 + x115 <= 1
C799: + x31 + x117 <= 1
C800: + x6 + x9 + x10 <= 1
C801: + x82 + x290 <= 1
C802: + x111 + x199 <= 1
C803: + x12 + x120 <= 1
C804: + x74 + x128 <= 1
C805: + x136 + x221 <= 1
C806: + x4 + x261 <= 1
C807: + x287 + x345 <= 1
C808: + x65 + x162 <= 1
C809: + x8 + x132 <= 1
C810: + x72 + x117 <= 1
C811: + x14 + x217 <= 1
C812: + x5 + x393 <= 1
C813: + x8 + x39 <= 1
C814: + x300 + x419 <= 1
C815: + x3 + x364 <= 1
C816: + x322 + x367 <= 1
C817: + x204 + x311 <= 1
C818: + x39 + x374 <= 1
C819: + x12 + x36 <= 1
C820: + x26 + x110 <= 1
C821: + x7 + x58 <= 1
C822: + x8 + x326 <= 1
C823: + x30 + x86 <= 1
C824: + x50 + x245 <= 1
C825: + x68 + x332 <= 1
C826: + x37 + x58 <= 1
C827: + x4 + x305 <= 1
C828: + x14 + x42 <= 1
C829: + x7 + x219 <= 1
C830: + x220 + x407 <= 1
C831: + x105 + x154 <= 1
C832: + x24 + x113 <= 1
C833: + x208 + x216 <= 1
C834: + x325 + x458 <= 1
C835: + x311 + x316 <= 1
C836: + x30 + x106 <= 1
C837: + x39 + x157 <= 1
C838: + x141 + x173 <= 1
C839: + x137 + x149 <= 1
C840: + x144 + x349 <= 1
C841: + x10 + x107 <= 1
C842: + x241 + x252 <= 1
C843: + x26 + x144 <= 1
C844: + x7 + x348 <= 1
C845: + x227 + x496 <= 1
C846: + x253 + x353 <= 1
C847: + x221 + x242 <= 1
C848: + x95 + x118 <= 1
C849: + x21 + x452 <= 1
C850: + x6 + x18 <= 1
C851: + x10 + x87 <= 1
C852: + x30 + x140 <= 1
C853: + x13 + x198 <= 1
C854: + x197 + x379 <= 1
C855: + x53 + x488 <= 1
C856: + x171 + x246 <= 1
C857: + x9 + x62 <= 1
C858: + x85 + x265 <= 1
C859: + x12 + x89 <= 1
C860: + x7 + x49 <= 1
C861: + x11 + x64 <= 1
C862: + x20 + x416 <= 1
C863: + x158 + x189 <= 1
C864: + x4 + x314 <= 1
C865: + x23 + x120 <= 1
C866: + x271 + x454 <= 1
C867: + x7 + x222 <= 1
C868: + x75 + x81 <= 1
C869: + x11 + x145 <= 1
C870: + x14 + x337 <= 1
C871: + x324 + x447 <= 1
C872: + x92 + x456 <= 1
C873: + x239 + x283 <= 1
C874: + x77 + x402 <= 1
C875: + x30 + x430 <= 1
C876: + x106 + x261 <= 1
C877: + x109 + x427 <= 1
C878: + x9 + x455 <= 1
C879: + x10 + x473 <= 1
C880: + x51 + x395 <= 1
C881: + x52 + x297 <= 1
C882: + x6 + x138 <= 1
C883: + x36 + x122 <= 1
C884: + x170 + x297 <= 1
C885: + x63 + x70 <= 1
C886: + x10 + x389 <= 1
C887: + x3 + x217 <= 1
C888: + x81 + x115 <= 1
C889: + x36 + x166 <= 1
C890: + x236 + x270 <= 1
C891: + x9 + x37 <= 1
C892: + x8 + x21 <= 1
C893: + x186 + x204 <= 1
C894: + x42 + x130 <= 1
C895: + x83 + x121 <= 1
C896: + x255 + x405 <= 1
C897: + x129 + x281 <= 1
C898: + x125 + x457 <= 1
C899: + x209 + x386 <= 1
C900: + x10 + x12 <= 1
C901: + x49 + x475 <= 1
C902: + x5 + x86 <= 1
C903: + x18 + x60 <= 1
C904: + x54 + x211 <= 1
C905: + x165 + x319 <= 1
C906: + x49 + x136 <= 1
C907: + x33 + x119 <= 1
C908: + x27 + x316 <= 1
C909: + x45 + x354 <= 1
C910: + x93 + x209 <= 1
C911: + x184 + x268 <= 1
C912: + x21 + x355 <= 1
C913: + x12 + x320 <= 1
C914: + x117 + x354 <= 1
C915: + x461 + x487 <= 1
C916: + x84 + x89 <= 1
C917: + x50 + x409 <= 1
C918: + x37 + x99 <= 1
C919: + x20 + x43 <= 1
C920: + x111 + x437 <= 1
C921: + x7 + x148 <= 1
C922: + x2 + x36 <= 1
C923: + x14 + x196 <= 1
C924: + x107 + x235 <= 1
C925: + x5 + x41 <= 1
C926: + x115 + x296 <= 1
C927: + x98 + x486 <= 1
C928: + x79 + x258 <= 1
C929: + x7 + x35 <= 1
C930: + x7 + x208 <= 1
C931: + x18 + x146 <= 1
C932: + x10 + x13 <= 1
C933: + x2 + x256 <= 1
C934: + x3 + x232 <= 1
C935: + x4 + x67 <= 1
C936: + x5 + x426 <= 1
C937: + x227 + x266 <= 1
C938: + x36 + x151 <= 1
C939: + x243 + x293 <= 1
C940: + x8 + x357 <= 1
C941: + x408 + x469 <= 1
C942: + x274 + x441 <= 1
C943: + x68 + x93 <= 1
C944: + x104 + x256 <= 1
C945: + x381 + x443 <= 1
C946: + x112 + x144 <= 1
C947: + x4 + x15 <= 1
C948: + x323 + x475 <= 1
C949: + x162 + x406 <= 1
C950: + x9 + x68 <= 1
C951: + x327 + x499 <= 1
C952: + x227 + x350 <= 1
C953: + x20 + x52 <= 1
C954: + x130 + x205 <= 1
C955: + x94 + x414 <= 1
C956: + x7 + x490 <= 1
C957: + x341 + x470 <= 1
C958: + x24 + x439 <= 1
C959: + x65 + x371 <= 1
C960: + x68 + x393 <= 1
C961: + x13 + x243 <= 1
C962: + x25 + x324 <= 1
C963: + x109 + x191 <= 1
C964: + x9 + x211 <= 1
C965: + x8 + x11 <= 1
C966: + x69 + x448 <= 1
C967: + x4 + x498 <= 1
C968: + x9 + x400 <= 1
C969: + x136 + x245 <= 1
C970: + x82 + x136 <= 1
C971: + x27 + x88 <= 1
C972: + x103 + x203 <= 1
C973: + x12 + x221 <= 1
C974: + x49 + x457 <= 1
C975: + x117 + x190 <= 1
C976: + x8 + x63 <= 1
C977: + x55 + x211 <= 1
C978: + x30 + x78 <= 1
C979: + x12 + x463 <= 1
C980: + x331 + x450 <= 1
C981: + x70 + x183 <= 1
C982: + x179 + x416 <= 1
C983: + x116 + x417 <= 1
C984: + x7 + x82 <= 1
C985: + x428 + x500 <= 1
C986: + x343 + x346 <= 1
C987: + x148 + x350 <= 1
C988: + x240 + x277 <= 1
C989: + x322 + x467 <= 1
C990: + x20 + x496 <= 1
C991: + x42 + x108 <= 1
C992: + x170 + x447 <= 1
C993: + x26 + x418 <= 1
C994: + x33 + x81 <= 1
C995: + x8 + x274 <= 1
C996: + x10 + x448 <= 1
C997: + x54 + x455 <= 1
C998: + x93 + x251 <= 1
C999: + x123 + x391 <= 1
C1000: + x141 + x362 <= 1
C1001: + x179 + x181 <= 1
C1002: + x20 + x170 <= 1
C1003: + x293 + x445 <= 1
C1004: + x29 + x133 <= 1
C1005: + x259 + x298 <= 1
C1006: + x69 + x116 <= 1
C1007: + x124 + x271 <= 1
C1008: + x7 + x29 <= 1
C1009: + x3 + x85 <= 1
C1010: + x22 + x420 <= 1
C1011: + x187 + x483 <= 1
C1012: + x15 + x109 <= 1
C1013: + x100 + x234 <= 1
C1014: + x184 + x226 <= 1
C1015: + x51 + x480 <= 1
C1016: + x5 + x67 <= 1
C1017: + x89 + x396 <= 1
C1018: + x8 + x56 <= 1
C1019: + x191 + x217 <= 1
C1020: + x241 + x493 <= 1
C1021: + x51 + x206 <= 1
C1022: + x14 + x472 <= 1
C1023: + x15 + x32 <= 1
C1024: + x5 + x317 <= 1
C1025: + x9 + x483 <= 1
C1026: + x150 + x163 <= 1
C1027: + x10 + x235 <= 1
C1028: + x2 + x134 <= 1
C1029: + x244 + x270 <= 1
C1030: + x9 + x114 <= 1
C1031: + x81 + x277 <= 1
C1032: + x52 + x182 <= 1
C1033: + x409 + x479 <= 1
C1034: + x109 + x323 <= 1
C1035: + x128 + x487 <= 1
C1036: + x14 + x239 <= 1
C1037: + x5 + x6 <= 1
C1038: + x188 + x377 <= 1
C1039: + x4 + x5 + x7 + x8 + x55 <= 1
C1040: + x84 + x444 <= 1
C1041: + x22 + x159 <= 1
C1042: + x161 + x268 <= 1
C1043: + x7 + x24 <= 1
C1044: + x9 + x446 <= 1
C1045: + x109 + x466 <= 1
C1046: + x79 + x184 <= 1
C1047: + x7 + x177 <= 1
C1048: + x109 + x196 <= 1
C1049: + x424 + x457 <= 1
C1050: + x8 + x45 <= 1
C1051: + x110 + x111 <= 1
C1052: + x38 + x45 <= 1
C1053: + x323 + x437 <= 1
C1054: + x314 + x410 <= 1
C1055: + x79 + x295 <= 1
C1056: + x7 + x68 <= 1
C1057: + x19 + x465 <= 1
C1058: + x421 + x471 <= 1
C1059: + x30 + x302 <= 1
C1060: + x18 + x366 <= 1
C1061: + x10 + x20 <= 1
C1062: + x111 + x248 <= 1
C1063: + x20 + x236 <= 1
C1064: + x4 + x102 <= 1
C1065: + x170 + x270 <= 1
C1066: + x44 + x203 <= 1
C1067: + x134 + x288 <= 1
C1068: + x10 + x335 <= 1
C1069: + x2 + x314 <= 1
C1070: + x275 + x323 <= 1
C1071: + x81 + x169 <= 1
C1072: + x15 + x51 <= 1
C1073: + x236 + x253 <= 1
C1074: + x144 + x160 <= 1
C1075: + x136 + x282 <= 1
C1076: + x271 + x360 <= 1
C1077: + x68 + x128 <= 1
C1078: + x198 + x424 <= 1
C1079: + x5 + x13 <= 1
C1080: + x6 + x342 <= 1
C1081: + x244 + x388 <= 1
C1082: + x213 + x368 <= 1
C1083: + x4 + x18 <= 1
C1084: + x25 + x171 <= 1
C1085: + x206 + x214 <= 1
C1086: + x7 + x15 <= 1
C1087: + x9 + x421 <= 1
C1088: + x46 + x98 <= 1
C1089: + x139 + x326 <= 1
C1090: + x11 + x393 <= 1
C1091: + x15 + x127 <= 1
C1092: + x271 + x436 <= 1
C1093: + x6 + x44 <= 1
C1094: + x2 + x220 <= 1
C1095: + x94 + x139 <= 1
C1096: + x194 + x335 <= 1
C1097: + x140 + x324 <= 1
C1098: + x23 + x143 <= 1
C1099: + x23 + x308 <= 1
C1100: + x434 + x480 <= 1
C1101: + x53 + x75 <= 1
C1102: + x63 + x331 <= 1
C1103: + x30 + x89 <= 1
C1104: + x4 + x401 <= 1
C1105: + x3 + x123 <= 1
C1106: + x42 + x462 <= 1
C1107: + x183 + x215 <= 1
C1108: + x43 + x359 <= 1
C1109: + x34 + x143 <= 1
C1110: + x227 + x354 <= 1
C1111: + x66 + x115 <= 1
C1112: + x46 + x167 <= 1
C1113: + x242 + x473 <= 1
C1114: + x131 + x215 <= 1
C1115: + x7 + x119 <= 1
C1116: + x65 + x351 <= 1
C1117: + x147 + x150 <= 1
C1118: + x34 + x309 <= 1
C1119: + x17 + x210 <= 1
C1120: + x8 + x111 <= 1
C1121: + x11 + x223 <= 1
C1122: + x4 + x23 <= 1
C1123: + x315 + x472 <= 1
C1124: + x73 + x108 <= 1
C1125: + x37 + x114 <= 1
C1126: + x341 + x446 <= 1
C1127: + x142 + x189 <= 1
C1128: + x6 + x21 <= 1
C1129: + x9 + x265 <= 1
C1130: + x117 + x146 <= 1
C1131: + x334 + x363 <= 1
C1132: + x11 + x259 <= 1
C1133: + x25 + x126 <= 1
C1134: + x44 + x172 <= 1
C1135: + x3 + x118 <= 1
C1136: + x25 + x411 <= 1
C1137: + x38 + x176 <= 1
C1138: + x20 + x250 <= 1
C1139: + x4 + x84 <= 1
C1140: + x22 + x230 <= 1
C1141: + x42 + x338 <= 1
C1142: + x108 + x377 <= 1
C1143: + x36 + x232 <= 1
C1144: + x11 + x30 + x309 <= 1
C1145: + x311 + x320 <= 1
C1146: + x103 + x400 <= 1
C1147: + x30 + x465 <= 1
C1148: + x132 + x198 <= 1
C1149: + x15 + x61 <= 1
C1150: + x7 + x106 <= 1
C1151: + x216 + x276 <= 1
C1152: + x17 + x201 <= 1
C1153: + x7 + x352 <= 1
C1154: + x12 + x97 <= 1
C1155: + x170 + x300 <= 1
C1156: + x252 + x466 <= 1
C1157: + x15 + x432 <= 1
C1158: + x157 + x398 <= 1
C1159: + x30 + x485 <= 1
C1160: + x3 + x57 <= 1
C1161: + x14 + x107 <= 1
C1162: + x9 + x272 <= 1
C1163: + x56 + x415 <= 1
C1164: + x105 + x217 <= 1
C1165: + x22 + x27 <= 1
C1166: + x5 + x39 <= 1
C1167: + x12 + x484 <= 1
C1168: + x383 + x384 <= 1
C1169: + x206 + x415 <= 1
C1170: + x425 + x434 <= 1
C1171: + x152 + x167 <= 1
C1172: + x7 + x283 <= 1
C1173: + x210 + x431 <= 1
C1174: + x165 + x223 <= 1
C1175: + x20 + x255 <= 1
C1176: + x268 + x369 <= 1
C1177: + x53 + x109 <= 1
C1178: + x189 + x197 <= 1
C1179: + x176 + x319 <= 1
C1180: + x252 + x378 <= 1
C1181: + x438 + x458 <= 1
C1182: + x370 + x388 <= 1
C1183: + x14 + x19 <= 1
C1184: + x53 + x423 <= 1
C1185: + x68 + x228 <= 1
C1186: + x69 + x244 <= 1
C1187: + x6 + x7 <= 1
C1188: + x18 + x286 <= 1
C1189: + x7 + x157 <= 1
C1190: + x151 + x252 <= 1
C1191: + x2 + x47 <= 1
C1192: + x8 + x295 <= 1
C1193: + x336 + x383 <= 1
C1194: + x85 + x191 <= 1
C1195: + x82 + x452 <= 1
C1196: + x8 + x17 <= 1
C1197: + x49 + x80 <= 1
C1198: + x12 + x86 <= 1
C1199: + x196 + x241 <= 1
C1200: + x3 + x378 <= 1
C1201: + x131 + x291 <= 1
C1202: + x72 + x101 <= 1
C1203: + x5 + x288 <= 1
C1204: + x37 + x44 <= 1
C1205: + x10 + x16 <= 1
C1206: + x12 + x163 <= 1
C1207: + x4 + x66 <= 1
C1208: + x24 + x131 <= 1
C1209: + x55 + x197 <= 1
C1210: + x293 + x376 <= 1
C1211: + x267 + x284 <= 1
C1212: + x14 + x425 <= 1
C1213: + x112 + x304 <= 1
C1214: + x192 + x200 <= 1
C1215: + x222 + x425 <= 1
C1216: + x81 + x292 <= 1
C1217: + x20 + x47 <= 1
C1218: + x348 + x462 <= 1
C1219: + x258 + x307 <= 1
C1220: + x46 + x436 <= 1
C1221: + x48 + x52 <= 1
C1222: + x5 + x21 <= 1
C1223: + x170 + x212 <= 1
C1224: + x8 + x10 <= 1
C1225: + x63 + x359 <= 1
C1226: + x83 + x459 <= 1
C1227: + x147 + x472 <= 1
C1228: + x36 + x175 <= 1
C1229: + x149 + x408 <= 1
C1230: + x223 + x379 <= 1
C1231: + x5 + x263 <= 1
C1232: + x93 + x299 <= 1
C1233: + x7 + x196 <= 1
C1234: + x144 + x263 <= 1
C1235: + x240 + x328 <= 1
C1236: + x324 + x401 <= 1
C1237: + x48 + x219 <= 1
C1238: + x70 + x202 <= 1
C1239: + x10 + x463 <= 1
C1240: + x92 + x373 <= 1
C1241: + x22 + x98 <= 1
C1242: + x23 + x82 <= 1
C1243: + x108 + x170 <= 1
C1244: + x109 + x135 <= 1
C1245: + x16 + x160 <= 1
C1246: + x239 + x412 <= 1
C1247: + x12 + x152 <= 1
C1248: + x42 + x204 <= 1
C1249: + x25 + x142 <= 1
C1250: + x40 + x294 <= 1
C1251: + x97 + x433 <= 1
C1252: + x11 + x344 <= 1
C1253: + x16 + x51 <= 1
C1254: + x3 + x6 <= 1
C1255: + x132 + x229 <= 1
C1256: + x83 + x289 <= 1
C1257: + x375 + x483 <= 1
C1258: + x95 + x272 <= 1
C1259: + x68 + x397 <= 1
C1260: + x16 + x164 <= 1
C1261: + x146 + x449 <= 1
C1262: + x46 + x208 <= 1
C1263: + x379 + x394 <= 1
C1264: + x18 + x409 <= 1
C1265: + x163 + x494 <= 1
C1266: + x8 + x422 <= 1
C1267: + x38 + x86 <= 1
C1268: + x239 + x321 <= 1
C1269: + x105 + x349 <= 1
C1270: + x48 + x426 <= 1
C1271: + x17 + x436 <= 1
C1272: + x246 + x334 <= 1
C1273: + x175 + x204 <= 1
C1274: + x14 + x173 <= 1
C1275: + x52 + x74 <= 1
C1276: + x34 + x164 <= 1
C1277: + x52 + x403 <= 1
C1278: + x111 + x383 <= 1
C1279: + x320 + x485 <= 1
C1280: + x50 + x193 <= 1
C1281: + x115 + x271 <= 1
C1282: + x187 + x343 <= 1
C1283: + x11 + x25 <= 1
C1284: + x266 + x273 <= 1
C1285: + x68 + x74 <= 1
C1286: + x267 + x495 <= 1
C1287: + x23 + x105 <= 1
C1288: + x363 + x482 <= 1
C1289: + x61 + x367 <= 1
C1290: + x16 + x229 <= 1
C1291: + x80 + x106 <= 1
C1292: + x154 + x291 <= 1
C1293: + x68 + x485 <= 1
C1294: + x13 + x23 <= 1
C1295: + x42 + x205 <= 1
C1296: + x9 + x79 <= 1
C1297: + x118 + x122 <= 1
C1298: + x8 + x495 <= 1
C1299: + x13 + x257 <= 1
C1300: + x24 + x460 <= 1
C1301: + x280 + x489 <= 1
C1302: + x3 + x162 <= 1
C1303: + x94 + x225 <= 1
C1304: + x48 + x450 <= 1
C1305: + x2 + x25 + x140 <= 1
C1306: + x162 + x276 <= 1
C1307: + x12 + x121 <= 1
C1308: + x171 + x452 <= 1
C1309: + x7 + x17 <= 1
C1310: + x27 + x333 <= 1
C1311: + x55 + x63 <= 1
C1312: + x302 + x311 <= 1
C1313: + x85 + x398 <= 1
C1314: + x12 + x14 + x201 <= 1
C1315: + x22 + x432 <= 1
C1316: + x51 + x119 <= 1
C1317: + x7 + x190 <= 1
C1318: + x188 + x308 <= 1
C1319: + x315 + x426 <= 1
C1320: + x46 + x253 <= 1
C1321: + x130 + x340 <= 1
C1322: + x48 + x233 <= 1
C1323: + x105 + x467 <= 1
C1324: + x89 + x301 <= 1
C1325: + x2 + x127 <= 1
C1326: + x95 + x206 <= 1
C1327: + x97 + x189 <= 1
C1328: + x145 + x172 <= 1
C1329: + x18 + x361 <= 1
C1330: + x8 + x65 <= 1
C1331: + x49 + x64 <= 1
C1332: + x302 + x473 <= 1
C1333: + x14 + x293 <= 1
C1334: + x9 + x118 <= 1
C1335: + x3 + x24 <= 1
C1336: + x275 + x328 <= 1
C1337: + x51 + x62 <= 1
C1338: + x72 + x75 <= 1
C1339: + x10 + x128 <= 1
C1340: + x228 + x382 <= 1
C1341: + x356 + x433 <= 1
C1342: + x21 + x336 <= 1
C1343: + x22 + x72 <= 1
C1344: + x217 + x406 <= 1
C1345: + x6 + x158 <= 1
C1346: + x52 + x469 <= 1
C1347: + x28 + x161 <= 1
C1348: + x328 + x388 <= 1
C1349: + x49 + x108 <= 1
C1350: + x48 + x174 <= 1
C1351: + x310 + x474 <= 1
C1352: + x24 + x50 <= 1
C1353: + x79 + x287 <= 1
C1354: + x284 + x301 <= 1
C1355: + x39 + x481 <= 1
C1356: + x47 + x328 <= 1
C1357: + x14 + x124 <= 1
C1358: + x7 + x181 <= 1
C1359: + x255 + x274 <= 1
C1360: + x11 + x188 <= 1
C1361: + x265 + x318 <= 1
C1362: + x10 + x135 <= 1
C1363: + x3 + x402 <= 1
C1364: + x12 + x46 <= 1
C1365: + x177 + x434 <= 1
C1366: + x167 + x389 <= 1
C1367: + x106 + x494 <= 1
C1368: + x6 + x448 <= 1
C1369: + x7 + x72 <= 1
C1370: + x65 + x219 <= 1
C1371: + x136 + x155 <= 1
C1372: + x55 + x78 <= 1
C1373: + x22 + x125 <= 1
C1374: + x132 + x331 <= 1
C1375: + x7 + x310 <= 1
C1376: + x269 + x338 <= 1
C1377: + x179 + x285 <= 1
C1378: + x7 + x471 <= 1
C1379: + x10 + x371 <= 1
C1380: + x12 + x26 <= 1
C1381: + x21 + x69 <= 1
C1382: + x179 + x450 <= 1
C1383: + x25 + x64 <= 1
C1384: + x18 + x499 <= 1
C1385: + x144 + x156 <= 1
C1386: + x30 + x382 <= 1
C1387: + x5 + x9 <= 1
C1388: + x90 + x147 <= 1
C1389: + x71 + x418 <= 1
C1390: + x203 + x259 + x428 <= 1
C1391: + x464 + x481 <= 1
C1392: + x20 + x188 <= 1
C1393: + x151 + x266 <= 1
C1394: + x9 + x425 <= 1
C1395: + x29 + x60 <= 1
C1396: + x4 + x264 <= 1
C1397: + x6 + x24 <= 1
C1398: + x118 + x307 <= 1
C1399: + x16 + x369 <= 1
C1400: + x54 + x409 <= 1
C1401: + x11 + x163 <= 1
C1402: + x17 + x139 <= 1
C1403: + x64 + x69 <= 1
C1404: + x3 + x361 <= 1
C1405: + x303 + x442 <= 1
C1406: + x77 + x109 <= 1
C1407: + x8 + x325 <= 1
C1408: + x75 + x246 <= 1
C1409: + x132 + x180 <= 1
C1410: + x14 + x41 <= 1
C1411: + x90 + x208 <= 1
C1412: + x270 + x500 <= 1
C1413: + x7 + x301 <= 1
C1414: + x59 + x493 <= 1
C1415: + x33 + x344 <= 1
C1416: + x16 + x23 <= 1
C1417: + x8 + x470 <= 1
C1418: + x49 + x139 <= 1
C1419: + x12 + x31 <= 1
C1420: + x30 + x105 <= 1
C1421: + x315 + x353 <= 1
C1422: + x15 + x58 <= 1
C1423: + x36 + x322 <= 1
C1424: + x7 + x107 <= 1
C1425: + x335 + x435 <= 1
C1426: + x2 + x5 <= 1
C1427: + x10 + x106 <= 1
C1428: + x41 + x490 <= 1
C1429: + x67 + x75 <= 1
C1430: + x49 + x445 <= 1
C1431: + x91 + x325 <= 1
C1432: + x280 + x347 <= 1
C1433: + x77 + x491 <= 1
C1434: + x4 + x27 <= 1
C1435: + x88 + x264 <= 1
C1436: + x56 + x180 <= 1
C1437: + x3 + x62 <= 1
C1438: + x158 + x267 <= 1
C1439: + x112 + x225 <= 1
C1440: + x53 + x94 <= 1
C1441: + x7 + x405 <= 1
C1442: + x30 + x46 <= 1
C1443: + x187 + x363 <= 1
C1444: + x53 + x243 <= 1
C1445: + x328 + x329 <= 1
C1446: + x46 + x470 <= 1
C1447: + x20 + x415 <= 1
C1448: + x178 + x254 <= 1
C1449: + x153 + x294 <= 1
C1450: + x208 + x224 <= 1
C1451: + x65 + x72 <= 1
C1452: + x11 + x371 <= 1
C1453: + x305 + x471 <= 1
C1454: + x12 + x475 <= 1
C1455: + x104 + x358 <= 1
C1456: + x97 + x305 <= 1
C1457: + x270 + x382 <= 1
C1458: + x36 + x327 <= 1
C1459: + x345 + x387 <= 1
C1460: + x126 + x430 <= 1
C1461: + x75 + x161 <= 1
C1462: + x329 + x477 <= 1
C1463: + x315 + x364 <= 1
C1464: + x7 + x110 <= 1
C1465: + x35 + x123 <= 1
C1466: + x326 + x351 <= 1
C1467: + x31 + x129 <= 1
C1468: + x22 + x353 <= 1
C1469: + x336 + x479 <= 1
C1470: + x3 + x53 <= 1
C1471: + x2 + x42 <= 1
C1472: + x291 + x421 <= 1
C1473: + x157 + x313 <= 1
C1474: + x131 + x145 <= 1
C1475: + x3 + x73 <= 1
C1476: + x15 + x153 <= 1
C1477: + x27 + x394 <= 1
C1478: + x10 + x11 <= 1
C1479: + x12 + x162 <= 1
C1480: + x4 + x93 <= 1
C1481: + x130 + x332 <= 1
C1482: + x50 + x210 <= 1
C1483: + x131 + x165 <= 1
C1484: + x71 + x165 <= 1
C1485: + x83 + x174 <= 1
C1486: + x64 + x158 <= 1
C1487: + x2 + x23 <= 1
C1488: + x66 + x228 <= 1
C1489: + x160 + x399 <= 1
C1490: + x25 + x132 <= 1
C1491: + x9 + x94 <= 1
C1492: + x3 + x451 <= 1
C1493: + x3 + x16 <= 1
C1494: + x275 + x352 <= 1
C1495: + x22 + x461 <= 1
C1496: + x2 + x35 <= 1
C1497: + x35 + x413 <= 1
C1498: + x8 + x13 <= 1
C1499: + x46 + x218 <= 1
C1500: + x68 + x290 <= 1
C1501: + x22 + x131 <= 1
C1502: + x5 + x284 <= 1
C1503: + x18 + x419 <= 1
C1504: + x28 + x360 <= 1
C1505: + x46 + x125 <= 1
C1506: + x84 + x186 <= 1
C1507: + x138 + x236 <= 1
C1508: + x194 + x455 <= 1
C1509: + x124 + x479 <= 1
C1510: + x37 + x88 <= 1
C1511: + x343 + x396 <= 1
C1512: + x109 + x267 <= 1
C1513: + x18 + x334 <= 1
C1514: + x3 + x22 + x26 <= 1
C1515: + x48 + x123 <= 1
C1516: + x69 + x449 <= 1
C1517: + x68 + x463 <= 1
C1518: + x198 + x392 <= 1
C1519: + x25 + x441 <= 1
C1520: + x254 + x377 <= 1
C1521: + x1 + x5 <= 1
C1522: + x72 + x274 <= 1
C1523: + x56 + x124 <= 1
C1524: + x42 + x199 <= 1
C1525: + x34 + x226 <= 1
C1526: + x17 + x104 <= 1
C1527: + x44 + x231 <= 1
C1528: + x38 + x101 <= 1
C1529: + x3 + x7 <= 1
C1530: + x68 + x237 <= 1
C1531: + x33 + x91 <= 1
C1532: + x323 + x381 <= 1
C1533: + x292 + x322 <= 1
C1534: + x90 + x366 <= 1
C1535: + x219 + x351 <= 1
C1536: + x3 + x333 <= 1
C1537: + x17 + x20 <= 1
C1538: + x18 + x412 <= 1
C1539: + x75 + x349 <= 1
C1540: + x13 + x323 <= 1
C1541: + x26 + x492 <= 1
C1542: + x16 + x281 <= 1
C1543: + x73 + x355 <= 1
C1544: + x152 + x177 <= 1
C1545: + x28 + x79 <= 1
C1546: + x3 + x256 <= 1
C1547: + x8 + x155 <= 1
C1548: + x101 + x244 <= 1
C1549: + x46 + x356 <= 1
C1550: + x109 + x116 <= 1
C1551: + x12 + x59 <= 1
C1552: + x68 + x339 <= 1
C1553: + x42 + x191 <= 1
C1554: + x5 + x311 <= 1
C1555: + x53 + x276 <= 1
C1556: + x2 + x97 <= 1
C1557: + x139 + x215 <= 1
C1558: + x13 + x28 <= 1
C1559: + x235 + x337 <= 1
C1560: + x110 + x432 <= 1
C1561: + x3 + x469 <= 1
C1562: + x49 + x312 <= 1
C1563: + x13 + x262 <= 1
C1564: + x15 + x34 <= 1
C1565: + x146 + x282 <= 1
C1566: + x375 + x487 <= 1
C1567: + x5 + x32 <= 1
C1568: + x108 + x218 <= 1
C1569: + x35 + x92 <= 1
C1570: + x100 + x156 <= 1
C1571: + x49 + x356 <= 1
C1572: + x177 + x297 <= 1
C1573: + x169 + x342 <= 1
C1574: + x15 + x110 <= 1
C1575: + x7 + x191 <= 1
C1576: + x80 + x413 <= 1
C1577: + x12 + x213 <= 1
C1578: + x70 + x449 <= 1
C1579: + x189 + x238 <= 1
C1580: + x204 + x263 <= 1
C1581: + x15 + x29 <= 1
C1582: + x109 + x400 <= 1
C1583: + x7 + x74 <= 1
C1584: + x68 + x78 <= 1
C1585: + x15 + x186 <= 1
C1586: + x107 + x182 <= 1
C1587: + x107 + x271 <= 1
C1588: + x147 + x435 <= 1
C1589: + x49 + x154 <= 1
C1590: + x3 + x25 <= 1
C1591: + x4 + x338 <= 1
C1592: + x159 + x296 <= 1
C1593: + x19 + x53 + x453 <= 1
C1594: + x68 + x122 <= 1
C1595: + x188 + x380 <= 1
C1596: + x152 + x285 <= 1
C1597: + x8 + x124 <= 1
C1598: + x57 + x60 <= 1
C1599: + x93 + x408 <= 1
C1600: + x4 + x44 <= 1
C1601: + x395 + x410 <= 1
C1602: + x174 + x488 <= 1
C1603: + x3 + x45 <= 1
C1604: + x124 + x486 <= 1
C1605: + x126 + x474 <= 1
C1606: + x16 + x367 <= 1
C1607: + x6 + x34 <= 1
C1608: + x137 + x209 <= 1
C1609: + x3 + x242 <= 1
C1610: + x4 + x185 <= 1
C1611: + x89 + x95 <= 1
C1612: + x107 + x326 <= 1
C1613: + x14 + x365 <= 1
C1614: + x9 + x14 <= 1
C1615: + x193 + x240 <= 1
C1616: + x318 + x353 <= 1
C1617: + x11 + x499 <= 1
C1618: + x37 + x462 <= 1
C1619: + x5 + x218 <= 1
C1620: + x159 + x160 <= 1
C1621: + x101 + x214 <= 1
C1622: + x17 + x77 <= 1
C1623: + x9 + x122 <= 1
C1624: + x27 + x144 <= 1
C1625: + x319 + x450 <= 1
C1626: + x189 + x414 <= 1
C1627: + x15 + x52 <= 1
C1628: + x91 + x97 <= 1
C1629: + x93 + x202 <= 1
C1630: + x5 + x14 <= 1
C1631: + x1 + x38 <= 1
C1632: + x10 + x223 <= 1
C1633: + x20 + x183 <= 1
C1634: + x69 + x99 <= 1
C1635: + x53 + x165 <= 1
C1636: + x376 + x404 <= 1
C1637: + x150 + x240 <= 1
C1638: + x6 + x43 <= 1
C1639: + x101 + x340 <= 1
C1640: + x10 + x48 <= 1
C1641: + x66 + x411 <= 1
C1642: + x50 + x449 <= 1
C1643: + x98 + x207 <= 1
C1644: + x107 + x333 <= 1
C1645: + x213 + x234 <= 1
C1646: + x59 + x482 <= 1
C1647: + x22 + x220 <= 1
C1648: + x170 + x374 <= 1
C1649: + x17 + x68 <= 1
C1650: + x235 + x334 <= 1
C1651: + x75 + x397 <= 1
C1652: + x29 + x100 <= 1
C1653: + x21 + x65 <= 1
C1654: + x39 + x159 <= 1
C1655: + x103 + x406 <= 1
C1656: + x79 + x251 <= 1
C1657: + x7 + x120 <= 1
C1658: + x10 + x101 <= 1
C1659: + x8 + x203 <= 1
C1660: + x47 + x484 <= 1
C1661: + x159 + x179 <= 1
C1662: + x18 + x229 <= 1
C1663: + x10 + x200 <= 1
C1664: + x459 + x486 <= 1
C1665: + x26 + x37 <= 1
C1666: + x9 + x429 <= 1
C1667: + x10 + x291 <= 1
C1668: + x11 + x433 <= 1
C1669: + x20 + x466 <= 1
C1670: + x394 + x407 <= 1
C1671: + x10 + x81 <= 1
C1672: + x174 + x200 <= 1
C1673: + x69 + x292 <= 1
C1674: + x433 + x464 <= 1
C1675: + x363 + x440 <= 1
C1676: + x35 + x57 <= 1
C1677: + x16 + x79 <= 1
C1678: + x53 + x83 <= 1
C1679: + x21 + x124 <= 1
C1680: + x44 + x171 <= 1
C1681: + x79 + x306 <= 1
C1682: + x77 + x206 <= 1
C1683: + x9 + x139 <= 1
C1684: + x10 + x29 <= 1
C1685: + x19 + x50 <= 1
C1686: + x4 + x83 <= 1
C1687: + x197 + x250 <= 1
C1688: + x25 + x238 <= 1
C1689: + x9 + x104 <= 1
C1690: + x6 + x105 <= 1
C1691: + x271 + x375 <= 1
C1692: + x9 + x247 <= 1
C1693: + x28 + x179 <= 1
C1694: + x20 + x21 + x33 <= 1
C1695: + x107 + x304 <= 1
C1696: + x11 + x444 <= 1
C1697: + x322 + x458 <= 1
C1698: + x131 + x227 <= 1
C1699: + x187 + x392 <= 1
C1700: + x5 + x131 <= 1
C1701: + x99 + x102 <= 1
C1702: + x7 + x155 <= 1
C1703: + x168 + x172 <= 1
C1704: + x49 + x493 <= 1
C1705: + x268 + x392 <= 1
C1706: + x126 + x328 <= 1
C1707: + x20 + x145 <= 1
C1708: + x75 + x249 <= 1
C1709: + x11 + x57 <= 1
C1710: + x283 + x329 <= 1
C1711: + x6 + x193 <= 1
C1712: + x44 + x49 <= 1
C1713: + x6 + x319 <= 1
C1714: + x20 + x93 <= 1
C1715: + x222 + x233 <= 1
C1716: + x279 + x301 <= 1
C1717: + x36 + x125 <= 1
C1718: + x280 + x368 <= 1
C1719: + x130 + x488 <= 1
C1720: + x29 + x225 <= 1
C1721: + x22 + x178 <= 1
C1722: + x23 + x363 <= 1
C1723: + x30 + x239 <= 1
C1724: + x13 + x107 <= 1
C1725: + x56 + x133 <= 1
C1726: + x3 + x49 <= 1
C1727: + x58 + x222 <= 1
C1728: + x169 + x313 <= 1
C1729: + x144 + x186 <= 1
C1730: + x301 + x379 <= 1
C1731: + x3 + x214 <= 1
C1732: + x32 + x176 <= 1
C1733: + x6 + x372 <= 1
C1734: + x3 + x375 <= 1
C1735: + x53 + x198 <= 1
C1736: + x26 + x67 <= 1
C1737: + x7 + x45 <= 1
C1738: + x100 + x456 <= 1
C1739: + x3 + x69 <= 1
C1740: + x13 + x329 <= 1
C1741: + x217 + x298 <= 1
C1742: + x26 + x286 <= 1
C1743: + x9 + x185 <= 1
C1744: + x246 + x379 <= 1
C1745: + x157 + x172 <= 1
C1746: + x25 + x252 <= 1
C1747: + x17 + x169 <= 1
C1748: + x23 + x274 <= 1
C1749: + x79 + x435 <= 1
C1750: + x111 + x366 <= 1
C1751: + x3 + x395 <= 1
C1752: + x285 + x310 <= 1
C1753: + x77 + x83 <= 1
C1754: + x177 + x407 <= 1
C1755: + x7 + x89 <= 1
C1756: + x190 + x302 <= 1
C1757: + x148 + x248 <= 1
C1758: + x5 + x226 <= 1
C1759: + x35 + x453 <= 1
C1760: + x188 + x413 <= 1
C1761: + x151 + x438 <= 1
C1762: + x7 + x335 <= 1
C1763: + x78 + x483 <= 1
C1764: + x9 + x66 <= 1
C1765: + x37 + x112 <= 1
C1766: + x255 + x306 <= 1
C1767: + x222 + x473 <= 1
C1768: + x285 + x476 <= 1
C1769: + x81 + x436 <= 1
C1770: + x8 + x9 <= 1
C1771: + x302 + x417 <= 1
C1772: + x30 + x60 <= 1
C1773: + x131 + x315 <= 1
C1774: + x104 + x420 <= 1
C1775: + x25 + x84 <= 1
C1776: + x7 + x40 <= 1
C1777: + x399 + x497 <= 1
C1778: + x111 + x390 <= 1
C1779: + x10 + x258 <= 1
C1780: + x3 + x96 <= 1
C1781: + x84 + x190 <= 1
C1782: + x7 + x278 <= 1
C1783: + x36 + x63 <= 1
C1784: + x19 + x27 <= 1
C1785: + x22 + x256 <= 1
C1786: + x260 + x285 <= 1
C1787: + x387 + x397 <= 1
C1788: + x18 + x56 <= 1
C1789: + x227 + x259 <= 1
C1790: + x12 + x58 <= 1
C1791: + x48 + x273 <= 1
C1792: + x22 + x270 <= 1
C1793: + x177 + x398 <= 1
C1794: + x111 + x466 <= 1
C1795: + x84 + x138 <= 1
C1796: + x3 + x148 <= 1
C1797: + x13 + x188 <= 1
C1798: + x286 + x393 <= 1
C1799: + x8 + x78 <= 1
C1800: + x13 + x25 <= 1
C1801: + x60 + x113 <= 1
C1802: + x25 + x143 <= 1
C1803: + x125 + x163 <= 1
C1804: + x142 + x381 <= 1
C1805: + x54 + x235 <= 1
C1806: + x266 + x384 <= 1
C1807: + x406 + x456 <= 1
C1808: + x11 + x67 <= 1
C1809: + x39 + x101 <= 1
C1810: + x21 + x32 <= 1
C1811: + x33 + x281 <= 1
C1812: + x13 + x410 <= 1
C1813: + x39 + x194 <= 1
C1814: + x11 + x409 <= 1
C1815: + x56 + x175 <= 1
C1816: + x27 + x81 <= 1
C1817: + x19 + x22 <= 1
C1818: + x94 + x187 <= 1
C1819: + x18 + x41 <= 1
C1820: + x291 + x391 <= 1
C1821: + x57 + x126 <= 1
C1822: + x20 + x116 <= 1
C1823: + x4 + x224 <= 1
C1824: + x16 + x297 <= 1
C1825: + x7 + x248 <= 1
C1826: + x112 + x148 <= 1
C1827: + x12 + x144 <= 1
C1828: + x5 + x117 <= 1
C1829: + x90 + x458 <= 1
C1830: + x275 + x334 <= 1
C1831: + x87 + x93 + x424 <= 1
C1832: + x25 + x51 <= 1
C1833: + x255 + x292 <= 1
C1834: + x8 + x269 <= 1
C1835: + x280 + x492 <= 1
C1836: + x60 + x308 <= 1
C1837: + x5 + x28 <= 1
C1838: + x26 + x187 <= 1
C1839: + x180 + x249 <= 1
C1840: + x48 + x168 <= 1
C1841: + x13 + x76 <= 1
C1842: + x22 + x145 <= 1
C1843: + x324 + x497 <= 1
C1844: + x60 + x70 <= 1
C1845: + x85 + x399 <= 1
C1846: + x49 + x360 <= 1
C1847: + x21 + x305 <= 1
C1848: + x33 + x34 <= 1
C1849: + x6 + x37 <= 1
C1850: + x10 + x34 <= 1
C1851: + x264 + x290 <= 1
C1852: + x438 + x444 <= 1
C1853: + x4 + x184 <= 1
C1854: + x65 + x424 <= 1
C1855: + x165 + x337 <= 1
C1856: + x121 + x197 <= 1
C1857: + x68 + x352 <= 1
C1858: + x235 + x309 <= 1
C1859: + x88 + x336 <= 1
C1860: + x13 + x170 <= 1
C1861: + x127 + x391 <= 1
C1862: + x4 + x100 <= 1
C1863: + x178 + x202 <= 1
C1864: + x27 + x129 <= 1
C1865: + x319 + x451 <= 1
C1866: + x9 + x468 <= 1
C1867: + x438 + x497 <= 1
C1868: + x68 + x126 <= 1
C1869: + x4 + x241 <= 1
C1870: + x371 + x489 <= 1
C1871: + x4 + x48 <= 1
C1872: + x47 + x117 + x150 <= 1
C1873: + x87 + x387 <= 1
C1874: + x26 + x95 <= 1
C1875: + x36 + x292 <= 1
C1876: + x7 + x9 <= 1
C1877: + x11 + x395 <= 1
C1878: + x250 + x467 <= 1
C1879: + x292 + x448 <= 1
C1880: + x169 + x254 <= 1
C1881: + x23 + x137 <= 1
C1882: + x8 + x44 <= 1
C1883: + x77 + x119 <= 1
C1884: + x6 + x210 <= 1
C1885: + x189 + x299 <= 1
C1886: + x9 + x332 <= 1
C1887: + x8 + x185 <= 1
C1888: + x48 + x98 <= 1
C1889: + x5 + x123 <= 1
C1890: + x7 + x472 <= 1
C1891: + x56 + x226 <= 1
C1892: + x48 + x372 <= 1
C1893: + x13 + x312 <= 1
C1894: + x52 + x130 <= 1
C1895: + x155 + x282 <= 1
C1896: + x336 + x347 <= 1
C1897: + x3 + x177 <= 1
C1898: + x49 + x391 <= 1
C1899: + x123 + x406 <= 1
C1900: + x5 + x10 <= 1
C1901: + x117 + x279 <= 1
C1902: + x151 + x430 <= 1
C1903: + x7 + x359 <= 1
C1904: + x90 + x325 <= 1
C1905: + x146 + x427 <= 1
C1906: + x21 + x53 <= 1
C1907: + x10 + x318 <= 1
C1908: + x38 + x80 <= 1
C1909: + x332 + x367 <= 1
C1910: + x33 + x64 <= 1
C1911: + x19 + x127 <= 1
C1912: + x264 + x280 <= 1
C1913: + x277 + x465 <= 1
C1914: + x5 + x62 <= 1
C1915: + x98 + x374 <= 1
C1916: + x334 + x365 <= 1
C1917: + x4 + x408 <= 1
C1918: + x83 + x133 <= 1
C1919: + x66 + x272 <= 1
C1920: + x211 + x411 <= 1
C1921: + x104 + x287 <= 1
C1922: + x16 + x264 <= 1
C1923: + x10 + x32 <= 1
C1924: + x21 + x240 <= 1
C1925: + x98 + x322 <= 1
C1926: + x7 + x463 <= 1
C1927: + x128 + x317 <= 1
C1928: + x139 + x262 <= 1
C1929: + x240 + x398 <= 1
C1930: + x176 + x312 <= 1
C1931: + x4 + x324 <= 1
C1932: + x398 + x399 <= 1
C1933: + x19 + x70 <= 1
C1934: + x129 + x345 <= 1
C1935: + x340 + x348 <= 1
C1936: + x169 + x192 <= 1
C1937: + x14 + x28 <= 1
C1938: + x44 + x385 <= 1
C1939: + x79 + x461 <= 1
C1940: + x15 + x220 <= 1
C1941: + x35 + x440 <= 1
C1942: + x4 + x30 <= 1
C1943: + x31 + x340 <= 1
C1944: + x3 + x59 <= 1

binary
x1 x2 x3 x4 x5 x6 x7 x8 x9 x10 x11 x12 x13 x14 x15 x16 x17 x18 x19 x20 x21 x22 x23 x24 x25 x26 x27 x28 x29 x30 x31 x32 x33 x34 x35 x36 x37 x38 x39 x40 x41 x42 x43 x44 x45 x46 x47 x48 x49 x50 x51 x52 x53 x54 x55 x56 x57 x58 x59 x60 x61 x62 x63 x64 x65 x66 x67 x68 x69 x70 x71 x72 x73 x74 x75 x76 x77 x78 x79 x80 x81 x82 x83 x84 x85 x86 x87 x88 x89 x90 x91 x92 x93 x94 x95 x96 x97 x98 x99 x100 x101 x102 x103 x104 x105 x106 x107 x108 x109 x110 x111 x112 x113 x114 x115 x116 x117 x118 x119 x120 x121 x122 x123 x124 x125 x126 x127 x128 x129 x130 x131 x132 x133 x134 x135 x136 x137 x138 x139 x140 x141 x142 x143 x144 x145 x146 x147 x148 x149 x150 x151 x152 x153 x154 x155 x156 x157 x158 x159 x160 x161 x162 x163 x164 x165 x166 x167 x168 x169 x170 x171 x172 x173 x174 x175 x176 x177 x178 x179 x180 x181 x182 x183 x184 x185 x186 x187 x188 x189 x190 x191 x192 x193 x194 x195 x196 x197 x198 x199 x200 x201 x202 x203 x204 x205 x206 x207 x208 x209 x210 x211 x212 x213 x214 x215 x216 x217 x218 x219 x220 x221 x222 x223 x224 x225 x226 x227 x228 x229 x230 x231 x232 x233 x234 x235 x236 x237 x238 x239 x240 x241 x242 x243 x244 x245 x246 x247 x248 x249 x250 x251 x252 x253 x254 x255 x256 x257 x258 x259 x260 x261 x262 x263 x264 x265 x266 x267 x268 x269 x270 x271 x272 x273 x274 x275 x276 x277 x278 x279 x280 x281 x282 x283 x284 x285 x286 x287 x288 x289 x290 x291 x292 x293 x294 x295 x296 x297 x298 x299 x300 x301 x302 x303 x304 x305 x306 x307 x308 x309 x310 x311 x312 x313 x314 x315 x316 x317 x318 x319 x320 x321 x322 x323 x324 x325 x326 x327 x328 x329 x330 x331 x332 x333 x334 x335 x336 x337 x338 x339 x340 x341 x342 x343 x344 x345 x346 x347 x348 x349 x350 x351 x352 x353 x354 x355 x356 x357 x358 x359 x360 x361 x362 x363 x364 x365 x366 x367 x368 x369 x370 x371 x372 x373 x374 x375 x376 x377 x378 x379 x380 x381 x382 x383 x384 x385 x386 x387 x388 x389 x390 x391 x392 x393 x394 x395 x396 x397 x398 x399 x400 x401 x402 x403 x404 x405 x406 x407 x408 x409 x410 x411 x412 x413 x414 x415 x416 x417 x418 x419 x420 x421 x422 x423 x424 x425 x426 x427 x428 x429 x430 x431 x432 x433 x434 x435 x436 x437 x438 x439 x440 x441 x442 x443 x444 x445 x446 x447 x448 x449 x450 x451 x452 x453 x454 x455 x456 x457 x458 x459 x460 x461 x462 x463 x464 x465 x466 x467 x468 x469 x470 x471 x472 x473 x474 x475 x476 x477 x478 x479 x480 x481 x482 x483 x484 x485 x486 x487 x488 x489 x490 x491 x492 x493 x494 x495 x496 x497 x498 x499 x500
