maximize
OBJ: + 1 x1 + 1 x2 + 1 x3 + 1 x4 + 1 x5 + 1 x6 + 1 x7 + 1 x8 + 1 x9 + 1 x10 + 1 x11 + 1 x12 + 1 x13 + 1 x14 + 1 x15 + 1 x16 + 1 x17 + 1 x18 + 1 x19 + 1 x20 + 1 x21 + 1 x22 + 1 x23 + 1 x24 + 1 x25 + 1 x26 + 1 x27 + 1 x28 + 1 x29 + 1 x30 + 1 x31 + 1 x32 + 1 x33 + 1 x34 + 1 x35 + 1 x36 + 1 x37 + 1 x38 + 1 x39 + 1 x40 + 1 x41 + 1 x42 + 1 x43 + 1 x44 + 1 x45 + 1 x46 + 1 x47 + 1 x48 + 1 x49 + 1 x50 + 1 x51 + 1 x52 + 1 x53 + 1 x54 + 1 x55 + 1 x56 + 1 x57 + 1 x58 + 1 x59 + 1 x60 + 1 x61 + 1 x62 + 1 x63 + 1 x64 + 1 x65 + 1 x66 + 1 x67 + 1 x68 + 1 x69 + 1 x70 + 1 x71 + 1 x72 + 1 x73 + 1 x74 + 1 x75 + 1 x76 + 1 x77 + 1 x78 + 1 x79 + 1 x80 + 1 x81 + 1 x82 + 1 x83 + 1 x84 + 1 x85 + 1 x86 + 1 x87 + 1 x88 + 1 x89 + 1 x90 + 1 x91 + 1 x92 + 1 x93 + 1 x94 + 1 x95 + 1 x96 + 1 x97 + 1 x98 + 1 x99 + 1 x100 + 1 x101 + 1 x102 + 1 x103 + 1 x104 + 1 x105 + 1 x106 + 1 x107 + 1 x108 + 1 x109 + 1 x110 + 1 x111 + 1 x112 + 1 x113 + 1 x114 + 1 x115 + 1 x116 + 1 x117 + 1 x118 + 1 x119 + 1 x120 + 1 x121 + 1 x122 + 1 x123 + 1 x124 + 1 x125 + 1 x126 + 1 x127 + 1 x128 + 1 x129 + 1 x130 + 1 x131 + 1 x132 + 1 x133 + 1 x134 + 1 x135 + 1 x136 + 1 x137 + 1 x138 + 1 x139 + 1 x140 + 1 x141 + 1 x142 + 1 x143 + 1 x144 + 1 x145 + 1 x146 + 1 x147 + 1 x148 + 1 x149 + 1 x150 + 1 x151 + 1 x152 + 1 x153 + 1 x154 + 1 x155 + 1 x156 + 1 x157 + 1 x158 + 1 x159 + 1 x160 + 1 x161 + 1 x162 + 1 x163 + 1 x164 + 1 x165 + 1 x166 + 1 x167 + 1 x168 + 1 x169 + 1 x170 + 1 x171 + 1 x172 + 1 x173 + 1 x174 + 1 x175 + 1 x176 + 1 x177 + 1 x178 + 1 x179 + 1 x180 + 1 x181 + 1 x182 + 1 x183 + 1 x184 + 1 x185 + 1 x186 + 1 x187 + 1 x188 + 1 x189 + 1 x190 + 1 x191 + 1 x192 + 1 x193 + 1 x194 + 1 x195 + 1 x196 + 1 x197 + 1 x198 + 1 x199 + 1 x200 + 1 x201 + 1 x202 + 1 x203 + 1 x204 + 1 x205 + 1 x206 + 1 x207 + 1 x208 + 1 x209 + 1 x210 + 1 x211 + 1 x212 + 1 x213 + 1 x214 + 1 x215 + 1 x216 + 1 x217 + 1 x218 + 1 x219 + 1 x220 + 1 x221 + 1 x222 + 1 x223 + 1 x224 + 1 x225 + 1 x226 + 1 x227 + 1 x228 + 1 x229 + 1 x230 + 1 x231 + 1 x232 + 1 x233 + 1 x234 + 1 x235 + 1 x236 + 1 x237 + 1 x238 + 1 x239 + 1 x240 + 1 x241 + 1 x242 + 1 x243 + 1 x244 + 1 x245 + 1 x246 + 1 x247 + 1 x248 + 1 x249 + 1 x250 + 1 x251 + 1 x252 + 1 x253 + 1 x254 + 1 x255 + 1 x256 + 1 x257 + 1 x258 + 1 x259 + 1 x260 + 1 x261 + 1 x262 + 1 x263 + 1 x264 + 1 x265 + 1 x266 + 1 x267 + 1 x268 + 1 x269 + 1 x270 + 1 x271 + 1 x272 + 1 x273 + 1 x274 + 1 x275 + 1 x276 + 1 x277 + 1 x278 + 1 x279 + 1 x280 + 1 x281 + 1 x282 + 1 x283 + 1 x284 + 1 x285 + 1 x286 + 1 x287 + 1 x288 + 1 x289 + 1 x290 + 1 x291 + 1 x292 + 1 x293 + 1 x294 + 1 x295 + 1 x296 + 1 x297 + 1 x298 + 1 x299 + 1 x300 + 1 x301 + 1 x302 + 1 x303 + 1 x304 + 1 x305 + 1 x306 + 1 x307 + 1 x308 + 1 x309 + 1 x310 + 1 x311 + 1 x312 + 1 x313 + 1 x314 + 1 x315 + 1 x316 + 1 x317 + 1 x318 + 1 x319 + 1 x320 + 1 x321 + 1 x322 + 1 x323 + 1 x324 + 1 x325 + 1 x326 + 1 x327 + 1 x328 + 1 x329 + 1 x330 + 1 x331 + 1 x332 + 1 x333 + 1 x334 + 1 x335 + 1 x336 + 1 x337 + 1 x338 + 1 x339 + 1 x340 + 1 x341 + 1 x342 + 1 x343 + 1 x344 + 1 x345 + 1 x346 + 1 x347 + 1 x348 + 1 x349 + 1 x350 + 1 x351 + 1 x352 + 1 x353 + 1 x354 + 1 x355 + 1 x356 + 1 x357 + 1 x358 + 1 x359 + 1 x360 + 1 x361 + 1 x362 + 1 x363 + 1 x364 + 1 x365 + 1 x366 + 1 x367 + 1 x368 + 1 x369 + 1 x370 + 1 x371 + 1 x372 + 1 x373 + 1 x374 + 1 x375 + 1 x376 + 1 x377 + 1 x378 + 1 x379 + 1 x380 + 1 x381 + 1 x382 + 1 x383 + 1 x384 + 1 x385 + 1 x386 + 1 x387 + 1 x388 + 1 x389 + 1 x390 + 1 x391 + 1 x392 + 1 x393 + 1 x394 + 1 x395 + 1 x396 + 1 x397 + 1 x398 + 1 x399 + 1 x400 + 1 x401 + 1 x402 + 1 x403 + 1 x404 + 1 x405 + 1 x406 + 1 x407 + 1 x408 + 1 x409 + 1 x410 + 1 x411 + 1 x412 + 1 x413 + 1 x414 + 1 x415 + 1 x416 + 1 x417 + 1 x418 + 1 x419 + 1 x420 + 1 x421 + 1 x422 + 1 x423 + 1 x424 + 1 x425 + 1 x426 + 1 x427 + 1 x428 + 1 x429 + 1 x430 + 1 x431 + 1 x432 + 1 x433 + 1 x434 + 1 x435 + 1 x436 + 1 x437 + 1 x438 + 1 x439 + 1 x440 + 1 x441 + 1 x442 + 1 x443 + 1 x444 + 1 x445 + 1 x446 + 1 x447 + 1 x448 + 1 x449 + 1 x450 + 1 x451 + 1 x452 + 1 x453 + 1 x454 + 1 x455 + 1 x456 + 1 x457 + 1 x458 + 1 x459 + 1 x460 + 1 x461 + 1 x462 + 1 x463 + 1 x464 + 1 x465 + 1 x466 + 1 x467 + 1 x468 + 1 x469 + 1 x470 + 1 x471 + 1 x472 + 1 x473 + 1 x474 + 1 x475 + 1 x476 + 1 x477 + 1 x478 + 1 x479 + 1 x480 + 1 x481 + 1 x482 + 1 x483 + 1 x484 + 1 x485 + 1 x486 + 1 x487 + 1 x488 + 1 x489 + 1 x490 + 1 x491 + 1 x492 + 1 x493 + 1 x494 + 1 x495 + 1 x496 + 1 x497 + 1 x498 + 1 x499 + 1 x500

subject to
C1: + x23 + x58 <= 1
C2: + x6 + x32 <= 1
C3: + x98 + x121 <= 1
C4: + x43 + x390 <= 1
C5: + x263 + x489 <= 1
C6: + x111 + x191 <= 1
C7: + x121 + x381 <= 1
C8: + x433 + x452 <= 1
C9: + x5 + x37 <= 1
C10: + x90 + x167 <= 1
C11: + x62 + x353 <= 1
C12: + x326 + x409 <= 1
C13: + x1 + x77 <= 1
C14: + x19 + x155 <= 1
C15: + x140 + x475 <= 1
C16: + x131 + x151 <= 1
C17: + x25 + x67 <= 1
C18: + x96 + x344 <= 1
C19: + x134 + x252 <= 1
C20: + x6 + x417 <= 1
C21: + x55 + x93 <= 1
C22: + x60 + x132 <= 1
C23: + x14 + x33 <= 1
C24: + x79 + x87 <= 1
C25: + x15 + x151 <= 1
C26: + x125 + x436 <= 1
C27: + x238 + x440 <= 1
C28: + x197 + x297 <= 1
C29: + x18 + x65 <= 1
C30: + x57 + x102 <= 1
C31: + x2 + x271 <= 1
C32: + x3 + x437 <= 1
C33: + x174 + x283 <= 1
C34: + x133 + x219 <= 1
C35: + x6 + x85 <= 1
C36: + x10 + x479 <= 1
C37: + x221 + x385 <= 1
C38: + x140 + x185 <= 1
C39: + x106 + x166 <= 1
C40: + x114 + x379 <= 1
C41: + x384 + x442 <= 1
C42: + x261 + x309 <= 1
C43: + x18 + x210 <= 1
C44: + x82 + x274 <= 1
C45: + x192 + x221 <= 1
C46: + x69 + x392 <= 1
C47: + x15 + x433 <= 1
C48: + x313 + x487 <= 1
C49: + x203 + x334 <= 1
C50: + x331 + x391 <= 1
C51: + x5 + x143 <= 1
C52: + x5 + x36 <= 1
C53: + x125 + x348 <= 1
C54: + x1 + x68 <= 1
C55: + x2 + x332 <= 1
C56: + x77 + x100 <= 1
C57: + x104 + x426 <= 1
C58: + x209 + x231 <= 1
C59: + x7 + x42 <= 1
C60: + x135 + x243 <= 1
C61: + x11 + x37 <= 1
C62: + x58 + x165 <= 1
C63: + x64 + x360 <= 1
C64: + x422 + x455 <= 1
C65: + x261 + x272 <= 1
C66: + x90 + x217 <= 1
C67: + x303 + x316 <= 1
C68: + x14 + x189 <= 1
C69: + x15 + x368 <= 1
C70: + x117 + x170 <= 1
C71: + x244 + x493 <= 1
C72: + x202 + x256 <= 1
C73: + x149 + x467 <= 1
C74: + x104 + x414 <= 1
C75: + x5 + x322 <= 1
C76: + x209 + x275 <= 1
C77: + x396 + x429 <= 1
C78: + x57 + x383 <= 1
C79: + x122 + x305 <= 1
C80: + x48 + x494 <= 1
C81: + x13 + x130 <= 1
C82: + x114 + x372 <= 1
C83: + x261 + x308 <= 1
C84: + x295 + x417 <= 1
C85: + x43 + x211 <= 1
C86: + x124 + x390 <= 1
C87: + x178 + x472 <= 1
C88: + x270 + x298 <= 1
C89: + x35 + x313 <= 1
C90: + x25 + x34 <= 1
C91: + x63 + x115 <= 1
C92: + x6 + x165 <= 1
C93: + x99 + x222 <= 1
C94: + x15 + x299 <= 1
C95: + x16 + x89 <= 1
C96: + x5 + x261 <= 1
C97: + x24 + x41 <= 1
C98: + x263 + x374 <= 1
C99: + x95 + x146 <= 1
C100: + x415 + x433 <= 1
C101: + x7 + x206 <= 1
C102: + x10 + x51 <= 1
C103: + x57 + x407 <= 1
C104: + x14 + x182 <= 1
C105: + x5 + x95 <= 1
C106: + x53 + x113 <= 1
C107: + x61 + x487 <= 1
C108: + x11 + x358 <= 1
C109: + x50 + x202 <= 1
C110: + x5 + x329 <= 1
C111: + x6 + x71 <= 1
C112: + x15 + x20 <= 1
C113: + x16 + x388 <= 1
C114: + x18 + x478 <= 1
C115: + x97 + x173 <= 1
C116: + x168 + x197 <= 1
C117: + x4 + x214 <= 1
C118: + x1 + x6 <= 1
C119: + x10 + x255 <= 1
C120: + x42 + x198 <= 1
C121: + x16 + x49 <= 1
C122: + x1 + x336 <= 1
C123: + x149 + x320 <= 1
C124: + x13 + x237 <= 1
C125: + x41 + x169 <= 1
C126: + x13 + x82 <= 1
C127: + x7 + x28 <= 1
C128: + x3 + x92 <= 1
C129: + x221 + x346 <= 1
C130: + x70 + x292 <= 1
C131: + x6 + x63 <= 1
C132: + x82 + x134 <= 1
C133: + x118 + x149 <= 1
C134: + x279 + x324 <= 1
C135: + x91 + x278 <= 1
C136: + x40 + x162 <= 1
C137: + x5 + x70 <= 1
C138: + x142 + x389 <= 1
C139: + x8 + x57 <= 1
C140: + x2 + x5 + x6 <= 1
C141: + x104 + x404 <= 1
C142: + x5 + x312 <= 1
C143: + x96 + x375 <= 1
C144: + x89 + x292 <= 1
C145: + x75 + x258 <= 1
C146: + x11 + x27 <= 1
C147: + x47 + x260 <= 1
C148: + x2 + x104 <= 1
C149: + x277 + x432 <= 1
C150: + x6 + x227 <= 1
C151: + x18 + x197 <= 1
C152: + x111 + x236 <= 1
C153: + x107 + x261 <= 1
C154: + x244 + x263 <= 1
C155: + x49 + x297 <= 1
C156: + x5 + x380 <= 1
C157: + x15 + x39 <= 1
C158: + x16 + x349 <= 1
C159: + x346 + x475 <= 1
C160: + x24 + x458 <= 1
C161: + x208 + x413 <= 1
C162: + x338 + x406 <= 1
C163: + x133 + x409 <= 1
C164: + x21 + x28 <= 1
C165: + x4 + x38 <= 1
C166: + x42 + x296 <= 1
C167: + x61 + x179 <= 1
C168: + x5 + x267 <= 1
C169: + x190 + x360 <= 1
C170: + x390 + x427 <= 1
C171: + x29 + x401 <= 1
C172: + x47 + x83 + x157 <= 1
C173: + x15 + x115 <= 1
C174: + x163 + x332 <= 1
C175: + x16 + x224 <= 1
C176: + x101 + x252 <= 1
C177: + x238 + x412 <= 1
C178: + x43 + x335 <= 1
C179: + x43 + x156 <= 1
C180: + x126 + x238 <= 1
C181: + x15 + x321 <= 1
C182: + x23 + x296 <= 1
C183: + x5 + x410 <= 1
C184: + x169 + x486 <= 1
C185: + x75 + x265 <= 1
C186: + x75 + x198 <= 1
C187: + x195 + x404 <= 1
C188: + x236 + x448 <= 1
C189: + x135 + x258 <= 1
C190: + x139 + x436 <= 1
C191: + x30 + x246 <= 1
C192: + x254 + x493 <= 1
C193: + x135 + x163 <= 1
C194: + x185 + x440 <= 1
C195: + x5 + x355 <= 1
C196: + x117 + x496 <= 1
C197: + x205 + x419 <= 1
C198: + x8 + x123 <= 1
C199: + x282 + x293 <= 1
C200: + x1 + x48 <= 1
C201: + x184 + x342 <= 1
C202: + x5 + x151 <= 1
C203: + x159 + x209 <= 1
C204: + x131 + x444 <= 1
C205: + x69 + x319 <= 1
C206: + x89 + x96 <= 1
C207: + x433 + x467 <= 1
C208: + x470 + x495 <= 1
C209: + x116 + x278 <= 1
C210: + x201 + x260 <= 1
C211: + x6 + x287 <= 1
C212: + x9 + x15 <= 1
C213: + x8 + x47 <= 1
C214: + x10 + x129 <= 1
C215: + x12 + x44 <= 1
C216: + x177 + x448 <= 1
C217: + x17 + x63 <= 1
C218: + x142 + x282 <= 1
C219: + x88 + x332 <= 1
C220: + x11 + x13 <= 1
C221: + x95 + x183 <= 1
C222: + x4 + x201 <= 1
C223: + x32 + x92 <= 1
C224: + x126 + x301 <= 1
C225: + x417 + x492 <= 1
C226: + x143 + x432 <= 1
C227: + x164 + x212 <= 1
C228: + x7 + x227 <= 1
C229: + x76 + x438 <= 1
C230: + x10 + x18 <= 1
C231: + x4 + x104 <= 1
C232: + x445 + x458 <= 1
C233: + x320 + x477 <= 1
C234: + x50 + x169 <= 1
C235: + x33 + x97 <= 1
C236: + x203 + x361 <= 1
C237: + x348 + x472 <= 1
C238: + x134 + x177 <= 1
C239: + x1 + x341 <= 1
C240: + x322 + x419 <= 1
C241: + x2 + x14 <= 1
C242: + x67 + x118 <= 1
C243: + x29 + x376 <= 1
C244: + x375 + x498 <= 1
C245: + x6 + x153 <= 1
C246: + x6 + x340 <= 1
C247: + x27 + x64 <= 1
C248: + x119 + x229 <= 1
C249: + x146 + x438 <= 1
C250: + x95 + x416 <= 1
C251: + x69 + x407 <= 1
C252: + x23 + x327 <= 1
C253: + x181 + x403 <= 1
C254: + x46 + x96 <= 1
C255: + x23 + x36 <= 1
C256: + x79 + x189 <= 1
C257: + x10 + x47 <= 1
C258: + x284 + x463 <= 1
C259: + x3 + x202 <= 1
C260: + x433 + x458 <= 1
C261: + x5 + x51 <= 1
C262: + x315 + x446 <= 1
C263: + x7 + x416 <= 1
C264: + x310 + x489 <= 1
C265: + x323 + x398 <= 1
C266: + x12 + x339 <= 1
C267: + x17 + x339 <= 1
C268: + x7 + x303 <= 1
C269: + x1 + x226 <= 1
C270: + x273 + x434 <= 1
C271: + x10 + x27 <= 1
C272: + x452 + x484 <= 1
C273: + x145 + x394 <= 1
C274: + x65 + x79 <= 1
C275: + x201 + x247 <= 1
C276: + x285 + x298 <= 1
C277: + x140 + x413 <= 1
C278: + x184 + x408 <= 1
C279: + x396 + x446 <= 1
C280: + x40 + x435 <= 1
C281: + x2 + x7 <= 1
C282: + x3 + x338 <= 1
C283: + x69 + x414 <= 1
C284: + x4 + x25 <= 1
C285: + x131 + x233 <= 1
C286: + x6 + x19 <= 1
C287: + x172 + x356 <= 1
C288: + x10 + x88 <= 1
C289: + x111 + x188 <= 1
C290: + x113 + x311 <= 1
C291: + x117 + x148 <= 1
C292: + x45 + x145 <= 1
C293: + x222 + x368 <= 1
C294: + x178 + x306 <= 1
C295: + x5 + x300 <= 1
C296: + x75 + x294 <= 1
C297: + x11 + x63 <= 1
C298: + x184 + x384 <= 1
C299: + x69 + x180 <= 1
C300: + x16 + x255 <= 1
C301: + x3 + x277 <= 1
C302: + x39 + x54 <= 1
C303: + x12 + x183 <= 1
C304: + x26 + x225 <= 1
C305: + x59 + x331 <= 1
C306: + x70 + x221 <= 1
C307: + x43 + x94 <= 1
C308: + x26 + x388 <= 1
C309: + x7 + x112 <= 1
C310: + x117 + x453 <= 1
C311: + x11 + x99 <= 1
C312: + x21 + x347 <= 1
C313: + x125 + x389 <= 1
C314: + x16 + x131 <= 1
C315: + x92 + x118 <= 1
C316: + x136 + x429 <= 1
C317: + x18 + x221 <= 1
C318: + x55 + x380 <= 1
C319: + x15 + x430 <= 1
C320: + x16 + x34 <= 1
C321: + x9 + x85 <= 1
C322: + x3 + x55 <= 1
C323: + x41 + x382 <= 1
C324: + x82 + x219 <= 1
C325: + x210 + x497 <= 1
C326: + x1 + x164 <= 1
C327: + x2 + x44 <= 1
C328: + x31 + x46 <= 1
C329: + x4 + x175 <= 1
C330: + x5 + x33 <= 1
C331: + x132 + x303 <= 1
C332: + x354 + x387 <= 1
C333: + x8 + x22 <= 1
C334: + x11 + x268 <= 1
C335: + x166 + x326 <= 1
C336: + x71 + x235 <= 1
C337: + x319 + x361 <= 1
C338: + x5 + x184 <= 1
C339: + x79 + x91 <= 1
C340: + x18 + x154 <= 1
C341: + x16 + x200 <= 1
C342: + x21 + x243 <= 1
C343: + x205 + x376 <= 1
C344: + x30 + x218 <= 1
C345: + x269 + x381 <= 1
C346: + x52 + x117 <= 1
C347: + x161 + x350 <= 1
C348: + x191 + x295 <= 1
C349: + x67 + x369 <= 1
C350: + x4 + x333 <= 1
C351: + x91 + x123 <= 1
C352: + x400 + x420 <= 1
C353: + x198 + x308 <= 1
C354: + x44 + x65 <= 1
C355: + x210 + x345 <= 1
C356: + x4 + x7 <= 1
C357: + x5 + x470 <= 1
C358: + x16 + x47 <= 1
C359: + x54 + x232 <= 1
C360: + x182 + x360 <= 1
C361: + x63 + x147 <= 1
C362: + x39 + x271 <= 1
C363: + x230 + x318 <= 1
C364: + x413 + x486 <= 1
C365: + x52 + x352 <= 1
C366: + x35 + x318 <= 1
C367: + x19 + x420 <= 1
C368: + x10 + x66 <= 1
C369: + x13 + x251 <= 1
C370: + x96 + x111 <= 1
C371: + x24 + x286 <= 1
C372: + x190 + x246 <= 1
C373: + x472 + x483 <= 1
C374: + x14 + x86 <= 1
C375: + x15 + x158 <= 1
C376: + x159 + x249 <= 1
C377: + x153 + x224 <= 1
C378: + x37 + x328 <= 1
C379: + x39 + x40 <= 1
C380: + x48 + x121 <= 1
C381: + x5 + x84 <= 1
C382: + x303 + x320 <= 1
C383: + x16 + x100 <= 1
C384: + x56 + x201 <= 1
C385: + x134 + x149 <= 1
C386: + x54 + x128 <= 1
C387: + x10 + x460 <= 1
C388: + x11 + x21 <= 1
C389: + x375 + x478 <= 1
C390: + x6 + x253 <= 1
C391: + x145 + x270 <= 1
C392: + x28 + x132 <= 1
C393: + x46 + x289 <= 1
C394: + x192 + x194 <= 1
C395: + x293 + x449 <= 1
C396: + x34 + x228 <= 1
C397: + x16 + x56 <= 1
C398: + x201 + x216 <= 1
C399: + x9 + x18 + x52 <= 1
C400: + x56 + x157 <= 1
C401: + x313 + x498 <= 1
C402: + x29 + x30 <= 1
C403: + x13 + x269 <= 1
C404: + x5 + x370 <= 1
C405: + x6 + x14 <= 1
C406: + x104 + x334 <= 1
C407: + x16 + x331 <= 1
C408: + x140 + x354 <= 1
C409: + x104 + x177 <= 1
C410: + x23 + x169 <= 1
C411: + x8 + x12 <= 1
C412: + x187 + x205 <= 1
C413: + x107 + x451 <= 1
C414: + x7 + x37 <= 1
C415: + x27 + x377 <= 1
C416: + x75 + x236 <= 1
C417: + x6 + x50 <= 1
C418: + x16 + x287 <= 1
C419: + x13 + x38 <= 1
C420: + x23 + x229 <= 1
C421: + x23 + x298 <= 1
C422: + x20 + x110 <= 1
C423: + x251 + x398 <= 1
C424: + x133 + x181 <= 1
C425: + x202 + x411 <= 1
C426: + x36 + x471 <= 1
C427: + x1 + x26 <= 1
C428: + x2 + x297 <= 1
C429: + x6 + x119 <= 1
C430: + x261 + x438 <= 1
C431: + x1 + x137 <= 1
C432: + x156 + x253 <= 1
C433: + x114 + x165 <= 1
C434: + x286 + x476 <= 1
C435: + x242 + x293 <= 1
C436: + x279 + x469 <= 1
C437: + x15 + x306 <= 1
C438: + x91 + x367 <= 1
C439: + x234 + x483 <= 1
C440: + x5 + x272 <= 1
C441: + x23 + x434 <= 1
C442: + x11 + x410 <= 1
C443: + x3 + x491 <= 1
C444: + x58 + x187 <= 1
C445: + x52 + x378 <= 1
C446: + x5 + x173 <= 1
C447: + x6 + x59 <= 1
C448: + x7 + x270 <= 1
C449: + x10 + x64 <= 1
C450: + x2 + x203 <= 1
C451: + x21 + x144 <= 1
C452: + x86 + x269 <= 1
C453: + x5 + x66 <= 1
C454: + x188 + x228 <= 1
C455: + x32 + x193 <= 1
C456: + x180 + x191 <= 1
C457: + x392 + x463 <= 1
C458: + x114 + x116 <= 1
C459: + x182 + x450 <= 1
C460: + x8 + x348 <= 1
C461: + x140 + x164 <= 1
C462: + x141 + x308 <= 1
C463: + x172 + x312 <= 1
C464: + x282 + x284 <= 1
C465: + x1 + x17 <= 1
C466: + x182 + x371 <= 1
C467: + x221 + x281 <= 1
C468: + x5 + x360 <= 1
C469: + x152 + x241 <= 1
C470: + x91 + x156 <= 1
C471: + x13 + x232 <= 1
C472: + x32 + x134 <= 1
C473: + x107 + x199 <= 1
C474: + x35 + x85 <= 1
C475: + x18 + x245 <= 1
C476: + x4 + x42 <= 1
C477: + x6 + x385 <= 1
C478: + x8 + x143 <= 1
C479: + x132 + x311 <= 1
C480: + x25 + x285 <= 1
C481: + x188 + x249 <= 1
C482: + x14 + x164 <= 1
C483: + x45 + x168 <= 1
C484: + x3 + x405 <= 1
C485: + x61 + x131 <= 1
C486: + x17 + x60 <= 1
C487: + x150 + x330 <= 1
C488: + x91 + x244 <= 1
C489: + x12 + x136 <= 1
C490: + x13 + x16 <= 1
C491: + x14 + x152 <= 1
C492: + x112 + x156 <= 1
C493: + x44 + x204 <= 1
C494: + x9 + x120 <= 1
C495: + x317 + x492 <= 1
C496: + x47 + x197 <= 1
C497: + x3 + x22 <= 1
C498: + x15 + x46 <= 1
C499: + x2 + x9 <= 1
C500: + x4 + x244 <= 1
C501: + x6 + x343 <= 1
C502: + x2 + x172 <= 1
C503: + x285 + x327 <= 1
C504: + x4 + x47 <= 1
C505: + x327 + x403 <= 1
C506: + x1 + x449 <= 1
C507: + x203 + x338 <= 1
C508: + x173 + x199 <= 1
C509: + x111 + x174 <= 1
C510: + x55 + x262 <= 1
C511: + x21 + x158 <= 1
C512: + x56 + x394 <= 1
C513: + x203 + x435 <= 1
C514: + x106 + x254 <= 1
C515: + x52 + x90 <= 1
C516: + x235 + x412 <= 1
C517: + x22 + x296 <= 1
C518: + x107 + x484 <= 1
C519: + x5 + x290 <= 1
C520: + x167 + x443 <= 1
C521: + x45 + x324 <= 1
C522: + x130 + x185 <= 1
C523: + x82 + x363 <= 1
C524: + x54 + x69 + x170 <= 1
C525: + x298 + x331 <= 1
C526: + x10 + x369 <= 1
C527: + x107 + x408 <= 1
C528: + x6 + x98 <= 1
C529: + x23 + x181 <= 1
C530: + x6 + x133 <= 1
C531: + x118 + x251 <= 1
C532: + x13 + x123 <= 1
C533: + x60 + x83 <= 1
C534: + x40 + x263 <= 1
C535: + x15 + x424 <= 1
C536: + x74 + x125 <= 1
C537: + x2 + x464 <= 1
C538: + x132 + x138 <= 1
C539: + x279 + x361 <= 1
C540: + x7 + x174 <= 1
C541: + x72 + x114 <= 1
C542: + x182 + x428 <= 1
C543: + x8 + x253 <= 1
C544: + x77 + x381 <= 1
C545: + x40 + x73 <= 1
C546: + x35 + x59 <= 1
C547: + x9 + x58 <= 1
C548: + x8 + x36 <= 1
C549: + x64 + x71 <= 1
C550: + x17 + x141 <= 1
C551: + x68 + x333 <= 1
C552: + x90 + x280 <= 1
C553: + x289 + x445 <= 1
C554: + x8 + x327 <= 1
C555: + x321 + x409 <= 1
C556: + x283 + x324 <= 1
C557: + x10 + x489 <= 1
C558: + x48 + x395 <= 1
C559: + x51 + x91 <= 1
C560: + x154 + x193 <= 1
C561: + x16 + x254 <= 1
C562: + x10 + x31 <= 1
C563: + x94 + x345 <= 1
C564: + x69 + x470 <= 1
C565: + x4 + x81 <= 1
C566: + x43 + x190 <= 1
C567: + x98 + x321 <= 1
C568: + x16 + x17 <= 1
C569: + x5 + x448 <= 1
C570: + x57 + x96 <= 1
C571: + x177 + x487 <= 1
C572: + x13 + x304 <= 1
C573: + x1 + x149 <= 1
C574: + x61 + x330 <= 1
C575: + x12 + x98 <= 1
C576: + x90 + x496 <= 1
C577: + x16 + x37 <= 1
C578: + x8 + x396 <= 1
C579: + x149 + x292 <= 1
C580: + x5 + x38 <= 1
C581: + x15 + x346 <= 1
C582: + x30 + x44 <= 1
C583: + x222 + x364 <= 1
C584: + x106 + x478 <= 1
C585: + x52 + x195 <= 1
C586: + x89 + x260 <= 1
C587: + x351 + x402 <= 1
C588: + x23 + x426 <= 1
C589: + x83 + x125 <= 1
C590: + x2 + x72 <= 1
C591: + x321 + x416 <= 1
C592: + x184 + x380 <= 1
C593: + x41 + x423 <= 1
C594: + x5 + x181 <= 1
C595: + x66 + x264 <= 1
C596: + x106 + x377 <= 1
C597: + x89 + x161 <= 1
C598: + x111 + x140 <= 1
C599: + x67 + x465 <= 1
C600: + x6 + x305 <= 1
C601: + x6 + x84 <= 1
C602: + x91 + x128 <= 1
C603: + x32 + x122 <= 1
C604: + x44 + x80 <= 1
C605: + x16 + x143 <= 1
C606: + x238 + x491 <= 1
C607: + x102 + x131 <= 1
C608: + x4 + x6 <= 1
C609: + x170 + x302 <= 1
C610: + x72 + x193 <= 1
C611: + x166 + x497 <= 1
C612: + x33 + x79 <= 1
C613: + x5 + x144 <= 1
C614: + x88 + x254 <= 1
C615: + x16 + x321 <= 1
C616: + x54 + x62 <= 1
C617: + x55 + x495 <= 1
C618: + x6 + x8 <= 1
C619: + x9 + x310 <= 1
C620: + x28 + x39 <= 1
C621: + x10 + x93 <= 1
C622: + x194 + x339 <= 1
C623: + x266 + x427 <= 1
C624: + x70 + x432 <= 1
C625: + x162 + x266 <= 1
C626: + x64 + x117 <= 1
C627: + x15 + x289 <= 1
C628: + x254 + x441 <= 1
C629: + x149 + x400 <= 1
C630: + x42 + x135 <= 1
C631: + x142 + x257 <= 1
C632: + x99 + x466 <= 1
C633: + x192 + x446 <= 1
C634: + x31 + x417 <= 1
C635: + x6 + x204 <= 1
C636: + x11 + x135 <= 1
C637: + x257 + x366 <= 1
C638: + x23 + x239 <= 1
C639: + x16 + x103 <= 1
C640: + x65 + x81 <= 1
C641: + x222 + x313 <= 1
C642: + x12 + x15 <= 1
C643: + x30 + x121 <= 1
C644: + x6 + x93 <= 1
C645: + x88 + x167 <= 1
C646: + x295 + x325 <= 1
C647: + x32 + x103 <= 1
C648: + x7 + x329 <= 1
C649: + x19 + x218 <= 1
C650: + x291 + x490 <= 1
C651: + x277 + x384 <= 1
C652: + x16 + x43 <= 1
C653: + x65 + x109 <= 1
C654: + x318 + x460 <= 1
C655: + x111 + x444 <= 1
C656: + x259 + x420 <= 1
C657: + x43 + x117 <= 1
C658: + x2 + x33 <= 1
C659: + x75 + x158 <= 1
C660: + x50 + x495 <= 1
C661: + x22 + x46 <= 1
C662: + x5 + x44 <= 1
C663: + x7 + x389 <= 1
C664: + x111 + x299 <= 1
C665: + x12 + x76 <= 1
C666: + x277 + x324 <= 1
C667: + x104 + x418 <= 1
C668: + x34 + x59 <= 1
C669: + x36 + x267 <= 1
C670: + x37 + x82 <= 1
C671: + x2 + x82 <= 1
C672: + x6 + x53 <= 1
C673: + x80 + x94 <= 1
C674: + x27 + x76 <= 1
C675: + x10 + x50 <= 1
C676: + x344 + x374 <= 1
C677: + x201 + x435 <= 1
C678: + x69 + x451 <= 1
C679: + x49 + x178 <= 1
C680: + x25 + x30 <= 1
C681: + x81 + x139 <= 1
C682: + x34 + x119 <= 1
C683: + x340 + x370 <= 1
C684: + x115 + x124 <= 1
C685: + x4 + x213 <= 1
C686: + x26 + x301 <= 1
C687: + x18 + x195 <= 1
C688: + x1 + x7 <= 1
C689: + x290 + x499 <= 1
C690: + x84 + x99 <= 1
C691: + x192 + x206 <= 1
C692: + x40 + x160 <= 1
C693: + x43 + x219 <= 1
C694: + x9 + x71 <= 1
C695: + x173 + x440 <= 1
C696: + x16 + x52 <= 1
C697: + x18 + x110 <= 1
C698: + x72 + x183 <= 1
C699: + x55 + x235 <= 1
C700: + x104 + x330 <= 1
C701: + x3 + x5 <= 1
C702: + x6 + x10 <= 1
C703: + x37 + x391 <= 1
C704: + x64 + x264 <= 1
C705: + x240 + x378 <= 1
C706: + x4 + x129 <= 1
C707: + x206 + x314 <= 1
C708: + x158 + x276 <= 1
C709: + x52 + x456 <= 1
C710: + x210 + x258 <= 1
C711: + x1 + x83 <= 1
C712: + x24 + x33 <= 1
C713: + x82 + x90 <= 1
C714: + x80 + x136 <= 1
C715: + x138 + x352 <= 1
C716: + x230 + x279 <= 1
C717: + x3 + x89 <= 1
C718: + x58 + x182 <= 1
C719: + x76 + x240 <= 1
C720: + x24 + x392 <= 1
C721: + x28 + x65 <= 1
C722: + x121 + x351 <= 1
C723: + x2 + x246 <= 1
C724: + x140 + x445 <= 1
C725: + x23 + x399 <= 1
C726: + x6 + x79 <= 1
C727: + x121 + x462 <= 1
C728: + x2 + x103 <= 1
C729: + x2 + x130 <= 1
C730: + x45 + x91 + x130 <= 1
C731: + x25 + x148 <= 1
C732: + x159 + x386 <= 1
C733: + x160 + x286 <= 1
C734: + x16 + x57 <= 1
C735: + x319 + x470 <= 1
C736: + x306 + x425 <= 1
C737: + x67 + x224 <= 1
C738: + x474 + x498 <= 1
C739: + x130 + x280 <= 1
C740: + x60 + x211 <= 1
C741: + x2 + x51 <= 1
C742: + x257 + x295 <= 1
C743: + x367 + x450 <= 1
C744: + x4 + x138 <= 1
C745: + x5 + x26 <= 1
C746: + x209 + x475 <= 1
C747: + x15 + x193 <= 1
C748: + x107 + x458 <= 1
C749: + x15 + x471 <= 1
C750: + x5 + x268 <= 1
C751: + x172 + x465 <= 1
C752: + x37 + x72 <= 1
C753: + x184 + x352 <= 1
C754: + x15 + x116 <= 1
C755: + x249 + x323 <= 1
C756: + x3 + x410 <= 1
C757: + x142 + x288 <= 1
C758: + x55 + x118 <= 1
C759: + x2 + x128 <= 1
C760: + x192 + x413 <= 1
C761: + x2 + x437 <= 1
C762: + x14 + x56 <= 1
C763: + x6 + x235 <= 1
C764: + x80 + x419 <= 1
C765: + x28 + x150 <= 1
C766: + x11 + x232 <= 1
C767: + x56 + x76 <= 1
C768: + x130 + x462 <= 1
C769: + x30 + x245 <= 1
C770: + x215 + x400 <= 1
C771: + x168 + x488 <= 1
C772: + x179 + x357 <= 1
C773: + x9 + x117 <= 1
C774: + x174 + x306 <= 1
C775: + x67 + x366 <= 1
C776: + x367 + x368 <= 1
C777: + x70 + x225 <= 1
C778: + x14 + x393 <= 1
C779: + x6 + x124 <= 1
C780: + x81 + x82 <= 1
C781: + x6 + x159 <= 1
C782: + x6 + x362 <= 1
C783: + x90 + x139 <= 1
C784: + x312 + x459 <= 1
C785: + x187 + x280 <= 1
C786: + x7 + x11 <= 1
C787: + x95 + x140 <= 1
C788: + x5 + x152 <= 1
C789: + x6 + x48 <= 1
C790: + x1 + x363 <= 1
C791: + x282 + x469 <= 1
C792: + x30 + x186 <= 1
C793: + x59 + x401 <= 1
C794: + x32 + x182 <= 1
C795: + x25 + x214 <= 1
C796: + x98 + x383 <= 1
C797: + x1 + x125 <= 1
C798: + x314 + x415 <= 1
C799: + x333 + x463 <= 1
C800: + x14 + x462 <= 1
C801: + x11 + x14 <= 1
C802: + x93 + x184 <= 1
C803: + x4 + x204 <= 1
C804: + x23 + x102 <= 1
C805: + x6 + x212 <= 1
C806: + x154 + x302 <= 1
C807: + x63 + x466 <= 1
C808: + x86 + x358 <= 1
C809: + x40 + x139 <= 1
C810: + x25 + x301 <= 1
C811: + x197 + x313 <= 1
C812: + x44 + x208 <= 1
C813: + x388 + x456 <= 1
C814: + x75 + x388 <= 1
C815: + x59 + x243 <= 1
C816: + x87 + x277 <= 1
C817: + x14 + x386 <= 1
C818: + x8 + x208 <= 1
C819: + x2 + x13 <= 1
C820: + x107 + x206 <= 1
C821: + x261 + x325 <= 1
C822: + x26 + x340 <= 1
C823: + x82 + x290 <= 1
C824: + x102 + x148 <= 1
C825: + x66 + x496 <= 1
C826: + x4 + x19 <= 1
C827: + x40 + x255 <= 1
C828: + x187 + x287 <= 1
C829: + x23 + x328 <= 1
C830: + x36 + x295 <= 1
C831: + x263 + x343 <= 1
C832: + x85 + x403 <= 1
C833: + x169 + x326 <= 1
C834: + x5 + x159 <= 1
C835: + x6 + x41 <= 1
C836: + x271 + x439 <= 1
C837: + x52 + x94 <= 1
C838: + x98 + x376 <= 1
C839: + x45 + x155 <= 1
C840: + x43 + x48 <= 1
C841: + x44 + x184 <= 1
C842: + x5 + x302 <= 1
C843: + x65 + x209 <= 1
C844: + x402 + x471 <= 1
C845: + x2 + x74 <= 1
C846: + x39 + x471 <= 1
C847: + x89 + x215 <= 1
C848: + x18 + x175 <= 1
C849: + x3 + x283 <= 1
C850: + x32 + x318 <= 1
C851: + x26 + x31 <= 1
C852: + x111 + x351 <= 1
C853: + x285 + x299 <= 1
C854: + x306 + x319 <= 1
C855: + x63 + x428 <= 1
C856: + x57 + x367 <= 1
C857: + x272 + x396 <= 1
C858: + x358 + x400 <= 1
C859: + x228 + x456 <= 1
C860: + x2 + x161 <= 1
C861: + x274 + x369 <= 1
C862: + x17 + x114 <= 1
C863: + x63 + x226 <= 1
C864: + x157 + x434 <= 1
C865: + x5 + x134 <= 1
C866: + x6 + x18 <= 1
C867: + x279 + x365 <= 1
C868: + x343 + x429 <= 1
C869: + x10 + x87 <= 1
C870: + x104 + x133 <= 1
C871: + x24 + x271 <= 1
C872: + x458 + x480 <= 1
C873: + x12 + x89 <= 1
C874: + x184 + x476 <= 1
C875: + x4 + x411 <= 1
C876: + x7 + x49 <= 1
C877: + x10 + x493 <= 1
C878: + x92 + x343 <= 1
C879: + x4 + x314 <= 1
C880: + x16 + x259 <= 1
C881: + x172 + x287 <= 1
C882: + x39 + x43 <= 1
C883: + x5 + x111 <= 1
C884: + x30 + x99 <= 1
C885: + x13 + x300 <= 1
C886: + x11 + x100 <= 1
C887: + x58 + x106 <= 1
C888: + x95 + x238 <= 1
C889: + x22 + x84 <= 1
C890: + x85 + x239 <= 1
C891: + x64 + x289 <= 1
C892: + x29 + x327 <= 1
C893: + x8 + x97 <= 1
C894: + x1 + x54 <= 1
C895: + x21 + x57 <= 1
C896: + x13 + x443 <= 1
C897: + x142 + x336 <= 1
C898: + x325 + x485 <= 1
C899: + x63 + x233 <= 1
C900: + x122 + x411 <= 1
C901: + x6 + x27 <= 1
C902: + x15 + x80 <= 1
C903: + x180 + x397 <= 1
C904: + x1 + x165 <= 1
C905: + x13 + x253 <= 1
C906: + x40 + x126 <= 1
C907: + x43 + x292 <= 1
C908: + x68 + x141 <= 1
C909: + x161 + x496 <= 1
C910: + x7 + x282 <= 1
C911: + x48 + x115 <= 1
C912: + x98 + x171 <= 1
C913: + x23 + x236 <= 1
C914: + x26 + x233 <= 1
C915: + x8 + x457 <= 1
C916: + x97 + x311 <= 1
C917: + x80 + x249 <= 1
C918: + x87 + x155 <= 1
C919: + x24 + x329 <= 1
C920: + x15 + x168 <= 1
C921: + x9 + x256 <= 1
C922: + x111 + x220 <= 1
C923: + x17 + x112 <= 1
C924: + x36 + x222 <= 1
C925: + x320 + x447 <= 1
C926: + x151 + x255 <= 1
C927: + x72 + x431 <= 1
C928: + x5 + x41 <= 1
C929: + x8 + x14 <= 1
C930: + x3 + x373 <= 1
C931: + x42 + x312 <= 1
C932: + x57 + x81 + x101 <= 1
C933: + x5 + x283 <= 1
C934: + x70 + x154 <= 1
C935: + x54 + x171 <= 1
C936: + x6 + x56 <= 1
C937: + x16 + x208 <= 1
C938: + x1 + x248 <= 1
C939: + x7 + x273 <= 1
C940: + x224 + x414 <= 1
C941: + x80 + x291 <= 1
C942: + x63 + x175 <= 1
C943: + x113 + x127 <= 1
C944: + x323 + x428 <= 1
C945: + x98 + x434 <= 1
C946: + x26 + x397 <= 1
C947: + x16 + x386 <= 1
C948: + x7 + x95 <= 1
C949: + x83 + x168 <= 1
C950: + x93 + x176 <= 1
C951: + x80 + x194 <= 1
C952: + x11 + x22 <= 1
C953: + x214 + x422 <= 1
C954: + x99 + x131 <= 1
C955: + x17 + x373 <= 1
C956: + x7 + x333 <= 1
C957: + x8 + x87 <= 1
C958: + x202 + x372 <= 1
C959: + x20 + x213 <= 1
C960: + x4 + x15 <= 1
C961: + x16 + x55 <= 1
C962: + x18 + x105 <= 1
C963: + x3 + x477 <= 1
C964: + x77 + x358 <= 1
C965: + x4 + x160 <= 1
C966: + x6 + x176 <= 1
C967: + x8 + x11 <= 1
C968: + x12 + x80 <= 1
C969: + x305 + x399 <= 1
C970: + x51 + x159 <= 1
C971: + x24 + x40 <= 1
C972: + x2 + x483 <= 1
C973: + x202 + x430 <= 1
C974: + x105 + x345 <= 1
C975: + x23 + x25 <= 1
C976: + x96 + x232 <= 1
C977: + x80 + x90 <= 1
C978: + x273 + x415 <= 1
C979: + x114 + x159 <= 1
C980: + x223 + x265 <= 1
C981: + x43 + x147 <= 1
C982: + x36 + x160 <= 1
C983: + x291 + x398 <= 1
C984: + x11 + x367 <= 1
C985: + x29 + x66 <= 1
C986: + x30 + x78 <= 1
C987: + x21 + x103 <= 1
C988: + x312 + x400 <= 1
C989: + x151 + x189 <= 1
C990: + x8 + x350 <= 1
C991: + x11 + x29 <= 1
C992: + x221 + x404 <= 1
C993: + x163 + x180 <= 1
C994: + x4 + x120 <= 1
C995: + x11 + x15 + x16 <= 1
C996: + x43 + x199 <= 1
C997: + x9 + x75 <= 1
C998: + x7 + x481 <= 1
C999: + x412 + x459 <= 1
C1000: + x43 + x124 <= 1
C1001: + x88 + x144 <= 1
C1002: + x410 + x464 <= 1
C1003: + x204 + x474 <= 1
C1004: + x4 + x133 <= 1
C1005: + x5 + x31 <= 1
C1006: + x35 + x91 <= 1
C1007: + x7 + x372 <= 1
C1008: + x119 + x149 <= 1
C1009: + x332 + x415 <= 1
C1010: + x5 + x265 <= 1
C1011: + x215 + x247 <= 1
C1012: + x7 + x29 <= 1
C1013: + x32 + x394 <= 1
C1014: + x77 + x244 <= 1
C1015: + x115 + x443 <= 1
C1016: + x160 + x252 <= 1
C1017: + x53 + x363 <= 1
C1018: + x6 + x58 <= 1
C1019: + x110 + x211 <= 1
C1020: + x2 + x202 <= 1
C1021: + x94 + x185 <= 1
C1022: + x7 + x259 <= 1
C1023: + x8 + x145 <= 1
C1024: + x188 + x320 <= 1
C1025: + x371 + x425 <= 1
C1026: + x96 + x479 <= 1
C1027: + x215 + x445 <= 1
C1028: + x8 + x56 <= 1
C1029: + x66 + x85 <= 1
C1030: + x10 + x154 <= 1
C1031: + x248 + x282 <= 1
C1032: + x2 + x277 <= 1
C1033: + x58 + x376 <= 1
C1034: + x21 + x411 <= 1
C1035: + x66 + x315 <= 1
C1036: + x40 + x46 <= 1
C1037: + x426 + x490 <= 1
C1038: + x16 + x226 <= 1
C1039: + x115 + x212 <= 1
C1040: + x15 + x399 <= 1
C1041: + x293 + x341 <= 1
C1042: + x3 + x28 <= 1
C1043: + x195 + x261 <= 1
C1044: + x323 + x370 <= 1
C1045: + x92 + x194 <= 1
C1046: + x20 + x340 <= 1
C1047: + x6 + x146 <= 1
C1048: + x37 + x239 <= 1
C1049: + x38 + x249 <= 1
C1050: + x2 + x338 <= 1
C1051: + x240 + x482 <= 1
C1052: + x48 + x162 <= 1
C1053: + x34 + x201 <= 1
C1054: + x82 + x87 <= 1
C1055: + x336 + x456 <= 1
C1056: + x322 + x488 <= 1
C1057: + x52 + x322 <= 1
C1058: + x15 + x120 <= 1
C1059: + x5 + x74 <= 1
C1060: + x127 + x207 <= 1
C1061: + x8 + x45 <= 1
C1062: + x38 + x45 <= 1
C1063: + x17 + x61 <= 1
C1064: + x5 + x217 <= 1
C1065: + x172 + x243 <= 1
C1066: + x111 + x248 <= 1
C1067: + x40 + x138 <= 1
C1068: + x43 + x384 <= 1
C1069: + x15 + x402 <= 1
C1070: + x210 + x231 <= 1
C1071: + x85 + x121 <= 1
C1072: + x194 + x408 <= 1
C1073: + x136 + x282 <= 1
C1074: + x59 + x302 <= 1
C1075: + x124 + x234 <= 1
C1076: + x259 + x316 <= 1
C1077: + x35 + x178 <= 1
C1078: + x38 + x69 <= 1
C1079: + x367 + x448 <= 1
C1080: + x164 + x235 <= 1
C1081: + x111 + x179 <= 1
C1082: + x176 + x203 <= 1
C1083: + x43 + x307 <= 1
C1084: + x70 + x436 <= 1
C1085: + x16 + x71 <= 1
C1086: + x174 + x371 <= 1
C1087: + x1 + x113 <= 1
C1088: + x91 + x390 <= 1
C1089: + x291 + x407 <= 1
C1090: + x104 + x445 <= 1
C1091: + x78 + x127 <= 1
C1092: + x96 + x356 <= 1
C1093: + x4 + x401 <= 1
C1094: + x80 + x166 <= 1
C1095: + x65 + x222 <= 1
C1096: + x8 + x329 <= 1
C1097: + x77 + x214 <= 1
C1098: + x8 + x187 <= 1
C1099: + x34 + x143 <= 1
C1100: + x35 + x245 <= 1
C1101: + x25 + x230 <= 1
C1102: + x21 + x72 <= 1
C1103: + x97 + x294 <= 1
C1104: + x133 + x215 <= 1
C1105: + x15 + x54 <= 1
C1106: + x10 + x102 <= 1
C1107: + x5 + x12 <= 1
C1108: + x25 + x352 <= 1
C1109: + x325 + x350 <= 1
C1110: + x18 + x230 <= 1
C1111: + x61 + x94 <= 1
C1112: + x125 + x158 <= 1
C1113: + x57 + x166 <= 1
C1114: + x49 + x195 <= 1
C1115: + x6 + x21 <= 1
C1116: + x62 + x88 <= 1
C1117: + x455 + x462 <= 1
C1118: + x284 + x454 <= 1
C1119: + x112 + x229 <= 1
C1120: + x184 + x205 <= 1
C1121: + x13 + x203 <= 1
C1122: + x99 + x207 <= 1
C1123: + x6 + x259 <= 1
C1124: + x279 + x459 <= 1
C1125: + x8 + x35 <= 1
C1126: + x64 + x66 <= 1
C1127: + x215 + x450 <= 1
C1128: + x17 + x142 <= 1
C1129: + x15 + x497 <= 1
C1130: + x6 + x422 <= 1
C1131: + x8 + x322 <= 1
C1132: + x96 + x144 <= 1
C1133: + x8 + x180 <= 1
C1134: + x11 + x150 <= 1
C1135: + x139 + x431 <= 1
C1136: + x282 + x494 <= 1
C1137: + x31 + x209 <= 1
C1138: + x21 + x234 <= 1
C1139: + x15 + x356 <= 1
C1140: + x152 + x444 <= 1
C1141: + x65 + x68 <= 1
C1142: + x330 + x372 <= 1
C1143: + x114 + x485 <= 1
C1144: + x359 + x431 <= 1
C1145: + x306 + x307 <= 1
C1146: + x15 + x61 <= 1
C1147: + x11 + x101 <= 1
C1148: + x2 + x26 <= 1
C1149: + x449 + x493 <= 1
C1150: + x14 + x264 <= 1
C1151: + x316 + x453 <= 1
C1152: + x56 + x141 <= 1
C1153: + x23 + x64 <= 1
C1154: + x15 + x73 <= 1
C1155: + x16 + x379 <= 1
C1156: + x6 + x30 <= 1
C1157: + x172 + x359 <= 1
C1158: + x10 + x392 <= 1
C1159: + x83 + x312 <= 1
C1160: + x206 + x270 <= 1
C1161: + x38 + x200 <= 1
C1162: + x13 + x500 <= 1
C1163: + x10 + x273 <= 1
C1164: + x8 + x447 <= 1
C1165: + x4 + x8 + x70 <= 1
C1166: + x50 + x77 <= 1
C1167: + x25 + x482 <= 1
C1168: + x9 + x380 <= 1
C1169: + x7 + x283 <= 1
C1170: + x111 + x137 <= 1
C1171: + x30 + x220 <= 1
C1172: + x50 + x432 <= 1
C1173: + x5 + x107 <= 1
C1174: + x298 + x444 <= 1
C1175: + x327 + x457 <= 1
C1176: + x96 + x262 <= 1
C1177: + x45 + x359 <= 1
C1178: + x157 + x195 <= 1
C1179: + x126 + x185 <= 1
C1180: + x7 + x343 <= 1
C1181: + x2 + x190 <= 1
C1182: + x4 + x5 <= 1
C1183: + x314 + x490 <= 1
C1184: + x16 + x45 <= 1
C1185: + x58 + x300 <= 1
C1186: + x139 + x140 <= 1
C1187: + x56 + x369 <= 1
C1188: + x87 + x247 <= 1
C1189: + x15 + x84 <= 1
C1190: + x6 + x7 <= 1
C1191: + x62 + x106 <= 1
C1192: + x7 + x157 <= 1
C1193: + x83 + x230 <= 1
C1194: + x103 + x225 <= 1
C1195: + x171 + x310 <= 1
C1196: + x8 + x17 <= 1
C1197: + x135 + x344 <= 1
C1198: + x185 + x216 <= 1
C1199: + x4 + x49 <= 1
C1200: + x7 + x48 <= 1
C1201: + x147 + x258 <= 1
C1202: + x11 + x490 <= 1
C1203: + x78 + x205 <= 1
C1204: + x13 + x336 <= 1
C1205: + x6 + x203 <= 1
C1206: + x80 + x88 <= 1
C1207: + x70 + x320 <= 1
C1208: + x16 + x280 <= 1
C1209: + x1 + x245 <= 1
C1210: + x194 + x366 <= 1
C1211: + x111 + x148 <= 1
C1212: + x33 + x377 <= 1
C1213: + x3 + x233 <= 1
C1214: + x276 + x443 <= 1
C1215: + x44 + x342 <= 1
C1216: + x216 + x290 <= 1
C1217: + x174 + x437 <= 1
C1218: + x37 + x469 <= 1
C1219: + x94 + x219 <= 1
C1220: + x15 + x172 <= 1
C1221: + x163 + x190 <= 1
C1222: + x19 + x215 <= 1
C1223: + x152 + x319 <= 1
C1224: + x10 + x252 <= 1
C1225: + x4 + x449 <= 1
C1226: + x16 + x54 <= 1
C1227: + x111 + x441 <= 1
C1228: + x47 + x174 <= 1
C1229: + x221 + x265 <= 1
C1230: + x141 + x147 <= 1
C1231: + x25 + x36 <= 1
C1232: + x7 + x152 <= 1
C1233: + x200 + x480 <= 1
C1234: + x10 + x69 <= 1
C1235: + x209 + x494 <= 1
C1236: + x27 + x218 <= 1
C1237: + x8 + x10 <= 1
C1238: + x210 + x272 <= 1
C1239: + x103 + x325 <= 1
C1240: + x12 + x75 <= 1
C1241: + x35 + x170 <= 1
C1242: + x219 + x248 <= 1
C1243: + x3 + x95 <= 1
C1244: + x139 + x231 <= 1
C1245: + x4 + x300 <= 1
C1246: + x122 + x500 <= 1
C1247: + x32 + x59 <= 1
C1248: + x7 + x196 <= 1
C1249: + x1 + x204 <= 1
C1250: + x12 + x220 <= 1
C1251: + x41 + x51 <= 1
C1252: + x95 + x305 <= 1
C1253: + x43 + x152 <= 1
C1254: + x15 + x373 <= 1
C1255: + x349 + x441 <= 1
C1256: + x54 + x123 <= 1
C1257: + x36 + x108 <= 1
C1258: + x1 + x8 <= 1
C1259: + x28 + x135 <= 1
C1260: + x24 + x112 <= 1
C1261: + x35 + x237 <= 1
C1262: + x35 + x306 <= 1
C1263: + x58 + x76 <= 1
C1264: + x29 + x357 <= 1
C1265: + x5 + x20 <= 1
C1266: + x26 + x179 <= 1
C1267: + x152 + x268 <= 1
C1268: + x210 + x257 <= 1
C1269: + x43 + x274 <= 1
C1270: + x281 + x423 <= 1
C1271: + x125 + x364 <= 1
C1272: + x148 + x388 <= 1
C1273: + x248 + x368 <= 1
C1274: + x97 + x362 <= 1
C1275: + x5 + x163 <= 1
C1276: + x126 + x453 <= 1
C1277: + x91 + x167 <= 1
C1278: + x19 + x21 <= 1
C1279: + x14 + x173 <= 1
C1280: + x7 + x425 <= 1
C1281: + x222 + x266 <= 1
C1282: + x155 + x323 <= 1
C1283: + x68 + x74 <= 1
C1284: + x215 + x297 <= 1
C1285: + x35 + x474 <= 1
C1286: + x172 + x310 <= 1
C1287: + x21 + x210 <= 1
C1288: + x299 + x361 <= 1
C1289: + x8 + x495 <= 1
C1290: + x66 + x100 <= 1
C1291: + x85 + x119 <= 1
C1292: + x104 + x322 <= 1
C1293: + x107 + x424 <= 1
C1294: + x16 + x351 <= 1
C1295: + x72 + x78 <= 1
C1296: + x1 + x142 <= 1
C1297: + x77 + x153 <= 1
C1298: + x13 + x75 <= 1
C1299: + x4 + x40 <= 1
C1300: + x35 + x188 <= 1
C1301: + x106 + x348 <= 1
C1302: + x23 + x24 <= 1
C1303: + x172 + x198 <= 1
C1304: + x6 + x276 <= 1
C1305: + x12 + x53 <= 1
C1306: + x5 + x313 <= 1
C1307: + x81 + x378 <= 1
C1308: + x7 + x77 <= 1
C1309: + x83 + x150 <= 1
C1310: + x137 + x188 <= 1
C1311: + x40 + x42 <= 1
C1312: + x15 + x189 <= 1
C1313: + x1 + x22 <= 1
C1314: + x48 + x90 <= 1
C1315: + x30 + x244 <= 1
C1316: + x362 + x374 <= 1
C1317: + x161 + x308 <= 1
C1318: + x69 + x486 <= 1
C1319: + x65 + x115 <= 1
C1320: + x350 + x461 <= 1
C1321: + x43 + x111 <= 1
C1322: + x45 + x383 <= 1
C1323: + x255 + x294 <= 1
C1324: + x144 + x317 + x341 <= 1
C1325: + x23 + x192 <= 1
C1326: + x35 + x421 <= 1
C1327: + x16 + x178 <= 1
C1328: + x195 + x199 <= 1
C1329: + x69 + x426 <= 1
C1330: + x4 + x45 <= 1
C1331: + x35 + x179 <= 1
C1332: + x9 + x418 <= 1
C1333: + x135 + x221 <= 1
C1334: + x56 + x190 <= 1
C1335: + x258 + x466 <= 1
C1336: + x5 + x145 <= 1
C1337: + x53 + x382 <= 1
C1338: + x174 + x211 <= 1
C1339: + x378 + x405 <= 1
C1340: + x61 + x398 <= 1
C1341: + x23 + x317 <= 1
C1342: + x6 + x285 <= 1
C1343: + x83 + x492 <= 1
C1344: + x55 + x161 <= 1
C1345: + x76 + x295 <= 1
C1346: + x13 + x451 <= 1
C1347: + x35 + x135 <= 1
C1348: + x56 + x317 <= 1
C1349: + x43 + x455 <= 1
C1350: + x172 + x247 <= 1
C1351: + x28 + x110 <= 1
C1352: + x8 + x186 <= 1
C1353: + x46 + x263 <= 1
C1354: + x39 + x58 <= 1
C1355: + x103 + x309 <= 1
C1356: + x5 + x122 <= 1
C1357: + x314 + x362 <= 1
C1358: + x24 + x474 <= 1
C1359: + x36 + x345 <= 1
C1360: + x74 + x289 <= 1
C1361: + x5 + x9 <= 1
C1362: + x23 + x183 <= 1
C1363: + x44 + x393 <= 1
C1364: + x70 + x396 <= 1
C1365: + x235 + x465 <= 1
C1366: + x18 + x225 <= 1
C1367: + x40 + x250 <= 1
C1368: + x31 + x364 <= 1
C1369: + x206 + x210 <= 1
C1370: + x24 + x79 <= 1
C1371: + x64 + x248 <= 1
C1372: + x203 + x347 <= 1
C1373: + x6 + x24 <= 1
C1374: + x173 + x375 <= 1
C1375: + x1 + x355 <= 1
C1376: + x2 + x224 <= 1
C1377: + x5 + x61 <= 1
C1378: + x52 + x93 <= 1
C1379: + x98 + x196 <= 1
C1380: + x170 + x335 <= 1
C1381: + x152 + x491 <= 1
C1382: + x8 + x34 <= 1
C1383: + x193 + x250 <= 1
C1384: + x39 + x363 <= 1
C1385: + x4 + x405 <= 1
C1386: + x7 + x63 <= 1
C1387: + x2 + x390 <= 1
C1388: + x139 + x207 <= 1
C1389: + x265 + x273 <= 1
C1390: + x3 + x284 <= 1
C1391: + x98 + x160 <= 1
C1392: + x90 + x478 <= 1
C1393: + x16 + x23 <= 1
C1394: + x18 + x73 <= 1
C1395: + x176 + x309 <= 1
C1396: + x104 + x365 <= 1
C1397: + x54 + x99 <= 1
C1398: + x238 + x337 <= 1
C1399: + x44 + x386 <= 1
C1400: + x16 + x136 <= 1
C1401: + x8 + x107 <= 1
C1402: + x1 + x64 <= 1
C1403: + x56 + x109 <= 1
C1404: + x195 + x217 <= 1
C1405: + x259 + x271 <= 1
C1406: + x43 + x228 <= 1
C1407: + x15 + x425 <= 1
C1408: + x19 + x267 <= 1
C1409: + x1 + x12 + x35 <= 1
C1410: + x69 + x138 <= 1
C1411: + x296 + x304 <= 1
C1412: + x261 + x468 <= 1
C1413: + x9 + x269 <= 1
C1414: + x208 + x442 <= 1
C1415: + x15 + x70 <= 1
C1416: + x211 + x262 <= 1
C1417: + x54 + x482 <= 1
C1418: + x91 + x393 <= 1
C1419: + x412 + x415 <= 1
C1420: + x259 + x323 <= 1
C1421: + x7 + x50 <= 1
C1422: + x84 + x172 <= 1
C1423: + x202 + x442 <= 1
C1424: + x112 + x338 <= 1
C1425: + x359 + x468 <= 1
C1426: + x89 + x223 <= 1
C1427: + x259 + x488 <= 1
C1428: + x6 + x197 <= 1
C1429: + x173 + x239 <= 1
C1430: + x11 + x146 <= 1
C1431: + x157 + x337 <= 1
C1432: + x135 + x489 <= 1
C1433: + x124 + x176 <= 1
C1434: + x5 + x112 <= 1
C1435: + x278 + x413 <= 1
C1436: + x16 + x32 <= 1
C1437: + x145 + x387 <= 1
C1438: + x249 + x293 <= 1
C1439: + x12 + x475 <= 1
C1440: + x14 + x435 <= 1
C1441: + x6 + x86 <= 1
C1442: + x237 + x241 <= 1
C1443: + x92 + x358 <= 1
C1444: + x173 + x305 <= 1
C1445: + x58 + x105 <= 1
C1446: + x6 + x137 <= 1
C1447: + x1 + x55 <= 1
C1448: + x58 + x460 <= 1
C1449: + x312 + x465 <= 1
C1450: + x34 + x216 <= 1
C1451: + x120 + x414 <= 1
C1452: + x4 + x374 <= 1
C1453: + x133 + x270 <= 1
C1454: + x13 + x281 <= 1
C1455: + x91 + x134 <= 1
C1456: + x336 + x382 <= 1
C1457: + x101 + x154 <= 1
C1458: + x19 + x423 <= 1
C1459: + x20 + x311 <= 1
C1460: + x8 + x24 <= 1
C1461: + x169 + x452 <= 1
C1462: + x215 + x227 <= 1
C1463: + x26 + x127 <= 1
C1464: + x11 + x491 <= 1
C1465: + x283 + x344 <= 1
C1466: + x12 + x323 <= 1
C1467: + x358 + x461 <= 1
C1468: + x43 + x436 <= 1
C1469: + x127 + x446 <= 1
C1470: + x111 + x141 <= 1
C1471: + x3 + x238 <= 1
C1472: + x10 + x11 <= 1
C1473: + x29 + x304 <= 1
C1474: + x12 + x162 <= 1
C1475: + x188 + x223 <= 1
C1476: + x6 + x316 <= 1
C1477: + x166 + x440 <= 1
C1478: + x59 + x340 <= 1
C1479: + x104 + x355 <= 1
C1480: + x2 + x23 <= 1
C1481: + x49 + x427 <= 1
C1482: + x22 + x92 <= 1
C1483: + x268 + x454 <= 1
C1484: + x6 + x242 <= 1
C1485: + x72 + x281 <= 1
C1486: + x102 + x142 <= 1
C1487: + x248 + x419 <= 1
C1488: + x2 + x178 <= 1
C1489: + x94 + x353 <= 1
C1490: + x45 + x242 <= 1
C1491: + x21 + x467 <= 1
C1492: + x33 + x68 <= 1
C1493: + x5 + x373 <= 1
C1494: + x279 + x384 <= 1
C1495: + x69 + x256 <= 1
C1496: + x8 + x291 <= 1
C1497: + x28 + x62 <= 1
C1498: + x184 + x223 <= 1
C1499: + x70 + x427 <= 1
C1500: + x15 + x241 <= 1
C1501: + x126 + x350 <= 1
C1502: + x5 + x42 <= 1
C1503: + x5 + x284 <= 1
C1504: + x3 + x13 + x25 <= 1
C1505: + x18 + x334 <= 1
C1506: + x28 + x74 <= 1
C1507: + x15 + x370 <= 1
C1508: + x135 + x136 <= 1
C1509: + x8 + x449 <= 1
C1510: + x329 + x366 <= 1
C1511: + x3 + x394 <= 1
C1512: + x14 + x421 <= 1
C1513: + x15 + x19 <= 1
C1514: + x2 + x421 <= 1
C1515: + x192 + x365 <= 1
C1516: + x49 + x418 <= 1
C1517: + x16 + x296 <= 1
C1518: + x16 + x147 <= 1
C1519: + x1 + x5 <= 1
C1520: + x291 + x483 <= 1
C1521: + x58 + x470 <= 1
C1522: + x338 + x371 <= 1
C1523: + x93 + x275 <= 1
C1524: + x104 + x336 <= 1
C1525: + x7 + x140 <= 1
C1526: + x2 + x60 <= 1
C1527: + x33 + x424 <= 1
C1528: + x5 + x17 <= 1
C1529: + x20 + x164 <= 1
C1530: + x89 + x279 <= 1
C1531: + x25 + x500 <= 1
C1532: + x35 + x263 <= 1
C1533: + x7 + x200 <= 1
C1534: + x95 + x309 <= 1
C1535: + x80 + x299 <= 1
C1536: + x137 + x469 <= 1
C1537: + x50 + x196 <= 1
C1538: + x51 + x212 <= 1
C1539: + x12 + x450 <= 1
C1540: + x17 + x464 <= 1
C1541: + x2 + x97 <= 1
C1542: + x58 + x132 <= 1
C1543: + x136 + x375 <= 1
C1544: + x428 + x499 <= 1
C1545: + x5 + x236 <= 1
C1546: + x354 + x480 <= 1
C1547: + x9 + x346 <= 1
C1548: + x32 + x107 <= 1
C1549: + x309 + x408 <= 1
C1550: + x283 + x399 <= 1
C1551: + x56 + x113 <= 1
C1552: + x4 + x119 <= 1
C1553: + x161 + x314 <= 1
C1554: + x7 + x10 + x43 <= 1
C1555: + x1 + x441 <= 1
C1556: + x66 + x111 <= 1
C1557: + x311 + x337 <= 1
C1558: + x15 + x34 <= 1
C1559: + x118 + x288 <= 1
C1560: + x101 + x378 <= 1
C1561: + x436 + x452 <= 1
C1562: + x6 + x355 <= 1
C1563: + x1 + x88 <= 1
C1564: + x20 + x169 <= 1
C1565: + x5 + x266 <= 1
C1566: + x3 + x86 <= 1
C1567: + x187 + x484 <= 1
C1568: + x143 + x412 <= 1
C1569: + x7 + x260 <= 1
C1570: + x42 + x98 + x116 <= 1
C1571: + x12 + x213 <= 1
C1572: + x106 + x242 <= 1
C1573: + x161 + x357 <= 1
C1574: + x144 + x431 <= 1
C1575: + x4 + x422 <= 1
C1576: + x15 + x29 <= 1
C1577: + x74 + x188 <= 1
C1578: + x2 + x439 <= 1
C1579: + x8 + x342 <= 1
C1580: + x94 + x192 + x477 <= 1
C1581: + x31 + x68 <= 1
C1582: + x6 + x237 <= 1
C1583: + x82 + x172 <= 1
C1584: + x8 + x72 <= 1
C1585: + x135 + x257 <= 1
C1586: + x111 + x238 <= 1
C1587: + x21 + x222 <= 1
C1588: + x13 + x19 <= 1
C1589: + x5 + x120 <= 1
C1590: + x252 + x349 <= 1
C1591: + x26 + x426 <= 1
C1592: + x8 + x213 <= 1
C1593: + x46 + x418 <= 1
C1594: + x257 + x316 <= 1
C1595: + x149 + x205 <= 1
C1596: + x151 + x407 <= 1
C1597: + x10 + x214 <= 1
C1598: + x174 + x325 <= 1
C1599: + x141 + x455 <= 1
C1600: + x119 + x266 <= 1
C1601: + x70 + x279 <= 1
C1602: + x5 + x150 <= 1
C1603: + x8 + x318 <= 1
C1604: + x8 + x137 <= 1
C1605: + x175 + x215 <= 1
C1606: + x289 + x417 <= 1
C1607: + x176 + x479 <= 1
C1608: + x150 + x344 <= 1
C1609: + x17 + x62 <= 1
C1610: + x164 + x319 <= 1
C1611: + x8 + x339 <= 1
C1612: + x31 + x75 <= 1
C1613: + x96 + x153 <= 1
C1614: + x5 + x218 <= 1
C1615: + x152 + x155 <= 1
C1616: + x52 + x269 <= 1
C1617: + x15 + x129 <= 1
C1618: + x47 + x106 <= 1
C1619: + x68 + x466 <= 1
C1620: + x4 + x101 <= 1
C1621: + x54 + x472 <= 1
C1622: + x43 + x272 <= 1
C1623: + x7 + x16 <= 1
C1624: + x181 + x402 <= 1
C1625: + x76 + x145 <= 1
C1626: + x372 + x381 <= 1
C1627: + x10 + x405 <= 1
C1628: + x28 + x86 <= 1
C1629: + x202 + x291 <= 1
C1630: + x22 + x24 <= 1
C1631: + x197 + x207 <= 1
C1632: + x107 + x333 <= 1
C1633: + x18 + x32 <= 1
C1634: + x11 + x281 <= 1
C1635: + x157 + x304 <= 1
C1636: + x249 + x335 <= 1
C1637: + x58 + x385 <= 1
C1638: + x7 + x60 <= 1
C1639: + x74 + x166 <= 1
C1640: + x220 + x330 <= 1
C1641: + x80 + x124 <= 1
C1642: + x36 + x464 <= 1
C1643: + x10 + x28 <= 1
C1644: + x142 + x357 <= 1
C1645: + x15 + x410 <= 1
C1646: + x7 + x459 <= 1
C1647: + x211 + x229 <= 1
C1648: + x2 + x8 <= 1
C1649: + x122 + x291 <= 1
C1650: + x4 + x251 <= 1
C1651: + x9 + x208 <= 1
C1652: + x2 + x163 <= 1
C1653: + x15 + x422 <= 1
C1654: + x11 + x433 <= 1
C1655: + x6 + x20 <= 1
C1656: + x246 + x293 <= 1
C1657: + x11 + x175 <= 1
C1658: + x3 + x196 <= 1
C1659: + x30 + x142 <= 1
C1660: + x5 + x57 <= 1
C1661: + x17 + x314 <= 1
C1662: + x8 + x30 <= 1
C1663: + x104 + x437 <= 1
C1664: + x162 + x473 <= 1
C1665: + x26 + x113 <= 1
C1666: + x6 + x421 <= 1
C1667: + x37 + x39 <= 1
C1668: + x11 + x485 <= 1
C1669: + x267 + x392 <= 1
C1670: + x27 + x125 <= 1
C1671: + x15 + x353 <= 1
C1672: + x44 + x60 <= 1
C1673: + x156 + x457 <= 1
C1674: + x130 + x382 <= 1
C1675: + x89 + x331 <= 1
C1676: + x224 + x307 <= 1
C1677: + x88 + x114 <= 1
C1678: + x15 + x276 <= 1
C1679: + x296 + x347 <= 1
C1680: + x312 + x472 <= 1
C1681: + x277 + x364 <= 1
C1682: + x5 + x494 <= 1
C1683: + x159 + x428 <= 1
C1684: + x15 + x429 <= 1
C1685: + x67 + x250 <= 1
C1686: + x131 + x227 <= 1
C1687: + x349 + x481 <= 1
C1688: + x98 + x126 <= 1
C1689: + x10 + x391 <= 1
C1690: + x210 + x498 <= 1
C1691: + x72 + x104 + x108 <= 1
C1692: + x5 + x40 <= 1
C1693: + x32 + x167 <= 1
C1694: + x6 + x267 <= 1
C1695: + x35 + x52 <= 1
C1696: + x215 + x240 <= 1
C1697: + x348 + x395 <= 1
C1698: + x278 + x326 <= 1
C1699: + x7 + x284 <= 1
C1700: + x55 + x290 <= 1
C1701: + x42 + x346 <= 1
C1702: + x14 + x129 <= 1
C1703: + x52 + x118 <= 1
C1704: + x5 + x108 <= 1
C1705: + x36 + x240 <= 1
C1706: + x201 + x228 <= 1
C1707: + x315 + x403 <= 1
C1708: + x58 + x351 <= 1
C1709: + x95 + x481 <= 1
C1710: + x104 + x354 <= 1
C1711: + x5 + x326 <= 1
C1712: + x14 + x18 <= 1
C1713: + x1 + x11 <= 1
C1714: + x8 + x96 <= 1
C1715: + x11 + x194 <= 1
C1716: + x230 + x476 <= 1
C1717: + x97 + x127 <= 1
C1718: + x43 + x396 <= 1
C1719: + x15 + x81 <= 1
C1720: + x72 + x98 <= 1
C1721: + x119 + x439 <= 1
C1722: + x39 + x107 <= 1
C1723: + x197 + x367 <= 1
C1724: + x198 + x377 <= 1
C1725: + x62 + x375 <= 1
C1726: + x8 + x20 <= 1
C1727: + x11 + x310 <= 1
C1728: + x285 + x354 <= 1
C1729: + x39 + x216 <= 1
C1730: + x4 + x391 <= 1
C1731: + x23 + x423 <= 1
C1732: + x16 + x500 <= 1
C1733: + x404 + x406 <= 1
C1734: + x6 + x202 <= 1
C1735: + x8 + x161 <= 1
C1736: + x3 + x234 <= 1
C1737: + x175 + x191 <= 1
C1738: + x5 + x83 <= 1
C1739: + x65 + x67 + x105 <= 1
C1740: + x66 + x69 <= 1
C1741: + x20 + x102 <= 1
C1742: + x115 + x286 <= 1
C1743: + x7 + x89 <= 1
C1744: + x330 + x480 <= 1
C1745: + x192 + x356 <= 1
C1746: + x32 + x97 <= 1
C1747: + x5 + x226 <= 1
C1748: + x90 + x349 <= 1
C1749: + x2 + x182 <= 1
C1750: + x76 + x395 <= 1
C1751: + x95 + x379 <= 1
C1752: + x4 + x13 <= 1
C1753: + x11 + x201 <= 1
C1754: + x5 + x468 <= 1
C1755: + x79 + x383 <= 1
C1756: + x107 + x274 <= 1
C1757: + x16 + x53 <= 1
C1758: + x79 + x200 + x303 <= 1
C1759: + x38 + x104 <= 1
C1760: + x39 + x257 <= 1
C1761: + x16 + x332 <= 1
C1762: + x146 + x217 <= 1
C1763: + x200 + x479 <= 1
C1764: + x11 + x92 <= 1
C1765: + x67 + x109 <= 1
C1766: + x222 + x473 <= 1
C1767: + x6 + x162 <= 1
C1768: + x126 + x133 <= 1
C1769: + x8 + x9 <= 1
C1770: + x29 + x180 <= 1
C1771: + x12 + x78 <= 1
C1772: + x61 + x192 <= 1
C1773: + x56 + x285 <= 1
C1774: + x23 + x27 <= 1
C1775: + x16 + x288 <= 1
C1776: + x7 + x278 <= 1
C1777: + x85 + x139 <= 1
C1778: + x268 + x354 <= 1
C1779: + x16 + x106 <= 1
C1780: + x202 + x230 <= 1
C1781: + x38 + x61 <= 1
C1782: + x39 + x187 <= 1
C1783: + x11 + x31 <= 1
C1784: + x202 + x412 <= 1
C1785: + x51 + x442 <= 1
C1786: + x6 + x231 <= 1
C1787: + x153 + x242 <= 1
C1788: + x65 + x473 <= 1
C1789: + x449 + x499 <= 1
C1790: + x225 + x397 <= 1
C1791: + x130 + x285 <= 1
C1792: + x43 + x126 <= 1
C1793: + x15 + x35 <= 1
C1794: + x74 + x250 <= 1
C1795: + x437 + x497 <= 1
C1796: + x11 + x67 <= 1
C1797: + x69 + x264 <= 1
C1798: + x5 + x29 <= 1
C1799: + x6 + x171 <= 1
C1800: + x59 + x286 <= 1
C1801: + x13 + x77 <= 1
C1802: + x31 + x163 <= 1
C1803: + x34 + x50 <= 1
C1804: + x104 + x473 <= 1
C1805: + x148 + x387 <= 1
C1806: + x67 + x151 <= 1
C1807: + x82 + x251 <= 1
C1808: + x9 + x274 <= 1
C1809: + x91 + x168 <= 1
C1810: + x18 + x315 <= 1
C1811: + x295 + x486 <= 1
C1812: + x5 + x65 <= 1
C1813: + x52 + x73 <= 1
C1814: + x126 + x210 <= 1
C1815: + x45 + x176 <= 1
C1816: + x97 + x474 <= 1
C1817: + x5 + x307 <= 1
C1818: + x16 + x406 <= 1
C1819: + x11 + x26 <= 1
C1820: + x149 + x254 <= 1
C1821: + x27 + x186 <= 1
C1822: + x10 + x328 <= 1
C1823: + x299 + x362 <= 1
C1824: + x4 + x365 <= 1
C1825: + x5 + x359 <= 1
C1826: + x126 + x393 <= 1
C1827: + x180 + x487 <= 1
C1828: + x81 + x192 <= 1
C1829: + x117 + x484 <= 1
C1830: + x8 + x220 <= 1
C1831: + x51 + x485 <= 1
C1832: + x52 + x463 <= 1
C1833: + x372 + x454 <= 1
C1834: + x151 + x404 <= 1
C1835: + x28 + x171 <= 1
C1836: + x64 + x110 <= 1
C1837: + x4 + x39 <= 1
C1838: + x27 + x334 <= 1
C1839: + x139 + x349 <= 1
C1840: + x261 + x488 <= 1
C1841: + x30 + x191 <= 1
C1842: + x106 + x246 <= 1
C1843: + x15 + x328 <= 1
C1844: + x6 + x275 <= 1
C1845: + x11 + x275 <= 1
C1846: + x6 + x438 <= 1
C1847: + x1 + x261 <= 1
C1848: + x2 + x126 <= 1
C1849: + x93 + x187 <= 1
C1850: + x61 + x359 <= 1
C1851: + x82 + x371 <= 1
C1852: + x5 + x457 <= 1
C1853: + x125 + x177 <= 1
C1854: + x299 + x337 <= 1
C1855: + x33 + x109 <= 1
C1856: + x4 + x342 <= 1
C1857: + x88 + x132 <= 1
C1858: + x7 + x122 <= 1
C1859: + x9 + x468 <= 1
C1860: + x255 + x256 <= 1
C1861: + x436 + x461 <= 1
C1862: + x3 + x186 <= 1
C1863: + x12 + x278 <= 1
C1864: + x6 + x395 <= 1
C1865: + x7 + x9 <= 1
C1866: + x173 + x476 <= 1
C1867: + x94 + x447 <= 1
C1868: + x194 + x430 <= 1
C1869: + x353 + x430 <= 1
C1870: + x9 + x288 <= 1
C1871: + x135 + x452 <= 1
C1872: + x122 + x353 <= 1
C1873: + x2 + x198 <= 1
C1874: + x3 + x206 <= 1
C1875: + x32 + x184 <= 1
C1876: + x179 + x298 <= 1
C1877: + x15 + x335 <= 1
C1878: + x5 + x55 <= 1
C1879: + x64 + x95 <= 1
C1880: + x59 + x173 <= 1
C1881: + x332 + x455 <= 1
C1882: + x298 + x315 <= 1
C1883: + x15 + x492 <= 1
C1884: + x11 + x12 <= 1
C1885: + x275 + x301 <= 1
C1886: + x48 + x387 <= 1
C1887: + x97 + x181 <= 1
C1888: + x25 + x402 <= 1
C1889: + x73 + x321 <= 1
C1890: + x10 + x23 <= 1
C1891: + x2 + x146 <= 1
C1892: + x56 + x67 <= 1
C1893: + x46 + x262 <= 1
C1894: + x102 + x174 <= 1
C1895: + x61 + x451 <= 1
C1896: + x11 + x237 <= 1
C1897: + x121 + x315 <= 1
C1898: + x215 + x389 <= 1
C1899: + x63 + x177 <= 1
C1900: + x26 + x439 <= 1
C1901: + x8 + x259 <= 1
C1902: + x136 + x277 <= 1
C1903: + x186 + x401 <= 1
C1904: + x22 + x80 <= 1
C1905: + x5 + x10 <= 1
C1906: + x88 + x128 <= 1
C1907: + x36 + x78 <= 1
C1908: + x91 + x379 <= 1
C1909: + x194 + x209 <= 1
C1910: + x21 + x53 <= 1
C1911: + x13 + x122 <= 1
C1912: + x379 + x420 <= 1
C1913: + x14 + x273 <= 1
C1914: + x4 + x21 <= 1
C1915: + x42 + x279 <= 1
C1916: + x321 + x460 <= 1
C1917: + x20 + x461 <= 1
C1918: + x29 + x482 <= 1
C1919: + x22 + x433 <= 1
C1920: + x5 + x153 <= 1
C1921: + x6 + x23 <= 1
C1922: + x10 + x409 <= 1
C1923: + x146 + x241 <= 1
C1924: + x92 + x234 <= 1
C1925: + x42 + x424 <= 1
C1926: + x70 + x447 <= 1
C1927: + x32 + x268 <= 1
C1928: + x434 + x467 <= 1
C1929: + x5 + x62 <= 1
C1930: + x273 + x294 <= 1
C1931: + x222 + x223 <= 1
C1932: + x14 + x453 <= 1
C1933: + x17 + x41 <= 1
C1934: + x9 + x406 <= 1
C1935: + x16 + x481 <= 1
C1936: + x10 + x32 <= 1
C1937: + x21 + x240 <= 1
C1938: + x131 + x454 <= 1
C1939: + x53 + x156 <= 1
C1940: + x50 + x276 <= 1
C1941: + x365 + x397 <= 1
C1942: + x39 + x385 <= 1
C1943: + x340 + x348 <= 1
C1944: + x234 + x317 <= 1
C1945: + x26 + x347 <= 1
C1946: + x1 + x49 <= 1
C1947: + x92 + x114 <= 1
C1948: + x383 + x416 <= 1
C1949: + x238 + x499 <= 1
C1950: + x16 + x38 <= 1

binary
x1 x2 x3 x4 x5 x6 x7 x8 x9 x10 x11 x12 x13 x14 x15 x16 x17 x18 x19 x20 x21 x22 x23 x24 x25 x26 x27 x28 x29 x30 x31 x32 x33 x34 x35 x36 x37 x38 x39 x40 x41 x42 x43 x44 x45 x46 x47 x48 x49 x50 x51 x52 x53 x54 x55 x56 x57 x58 x59 x60 x61 x62 x63 x64 x65 x66 x67 x68 x69 x70 x71 x72 x73 x74 x75 x76 x77 x78 x79 x80 x81 x82 x83 x84 x85 x86 x87 x88 x89 x90 x91 x92 x93 x94 x95 x96 x97 x98 x99 x100 x101 x102 x103 x104 x105 x106 x107 x108 x109 x110 x111 x112 x113 x114 x115 x116 x117 x118 x119 x120 x121 x122 x123 x124 x125 x126 x127 x128 x129 x130 x131 x132 x133 x134 x135 x136 x137 x138 x139 x140 x141 x142 x143 x144 x145 x146 x147 x148 x149 x150 x151 x152 x153 x154 x155 x156 x157 x158 x159 x160 x161 x162 x163 x164 x165 x166 x167 x168 x169 x170 x171 x172 x173 x174 x175 x176 x177 x178 x179 x180 x181 x182 x183 x184 x185 x186 x187 x188 x189 x190 x191 x192 x193 x194 x195 x196 x197 x198 x199 x200 x201 x202 x203 x204 x205 x206 x207 x208 x209 x210 x211 x212 x213 x214 x215 x216 x217 x218 x219 x220 x221 x222 x223 x224 x225 x226 x227 x228 x229 x230 x231 x232 x233 x234 x235 x236 x237 x238 x239 x240 x241 x242 x243 x244 x245 x246 x247 x248 x249 x250 x251 x252 x253 x254 x255 x256 x257 x258 x259 x260 x261 x262 x263 x264 x265 x266 x267 x268 x269 x270 x271 x272 x273 x274 x275 x276 x277 x278 x279 x280 x281 x282 x283 x284 x285 x286 x287 x288 x289 x290 x291 x292 x293 x294 x295 x296 x297 x298 x299 x300 x301 x302 x303 x304 x305 x306 x307 x308 x309 x310 x311 x312 x313 x314 x315 x316 x317 x318 x319 x320 x321 x322 x323 x324 x325 x326 x327 x328 x329 x330 x331 x332 x333 x334 x335 x336 x337 x338 x339 x340 x341 x342 x343 x344 x345 x346 x347 x348 x349 x350 x351 x352 x353 x354 x355 x356 x357 x358 x359 x360 x361 x362 x363 x364 x365 x366 x367 x368 x369 x370 x371 x372 x373 x374 x375 x376 x377 x378 x379 x380 x381 x382 x383 x384 x385 x386 x387 x388 x389 x390 x391 x392 x393 x394 x395 x396 x397 x398 x399 x400 x401 x402 x403 x404 x405 x406 x407 x408 x409 x410 x411 x412 x413 x414 x415 x416 x417 x418 x419 x420 x421 x422 x423 x424 x425 x426 x427 x428 x429 x430 x431 x432 x433 x434 x435 x436 x437 x438 x439 x440 x441 x442 x443 x444 x445 x446 x447 x448 x449 x450 x451 x452 x453 x454 x455 x456 x457 x458 x459 x460 x461 x462 x463 x464 x465 x466 x467 x468 x469 x470 x471 x472 x473 x474 x475 x476 x477 x478 x479 x480 x481 x482 x483 x484 x485 x486 x487 x488 x489 x490 x491 x492 x493 x494 x495 x496 x497 x498 x499 x500
