maximize
OBJ: + 1 x1 + 1 x2 + 1 x3 + 1 x4 + 1 x5 + 1 x6 + 1 x7 + 1 x8 + 1 x9 + 1 x10 + 1 x11 + 1 x12 + 1 x13 + 1 x14 + 1 x15 + 1 x16 + 1 x17 + 1 x18 + 1 x19 + 1 x20 + 1 x21 + 1 x22 + 1 x23 + 1 x24 + 1 x25 + 1 x26 + 1 x27 + 1 x28 + 1 x29 + 1 x30 + 1 x31 + 1 x32 + 1 x33 + 1 x34 + 1 x35 + 1 x36 + 1 x37 + 1 x38 + 1 x39 + 1 x40 + 1 x41 + 1 x42 + 1 x43 + 1 x44 + 1 x45 + 1 x46 + 1 x47 + 1 x48 + 1 x49 + 1 x50 + 1 x51 + 1 x52 + 1 x53 + 1 x54 + 1 x55 + 1 x56 + 1 x57 + 1 x58 + 1 x59 + 1 x60 + 1 x61 + 1 x62 + 1 x63 + 1 x64 + 1 x65 + 1 x66 + 1 x67 + 1 x68 + 1 x69 + 1 x70 + 1 x71 + 1 x72 + 1 x73 + 1 x74 + 1 x75 + 1 x76 + 1 x77 + 1 x78 + 1 x79 + 1 x80 + 1 x81 + 1 x82 + 1 x83 + 1 x84 + 1 x85 + 1 x86 + 1 x87 + 1 x88 + 1 x89 + 1 x90 + 1 x91 + 1 x92 + 1 x93 + 1 x94 + 1 x95 + 1 x96 + 1 x97 + 1 x98 + 1 x99 + 1 x100 + 1 x101 + 1 x102 + 1 x103 + 1 x104 + 1 x105 + 1 x106 + 1 x107 + 1 x108 + 1 x109 + 1 x110 + 1 x111 + 1 x112 + 1 x113 + 1 x114 + 1 x115 + 1 x116 + 1 x117 + 1 x118 + 1 x119 + 1 x120 + 1 x121 + 1 x122 + 1 x123 + 1 x124 + 1 x125 + 1 x126 + 1 x127 + 1 x128 + 1 x129 + 1 x130 + 1 x131 + 1 x132 + 1 x133 + 1 x134 + 1 x135 + 1 x136 + 1 x137 + 1 x138 + 1 x139 + 1 x140 + 1 x141 + 1 x142 + 1 x143 + 1 x144 + 1 x145 + 1 x146 + 1 x147 + 1 x148 + 1 x149 + 1 x150 + 1 x151 + 1 x152 + 1 x153 + 1 x154 + 1 x155 + 1 x156 + 1 x157 + 1 x158 + 1 x159 + 1 x160 + 1 x161 + 1 x162 + 1 x163 + 1 x164 + 1 x165 + 1 x166 + 1 x167 + 1 x168 + 1 x169 + 1 x170 + 1 x171 + 1 x172 + 1 x173 + 1 x174 + 1 x175 + 1 x176 + 1 x177 + 1 x178 + 1 x179 + 1 x180 + 1 x181 + 1 x182 + 1 x183 + 1 x184 + 1 x185 + 1 x186 + 1 x187 + 1 x188 + 1 x189 + 1 x190 + 1 x191 + 1 x192 + 1 x193 + 1 x194 + 1 x195 + 1 x196 + 1 x197 + 1 x198 + 1 x199 + 1 x200 + 1 x201 + 1 x202 + 1 x203 + 1 x204 + 1 x205 + 1 x206 + 1 x207 + 1 x208 + 1 x209 + 1 x210 + 1 x211 + 1 x212 + 1 x213 + 1 x214 + 1 x215 + 1 x216 + 1 x217 + 1 x218 + 1 x219 + 1 x220 + 1 x221 + 1 x222 + 1 x223 + 1 x224 + 1 x225 + 1 x226 + 1 x227 + 1 x228 + 1 x229 + 1 x230 + 1 x231 + 1 x232 + 1 x233 + 1 x234 + 1 x235 + 1 x236 + 1 x237 + 1 x238 + 1 x239 + 1 x240 + 1 x241 + 1 x242 + 1 x243 + 1 x244 + 1 x245 + 1 x246 + 1 x247 + 1 x248 + 1 x249 + 1 x250 + 1 x251 + 1 x252 + 1 x253 + 1 x254 + 1 x255 + 1 x256 + 1 x257 + 1 x258 + 1 x259 + 1 x260 + 1 x261 + 1 x262 + 1 x263 + 1 x264 + 1 x265 + 1 x266 + 1 x267 + 1 x268 + 1 x269 + 1 x270 + 1 x271 + 1 x272 + 1 x273 + 1 x274 + 1 x275 + 1 x276 + 1 x277 + 1 x278 + 1 x279 + 1 x280 + 1 x281 + 1 x282 + 1 x283 + 1 x284 + 1 x285 + 1 x286 + 1 x287 + 1 x288 + 1 x289 + 1 x290 + 1 x291 + 1 x292 + 1 x293 + 1 x294 + 1 x295 + 1 x296 + 1 x297 + 1 x298 + 1 x299 + 1 x300 + 1 x301 + 1 x302 + 1 x303 + 1 x304 + 1 x305 + 1 x306 + 1 x307 + 1 x308 + 1 x309 + 1 x310 + 1 x311 + 1 x312 + 1 x313 + 1 x314 + 1 x315 + 1 x316 + 1 x317 + 1 x318 + 1 x319 + 1 x320 + 1 x321 + 1 x322 + 1 x323 + 1 x324 + 1 x325 + 1 x326 + 1 x327 + 1 x328 + 1 x329 + 1 x330 + 1 x331 + 1 x332 + 1 x333 + 1 x334 + 1 x335 + 1 x336 + 1 x337 + 1 x338 + 1 x339 + 1 x340 + 1 x341 + 1 x342 + 1 x343 + 1 x344 + 1 x345 + 1 x346 + 1 x347 + 1 x348 + 1 x349 + 1 x350 + 1 x351 + 1 x352 + 1 x353 + 1 x354 + 1 x355 + 1 x356 + 1 x357 + 1 x358 + 1 x359 + 1 x360 + 1 x361 + 1 x362 + 1 x363 + 1 x364 + 1 x365 + 1 x366 + 1 x367 + 1 x368 + 1 x369 + 1 x370 + 1 x371 + 1 x372 + 1 x373 + 1 x374 + 1 x375 + 1 x376 + 1 x377 + 1 x378 + 1 x379 + 1 x380 + 1 x381 + 1 x382 + 1 x383 + 1 x384 + 1 x385 + 1 x386 + 1 x387 + 1 x388 + 1 x389 + 1 x390 + 1 x391 + 1 x392 + 1 x393 + 1 x394 + 1 x395 + 1 x396 + 1 x397 + 1 x398 + 1 x399 + 1 x400 + 1 x401 + 1 x402 + 1 x403 + 1 x404 + 1 x405 + 1 x406 + 1 x407 + 1 x408 + 1 x409 + 1 x410 + 1 x411 + 1 x412 + 1 x413 + 1 x414 + 1 x415 + 1 x416 + 1 x417 + 1 x418 + 1 x419 + 1 x420 + 1 x421 + 1 x422 + 1 x423 + 1 x424 + 1 x425 + 1 x426 + 1 x427 + 1 x428 + 1 x429 + 1 x430 + 1 x431 + 1 x432 + 1 x433 + 1 x434 + 1 x435 + 1 x436 + 1 x437 + 1 x438 + 1 x439 + 1 x440 + 1 x441 + 1 x442 + 1 x443 + 1 x444 + 1 x445 + 1 x446 + 1 x447 + 1 x448 + 1 x449 + 1 x450 + 1 x451 + 1 x452 + 1 x453 + 1 x454 + 1 x455 + 1 x456 + 1 x457 + 1 x458 + 1 x459 + 1 x460 + 1 x461 + 1 x462 + 1 x463 + 1 x464 + 1 x465 + 1 x466 + 1 x467 + 1 x468 + 1 x469 + 1 x470 + 1 x471 + 1 x472 + 1 x473 + 1 x474 + 1 x475 + 1 x476 + 1 x477 + 1 x478 + 1 x479 + 1 x480 + 1 x481 + 1 x482 + 1 x483 + 1 x484 + 1 x485 + 1 x486 + 1 x487 + 1 x488 + 1 x489 + 1 x490 + 1 x491 + 1 x492 + 1 x493 + 1 x494 + 1 x495 + 1 x496 + 1 x497 + 1 x498 + 1 x499 + 1 x500

subject to
C1: + x6 + x32 <= 1
C2: + x49 + x490 <= 1
C3: + x6 + x179 <= 1
C4: + x17 + x131 <= 1
C5: + x194 + x230 <= 1
C6: + x218 + x240 <= 1
C7: + x429 + x477 <= 1
C8: + x158 + x187 <= 1
C9: + x150 + x185 <= 1
C10: + x137 + x324 <= 1
C11: + x157 + x338 <= 1
C12: + x3 + x276 <= 1
C13: + x278 + x412 <= 1
C14: + x296 + x450 <= 1
C15: + x24 + x140 <= 1
C16: + x9 + x108 <= 1
C17: + x27 + x158 <= 1
C18: + x165 + x306 <= 1
C19: + x20 + x92 <= 1
C20: + x191 + x291 <= 1
C21: + x10 + x356 <= 1
C22: + x30 + x97 <= 1
C23: + x30 + x335 <= 1
C24: + x22 + x82 <= 1
C25: + x180 + x213 <= 1
C26: + x163 + x165 <= 1
C27: + x104 + x204 <= 1
C28: + x100 + x188 <= 1
C29: + x20 + x201 <= 1
C30: + x62 + x422 <= 1
C31: + x301 + x489 <= 1
C32: + x52 + x61 <= 1
C33: + x316 + x476 <= 1
C34: + x10 + x304 <= 1
C35: + x5 + x143 <= 1
C36: + x73 + x245 <= 1
C37: + x9 + x309 <= 1
C38: + x19 + x113 <= 1
C39: + x2 + x41 <= 1
C40: + x272 + x423 <= 1
C41: + x229 + x344 <= 1
C42: + x250 + x252 <= 1
C43: + x6 + x375 <= 1
C44: + x81 + x442 <= 1
C45: + x312 + x488 <= 1
C46: + x5 + x286 <= 1
C47: + x93 + x159 <= 1
C48: + x3 + x74 <= 1
C49: + x5 + x179 <= 1
C50: + x96 + x244 <= 1
C51: + x18 + x159 <= 1
C52: + x228 + x268 <= 1
C53: + x19 + x37 <= 1
C54: + x2 + x229 <= 1
C55: + x23 + x275 <= 1
C56: + x253 + x258 <= 1
C57: + x6 + x315 <= 1
C58: + x6 + x94 <= 1
C59: + x19 + x491 <= 1
C60: + x105 + x281 <= 1
C61: + x117 + x356 <= 1
C62: + x16 + x149 <= 1
C63: + x19 + x217 <= 1
C64: + x73 + x290 <= 1
C65: + x274 + x353 <= 1
C66: + x45 + x78 <= 1
C67: + x40 + x307 <= 1
C68: + x245 + x427 <= 1
C69: + x28 + x299 <= 1
C70: + x76 + x373 <= 1
C71: + x78 + x148 <= 1
C72: + x243 + x288 <= 1
C73: + x26 + x470 <= 1
C74: + x8 + x233 <= 1
C75: + x11 + x93 <= 1
C76: + x9 + x46 <= 1
C77: + x101 + x103 <= 1
C78: + x11 + x306 <= 1
C79: + x49 + x69 <= 1
C80: + x106 + x457 <= 1
C81: + x24 + x41 <= 1
C82: + x79 + x264 <= 1
C83: + x6 + x403 <= 1
C84: + x3 + x65 <= 1
C85: + x167 + x259 <= 1
C86: + x6 + x54 <= 1
C87: + x20 + x267 <= 1
C88: + x105 + x241 <= 1
C89: + x268 + x365 <= 1
C90: + x84 + x499 <= 1
C91: + x38 + x64 <= 1
C92: + x34 + x120 <= 1
C93: + x6 + x71 <= 1
C94: + x354 + x379 <= 1
C95: + x94 + x214 <= 1
C96: + x24 + x324 <= 1
C97: + x7 + x323 <= 1
C98: + x1 + x6 <= 1
C99: + x33 + x330 <= 1
C100: + x51 + x169 <= 1
C101: + x20 + x489 <= 1
C102: + x12 + x392 <= 1
C103: + x259 + x446 <= 1
C104: + x11 + x72 <= 1
C105: + x5 + x18 <= 1
C106: + x72 + x325 <= 1
C107: + x78 + x467 <= 1
C108: + x460 + x469 <= 1
C109: + x69 + x172 <= 1
C110: + x6 + x63 <= 1
C111: + x163 + x254 <= 1
C112: + x66 + x439 <= 1
C113: + x275 + x429 <= 1
C114: + x4 + x78 <= 1
C115: + x26 + x249 <= 1
C116: + x222 + x268 <= 1
C117: + x86 + x484 <= 1
C118: + x97 + x455 <= 1
C119: + x412 + x433 <= 1
C120: + x6 + x80 <= 1
C121: + x227 + x228 <= 1
C122: + x318 + x366 <= 1
C123: + x64 + x131 <= 1
C124: + x11 + x27 <= 1
C125: + x31 + x317 <= 1
C126: + x2 + x104 <= 1
C127: + x58 + x131 <= 1
C128: + x14 + x64 <= 1
C129: + x2 + x131 <= 1
C130: + x304 + x398 <= 1
C131: + x25 + x147 <= 1
C132: + x98 + x314 <= 1
C133: + x153 + x456 <= 1
C134: + x63 + x132 <= 1
C135: + x210 + x235 <= 1
C136: + x11 + x337 <= 1
C137: + x142 + x377 <= 1
C138: + x20 + x498 <= 1
C139: + x6 + x116 <= 1
C140: + x19 + x94 <= 1
C141: + x8 + x223 <= 1
C142: + x20 + x333 <= 1
C143: + x6 + x151 <= 1
C144: + x44 + x112 <= 1
C145: + x12 + x71 <= 1
C146: + x78 + x460 <= 1
C147: + x25 + x95 <= 1
C148: + x170 + x462 <= 1
C149: + x74 + x79 <= 1
C150: + x56 + x171 <= 1
C151: + x148 + x391 <= 1
C152: + x212 + x382 <= 1
C153: + x78 + x250 <= 1
C154: + x5 + x176 <= 1
C155: + x32 + x47 <= 1
C156: + x163 + x332 <= 1
C157: + x91 + x285 <= 1
C158: + x8 + x147 <= 1
C159: + x309 + x332 <= 1
C160: + x75 + x115 <= 1
C161: + x12 + x216 <= 1
C162: + x370 + x473 <= 1
C163: + x52 + x77 <= 1
C164: + x31 + x76 + x85 <= 1
C165: + x8 + x50 <= 1
C166: + x2 + x363 <= 1
C167: + x29 + x91 <= 1
C168: + x358 + x376 <= 1
C169: + x24 + x499 <= 1
C170: + x400 + x444 <= 1
C171: + x194 + x484 <= 1
C172: + x262 + x423 <= 1
C173: + x299 + x433 <= 1
C174: + x268 + x343 <= 1
C175: + x11 + x348 <= 1
C176: + x41 + x349 <= 1
C177: + x22 + x487 <= 1
C178: + x71 + x187 <= 1
C179: + x144 + x145 <= 1
C180: + x2 + x53 <= 1
C181: + x112 + x269 <= 1
C182: + x68 + x121 <= 1
C183: + x133 + x392 <= 1
C184: + x106 + x206 <= 1
C185: + x108 + x210 <= 1
C186: + x170 + x311 <= 1
C187: + x44 + x132 <= 1
C188: + x7 + x22 <= 1
C189: + x19 + x283 <= 1
C190: + x30 + x280 <= 1
C191: + x6 + x33 <= 1
C192: + x79 + x182 <= 1
C193: + x56 + x398 <= 1
C194: + x52 + x86 <= 1
C195: + x49 + x166 <= 1
C196: + x358 + x369 <= 1
C197: + x306 + x331 <= 1
C198: + x6 + x434 <= 1
C199: + x7 + x66 <= 1
C200: + x93 + x330 <= 1
C201: + x3 + x98 <= 1
C202: + x6 + x213 <= 1
C203: + x8 + x192 <= 1
C204: + x137 + x339 <= 1
C205: + x177 + x250 <= 1
C206: + x5 + x128 <= 1
C207: + x34 + x140 <= 1
C208: + x244 + x277 <= 1
C209: + x15 + x34 + x163 <= 1
C210: + x90 + x114 <= 1
C211: + x2 + x14 <= 1
C212: + x257 + x308 <= 1
C213: + x49 + x388 <= 1
C214: + x5 + x15 <= 1
C215: + x44 + x94 <= 1
C216: + x19 + x241 <= 1
C217: + x201 + x351 <= 1
C218: + x20 + x186 <= 1
C219: + x4 + x20 <= 1
C220: + x32 + x378 <= 1
C221: + x230 + x259 <= 1
C222: + x38 + x414 <= 1
C223: + x112 + x379 <= 1
C224: + x225 + x253 <= 1
C225: + x5 + x158 <= 1
C226: + x6 + x42 <= 1
C227: + x14 + x119 <= 1
C228: + x19 + x439 <= 1
C229: + x110 + x195 <= 1
C230: + x291 + x308 <= 1
C231: + x213 + x473 <= 1
C232: + x268 + x393 <= 1
C233: + x312 + x370 <= 1
C234: + x306 + x481 <= 1
C235: + x168 + x423 <= 1
C236: + x18 + x31 <= 1
C237: + x41 + x202 <= 1
C238: + x39 + x373 <= 1
C239: + x12 + x33 <= 1
C240: + x25 + x121 <= 1
C241: + x11 + x56 <= 1
C242: + x47 + x277 <= 1
C243: + x37 + x57 <= 1
C244: + x202 + x435 <= 1
C245: + x364 + x487 <= 1
C246: + x16 + x242 <= 1
C247: + x92 + x161 <= 1
C248: + x2 + x150 <= 1
C249: + x28 + x97 <= 1
C250: + x224 + x424 <= 1
C251: + x389 + x454 <= 1
C252: + x164 + x440 <= 1
C253: + x121 + x156 <= 1
C254: + x20 + x82 <= 1
C255: + x41 + x246 <= 1
C256: + x24 + x29 + x32 <= 1
C257: + x142 + x199 <= 1
C258: + x163 + x385 <= 1
C259: + x6 + x111 <= 1
C260: + x2 + x7 <= 1
C261: + x90 + x329 <= 1
C262: + x36 + x114 <= 1
C263: + x19 + x236 <= 1
C264: + x464 + x496 <= 1
C265: + x12 + x110 <= 1
C266: + x13 + x118 <= 1
C267: + x7 + x8 <= 1
C268: + x95 + x117 <= 1
C269: + x8 + x307 <= 1
C270: + x137 + x277 <= 1
C271: + x12 + x251 <= 1
C272: + x22 + x32 <= 1
C273: + x6 + x182 <= 1
C274: + x119 + x469 <= 1
C275: + x207 + x468 <= 1
C276: + x7 + x221 <= 1
C277: + x19 + x47 <= 1
C278: + x1 + x249 <= 1
C279: + x237 + x301 <= 1
C280: + x120 + x169 <= 1
C281: + x12 + x183 <= 1
C282: + x14 + x135 <= 1
C283: + x8 + x465 <= 1
C284: + x138 + x168 <= 1
C285: + x3 + x136 <= 1
C286: + x118 + x193 <= 1
C287: + x8 + x98 <= 1
C288: + x119 + x247 <= 1
C289: + x16 + x34 <= 1
C290: + x37 + x123 <= 1
C291: + x12 + x405 <= 1
C292: + x34 + x445 <= 1
C293: + x6 + x28 <= 1
C294: + x27 + x456 <= 1
C295: + x119 + x445 <= 1
C296: + x19 + x118 <= 1
C297: + x126 + x242 <= 1
C298: + x8 + x22 <= 1
C299: + x2 + x375 <= 1
C300: + x12 + x486 <= 1
C301: + x127 + x323 <= 1
C302: + x11 + x58 <= 1
C303: + x122 + x488 <= 1
C304: + x70 + x309 <= 1
C305: + x188 + x221 <= 1
C306: + x126 + x198 <= 1
C307: + x308 + x415 <= 1
C308: + x329 + x357 <= 1
C309: + x47 + x221 <= 1
C310: + x30 + x125 <= 1
C311: + x21 + x88 <= 1
C312: + x106 + x271 <= 1
C313: + x6 + x81 <= 1
C314: + x71 + x167 <= 1
C315: + x81 + x160 <= 1
C316: + x211 + x454 <= 1
C317: + x42 + x490 <= 1
C318: + x168 + x211 <= 1
C319: + x5 + x252 <= 1
C320: + x6 + x335 <= 1
C321: + x14 + x17 <= 1
C322: + x63 + x306 <= 1
C323: + x265 + x329 <= 1
C324: + x89 + x240 <= 1
C325: + x12 + x156 <= 1
C326: + x1 + x12 <= 1
C327: + x124 + x294 <= 1
C328: + x2 + x180 <= 1
C329: + x386 + x456 <= 1
C330: + x20 + x44 <= 1
C331: + x3 + x453 <= 1
C332: + x42 + x123 <= 1
C333: + x26 + x86 + x168 <= 1
C334: + x163 + x359 <= 1
C335: + x246 + x251 <= 1
C336: + x192 + x298 <= 1
C337: + x260 + x363 <= 1
C338: + x261 + x357 <= 1
C339: + x90 + x359 <= 1
C340: + x83 + x466 <= 1
C341: + x122 + x219 <= 1
C342: + x115 + x158 <= 1
C343: + x34 + x39 <= 1
C344: + x24 + x48 <= 1
C345: + x26 + x66 <= 1
C346: + x238 + x266 <= 1
C347: + x18 + x23 + x155 <= 1
C348: + x24 + x371 <= 1
C349: + x82 + x144 <= 1
C350: + x237 + x291 <= 1
C351: + x8 + x164 <= 1
C352: + x12 + x165 <= 1
C353: + x27 + x225 <= 1
C354: + x191 + x298 <= 1
C355: + x16 + x100 <= 1
C356: + x7 + x90 <= 1
C357: + x54 + x128 <= 1
C358: + x27 + x262 <= 1
C359: + x2 + x106 <= 1
C360: + x257 + x288 <= 1
C361: + x11 + x476 <= 1
C362: + x4 + x209 <= 1
C363: + x87 + x157 <= 1
C364: + x8 + x88 <= 1
C365: + x229 + x460 <= 1
C366: + x183 + x246 <= 1
C367: + x20 + x214 <= 1
C368: + x22 + x186 <= 1
C369: + x40 + x228 <= 1
C370: + x9 + x67 <= 1
C371: + x201 + x216 <= 1
C372: + x111 + x447 <= 1
C373: + x101 + x404 <= 1
C374: + x3 + x9 <= 1
C375: + x121 + x125 <= 1
C376: + x78 + x144 <= 1
C377: + x336 + x419 <= 1
C378: + x6 + x14 <= 1
C379: + x81 + x195 <= 1
C380: + x155 + x259 <= 1
C381: + x10 + x440 <= 1
C382: + x356 + x416 <= 1
C383: + x261 + x463 <= 1
C384: + x15 + x89 <= 1
C385: + x58 + x65 <= 1
C386: + x5 + x23 <= 1
C387: + x23 + x169 <= 1
C388: + x325 + x377 <= 1
C389: + x170 + x210 <= 1
C390: + x22 + x142 <= 1
C391: + x226 + x291 <= 1
C392: + x63 + x194 <= 1
C393: + x64 + x361 <= 1
C394: + x402 + x436 <= 1
C395: + x2 + x87 <= 1
C396: + x191 + x322 <= 1
C397: + x14 + x79 <= 1
C398: + x6 + x50 <= 1
C399: + x27 + x414 <= 1
C400: + x19 + x28 <= 1
C401: + x54 + x387 <= 1
C402: + x8 + x153 <= 1
C403: + x112 + x194 <= 1
C404: + x66 + x434 <= 1
C405: + x236 + x309 <= 1
C406: + x12 + x57 <= 1
C407: + x7 + x81 <= 1
C408: + x74 + x141 <= 1
C409: + x101 + x268 <= 1
C410: + x262 + x286 <= 1
C411: + x3 + x145 <= 1
C412: + x122 + x318 <= 1
C413: + x12 + x299 <= 1
C414: + x29 + x339 <= 1
C415: + x16 + x154 <= 1
C416: + x119 + x220 <= 1
C417: + x228 + x481 <= 1
C418: + x19 + x208 <= 1
C419: + x30 + x256 <= 1
C420: + x222 + x448 <= 1
C421: + x194 + x391 <= 1
C422: + x6 + x119 <= 1
C423: + x18 + x270 <= 1
C424: + x11 + x68 <= 1
C425: + x22 + x52 <= 1
C426: + x5 + x30 <= 1
C427: + x90 + x190 <= 1
C428: + x180 + x243 <= 1
C429: + x24 + x223 <= 1
C430: + x19 + x132 <= 1
C431: + x58 + x421 <= 1
C432: + x122 + x229 <= 1
C433: + x12 + x70 <= 1
C434: + x80 + x129 <= 1
C435: + x8 + x424 <= 1
C436: + x71 + x224 <= 1
C437: + x96 + x238 <= 1
C438: + x6 + x59 <= 1
C439: + x364 + x444 <= 1
C440: + x224 + x366 <= 1
C441: + x3 + x249 <= 1
C442: + x20 + x280 <= 1
C443: + x8 + x53 <= 1
C444: + x83 + x153 <= 1
C445: + x76 + x221 <= 1
C446: + x20 + x389 <= 1
C447: + x4 + x223 <= 1
C448: + x45 + x64 <= 1
C449: + x47 + x97 <= 1
C450: + x184 + x187 <= 1
C451: + x7 + x475 <= 1
C452: + x165 + x287 <= 1
C453: + x3 + x27 <= 1
C454: + x70 + x229 <= 1
C455: + x262 + x459 <= 1
C456: + x365 + x417 <= 1
C457: + x118 + x233 <= 1
C458: + x3 + x321 <= 1
C459: + x9 + x445 <= 1
C460: + x119 + x268 <= 1
C461: + x8 + x413 <= 1
C462: + x29 + x40 <= 1
C463: + x127 + x383 <= 1
C464: + x19 + x288 <= 1
C465: + x55 + x61 <= 1
C466: + x22 + x430 <= 1
C467: + x5 + x172 <= 1
C468: + x150 + x217 <= 1
C469: + x18 + x134 <= 1
C470: + x370 + x477 <= 1
C471: + x9 + x12 <= 1
C472: + x102 + x339 <= 1
C473: + x233 + x416 <= 1
C474: + x388 + x435 <= 1
C475: + x7 + x67 <= 1
C476: + x62 + x184 <= 1
C477: + x335 + x411 <= 1
C478: + x202 + x389 <= 1
C479: + x40 + x44 <= 1
C480: + x14 + x53 <= 1
C481: + x65 + x472 <= 1
C482: + x11 + x227 <= 1
C483: + x90 + x466 <= 1
C484: + x127 + x182 <= 1
C485: + x6 + x454 <= 1
C486: + x134 + x273 <= 1
C487: + x20 + x72 <= 1
C488: + x203 + x209 <= 1
C489: + x204 + x362 <= 1
C490: + x7 + x127 <= 1
C491: + x65 + x146 <= 1
C492: + x52 + x471 <= 1
C493: + x15 + x207 <= 1
C494: + x7 + x365 <= 1
C495: + x119 + x226 <= 1
C496: + x21 + x47 <= 1
C497: + x24 + x52 <= 1
C498: + x7 + x10 <= 1
C499: + x119 + x259 <= 1
C500: + x28 + x322 <= 1
C501: + x9 + x420 <= 1
C502: + x19 + x279 <= 1
C503: + x98 + x110 <= 1
C504: + x35 + x278 <= 1
C505: + x6 + x45 <= 1
C506: + x7 + x171 <= 1
C507: + x63 + x88 <= 1
C508: + x9 + x257 <= 1
C509: + x76 + x126 <= 1
C510: + x336 + x353 <= 1
C511: + x278 + x354 <= 1
C512: + x188 + x496 <= 1
C513: + x168 + x422 <= 1
C514: + x137 + x456 <= 1
C515: + x11 + x283 <= 1
C516: + x249 + x468 <= 1
C517: + x214 + x232 <= 1
C518: + x31 + x275 <= 1
C519: + x388 + x444 <= 1
C520: + x163 + x434 <= 1
C521: + x83 + x139 <= 1
C522: + x64 + x189 <= 1
C523: + x84 + x361 <= 1
C524: + x90 + x197 <= 1
C525: + x5 + x6 + x8 + x11 <= 1
C526: + x91 + x312 <= 1
C527: + x54 + x418 <= 1
C528: + x78 + x390 <= 1
C529: + x5 + x124 <= 1
C530: + x324 + x438 <= 1
C531: + x19 + x350 <= 1
C532: + x57 + x89 <= 1
C533: + x157 + x482 <= 1
C534: + x116 + x449 <= 1
C535: + x6 + x98 <= 1
C536: + x134 + x189 <= 1
C537: + x53 + x307 <= 1
C538: + x47 + x478 <= 1
C539: + x20 + x351 <= 1
C540: + x95 + x231 <= 1
C541: + x24 + x230 <= 1
C542: + x28 + x188 <= 1
C543: + x29 + x145 <= 1
C544: + x30 + x31 <= 1
C545: + x178 + x190 <= 1
C546: + x115 + x326 <= 1
C547: + x56 + x181 <= 1
C548: + x385 + x498 <= 1
C549: + x39 + x282 <= 1
C550: + x168 + x177 <= 1
C551: + x6 + x22 <= 1
C552: + x2 + x222 <= 1
C553: + x94 + x133 <= 1
C554: + x272 + x340 <= 1
C555: + x456 + x471 <= 1
C556: + x5 + x63 <= 1
C557: + x23 + x310 <= 1
C558: + x43 + x138 <= 1
C559: + x18 + x19 <= 1
C560: + x8 + x36 <= 1
C561: + x91 + x400 <= 1
C562: + x20 + x138 <= 1
C563: + x57 + x68 + x318 <= 1
C564: + x5 + x297 <= 1
C565: + x71 + x253 <= 1
C566: + x212 + x348 <= 1
C567: + x14 + x39 <= 1
C568: + x6 + x218 <= 1
C569: + x91 + x198 <= 1
C570: + x9 + x137 <= 1
C571: + x66 + x426 <= 1
C572: + x34 + x129 <= 1
C573: + x19 + x341 <= 1
C574: + x196 + x387 <= 1
C575: + x90 + x154 <= 1
C576: + x90 + x333 <= 1
C577: + x316 + x359 <= 1
C578: + x119 + x244 <= 1
C579: + x246 + x447 <= 1
C580: + x14 + x265 <= 1
C581: + x155 + x310 <= 1
C582: + x1 + x161 <= 1
C583: + x78 + x324 <= 1
C584: + x14 + x207 <= 1
C585: + x126 + x330 <= 1
C586: + x9 + x33 <= 1
C587: + x8 + x25 <= 1
C588: + x319 + x393 <= 1
C589: + x194 + x229 <= 1
C590: + x156 + x436 <= 1
C591: + x72 + x345 <= 1
C592: + x166 + x345 <= 1
C593: + x6 + x432 <= 1
C594: + x147 + x266 <= 1
C595: + x2 + x413 <= 1
C596: + x29 + x398 <= 1
C597: + x32 + x54 <= 1
C598: + x11 + x160 <= 1
C599: + x20 + x256 <= 1
C600: + x2 + x9 + x17 <= 1
C601: + x371 + x388 <= 1
C602: + x278 + x411 <= 1
C603: + x266 + x374 <= 1
C604: + x117 + x164 <= 1
C605: + x9 + x109 <= 1
C606: + x65 + x231 <= 1
C607: + x129 + x236 <= 1
C608: + x2 + x20 <= 1
C609: + x59 + x101 <= 1
C610: + x32 + x122 <= 1
C611: + x168 + x210 <= 1
C612: + x126 + x186 <= 1
C613: + x326 + x349 <= 1
C614: + x93 + x122 <= 1
C615: + x2 + x191 <= 1
C616: + x20 + x204 <= 1
C617: + x11 + x196 <= 1
C618: + x9 + x89 <= 1
C619: + x7 + x499 <= 1
C620: + x219 + x220 <= 1
C621: + x19 + x260 <= 1
C622: + x208 + x385 <= 1
C623: + x19 + x114 <= 1
C624: + x173 + x180 <= 1
C625: + x11 + x83 <= 1
C626: + x8 + x243 <= 1
C627: + x5 + x45 <= 1
C628: + x170 + x236 <= 1
C629: + x16 + x83 <= 1
C630: + x28 + x198 <= 1
C631: + x19 + x147 <= 1
C632: + x141 + x477 <= 1
C633: + x119 + x292 <= 1
C634: + x129 + x215 <= 1
C635: + x164 + x203 <= 1
C636: + x76 + x93 <= 1
C637: + x113 + x286 <= 1
C638: + x34 + x368 <= 1
C639: + x39 + x142 <= 1
C640: + x9 + x497 <= 1
C641: + x2 + x21 <= 1
C642: + x29 + x345 <= 1
C643: + x3 + x155 <= 1
C644: + x59 + x112 <= 1
C645: + x5 + x232 <= 1
C646: + x35 + x116 <= 1
C647: + x26 + x159 <= 1
C648: + x272 + x314 <= 1
C649: + x297 + x460 <= 1
C650: + x218 + x301 <= 1
C651: + x37 + x110 <= 1
C652: + x207 + x278 <= 1
C653: + x9 + x317 <= 1
C654: + x114 + x313 + x468 <= 1
C655: + x20 + x322 <= 1
C656: + x48 + x49 <= 1
C657: + x12 + x237 <= 1
C658: + x307 + x408 <= 1
C659: + x8 + x15 <= 1
C660: + x20 + x157 <= 1
C661: + x12 + x76 <= 1
C662: + x86 + x406 <= 1
C663: + x239 + x480 <= 1
C664: + x14 + x495 <= 1
C665: + x22 + x129 <= 1
C666: + x44 + x160 <= 1
C667: + x7 + x34 <= 1
C668: + x27 + x76 <= 1
C669: + x1 + x203 <= 1
C670: + x54 + x390 <= 1
C671: + x194 + x360 <= 1
C672: + x3 + x227 <= 1
C673: + x25 + x193 <= 1
C674: + x18 + x50 <= 1
C675: + x27 + x237 <= 1
C676: + x7 + x433 <= 1
C677: + x20 + x105 <= 1
C678: + x77 + x387 <= 1
C679: + x3 + x392 <= 1
C680: + x149 + x475 <= 1
C681: + x250 + x427 <= 1
C682: + x44 + x332 <= 1
C683: + x32 + x457 <= 1
C684: + x11 + x17 <= 1
C685: + x40 + x57 <= 1
C686: + x215 + x273 <= 1
C687: + x163 + x184 <= 1
C688: + x1 + x7 <= 1
C689: + x45 + x70 <= 1
C690: + x339 + x383 <= 1
C691: + x3 + x5 <= 1
C692: + x257 + x387 <= 1
C693: + x251 + x339 <= 1
C694: + x6 + x10 <= 1
C695: + x74 + x271 <= 1
C696: + x87 + x109 <= 1
C697: + x310 + x457 <= 1
C698: + x106 + x126 <= 1
C699: + x60 + x75 <= 1
C700: + x37 + x89 <= 1
C701: + x87 + x224 <= 1
C702: + x6 + x62 <= 1
C703: + x152 + x179 <= 1
C704: + x117 + x431 <= 1
C705: + x142 + x150 <= 1
C706: + x448 + x478 <= 1
C707: + x40 + x161 <= 1
C708: + x5 + x71 <= 1
C709: + x170 + x341 <= 1
C710: + x19 + x185 <= 1
C711: + x8 + x60 <= 1
C712: + x332 + x471 <= 1
C713: + x55 + x115 <= 1
C714: + x283 + x364 <= 1
C715: + x121 + x462 <= 1
C716: + x127 + x410 <= 1
C717: + x161 + x316 <= 1
C718: + x32 + x327 <= 1
C719: + x110 + x430 <= 1
C720: + x2 + x301 <= 1
C721: + x56 + x146 <= 1
C722: + x15 + x40 <= 1
C723: + x346 + x474 <= 1
C724: + x257 + x295 <= 1
C725: + x116 + x141 <= 1
C726: + x45 + x113 <= 1
C727: + x11 + x289 <= 1
C728: + x21 + x37 <= 1
C729: + x142 + x300 <= 1
C730: + x28 + x376 <= 1
C731: + x120 + x447 <= 1
C732: + x47 + x139 <= 1
C733: + x284 + x341 <= 1
C734: + x101 + x459 <= 1
C735: + x60 + x175 <= 1
C736: + x5 + x169 <= 1
C737: + x6 + x39 <= 1
C738: + x9 + x279 <= 1
C739: + x82 + x321 <= 1
C740: + x134 + x461 <= 1
C741: + x126 + x479 <= 1
C742: + x92 + x154 <= 1
C743: + x5 + x78 <= 1
C744: + x26 + x193 <= 1
C745: + x39 + x183 <= 1
C746: + x168 + x279 <= 1
C747: + x316 + x394 <= 1
C748: + x18 + x463 <= 1
C749: + x2 + x128 <= 1
C750: + x417 + x470 <= 1
C751: + x82 + x381 <= 1
C752: + x19 + x195 <= 1
C753: + x119 + x215 <= 1
C754: + x7 + x479 <= 1
C755: + x93 + x483 <= 1
C756: + x148 + x451 <= 1
C757: + x34 + x93 <= 1
C758: + x2 + x12 <= 1
C759: + x11 + x119 <= 1
C760: + x86 + x206 <= 1
C761: + x151 + x405 <= 1
C762: + x47 + x49 <= 1
C763: + x250 + x370 <= 1
C764: + x106 + x112 <= 1
C765: + x4 + x46 <= 1
C766: + x7 + x11 <= 1
C767: + x63 + x248 <= 1
C768: + x2 + x498 <= 1
C769: + x64 + x208 <= 1
C770: + x56 + x362 <= 1
C771: + x302 + x305 <= 1
C772: + x23 + x42 <= 1
C773: + x6 + x48 <= 1
C774: + x5 + x152 <= 1
C775: + x372 + x378 <= 1
C776: + x329 + x403 <= 1
C777: + x132 + x315 <= 1
C778: + x217 + x417 <= 1
C779: + x34 + x191 <= 1
C780: + x73 + x464 <= 1
C781: + x9 + x16 <= 1
C782: + x27 + x250 <= 1
C783: + x49 + x167 <= 1
C784: + x5 + x295 <= 1
C785: + x321 + x399 <= 1
C786: + x203 + x263 <= 1
C787: + x167 + x225 <= 1
C788: + x32 + x91 <= 1
C789: + x296 + x371 <= 1
C790: + x19 + x62 <= 1
C791: + x129 + x465 <= 1
C792: + x103 + x312 <= 1
C793: + x105 + x147 <= 1
C794: + x34 + x328 <= 1
C795: + x170 + x371 <= 1
C796: + x161 + x330 <= 1
C797: + x7 + x466 <= 1
C798: + x184 + x410 <= 1
C799: + x341 + x494 <= 1
C800: + x21 + x497 <= 1
C801: + x65 + x150 <= 1
C802: + x223 + x437 <= 1
C803: + x5 + x16 <= 1
C804: + x6 + x136 <= 1
C805: + x170 + x201 <= 1
C806: + x45 + x103 <= 1
C807: + x270 + x432 <= 1
C808: + x283 + x419 <= 1
C809: + x13 + x389 <= 1
C810: + x168 + x465 <= 1
C811: + x36 + x295 <= 1
C812: + x155 + x395 <= 1
C813: + x20 + x24 <= 1
C814: + x23 + x33 <= 1
C815: + x194 + x324 <= 1
C816: + x216 + x307 + x426 <= 1
C817: + x61 + x396 <= 1
C818: + x126 + x255 <= 1
C819: + x18 + x30 <= 1
C820: + x10 + x137 <= 1
C821: + x38 + x211 <= 1
C822: + x6 + x442 <= 1
C823: + x7 + x58 <= 1
C824: + x54 + x96 <= 1
C825: + x55 + x72 <= 1
C826: + x401 + x449 <= 1
C827: + x7 + x219 <= 1
C828: + x9 + x134 <= 1
C829: + x7 + x304 <= 1
C830: + x227 + x412 <= 1
C831: + x94 + x348 <= 1
C832: + x135 + x497 <= 1
C833: + x5 + x104 <= 1
C834: + x25 + x308 <= 1
C835: + x65 + x80 <= 1
C836: + x8 + x475 <= 1
C837: + x182 + x321 <= 1
C838: + x50 + x286 <= 1
C839: + x8 + x197 <= 1
C840: + x2 + x6 <= 1
C841: + x3 + x142 <= 1
C842: + x121 + x431 <= 1
C843: + x6 + x129 <= 1
C844: + x24 + x315 <= 1
C845: + x6 + x348 <= 1
C846: + x63 + x261 <= 1
C847: + x3 + x303 <= 1
C848: + x276 + x373 <= 1
C849: + x97 + x408 <= 1
C850: + x34 + x224 <= 1
C851: + x134 + x202 <= 1
C852: + x1 + x476 <= 1
C853: + x46 + x88 <= 1
C854: + x20 + x29 <= 1
C855: + x59 + x194 <= 1
C856: + x78 + x228 <= 1
C857: + x118 + x317 <= 1
C858: + x211 + x261 <= 1
C859: + x357 + x380 <= 1
C860: + x232 + x261 <= 1
C861: + x116 + x176 <= 1
C862: + x298 + x396 <= 1
C863: + x458 + x480 <= 1
C864: + x31 + x443 <= 1
C865: + x14 + x35 <= 1
C866: + x260 + x397 <= 1
C867: + x346 + x389 <= 1
C868: + x71 + x487 <= 1
C869: + x110 + x239 <= 1
C870: + x27 + x386 <= 1
C871: + x17 + x189 <= 1
C872: + x39 + x152 <= 1
C873: + x88 + x173 <= 1
C874: + x55 + x107 <= 1
C875: + x238 + x331 <= 1
C876: + x138 + x167 <= 1
C877: + x349 + x372 <= 1
C878: + x22 + x84 <= 1
C879: + x206 + x471 <= 1
C880: + x26 + x350 <= 1
C881: + x372 + x480 <= 1
C882: + x214 + x404 <= 1
C883: + x52 + x297 <= 1
C884: + x102 + x134 <= 1
C885: + x180 + x211 <= 1
C886: + x20 + x199 <= 1
C887: + x22 + x183 <= 1
C888: + x132 + x385 <= 1
C889: + x18 + x127 <= 1
C890: + x178 + x473 <= 1
C891: + x63 + x70 <= 1
C892: + x19 + x426 <= 1
C893: + x283 + x296 <= 1
C894: + x106 + x212 <= 1
C895: + x80 + x274 <= 1
C896: + x113 + x140 <= 1
C897: + x86 + x400 <= 1
C898: + x5 + x276 <= 1
C899: + x81 + x357 <= 1
C900: + x14 + x92 <= 1
C901: + x5 + x177 <= 1
C902: + x18 + x342 <= 1
C903: + x6 + x207 <= 1
C904: + x5 + x86 <= 1
C905: + x260 + x273 <= 1
C906: + x157 + x500 <= 1
C907: + x78 + x162 <= 1
C908: + x5 + x328 <= 1
C909: + x79 + x203 <= 1
C910: + x1 + x315 <= 1
C911: + x19 + x493 <= 1
C912: + x46 + x57 <= 1
C913: + x20 + x369 <= 1
C914: + x356 + x430 <= 1
C915: + x97 + x148 <= 1
C916: + x52 + x306 <= 1
C917: + x24 + x329 <= 1
C918: + x6 + x334 <= 1
C919: + x9 + x256 <= 1
C920: + x18 + x213 <= 1
C921: + x31 + x139 <= 1
C922: + x14 + x318 <= 1
C923: + x20 + x43 <= 1
C924: + x71 + x84 <= 1
C925: + x63 + x77 <= 1
C926: + x28 + x59 <= 1
C927: + x2 + x36 <= 1
C928: + x54 + x280 <= 1
C929: + x75 + x500 <= 1
C930: + x8 + x14 <= 1
C931: + x242 + x405 <= 1
C932: + x28 + x218 <= 1
C933: + x44 + x155 <= 1
C934: + x63 + x224 <= 1
C935: + x66 + x170 <= 1
C936: + x6 + x56 <= 1
C937: + x18 + x335 <= 1
C938: + x211 + x299 <= 1
C939: + x194 + x355 <= 1
C940: + x22 + x245 <= 1
C941: + x17 + x171 <= 1
C942: + x18 + x61 <= 1
C943: + x103 + x445 <= 1
C944: + x3 + x393 <= 1
C945: + x117 + x460 <= 1
C946: + x200 + x421 <= 1
C947: + x21 + x362 <= 1
C948: + x59 + x461 <= 1
C949: + x399 + x427 <= 1
C950: + x3 + x477 <= 1
C951: + x68 + x238 <= 1
C952: + x133 + x243 <= 1
C953: + x6 + x13 <= 1
C954: + x91 + x151 <= 1
C955: + x155 + x260 <= 1
C956: + x382 + x406 <= 1
C957: + x11 + x90 <= 1
C958: + x30 + x151 <= 1
C959: + x297 + x351 <= 1
C960: + x6 + x176 <= 1
C961: + x73 + x275 <= 1
C962: + x120 + x258 <= 1
C963: + x157 + x270 <= 1
C964: + x232 + x407 <= 1
C965: + x5 + x258 <= 1
C966: + x7 + x38 <= 1
C967: + x109 + x484 <= 1
C968: + x11 + x416 <= 1
C969: + x37 + x491 <= 1
C970: + x23 + x25 <= 1
C971: + x6 + x49 <= 1
C972: + x3 + x255 <= 1
C973: + x103 + x203 <= 1
C974: + x34 + x357 <= 1
C975: + x15 + x380 <= 1
C976: + x9 + x31 <= 1
C977: + x7 + x437 <= 1
C978: + x2 + x276 <= 1
C979: + x130 + x327 <= 1
C980: + x12 + x60 <= 1
C981: + x166 + x443 <= 1
C982: + x39 + x334 <= 1
C983: + x7 + x82 <= 1
C984: + x65 + x201 <= 1
C985: + x93 + x378 <= 1
C986: + x136 + x376 <= 1
C987: + x260 + x432 <= 1
C988: + x26 + x305 <= 1
C989: + x91 + x239 <= 1
C990: + x9 + x238 <= 1
C991: + x16 + x302 <= 1
C992: + x46 + x281 <= 1
C993: + x47 + x95 <= 1
C994: + x30 + x255 <= 1
C995: + x211 + x346 <= 1
C996: + x14 + x304 <= 1
C997: + x5 + x453 <= 1
C998: + x9 + x75 <= 1
C999: + x119 + x358 <= 1
C1000: + x93 + x489 <= 1
C1001: + x80 + x384 <= 1
C1002: + x11 + x65 <= 1
C1003: + x212 + x395 <= 1
C1004: + x93 + x251 <= 1
C1005: + x74 + x494 <= 1
C1006: + x10 + x174 <= 1
C1007: + x65 + x407 <= 1
C1008: + x115 + x141 <= 1
C1009: + x286 + x382 <= 1
C1010: + x244 + x337 <= 1
C1011: + x37 + x69 <= 1
C1012: + x95 + x158 <= 1
C1013: + x78 + x252 <= 1
C1014: + x145 + x252 <= 1
C1015: + x11 + x181 <= 1
C1016: + x12 + x214 <= 1
C1017: + x14 + x170 <= 1
C1018: + x32 + x287 <= 1
C1019: + x142 + x448 <= 1
C1020: + x8 + x56 <= 1
C1021: + x1 + x99 <= 1
C1022: + x20 + x118 <= 1
C1023: + x6 + x75 <= 1
C1024: + x127 + x289 <= 1
C1025: + x74 + x181 <= 1
C1026: + x7 + x73 <= 1
C1027: + x64 + x138 <= 1
C1028: + x113 + x415 <= 1
C1029: + x9 + x352 <= 1
C1030: + x27 + x99 <= 1
C1031: + x8 + x69 <= 1
C1032: + x119 + x212 <= 1
C1033: + x94 + x333 <= 1
C1034: + x41 + x105 <= 1
C1035: + x225 + x390 <= 1
C1036: + x32 + x323 <= 1
C1037: + x20 + x66 <= 1
C1038: + x132 + x239 <= 1
C1039: + x13 + x260 <= 1
C1040: + x9 + x303 <= 1
C1041: + x92 + x283 <= 1
C1042: + x2 + x55 <= 1
C1043: + x104 + x162 <= 1
C1044: + x81 + x95 <= 1
C1045: + x26 + x326 <= 1
C1046: + x296 + x429 <= 1
C1047: + x312 + x458 <= 1
C1048: + x14 + x285 <= 1
C1049: + x226 + x308 <= 1
C1050: + x7 + x24 <= 1
C1051: + x9 + x446 <= 1
C1052: + x5 + x149 <= 1
C1053: + x6 + x35 <= 1
C1054: + x164 + x230 <= 1
C1055: + x228 + x294 <= 1
C1056: + x9 + x13 <= 1
C1057: + x169 + x491 <= 1
C1058: + x136 + x159 <= 1
C1059: + x193 + x497 <= 1
C1060: + x3 + x100 <= 1
C1061: + x20 + x397 <= 1
C1062: + x23 + x103 <= 1
C1063: + x117 + x326 <= 1
C1064: + x101 + x213 <= 1
C1065: + x177 + x200 <= 1
C1066: + x11 + x325 <= 1
C1067: + x68 + x193 <= 1
C1068: + x6 + x104 <= 1
C1069: + x155 + x202 <= 1
C1070: + x66 + x336 <= 1
C1071: + x188 + x370 <= 1
C1072: + x57 + x450 <= 1
C1073: + x4 + x18 <= 1
C1074: + x168 + x472 <= 1
C1075: + x39 + x488 <= 1
C1076: + x13 + x367 <= 1
C1077: + x35 + x275 <= 1
C1078: + x198 + x492 <= 1
C1079: + x455 + x459 <= 1
C1080: + x20 + x293 <= 1
C1081: + x41 + x43 <= 1
C1082: + x265 + x289 <= 1
C1083: + x12 + x196 <= 1
C1084: + x31 + x62 <= 1
C1085: + x24 + x164 <= 1
C1086: + x7 + x410 <= 1
C1087: + x8 + x38 <= 1
C1088: + x10 + x140 <= 1
C1089: + x234 + x381 <= 1
C1090: + x72 + x358 <= 1
C1091: + x94 + x302 <= 1
C1092: + x26 + x105 <= 1
C1093: + x144 + x209 <= 1
C1094: + x76 + x206 <= 1
C1095: + x358 + x479 <= 1
C1096: + x5 + x200 <= 1
C1097: + x24 + x358 <= 1
C1098: + x90 + x204 <= 1
C1099: + x18 + x170 <= 1
C1100: + x265 + x365 <= 1
C1101: + x47 + x116 <= 1
C1102: + x41 + x87 <= 1
C1103: + x52 + x434 <= 1
C1104: + x5 + x101 <= 1
C1105: + x17 + x67 <= 1
C1106: + x188 + x282 <= 1
C1107: + x260 + x290 <= 1
C1108: + x80 + x331 <= 1
C1109: + x65 + x77 <= 1
C1110: + x11 + x336 <= 1
C1111: + x334 + x422 <= 1
C1112: + x42 + x95 <= 1
C1113: + x12 + x27 <= 1
C1114: + x352 + x483 <= 1
C1115: + x7 + x119 <= 1
C1116: + x70 + x214 <= 1
C1117: + x32 + x472 <= 1
C1118: + x1 + x298 <= 1
C1119: + x19 + x73 <= 1
C1120: + x59 + x84 <= 1
C1121: + x161 + x248 <= 1
C1122: + x170 + x205 <= 1
C1123: + x25 + x178 <= 1
C1124: + x14 + x271 <= 1
C1125: + x142 + x346 <= 1
C1126: + x33 + x50 <= 1
C1127: + x97 + x370 <= 1
C1128: + x6 + x21 <= 1
C1129: + x36 + x394 <= 1
C1130: + x83 + x244 <= 1
C1131: + x219 + x421 <= 1
C1132: + x10 + x415 <= 1
C1133: + x373 + x487 <= 1
C1134: + x141 + x331 <= 1
C1135: + x6 + x184 <= 1
C1136: + x24 + x270 <= 1
C1137: + x17 + x142 <= 1
C1138: + x2 + x384 <= 1
C1139: + x331 + x486 <= 1
C1140: + x8 + x322 <= 1
C1141: + x153 + x208 <= 1
C1142: + x6 + x217 <= 1
C1143: + x7 + x292 <= 1
C1144: + x177 + x246 <= 1
C1145: + x168 + x402 <= 1
C1146: + x156 + x458 <= 1
C1147: + x76 + x269 <= 1
C1148: + x86 + x462 <= 1
C1149: + x6 + x106 <= 1
C1150: + x7 + x106 <= 1
C1151: + x27 + x310 <= 1
C1152: + x246 + x283 <= 1
C1153: + x28 + x418 <= 1
C1154: + x128 + x414 <= 1
C1155: + x204 + x454 <= 1
C1156: + x104 + x205 <= 1
C1157: + x69 + x358 <= 1
C1158: + x8 + x395 <= 1
C1159: + x101 + x484 <= 1
C1160: + x79 + x137 <= 1
C1161: + x100 + x335 <= 1
C1162: + x36 + x65 + x352 <= 1
C1163: + x185 + x372 <= 1
C1164: + x30 + x136 <= 1
C1165: + x35 + x51 <= 1
C1166: + x236 + x265 <= 1
C1167: + x76 + x458 <= 1
C1168: + x161 + x493 <= 1
C1169: + x307 + x328 <= 1
C1170: + x6 + x431 <= 1
C1171: + x10 + x273 <= 1
C1172: + x129 + x209 <= 1
C1173: + x132 + x190 <= 1
C1174: + x215 + x332 <= 1
C1175: + x180 + x344 <= 1
C1176: + x91 + x263 <= 1
C1177: + x19 + x44 <= 1
C1178: + x111 + x137 <= 1
C1179: + x110 + x235 <= 1
C1180: + x5 + x107 <= 1
C1181: + x43 + x166 <= 1
C1182: + x64 + x126 + x272 <= 1
C1183: + x64 + x146 <= 1
C1184: + x149 + x232 <= 1
C1185: + x210 + x347 <= 1
C1186: + x47 + x74 <= 1
C1187: + x4 + x5 <= 1
C1188: + x46 + x77 <= 1
C1189: + x11 + x422 <= 1
C1190: + x12 + x396 <= 1
C1191: + x41 + x355 <= 1
C1192: + x23 + x55 <= 1
C1193: + x35 + x320 <= 1
C1194: + x6 + x7 <= 1
C1195: + x7 + x157 <= 1
C1196: + x59 + x267 <= 1
C1197: + x2 + x96 <= 1
C1198: + x9 + x355 <= 1
C1199: + x299 + x402 <= 1
C1200: + x66 + x443 <= 1
C1201: + x13 + x45 <= 1
C1202: + x161 + x174 <= 1
C1203: + x34 + x367 <= 1
C1204: + x188 + x301 <= 1
C1205: + x353 + x366 <= 1
C1206: + x168 + x392 <= 1
C1207: + x30 + x419 <= 1
C1208: + x6 + x92 <= 1
C1209: + x129 + x297 <= 1
C1210: + x99 + x305 <= 1
C1211: + x21 + x196 <= 1
C1212: + x325 + x496 <= 1
C1213: + x16 + x54 <= 1
C1214: + x135 + x192 <= 1
C1215: + x20 + x486 <= 1
C1216: + x70 + x245 <= 1
C1217: + x6 + x16 <= 1
C1218: + x18 + x279 <= 1
C1219: + x5 + x21 <= 1
C1220: + x32 + x150 <= 1
C1221: + x14 + x256 <= 1
C1222: + x100 + x111 <= 1
C1223: + x8 + x10 <= 1
C1224: + x11 + x320 <= 1
C1225: + x122 + x222 <= 1
C1226: + x65 + x413 <= 1
C1227: + x36 + x175 <= 1
C1228: + x313 + x351 <= 1
C1229: + x21 + x24 <= 1
C1230: + x59 + x278 <= 1
C1231: + x23 + x441 <= 1
C1232: + x6 + x401 <= 1
C1233: + x9 + x397 <= 1
C1234: + x2 + x81 <= 1
C1235: + x119 + x316 <= 1
C1236: + x278 + x329 <= 1
C1237: + x6 + x52 <= 1
C1238: + x88 + x202 <= 1
C1239: + x27 + x73 <= 1
C1240: + x9 + x191 <= 1
C1241: + x19 + x30 <= 1
C1242: + x91 + x265 <= 1
C1243: + x38 + x347 <= 1
C1244: + x40 + x171 <= 1
C1245: + x443 + x491 <= 1
C1246: + x5 + x406 <= 1
C1247: + x24 + x156 <= 1
C1248: + x8 + x62 <= 1
C1249: + x11 + x356 <= 1
C1250: + x6 + x69 <= 1
C1251: + x190 + x296 <= 1
C1252: + x136 + x379 <= 1
C1253: + x167 + x253 <= 1
C1254: + x18 + x383 <= 1
C1255: + x71 + x385 <= 1
C1256: + x1 + x8 <= 1
C1257: + x8 + x83 <= 1
C1258: + x4 + x115 <= 1
C1259: + x35 + x237 <= 1
C1260: + x3 + x6 <= 1
C1261: + x340 + x482 <= 1
C1262: + x6 + x9 <= 1
C1263: + x65 + x130 <= 1
C1264: + x149 + x314 <= 1
C1265: + x35 + x403 <= 1
C1266: + x54 + x285 <= 1
C1267: + x35 + x161 <= 1
C1268: + x7 + x26 <= 1
C1269: + x37 + x90 <= 1
C1270: + x93 + x290 <= 1
C1271: + x20 + x439 <= 1
C1272: + x57 + x416 <= 1
C1273: + x29 + x313 <= 1
C1274: + x47 + x407 <= 1
C1275: + x14 + x173 <= 1
C1276: + x125 + x320 <= 1
C1277: + x215 + x442 <= 1
C1278: + x168 + x438 <= 1
C1279: + x320 + x485 <= 1
C1280: + x133 + x178 <= 1
C1281: + x216 + x312 <= 1
C1282: + x47 + x258 <= 1
C1283: + x6 + x225 <= 1
C1284: + x40 + x152 <= 1
C1285: + x25 + x149 <= 1
C1286: + x6 + x479 <= 1
C1287: + x45 + x227 <= 1
C1288: + x36 + x208 <= 1
C1289: + x102 + x288 <= 1
C1290: + x12 + x447 <= 1
C1291: + x132 + x238 <= 1
C1292: + x27 + x478 <= 1
C1293: + x28 + x474 <= 1
C1294: + x63 + x440 <= 1
C1295: + x47 + x462 <= 1
C1296: + x88 + x406 <= 1
C1297: + x9 + x222 <= 1
C1298: + x12 + x121 <= 1
C1299: + x21 + x38 <= 1
C1300: + x127 + x377 <= 1
C1301: + x28 + x375 <= 1
C1302: + x22 + x432 <= 1
C1303: + x23 + x24 <= 1
C1304: + x69 + x157 <= 1
C1305: + x35 + x285 <= 1
C1306: + x8 + x141 <= 1
C1307: + x105 + x225 <= 1
C1308: + x34 + x165 <= 1
C1309: + x89 + x400 <= 1
C1310: + x9 + x10 <= 1
C1311: + x186 + x354 <= 1
C1312: + x226 + x267 <= 1
C1313: + x137 + x188 <= 1
C1314: + x40 + x42 <= 1
C1315: + x6 + x234 <= 1
C1316: + x18 + x361 <= 1
C1317: + x18 + x180 <= 1
C1318: + x27 + x438 <= 1
C1319: + x45 + x53 <= 1
C1320: + x27 + x111 <= 1
C1321: + x4 + x97 <= 1
C1322: + x78 + x399 <= 1
C1323: + x6 + x123 <= 1
C1324: + x1 + x352 <= 1
C1325: + x370 + x412 <= 1
C1326: + x36 + x70 <= 1
C1327: + x20 + x179 <= 1
C1328: + x60 + x405 <= 1
C1329: + x26 + x96 <= 1
C1330: + x208 + x277 <= 1
C1331: + x244 + x350 <= 1
C1332: + x212 + x261 <= 1
C1333: + x7 + x470 <= 1
C1334: + x86 + x190 <= 1
C1335: + x96 + x210 <= 1
C1336: + x6 + x47 <= 1
C1337: + x31 + x414 <= 1
C1338: + x89 + x133 <= 1
C1339: + x15 + x124 <= 1
C1340: + x145 + x247 <= 1
C1341: + x387 + x409 <= 1
C1342: + x154 + x388 <= 1
C1343: + x19 + x172 <= 1
C1344: + x46 + x246 <= 1
C1345: + x12 + x46 <= 1
C1346: + x184 + x453 <= 1
C1347: + x169 + x495 <= 1
C1348: + x161 + x476 <= 1
C1349: + x26 + x108 <= 1
C1350: + x8 + x336 <= 1
C1351: + x104 + x231 <= 1
C1352: + x70 + x328 <= 1
C1353: + x73 + x139 <= 1
C1354: + x19 + x59 <= 1
C1355: + x3 + x257 <= 1
C1356: + x142 + x361 <= 1
C1357: + x131 + x367 <= 1
C1358: + x331 + x420 <= 1
C1359: + x17 + x493 <= 1
C1360: + x44 + x366 <= 1
C1361: + x137 + x239 <= 1
C1362: + x46 + x408 <= 1
C1363: + x97 + x144 <= 1
C1364: + x5 + x9 <= 1
C1365: + x6 + x135 <= 1
C1366: + x117 + x278 <= 1
C1367: + x85 + x319 <= 1
C1368: + x20 + x188 <= 1
C1369: + x97 + x109 <= 1
C1370: + x14 + x274 <= 1
C1371: + x9 + x425 <= 1
C1372: + x11 + x437 <= 1
C1373: + x20 + x23 <= 1
C1374: + x3 + x35 <= 1
C1375: + x221 + x289 <= 1
C1376: + x60 + x192 <= 1
C1377: + x12 + x409 <= 1
C1378: + x17 + x409 <= 1
C1379: + x1 + x216 <= 1
C1380: + x5 + x61 <= 1
C1381: + x162 + x378 <= 1
C1382: + x45 + x156 <= 1
C1383: + x210 + x296 <= 1
C1384: + x242 + x481 <= 1
C1385: + x23 + x401 <= 1
C1386: + x6 + x220 <= 1
C1387: + x145 + x154 <= 1
C1388: + x103 + x304 <= 1
C1389: + x133 + x481 <= 1
C1390: + x78 + x175 <= 1
C1391: + x270 + x325 <= 1
C1392: + x7 + x107 <= 1
C1393: + x2 + x5 <= 1
C1394: + x12 + x257 <= 1
C1395: + x14 + x29 <= 1
C1396: + x35 + x439 <= 1
C1397: + x7 + x345 <= 1
C1398: + x273 + x368 <= 1
C1399: + x21 + x51 <= 1
C1400: + x196 + x219 <= 1
C1401: + x106 + x404 <= 1
C1402: + x5 + x482 <= 1
C1403: + x119 + x287 <= 1
C1404: + x20 + x467 <= 1
C1405: + x207 + x262 <= 1
C1406: + x44 + x287 <= 1
C1407: + x246 + x247 <= 1
C1408: + x228 + x344 <= 1
C1409: + x11 + x174 <= 1
C1410: + x136 + x455 <= 1
C1411: + x292 + x427 <= 1
C1412: + x23 + x134 <= 1
C1413: + x26 + x360 <= 1
C1414: + x36 + x192 <= 1
C1415: + x62 + x354 <= 1
C1416: + x313 + x334 <= 1
C1417: + x267 + x290 <= 1
C1418: + x23 + x428 <= 1
C1419: + x24 + x28 <= 1
C1420: + x34 + x43 <= 1
C1421: + x142 + x266 <= 1
C1422: + x57 + x299 <= 1
C1423: + x110 + x401 <= 1
C1424: + x3 + x440 <= 1
C1425: + x34 + x103 <= 1
C1426: + x20 + x363 <= 1
C1427: + x34 + x450 <= 1
C1428: + x153 + x341 <= 1
C1429: + x290 + x483 <= 1
C1430: + x34 + x216 <= 1
C1431: + x108 + x425 <= 1
C1432: + x24 + x93 <= 1
C1433: + x151 + x284 <= 1
C1434: + x184 + x419 <= 1
C1435: + x220 + x300 <= 1
C1436: + x76 + x111 <= 1
C1437: + x5 + x35 <= 1
C1438: + x44 + x122 <= 1
C1439: + x9 + x38 <= 1
C1440: + x56 + x58 <= 1
C1441: + x394 + x494 <= 1
C1442: + x70 + x160 <= 1
C1443: + x44 + x165 <= 1
C1444: + x88 + x337 <= 1
C1445: + x20 + x424 <= 1
C1446: + x32 + x49 <= 1
C1447: + x44 + x452 <= 1
C1448: + x19 + x40 <= 1
C1449: + x102 + x218 <= 1
C1450: + x136 + x500 <= 1
C1451: + x222 + x408 <= 1
C1452: + x68 + x458 <= 1
C1453: + x5 + x87 <= 1
C1454: + x5 + x420 <= 1
C1455: + x44 + x54 <= 1
C1456: + x9 + x18 <= 1
C1457: + x11 + x382 <= 1
C1458: + x47 + x227 <= 1
C1459: + x12 + x13 <= 1
C1460: + x94 + x464 <= 1
C1461: + x8 + x367 <= 1
C1462: + x57 + x382 <= 1
C1463: + x20 + x372 <= 1
C1464: + x12 + x319 <= 1
C1465: + x14 + x15 <= 1
C1466: + x6 + x242 <= 1
C1467: + x6 + x333 <= 1
C1468: + x34 + x475 <= 1
C1469: + x2 + x178 <= 1
C1470: + x130 + x485 <= 1
C1471: + x41 + x117 <= 1
C1472: + x132 + x393 <= 1
C1473: + x60 + x433 <= 1
C1474: + x34 + x233 <= 1
C1475: + x6 + x496 <= 1
C1476: + x3 + x16 <= 1
C1477: + x413 + x488 <= 1
C1478: + x5 + x373 <= 1
C1479: + x8 + x291 <= 1
C1480: + x192 + x300 <= 1
C1481: + x22 + x48 <= 1
C1482: + x40 + x118 <= 1
C1483: + x6 + x166 <= 1
C1484: + x6 + x369 <= 1
C1485: + x8 + x13 <= 1
C1486: + x63 + x356 <= 1
C1487: + x19 + x305 <= 1
C1488: + x64 + x215 <= 1
C1489: + x2 + x84 <= 1
C1490: + x202 + x428 <= 1
C1491: + x365 + x453 <= 1
C1492: + x251 + x274 <= 1
C1493: + x5 + x185 <= 1
C1494: + x35 + x272 <= 1
C1495: + x7 + x205 <= 1
C1496: + x19 + x31 <= 1
C1497: + x450 + x469 <= 1
C1498: + x40 + x170 <= 1
C1499: + x31 + x199 <= 1
C1500: + x98 + x342 <= 1
C1501: + x6 + x293 <= 1
C1502: + x76 + x319 <= 1
C1503: + x30 + x116 <= 1
C1504: + x105 + x482 <= 1
C1505: + x41 + x237 <= 1
C1506: + x161 + x436 <= 1
C1507: + x227 + x236 <= 1
C1508: + x28 + x436 <= 1
C1509: + x11 + x19 <= 1
C1510: + x31 + x82 <= 1
C1511: + x261 + x314 <= 1
C1512: + x1 + x5 <= 1
C1513: + x34 + x226 <= 1
C1514: + x20 + x51 <= 1
C1515: + x3 + x7 <= 1
C1516: + x6 + x12 <= 1
C1517: + x88 + x242 <= 1
C1518: + x8 + x284 <= 1
C1519: + x28 + x51 <= 1
C1520: + x1 + x180 <= 1
C1521: + x117 + x235 <= 1
C1522: + x25 + x87 <= 1
C1523: + x35 + x166 <= 1
C1524: + x129 + x163 <= 1
C1525: + x11 + x42 <= 1
C1526: + x64 + x363 <= 1
C1527: + x50 + x115 <= 1
C1528: + x12 + x369 <= 1
C1529: + x212 + x374 <= 1
C1530: + x360 + x463 <= 1
C1531: + x2 + x85 <= 1
C1532: + x3 + x91 <= 1
C1533: + x19 + x26 <= 1
C1534: + x228 + x311 <= 1
C1535: + x95 + x309 <= 1
C1536: + x22 + x253 <= 1
C1537: + x161 + x185 <= 1
C1538: + x27 + x234 <= 1
C1539: + x10 + x152 <= 1
C1540: + x119 + x175 <= 1
C1541: + x248 + x260 <= 1
C1542: + x12 + x59 <= 1
C1543: + x86 + x485 <= 1
C1544: + x245 + x492 <= 1
C1545: + x27 + x267 <= 1
C1546: + x8 + x349 <= 1
C1547: + x20 + x386 <= 1
C1548: + x78 + x310 <= 1
C1549: + x23 + x86 <= 1
C1550: + x55 + x323 <= 1
C1551: + x79 + x325 <= 1
C1552: + x1 + x441 <= 1
C1553: + x132 + x233 <= 1
C1554: + x5 + x379 <= 1
C1555: + x52 + x176 <= 1
C1556: + x38 + x284 <= 1
C1557: + x39 + x412 <= 1
C1558: + x35 + x92 <= 1
C1559: + x246 + x473 <= 1
C1560: + x12 + x72 <= 1
C1561: + x22 + x149 <= 1
C1562: + x47 + x133 <= 1
C1563: + x264 + x391 <= 1
C1564: + x12 + x362 <= 1
C1565: + x194 + x465 <= 1
C1566: + x34 + x402 <= 1
C1567: + x79 + x174 <= 1
C1568: + x21 + x138 <= 1
C1569: + x18 + x46 <= 1
C1570: + x8 + x55 <= 1
C1571: + x56 + x217 <= 1
C1572: + x105 + x269 <= 1
C1573: + x82 + x172 <= 1
C1574: + x441 + x474 <= 1
C1575: + x4 + x128 <= 1
C1576: + x5 + x120 <= 1
C1577: + x5 + x461 <= 1
C1578: + x35 + x228 <= 1
C1579: + x1 + x448 <= 1
C1580: + x37 + x153 <= 1
C1581: + x2 + x296 <= 1
C1582: + x3 + x25 <= 1
C1583: + x232 + x254 <= 1
C1584: + x347 + x467 <= 1
C1585: + x1 + x130 <= 1
C1586: + x35 + x83 <= 1
C1587: + x9 + x194 <= 1
C1588: + x2 + x337 <= 1
C1589: + x8 + x124 <= 1
C1590: + x12 + x125 <= 1
C1591: + x40 + x200 <= 1
C1592: + x6 + x399 <= 1
C1593: + x7 + x21 <= 1
C1594: + x8 + x415 <= 1
C1595: + x397 + x486 <= 1
C1596: + x256 + x270 <= 1
C1597: + x141 + x241 <= 1
C1598: + x6 + x34 <= 1
C1599: + x117 + x435 <= 1
C1600: + x51 + x472 <= 1
C1601: + x5 + x75 <= 1
C1602: + x35 + x39 <= 1
C1603: + x8 + x48 <= 1
C1604: + x10 + x130 <= 1
C1605: + x19 + x173 <= 1
C1606: + x165 + x340 <= 1
C1607: + x50 + x254 <= 1
C1608: + x33 + x148 <= 1
C1609: + x237 + x431 <= 1
C1610: + x332 + x451 <= 1
C1611: + x416 + x464 <= 1
C1612: + x19 + x466 <= 1
C1613: + x101 + x316 <= 1
C1614: + x70 + x347 <= 1
C1615: + x73 + x136 <= 1
C1616: + x7 + x311 <= 1
C1617: + x10 + x19 <= 1
C1618: + x28 + x105 <= 1
C1619: + x109 + x241 <= 1
C1620: + x41 + x81 <= 1
C1621: + x62 + x295 <= 1
C1622: + x263 + x293 <= 1
C1623: + x319 + x450 <= 1
C1624: + x32 + x490 <= 1
C1625: + x119 + x402 <= 1
C1626: + x105 + x320 <= 1
C1627: + x286 + x428 <= 1
C1628: + x5 + x14 <= 1
C1629: + x15 + x205 <= 1
C1630: + x27 + x63 <= 1
C1631: + x26 + x36 <= 1
C1632: + x155 + x397 <= 1
C1633: + x221 + x249 <= 1
C1634: + x221 + x294 <= 1
C1635: + x196 + x451 <= 1
C1636: + x424 + x449 <= 1
C1637: + x82 + x234 <= 1
C1638: + x336 + x355 <= 1
C1639: + x55 + x284 <= 1
C1640: + x171 + x346 <= 1
C1641: + x108 + x343 <= 1
C1642: + x199 + x223 <= 1
C1643: + x260 + x390 <= 1
C1644: + x83 + x375 <= 1
C1645: + x219 + x495 <= 1
C1646: + x86 + x353 <= 1
C1647: + x5 + x102 <= 1
C1648: + x5 + x435 <= 1
C1649: + x18 + x76 <= 1
C1650: + x119 + x336 <= 1
C1651: + x20 + x79 <= 1
C1652: + x3 + x418 <= 1
C1653: + x29 + x100 <= 1
C1654: + x213 + x257 <= 1
C1655: + x68 + x374 <= 1
C1656: + x55 + x455 <= 1
C1657: + x29 + x334 <= 1
C1658: + x92 + x126 <= 1
C1659: + x19 + x235 <= 1
C1660: + x12 + x107 <= 1
C1661: + x31 + x368 <= 1
C1662: + x70 + x102 <= 1
C1663: + x26 + x37 <= 1
C1664: + x27 + x347 <= 1
C1665: + x9 + x429 <= 1
C1666: + x12 + x413 <= 1
C1667: + x12 + x19 + x20 <= 1
C1668: + x135 + x442 <= 1
C1669: + x114 + x186 <= 1
C1670: + x161 + x197 <= 1
C1671: + x6 + x183 <= 1
C1672: + x207 + x420 <= 1
C1673: + x9 + x60 <= 1
C1674: + x90 + x163 <= 1
C1675: + x54 + x264 <= 1
C1676: + x2 + x383 <= 1
C1677: + x184 + x474 <= 1
C1678: + x112 + x498 <= 1
C1679: + x17 + x44 <= 1
C1680: + x26 + x113 <= 1
C1681: + x11 + x485 <= 1
C1682: + x14 + x37 <= 1
C1683: + x9 + x374 <= 1
C1684: + x113 + x226 <= 1
C1685: + x94 + x343 <= 1
C1686: + x5 + x109 <= 1
C1687: + x116 + x250 <= 1
C1688: + x25 + x313 <= 1
C1689: + x54 + x204 <= 1
C1690: + x63 + x191 <= 1
C1691: + x11 + x376 <= 1
C1692: + x204 + x282 <= 1
C1693: + x74 + x302 <= 1
C1694: + x136 + x271 <= 1
C1695: + x265 + x321 <= 1
C1696: + x86 + x446 <= 1
C1697: + x277 + x364 <= 1
C1698: + x3 + x461 <= 1
C1699: + x204 + x342 <= 1
C1700: + x197 + x451 <= 1
C1701: + x176 + x220 <= 1
C1702: + x24 + x177 <= 1
C1703: + x34 + x394 <= 1
C1704: + x126 + x313 <= 1
C1705: + x7 + x215 <= 1
C1706: + x214 + x302 <= 1
C1707: + x6 + x319 <= 1
C1708: + x151 + x452 <= 1
C1709: + x55 + x71 + x143 <= 1
C1710: + x150 + x311 <= 1
C1711: + x89 + x338 <= 1
C1712: + x54 + x120 <= 1
C1713: + x284 + x391 <= 1
C1714: + x257 + x264 <= 1
C1715: + x114 + x384 <= 1
C1716: + x15 + x162 <= 1
C1717: + x6 + x245 <= 1
C1718: + x20 + x206 <= 1
C1719: + x112 + x133 <= 1
C1720: + x12 + x153 <= 1
C1721: + x341 + x368 <= 1
C1722: + x218 + x298 <= 1
C1723: + x340 + x467 <= 1
C1724: + x14 + x99 <= 1
C1725: + x76 + x99 <= 1
C1726: + x113 + x292 <= 1
C1727: + x29 + x280 <= 1
C1728: + x19 + x145 <= 1
C1729: + x10 + x281 <= 1
C1730: + x11 + x407 <= 1
C1731: + x212 + x364 <= 1
C1732: + x27 + x79 <= 1
C1733: + x19 + x36 <= 1
C1734: + x31 + x196 <= 1
C1735: + x297 + x386 <= 1
C1736: + x25 + x263 <= 1
C1737: + x9 + x22 <= 1
C1738: + x20 + x102 <= 1
C1739: + x6 + x91 <= 1
C1740: + x270 + x371 <= 1
C1741: + x19 + x490 <= 1
C1742: + x104 + x254 <= 1
C1743: + x141 + x317 <= 1
C1744: + x180 + x364 <= 1
C1745: + x2 + x182 <= 1
C1746: + x229 + x459 <= 1
C1747: + x103 + x266 <= 1
C1748: + x12 + x146 <= 1
C1749: + x150 + x417 <= 1
C1750: + x9 + x66 <= 1
C1751: + x85 + x98 <= 1
C1752: + x86 + x94 <= 1
C1753: + x13 + x276 <= 1
C1754: + x142 + x167 <= 1
C1755: + x6 + x15 <= 1
C1756: + x63 + x114 <= 1
C1757: + x8 + x230 <= 1
C1758: + x155 + x255 <= 1
C1759: + x3 + x173 <= 1
C1760: + x294 + x417 <= 1
C1761: + x52 + x449 <= 1
C1762: + x6 + x162 <= 1
C1763: + x6 + x381 <= 1
C1764: + x162 + x222 <= 1
C1765: + x63 + x360 <= 1
C1766: + x17 + x244 <= 1
C1767: + x147 + x469 <= 1
C1768: + x86 + x404 <= 1
C1769: + x76 + x455 <= 1
C1770: + x388 + x410 <= 1
C1771: + x71 + x232 <= 1
C1772: + x28 + x380 <= 1
C1773: + x400 + x483 <= 1
C1774: + x64 + x211 <= 1
C1775: + x11 + x43 <= 1
C1776: + x102 + x108 <= 1
C1777: + x138 + x240 <= 1
C1778: + x27 + x74 <= 1
C1779: + x28 + x78 <= 1
C1780: + x11 + x144 <= 1
C1781: + x227 + x418 <= 1
C1782: + x19 + x27 <= 1
C1783: + x2 + x243 <= 1
C1784: + x41 + x52 <= 1
C1785: + x6 + x68 <= 1
C1786: + x27 + x272 <= 1
C1787: + x45 + x342 <= 1
C1788: + x64 + x135 <= 1
C1789: + x66 + x292 <= 1
C1790: + x55 + x122 <= 1
C1791: + x57 + x212 <= 1
C1792: + x20 + x381 <= 1
C1793: + x32 + x106 <= 1
C1794: + x39 + x425 <= 1
C1795: + x1 + x25 <= 1
C1796: + x276 + x399 <= 1
C1797: + x18 + x100 <= 1
C1798: + x5 + x384 <= 1
C1799: + x6 + x120 <= 1
C1800: + x181 + x274 <= 1
C1801: + x45 + x394 <= 1
C1802: + x2 + x64 <= 1
C1803: + x94 + x231 <= 1
C1804: + x3 + x168 <= 1
C1805: + x240 + x380 <= 1
C1806: + x59 + x441 <= 1
C1807: + x11 + x67 <= 1
C1808: + x44 + x108 <= 1
C1809: + x71 + x446 <= 1
C1810: + x193 + x218 <= 1
C1811: + x42 + x247 <= 1
C1812: + x81 + x344 <= 1
C1813: + x11 + x409 <= 1
C1814: + x47 + x130 <= 1
C1815: + x195 + x452 <= 1
C1816: + x350 + x398 <= 1
C1817: + x106 + x338 <= 1
C1818: + x6 + x60 <= 1
C1819: + x136 + x478 <= 1
C1820: + x312 + x360 <= 1
C1821: + x306 + x499 <= 1
C1822: + x222 + x265 <= 1
C1823: + x11 + x26 <= 1
C1824: + x66 + x293 <= 1
C1825: + x29 + x425 <= 1
C1826: + x365 + x500 <= 1
C1827: + x7 + x248 <= 1
C1828: + x9 + x350 <= 1
C1829: + x27 + x428 <= 1
C1830: + x11 + x251 <= 1
C1831: + x297 + x444 <= 1
C1832: + x5 + x117 <= 1
C1833: + x116 + x226 <= 1
C1834: + x211 + x248 <= 1
C1835: + x248 + x340 <= 1
C1836: + x157 + x403 <= 1
C1837: + x57 + x74 <= 1
C1838: + x323 + x372 <= 1
C1839: + x3 + x30 <= 1
C1840: + x90 + x101 <= 1
C1841: + x346 + x480 <= 1
C1842: + x19 + x400 <= 1
C1843: + x1 + x143 <= 1
C1844: + x40 + x104 <= 1
C1845: + x87 + x102 <= 1
C1846: + x6 + x148 <= 1
C1847: + x126 + x151 <= 1
C1848: + x8 + x127 <= 1
C1849: + x64 + x110 <= 1
C1850: + x322 + x327 <= 1
C1851: + x395 + x411 <= 1
C1852: + x96 + x437 <= 1
C1853: + x249 + x470 <= 1
C1854: + x203 + x395 <= 1
C1855: + x97 + x207 <= 1
C1856: + x179 + x303 <= 1
C1857: + x89 + x401 <= 1
C1858: + x12 + x56 <= 1
C1859: + x6 + x438 <= 1
C1860: + x331 + x343 <= 1
C1861: + x234 + x263 <= 1
C1862: + x40 + x41 <= 1
C1863: + x1 + x23 <= 1
C1864: + x20 + x234 <= 1
C1865: + x29 + x197 <= 1
C1866: + x250 + x300 <= 1
C1867: + x68 + x493 <= 1
C1868: + x207 + x212 <= 1
C1869: + x47 + x200 <= 1
C1870: + x25 + x58 <= 1
C1871: + x26 + x430 <= 1
C1872: + x134 + x181 <= 1
C1873: + x11 + x117 <= 1
C1874: + x149 + x201 <= 1
C1875: + x87 + x125 <= 1
C1876: + x53 + x464 <= 1
C1877: + x9 + x198 <= 1
C1878: + x302 + x396 <= 1
C1879: + x12 + x113 <= 1
C1880: + x303 + x492 <= 1
C1881: + x19 + x282 <= 1
C1882: + x83 + x90 <= 1
C1883: + x8 + x411 <= 1
C1884: + x3 + x41 <= 1
C1885: + x78 + x240 <= 1
C1886: + x198 + x494 <= 1
C1887: + x1 + x365 <= 1
C1888: + x63 + x492 <= 1
C1889: + x19 + x443 <= 1
C1890: + x5 + x55 <= 1
C1891: + x34 + x189 <= 1
C1892: + x153 + x269 <= 1
C1893: + x2 + x353 <= 1
C1894: + x12 + x45 <= 1
C1895: + x9 + x495 <= 1
C1896: + x37 + x303 <= 1
C1897: + x46 + x262 <= 1
C1898: + x39 + x63 <= 1
C1899: + x41 + x85 <= 1
C1900: + x5 + x123 <= 1
C1901: + x206 + x338 <= 1
C1902: + x334 + x424 <= 1
C1903: + x50 + x448 <= 1
C1904: + x13 + x312 <= 1
C1905: + x63 + x423 <= 1
C1906: + x3 + x177 <= 1
C1907: + x22 + x80 <= 1
C1908: + x23 + x184 <= 1
C1909: + x180 + x199 <= 1
C1910: + x10 + x195 <= 1
C1911: + x137 + x386 <= 1
C1912: + x20 + x187 <= 1
C1913: + x40 + x264 <= 1
C1914: + x20 + x26 <= 1
C1915: + x168 + x178 <= 1
C1916: + x15 + x68 <= 1
C1917: + x292 + x421 <= 1
C1918: + x86 + x281 <= 1
C1919: + x132 + x294 <= 1
C1920: + x23 + x132 <= 1
C1921: + x52 + x96 <= 1
C1922: + x142 + x429 <= 1
C1923: + x260 + x377 <= 1
C1924: + x19 + x164 <= 1
C1925: + x21 + x121 <= 1
C1926: + x358 + x359 <= 1
C1927: + x12 + x489 <= 1
C1928: + x89 + x316 <= 1
C1929: + x82 + x127 <= 1
C1930: + x2 + x80 <= 1
C1931: + x14 + x40 <= 1
C1932: + x18 + x346 <= 1
C1933: + x118 + x326 <= 1
C1934: + x29 + x219 <= 1
C1935: + x26 + x29 <= 1
C1936: + x9 + x101 <= 1
C1937: + x326 + x452 <= 1
C1938: + x139 + x262 <= 1
C1939: + x12 + x18 <= 1
C1940: + x52 + x135 <= 1
C1941: + x14 + x441 <= 1
C1942: + x414 + x457 <= 1
C1943: + x65 + x340 <= 1
C1944: + x292 + x354 <= 1
C1945: + x211 + x463 <= 1
C1946: + x22 + x73 <= 1
C1947: + x14 + x28 <= 1
C1948: + x281 + x388 <= 1
C1949: + x56 + x112 <= 1
C1950: + x124 + x297 <= 1
C1951: + x28 + x349 <= 1
C1952: + x76 + x327 <= 1
C1953: + x94 + x124 <= 1

binary
x1 x2 x3 x4 x5 x6 x7 x8 x9 x10 x11 x12 x13 x14 x15 x16 x17 x18 x19 x20 x21 x22 x23 x24 x25 x26 x27 x28 x29 x30 x31 x32 x33 x34 x35 x36 x37 x38 x39 x40 x41 x42 x43 x44 x45 x46 x47 x48 x49 x50 x51 x52 x53 x54 x55 x56 x57 x58 x59 x60 x61 x62 x63 x64 x65 x66 x67 x68 x69 x70 x71 x72 x73 x74 x75 x76 x77 x78 x79 x80 x81 x82 x83 x84 x85 x86 x87 x88 x89 x90 x91 x92 x93 x94 x95 x96 x97 x98 x99 x100 x101 x102 x103 x104 x105 x106 x107 x108 x109 x110 x111 x112 x113 x114 x115 x116 x117 x118 x119 x120 x121 x122 x123 x124 x125 x126 x127 x128 x129 x130 x131 x132 x133 x134 x135 x136 x137 x138 x139 x140 x141 x142 x143 x144 x145 x146 x147 x148 x149 x150 x151 x152 x153 x154 x155 x156 x157 x158 x159 x160 x161 x162 x163 x164 x165 x166 x167 x168 x169 x170 x171 x172 x173 x174 x175 x176 x177 x178 x179 x180 x181 x182 x183 x184 x185 x186 x187 x188 x189 x190 x191 x192 x193 x194 x195 x196 x197 x198 x199 x200 x201 x202 x203 x204 x205 x206 x207 x208 x209 x210 x211 x212 x213 x214 x215 x216 x217 x218 x219 x220 x221 x222 x223 x224 x225 x226 x227 x228 x229 x230 x231 x232 x233 x234 x235 x236 x237 x238 x239 x240 x241 x242 x243 x244 x245 x246 x247 x248 x249 x250 x251 x252 x253 x254 x255 x256 x257 x258 x259 x260 x261 x262 x263 x264 x265 x266 x267 x268 x269 x270 x271 x272 x273 x274 x275 x276 x277 x278 x279 x280 x281 x282 x283 x284 x285 x286 x287 x288 x289 x290 x291 x292 x293 x294 x295 x296 x297 x298 x299 x300 x301 x302 x303 x304 x305 x306 x307 x308 x309 x310 x311 x312 x313 x314 x315 x316 x317 x318 x319 x320 x321 x322 x323 x324 x325 x326 x327 x328 x329 x330 x331 x332 x333 x334 x335 x336 x337 x338 x339 x340 x341 x342 x343 x344 x345 x346 x347 x348 x349 x350 x351 x352 x353 x354 x355 x356 x357 x358 x359 x360 x361 x362 x363 x364 x365 x366 x367 x368 x369 x370 x371 x372 x373 x374 x375 x376 x377 x378 x379 x380 x381 x382 x383 x384 x385 x386 x387 x388 x389 x390 x391 x392 x393 x394 x395 x396 x397 x398 x399 x400 x401 x402 x403 x404 x405 x406 x407 x408 x409 x410 x411 x412 x413 x414 x415 x416 x417 x418 x419 x420 x421 x422 x423 x424 x425 x426 x427 x428 x429 x430 x431 x432 x433 x434 x435 x436 x437 x438 x439 x440 x441 x442 x443 x444 x445 x446 x447 x448 x449 x450 x451 x452 x453 x454 x455 x456 x457 x458 x459 x460 x461 x462 x463 x464 x465 x466 x467 x468 x469 x470 x471 x472 x473 x474 x475 x476 x477 x478 x479 x480 x481 x482 x483 x484 x485 x486 x487 x488 x489 x490 x491 x492 x493 x494 x495 x496 x497 x498 x499 x500
