maximize
OBJ: + 1 x1 + 1 x2 + 1 x3 + 1 x4 + 1 x5 + 1 x6 + 1 x7 + 1 x8 + 1 x9 + 1 x10 + 1 x11 + 1 x12 + 1 x13 + 1 x14 + 1 x15 + 1 x16 + 1 x17 + 1 x18 + 1 x19 + 1 x20 + 1 x21 + 1 x22 + 1 x23 + 1 x24 + 1 x25 + 1 x26 + 1 x27 + 1 x28 + 1 x29 + 1 x30 + 1 x31 + 1 x32 + 1 x33 + 1 x34 + 1 x35 + 1 x36 + 1 x37 + 1 x38 + 1 x39 + 1 x40 + 1 x41 + 1 x42 + 1 x43 + 1 x44 + 1 x45 + 1 x46 + 1 x47 + 1 x48 + 1 x49 + 1 x50 + 1 x51 + 1 x52 + 1 x53 + 1 x54 + 1 x55 + 1 x56 + 1 x57 + 1 x58 + 1 x59 + 1 x60 + 1 x61 + 1 x62 + 1 x63 + 1 x64 + 1 x65 + 1 x66 + 1 x67 + 1 x68 + 1 x69 + 1 x70 + 1 x71 + 1 x72 + 1 x73 + 1 x74 + 1 x75 + 1 x76 + 1 x77 + 1 x78 + 1 x79 + 1 x80 + 1 x81 + 1 x82 + 1 x83 + 1 x84 + 1 x85 + 1 x86 + 1 x87 + 1 x88 + 1 x89 + 1 x90 + 1 x91 + 1 x92 + 1 x93 + 1 x94 + 1 x95 + 1 x96 + 1 x97 + 1 x98 + 1 x99 + 1 x100 + 1 x101 + 1 x102 + 1 x103 + 1 x104 + 1 x105 + 1 x106 + 1 x107 + 1 x108 + 1 x109 + 1 x110 + 1 x111 + 1 x112 + 1 x113 + 1 x114 + 1 x115 + 1 x116 + 1 x117 + 1 x118 + 1 x119 + 1 x120 + 1 x121 + 1 x122 + 1 x123 + 1 x124 + 1 x125 + 1 x126 + 1 x127 + 1 x128 + 1 x129 + 1 x130 + 1 x131 + 1 x132 + 1 x133 + 1 x134 + 1 x135 + 1 x136 + 1 x137 + 1 x138 + 1 x139 + 1 x140 + 1 x141 + 1 x142 + 1 x143 + 1 x144 + 1 x145 + 1 x146 + 1 x147 + 1 x148 + 1 x149 + 1 x150 + 1 x151 + 1 x152 + 1 x153 + 1 x154 + 1 x155 + 1 x156 + 1 x157 + 1 x158 + 1 x159 + 1 x160 + 1 x161 + 1 x162 + 1 x163 + 1 x164 + 1 x165 + 1 x166 + 1 x167 + 1 x168 + 1 x169 + 1 x170 + 1 x171 + 1 x172 + 1 x173 + 1 x174 + 1 x175 + 1 x176 + 1 x177 + 1 x178 + 1 x179 + 1 x180 + 1 x181 + 1 x182 + 1 x183 + 1 x184 + 1 x185 + 1 x186 + 1 x187 + 1 x188 + 1 x189 + 1 x190 + 1 x191 + 1 x192 + 1 x193 + 1 x194 + 1 x195 + 1 x196 + 1 x197 + 1 x198 + 1 x199 + 1 x200 + 1 x201 + 1 x202 + 1 x203 + 1 x204 + 1 x205 + 1 x206 + 1 x207 + 1 x208 + 1 x209 + 1 x210 + 1 x211 + 1 x212 + 1 x213 + 1 x214 + 1 x215 + 1 x216 + 1 x217 + 1 x218 + 1 x219 + 1 x220 + 1 x221 + 1 x222 + 1 x223 + 1 x224 + 1 x225 + 1 x226 + 1 x227 + 1 x228 + 1 x229 + 1 x230 + 1 x231 + 1 x232 + 1 x233 + 1 x234 + 1 x235 + 1 x236 + 1 x237 + 1 x238 + 1 x239 + 1 x240 + 1 x241 + 1 x242 + 1 x243 + 1 x244 + 1 x245 + 1 x246 + 1 x247 + 1 x248 + 1 x249 + 1 x250 + 1 x251 + 1 x252 + 1 x253 + 1 x254 + 1 x255 + 1 x256 + 1 x257 + 1 x258 + 1 x259 + 1 x260 + 1 x261 + 1 x262 + 1 x263 + 1 x264 + 1 x265 + 1 x266 + 1 x267 + 1 x268 + 1 x269 + 1 x270 + 1 x271 + 1 x272 + 1 x273 + 1 x274 + 1 x275 + 1 x276 + 1 x277 + 1 x278 + 1 x279 + 1 x280 + 1 x281 + 1 x282 + 1 x283 + 1 x284 + 1 x285 + 1 x286 + 1 x287 + 1 x288 + 1 x289 + 1 x290 + 1 x291 + 1 x292 + 1 x293 + 1 x294 + 1 x295 + 1 x296 + 1 x297 + 1 x298 + 1 x299 + 1 x300 + 1 x301 + 1 x302 + 1 x303 + 1 x304 + 1 x305 + 1 x306 + 1 x307 + 1 x308 + 1 x309 + 1 x310 + 1 x311 + 1 x312 + 1 x313 + 1 x314 + 1 x315 + 1 x316 + 1 x317 + 1 x318 + 1 x319 + 1 x320 + 1 x321 + 1 x322 + 1 x323 + 1 x324 + 1 x325 + 1 x326 + 1 x327 + 1 x328 + 1 x329 + 1 x330 + 1 x331 + 1 x332 + 1 x333 + 1 x334 + 1 x335 + 1 x336 + 1 x337 + 1 x338 + 1 x339 + 1 x340 + 1 x341 + 1 x342 + 1 x343 + 1 x344 + 1 x345 + 1 x346 + 1 x347 + 1 x348 + 1 x349 + 1 x350 + 1 x351 + 1 x352 + 1 x353 + 1 x354 + 1 x355 + 1 x356 + 1 x357 + 1 x358 + 1 x359 + 1 x360 + 1 x361 + 1 x362 + 1 x363 + 1 x364 + 1 x365 + 1 x366 + 1 x367 + 1 x368 + 1 x369 + 1 x370 + 1 x371 + 1 x372 + 1 x373 + 1 x374 + 1 x375 + 1 x376 + 1 x377 + 1 x378 + 1 x379 + 1 x380 + 1 x381 + 1 x382 + 1 x383 + 1 x384 + 1 x385 + 1 x386 + 1 x387 + 1 x388 + 1 x389 + 1 x390 + 1 x391 + 1 x392 + 1 x393 + 1 x394 + 1 x395 + 1 x396 + 1 x397 + 1 x398 + 1 x399 + 1 x400 + 1 x401 + 1 x402 + 1 x403 + 1 x404 + 1 x405 + 1 x406 + 1 x407 + 1 x408 + 1 x409 + 1 x410 + 1 x411 + 1 x412 + 1 x413 + 1 x414 + 1 x415 + 1 x416 + 1 x417 + 1 x418 + 1 x419 + 1 x420 + 1 x421 + 1 x422 + 1 x423 + 1 x424 + 1 x425 + 1 x426 + 1 x427 + 1 x428 + 1 x429 + 1 x430 + 1 x431 + 1 x432 + 1 x433 + 1 x434 + 1 x435 + 1 x436 + 1 x437 + 1 x438 + 1 x439 + 1 x440 + 1 x441 + 1 x442 + 1 x443 + 1 x444 + 1 x445 + 1 x446 + 1 x447 + 1 x448 + 1 x449 + 1 x450 + 1 x451 + 1 x452 + 1 x453 + 1 x454 + 1 x455 + 1 x456 + 1 x457 + 1 x458 + 1 x459 + 1 x460 + 1 x461 + 1 x462 + 1 x463 + 1 x464 + 1 x465 + 1 x466 + 1 x467 + 1 x468 + 1 x469 + 1 x470 + 1 x471 + 1 x472 + 1 x473 + 1 x474 + 1 x475 + 1 x476 + 1 x477 + 1 x478 + 1 x479 + 1 x480 + 1 x481 + 1 x482 + 1 x483 + 1 x484 + 1 x485 + 1 x486 + 1 x487 + 1 x488 + 1 x489 + 1 x490 + 1 x491 + 1 x492 + 1 x493 + 1 x494 + 1 x495 + 1 x496 + 1 x497 + 1 x498 + 1 x499 + 1 x500

subject to
C1: + x132 + x144 <= 1
C2: + x43 + x390 <= 1
C3: + x19 + x122 <= 1
C4: + x10 + x85 <= 1
C5: + x56 + x413 <= 1
C6: + x4 + x171 <= 1
C7: + x6 + x270 <= 1
C8: + x215 + x233 <= 1
C9: + x24 + x27 <= 1
C10: + x7 + x55 <= 1
C11: + x19 + x320 <= 1
C12: + x129 + x260 <= 1
C13: + x175 + x344 <= 1
C14: + x14 + x33 <= 1
C15: + x9 + x143 <= 1
C16: + x41 + x67 <= 1
C17: + x268 + x383 <= 1
C18: + x5 + x105 <= 1
C19: + x17 + x191 <= 1
C20: + x231 + x342 <= 1
C21: + x43 + x89 <= 1
C22: + x6 + x85 <= 1
C23: + x7 + x99 <= 1
C24: + x8 + x369 <= 1
C25: + x179 + x497 <= 1
C26: + x17 + x476 <= 1
C27: + x157 + x193 <= 1
C28: + x57 + x195 <= 1
C29: + x41 + x466 <= 1
C30: + x168 + x215 <= 1
C31: + x17 + x206 <= 1
C32: + x16 + x144 <= 1
C33: + x67 + x488 <= 1
C34: + x44 + x236 <= 1
C35: + x53 + x183 <= 1
C36: + x91 + x482 <= 1
C37: + x139 + x142 <= 1
C38: + x142 + x177 <= 1
C39: + x303 + x368 <= 1
C40: + x6 + x188 <= 1
C41: + x17 + x309 <= 1
C42: + x82 + x105 <= 1
C43: + x79 + x90 <= 1
C44: + x209 + x388 <= 1
C45: + x54 + x446 <= 1
C46: + x2 + x229 <= 1
C47: + x450 + x467 <= 1
C48: + x13 + x51 <= 1
C49: + x277 + x299 <= 1
C50: + x116 + x195 <= 1
C51: + x17 + x182 <= 1
C52: + x12 + x467 <= 1
C53: + x323 + x431 <= 1
C54: + x174 + x439 <= 1
C55: + x2 + x419 <= 1
C56: + x2 + x22 <= 1
C57: + x44 + x70 <= 1
C58: + x4 + x12 <= 1
C59: + x97 + x115 <= 1
C60: + x25 + x133 <= 1
C61: + x5 + x465 <= 1
C62: + x4 + x479 <= 1
C63: + x251 + x490 <= 1
C64: + x16 + x44 <= 1
C65: + x48 + x339 <= 1
C66: + x182 + x392 <= 1
C67: + x2 + x34 <= 1
C68: + x11 + x93 <= 1
C69: + x47 + x446 <= 1
C70: + x153 + x180 <= 1
C71: + x6 + x384 <= 1
C72: + x37 + x244 <= 1
C73: + x90 + x391 <= 1
C74: + x247 + x367 <= 1
C75: + x193 + x466 <= 1
C76: + x5 + x186 <= 1
C77: + x11 + x129 <= 1
C78: + x4 + x69 <= 1
C79: + x91 + x432 <= 1
C80: + x38 + x64 <= 1
C81: + x240 + x409 <= 1
C82: + x83 + x166 <= 1
C83: + x2 + x111 <= 1
C84: + x168 + x197 <= 1
C85: + x27 + x31 <= 1
C86: + x8 + x81 <= 1
C87: + x13 + x30 <= 1
C88: + x234 + x435 <= 1
C89: + x236 + x365 <= 1
C90: + x6 + x11 <= 1
C91: + x6 + x377 <= 1
C92: + x58 + x417 <= 1
C93: + x4 + x61 <= 1
C94: + x51 + x157 <= 1
C95: + x49 + x217 <= 1
C96: + x6 + x63 <= 1
C97: + x2 + x247 <= 1
C98: + x56 + x448 <= 1
C99: + x285 + x492 <= 1
C100: + x131 + x426 <= 1
C101: + x4 + x78 <= 1
C102: + x2 + x274 <= 1
C103: + x139 + x314 <= 1
C104: + x61 + x144 <= 1
C105: + x89 + x292 <= 1
C106: + x80 + x201 <= 1
C107: + x13 + x184 <= 1
C108: + x13 + x21 <= 1
C109: + x281 + x317 <= 1
C110: + x16 + x58 <= 1
C111: + x11 + x79 <= 1
C112: + x21 + x327 <= 1
C113: + x26 + x323 <= 1
C114: + x126 + x154 <= 1
C115: + x4 + x38 <= 1
C116: + x110 + x483 <= 1
C117: + x94 + x425 <= 1
C118: + x112 + x373 <= 1
C119: + x140 + x233 <= 1
C120: + x154 + x167 <= 1
C121: + x20 + x281 <= 1
C122: + x38 + x335 <= 1
C123: + x4 + x179 <= 1
C124: + x35 + x45 <= 1
C125: + x91 + x434 <= 1
C126: + x2 + x363 <= 1
C127: + x48 + x239 <= 1
C128: + x6 + x73 <= 1
C129: + x2 + x438 <= 1
C130: + x17 + x116 <= 1
C131: + x37 + x456 <= 1
C132: + x30 + x339 <= 1
C133: + x58 + x140 <= 1
C134: + x432 + x483 <= 1
C135: + x6 + x236 <= 1
C136: + x91 + x248 <= 1
C137: + x41 + x107 <= 1
C138: + x72 + x166 <= 1
C139: + x85 + x455 <= 1
C140: + x5 + x355 <= 1
C141: + x6 + x125 <= 1
C142: + x333 + x395 <= 1
C143: + x24 + x455 <= 1
C144: + x300 + x340 <= 1
C145: + x11 + x74 <= 1
C146: + x4 + x144 <= 1
C147: + x5 + x8 <= 1
C148: + x17 + x230 <= 1
C149: + x2 + x344 <= 1
C150: + x314 + x468 <= 1
C151: + x4 + x482 <= 1
C152: + x385 + x487 <= 1
C153: + x38 + x405 <= 1
C154: + x59 + x63 <= 1
C155: + x7 + x183 <= 1
C156: + x182 + x423 <= 1
C157: + x8 + x140 <= 1
C158: + x158 + x315 <= 1
C159: + x50 + x463 <= 1
C160: + x35 + x40 <= 1
C161: + x9 + x15 <= 1
C162: + x72 + x367 <= 1
C163: + x210 + x297 <= 1
C164: + x11 + x287 <= 1
C165: + x50 + x253 <= 1
C166: + x150 + x343 <= 1
C167: + x26 + x102 <= 1
C168: + x55 + x80 <= 1
C169: + x2 + x114 <= 1
C170: + x172 + x245 <= 1
C171: + x8 + x192 <= 1
C172: + x192 + x250 <= 1
C173: + x225 + x415 <= 1
C174: + x5 + x128 <= 1
C175: + x158 + x335 <= 1
C176: + x89 + x108 <= 1
C177: + x76 + x273 <= 1
C178: + x58 + x331 <= 1
C179: + x30 + x477 <= 1
C180: + x5 + x362 <= 1
C181: + x180 + x500 <= 1
C182: + x101 + x166 <= 1
C183: + x83 + x272 <= 1
C184: + x85 + x224 <= 1
C185: + x69 + x370 <= 1
C186: + x2 + x169 <= 1
C187: + x131 + x260 <= 1
C188: + x40 + x267 <= 1
C189: + x61 + x65 <= 1
C190: + x74 + x121 <= 1
C191: + x87 + x228 <= 1
C192: + x4 + x161 <= 1
C193: + x74 + x458 <= 1
C194: + x38 + x212 <= 1
C195: + x213 + x318 <= 1
C196: + x303 + x444 <= 1
C197: + x6 + x443 <= 1
C198: + x36 + x276 <= 1
C199: + x2 + x75 <= 1
C200: + x185 + x471 <= 1
C201: + x60 + x138 <= 1
C202: + x16 + x315 <= 1
C203: + x9 + x133 <= 1
C204: + x8 + x181 <= 1
C205: + x2 + x150 <= 1
C206: + x56 + x95 <= 1
C207: + x17 + x69 <= 1
C208: + x11 + x334 <= 1
C209: + x385 + x441 <= 1
C210: + x148 + x466 <= 1
C211: + x4 + x351 <= 1
C212: + x15 + x60 <= 1
C213: + x235 + x240 <= 1
C214: + x8 + x198 <= 1
C215: + x2 + x7 <= 1
C216: + x4 + x254 <= 1
C217: + x8 + x105 <= 1
C218: + x63 + x264 <= 1
C219: + x291 + x476 <= 1
C220: + x213 + x369 <= 1
C221: + x202 + x346 <= 1
C222: + x196 + x304 <= 1
C223: + x4 + x25 <= 1
C224: + x17 + x113 <= 1
C225: + x22 + x346 <= 1
C226: + x182 + x278 <= 1
C227: + x351 + x354 <= 1
C228: + x3 + x499 <= 1
C229: + x432 + x438 <= 1
C230: + x6 + x19 <= 1
C231: + x82 + x226 <= 1
C232: + x199 + x481 <= 1
C233: + x92 + x238 <= 1
C234: + x72 + x442 <= 1
C235: + x42 + x428 <= 1
C236: + x298 + x389 <= 1
C237: + x36 + x190 <= 1
C238: + x72 + x349 <= 1
C239: + x147 + x489 <= 1
C240: + x8 + x29 <= 1
C241: + x156 + x448 <= 1
C242: + x140 + x474 <= 1
C243: + x14 + x449 <= 1
C244: + x74 + x174 <= 1
C245: + x11 + x63 <= 1
C246: + x2 + x68 <= 1
C247: + x50 + x74 <= 1
C248: + x18 + x161 <= 1
C249: + x27 + x126 <= 1
C250: + x8 + x174 <= 1
C251: + x174 + x251 <= 1
C252: + x179 + x273 <= 1
C253: + x139 + x258 <= 1
C254: + x48 + x261 <= 1
C255: + x258 + x363 <= 1
C256: + x10 + x109 <= 1
C257: + x2 + x32 <= 1
C258: + x136 + x266 <= 1
C259: + x4 + x227 <= 1
C260: + x269 + x469 <= 1
C261: + x2 + x187 <= 1
C262: + x97 + x121 <= 1
C263: + x161 + x275 <= 1
C264: + x88 + x259 <= 1
C265: + x168 + x456 <= 1
C266: + x168 + x171 <= 1
C267: + x6 + x28 <= 1
C268: + x79 + x143 <= 1
C269: + x44 + x278 <= 1
C270: + x8 + x300 <= 1
C271: + x287 + x326 <= 1
C272: + x91 + x136 <= 1
C273: + x36 + x433 <= 1
C274: + x234 + x365 <= 1
C275: + x76 + x109 <= 1
C276: + x39 + x113 <= 1
C277: + x4 + x175 <= 1
C278: + x6 + x266 <= 1
C279: + x10 + x188 <= 1
C280: + x30 + x41 <= 1
C281: + x48 + x314 <= 1
C282: + x63 + x216 <= 1
C283: + x2 + x402 <= 1
C284: + x185 + x485 <= 1
C285: + x6 + x208 <= 1
C286: + x16 + x200 <= 1
C287: + x27 + x69 <= 1
C288: + x9 + x179 <= 1
C289: + x11 + x155 <= 1
C290: + x44 + x52 <= 1
C291: + x27 + x154 <= 1
C292: + x179 + x493 <= 1
C293: + x180 + x455 <= 1
C294: + x54 + x119 <= 1
C295: + x328 + x380 <= 1
C296: + x258 + x399 <= 1
C297: + x186 + x423 <= 1
C298: + x5 + x252 <= 1
C299: + x6 + x244 <= 1
C300: + x140 + x189 <= 1
C301: + x12 + x156 <= 1
C302: + x285 + x431 <= 1
C303: + x203 + x330 <= 1
C304: + x9 + x313 <= 1
C305: + x148 + x190 <= 1
C306: + x5 + x48 <= 1
C307: + x435 + x463 <= 1
C308: + x9 + x43 <= 1
C309: + x8 + x19 <= 1
C310: + x48 + x140 <= 1
C311: + x187 + x198 <= 1
C312: + x243 + x372 <= 1
C313: + x163 + x474 <= 1
C314: + x10 + x288 <= 1
C315: + x1 + x485 <= 1
C316: + x2 + x94 <= 1
C317: + x112 + x358 <= 1
C318: + x71 + x468 <= 1
C319: + x27 + x80 <= 1
C320: + x2 + x249 <= 1
C321: + x233 + x270 <= 1
C322: + x13 + x47 <= 1
C323: + x7 + x445 <= 1
C324: + x97 + x461 <= 1
C325: + x88 + x164 <= 1
C326: + x7 + x90 <= 1
C327: + x19 + x487 <= 1
C328: + x55 + x104 <= 1
C329: + x64 + x344 <= 1
C330: + x78 + x319 <= 1
C331: + x33 + x490 <= 1
C332: + x99 + x134 <= 1
C333: + x183 + x246 <= 1
C334: + x25 + x137 <= 1
C335: + x117 + x122 <= 1
C336: + x71 + x297 <= 1
C337: + x2 + x472 <= 1
C338: + x28 + x462 <= 1
C339: + x8 + x229 <= 1
C340: + x329 + x437 <= 1
C341: + x56 + x495 <= 1
C342: + x161 + x235 <= 1
C343: + x5 + x23 <= 1
C344: + x224 + x472 <= 1
C345: + x71 + x444 <= 1
C346: + x8 + x12 <= 1
C347: + x111 + x298 <= 1
C348: + x2 + x87 <= 1
C349: + x48 + x419 <= 1
C350: + x184 + x331 <= 1
C351: + x14 + x79 <= 1
C352: + x6 + x50 <= 1
C353: + x199 + x386 <= 1
C354: + x18 + x140 <= 1
C355: + x50 + x480 <= 1
C356: + x13 + x38 <= 1
C357: + x5 + x91 <= 1
C358: + x188 + x296 <= 1
C359: + x389 + x442 <= 1
C360: + x127 + x224 <= 1
C361: + x166 + x444 <= 1
C362: + x167 + x402 <= 1
C363: + x95 + x194 <= 1
C364: + x425 + x494 <= 1
C365: + x53 + x439 <= 1
C366: + x2 + x142 <= 1
C367: + x395 + x429 <= 1
C368: + x14 + x305 <= 1
C369: + x4 + x460 <= 1
C370: + x15 + x36 <= 1
C371: + x121 + x406 <= 1
C372: + x21 + x188 <= 1
C373: + x51 + x491 <= 1
C374: + x426 + x430 <= 1
C375: + x6 + x357 <= 1
C376: + x4 + x33 <= 1
C377: + x31 + x164 <= 1
C378: + x26 + x84 <= 1
C379: + x72 + x232 <= 1
C380: + x251 + x294 <= 1
C381: + x15 + x112 <= 1
C382: + x7 + x185 <= 1
C383: + x82 + x250 <= 1
C384: + x31 + x51 <= 1
C385: + x176 + x198 <= 1
C386: + x215 + x448 <= 1
C387: + x17 + x168 <= 1
C388: + x214 + x456 <= 1
C389: + x49 + x172 <= 1
C390: + x41 + x217 <= 1
C391: + x12 + x453 <= 1
C392: + x31 + x289 <= 1
C393: + x98 + x461 <= 1
C394: + x17 + x453 <= 1
C395: + x6 + x76 <= 1
C396: + x155 + x321 <= 1
C397: + x2 + x124 <= 1
C398: + x197 + x401 <= 1
C399: + x261 + x302 <= 1
C400: + x426 + x491 <= 1
C401: + x27 + x102 <= 1
C402: + x90 + x251 <= 1
C403: + x283 + x396 <= 1
C404: + x95 + x358 <= 1
C405: + x5 + x360 <= 1
C406: + x101 + x359 <= 1
C407: + x92 + x284 <= 1
C408: + x4 + x139 <= 1
C409: + x25 + x337 <= 1
C410: + x90 + x135 <= 1
C411: + x17 + x227 <= 1
C412: + x42 + x393 <= 1
C413: + x99 + x277 <= 1
C414: + x31 + x384 <= 1
C415: + x37 + x67 <= 1
C416: + x139 + x151 <= 1
C417: + x149 + x178 <= 1
C418: + x199 + x500 <= 1
C419: + x16 + x220 <= 1
C420: + x74 + x353 <= 1
C421: + x62 + x71 <= 1
C422: + x20 + x285 <= 1
C423: + x135 + x458 <= 1
C424: + x4 + x183 <= 1
C425: + x29 + x306 <= 1
C426: + x213 + x471 <= 1
C427: + x45 + x168 <= 1
C428: + x12 + x55 <= 1
C429: + x123 + x170 <= 1
C430: + x31 + x300 <= 1
C431: + x131 + x322 <= 1
C432: + x5 + x315 <= 1
C433: + x255 + x384 <= 1
C434: + x19 + x468 <= 1
C435: + x367 + x388 <= 1
C436: + x69 + x323 <= 1
C437: + x125 + x424 <= 1
C438: + x17 + x345 <= 1
C439: + x146 + x389 <= 1
C440: + x111 + x247 <= 1
C441: + x441 + x479 <= 1
C442: + x13 + x16 <= 1
C443: + x31 + x226 <= 1
C444: + x197 + x317 <= 1
C445: + x91 + x450 <= 1
C446: + x57 + x82 <= 1
C447: + x9 + x469 <= 1
C448: + x16 + x418 <= 1
C449: + x19 + x392 <= 1
C450: + x66 + x329 <= 1
C451: + x59 + x76 <= 1
C452: + x23 + x190 <= 1
C453: + x53 + x457 <= 1
C454: + x224 + x451 <= 1
C455: + x282 + x297 <= 1
C456: + x2 + x172 <= 1
C457: + x4 + x47 <= 1
C458: + x25 + x36 + x108 <= 1
C459: + x19 + x279 <= 1
C460: + x57 + x158 <= 1
C461: + x21 + x313 <= 1
C462: + x23 + x45 <= 1
C463: + x9 + x257 <= 1
C464: + x454 + x462 <= 1
C465: + x37 + x380 <= 1
C466: + x10 + x42 <= 1
C467: + x312 + x373 <= 1
C468: + x11 + x283 <= 1
C469: + x293 + x406 <= 1
C470: + x41 + x199 <= 1
C471: + x131 + x345 <= 1
C472: + x253 + x391 <= 1
C473: + x80 + x219 <= 1
C474: + x65 + x221 <= 1
C475: + x2 + x387 <= 1
C476: + x28 + x414 <= 1
C477: + x373 + x419 <= 1
C478: + x9 + x127 <= 1
C479: + x117 + x499 <= 1
C480: + x134 + x189 <= 1
C481: + x8 + x382 <= 1
C482: + x123 + x403 <= 1
C483: + x224 + x460 <= 1
C484: + x79 + x459 <= 1
C485: + x27 + x60 <= 1
C486: + x9 + x206 <= 1
C487: + x67 + x403 <= 1
C488: + x4 + x491 <= 1
C489: + x20 + x25 <= 1
C490: + x81 + x219 <= 1
C491: + x155 + x232 <= 1
C492: + x2 + x222 <= 1
C493: + x65 + x362 <= 1
C494: + x4 + x165 <= 1
C495: + x125 + x327 <= 1
C496: + x9 + x58 <= 1
C497: + x8 + x36 <= 1
C498: + x199 + x212 <= 1
C499: + x14 + x452 <= 1
C500: + x171 + x488 <= 1
C501: + x2 + x412 <= 1
C502: + x2 + x79 <= 1
C503: + x330 + x484 <= 1
C504: + x204 + x407 <= 1
C505: + x12 + x343 <= 1
C506: + x150 + x191 <= 1
C507: + x425 + x458 <= 1
C508: + x14 + x39 <= 1
C509: + x35 + x481 <= 1
C510: + x14 + x138 <= 1
C511: + x53 + x101 <= 1
C512: + x108 + x378 <= 1
C513: + x111 + x350 <= 1
C514: + x213 + x270 <= 1
C515: + x112 + x444 <= 1
C516: + x14 + x440 <= 1
C517: + x415 + x496 <= 1
C518: + x7 + x105 <= 1
C519: + x27 + x309 <= 1
C520: + x8 + x379 <= 1
C521: + x16 + x440 <= 1
C522: + x1 + x149 <= 1
C523: + x2 + x27 <= 1
C524: + x31 + x99 <= 1
C525: + x125 + x394 <= 1
C526: + x365 + x398 <= 1
C527: + x273 + x354 <= 1
C528: + x26 + x48 <= 1
C529: + x2 + x449 <= 1
C530: + x76 + x141 <= 1
C531: + x56 + x377 <= 1
C532: + x9 + x271 <= 1
C533: + x214 + x476 <= 1
C534: + x78 + x114 <= 1
C535: + x116 + x387 <= 1
C536: + x4 + x416 <= 1
C537: + x55 + x94 <= 1
C538: + x2 + x72 <= 1
C539: + x2 + x413 <= 1
C540: + x84 + x375 <= 1
C541: + x32 + x54 <= 1
C542: + x9 + x379 <= 1
C543: + x236 + x423 <= 1
C544: + x155 + x179 <= 1
C545: + x13 + x53 <= 1
C546: + x52 + x445 <= 1
C547: + x43 + x165 <= 1
C548: + x18 + x72 <= 1
C549: + x55 + x205 <= 1
C550: + x303 + x403 <= 1
C551: + x7 + x100 <= 1
C552: + x2 + x425 <= 1
C553: + x2 + x20 <= 1
C554: + x212 + x429 <= 1
C555: + x45 + x88 <= 1
C556: + x72 + x286 <= 1
C557: + x4 + x6 <= 1
C558: + x42 + x219 <= 1
C559: + x205 + x246 <= 1
C560: + x321 + x475 <= 1
C561: + x88 + x254 <= 1
C562: + x91 + x132 <= 1
C563: + x57 + x325 <= 1
C564: + x97 + x236 <= 1
C565: + x9 + x40 <= 1
C566: + x241 + x271 <= 1
C567: + x50 + x337 <= 1
C568: + x176 + x497 <= 1
C569: + x57 + x255 <= 1
C570: + x11 + x38 <= 1
C571: + x130 + x132 <= 1
C572: + x4 + x292 <= 1
C573: + x158 + x342 <= 1
C574: + x9 + x20 <= 1
C575: + x2 + x263 <= 1
C576: + x204 + x207 <= 1
C577: + x177 + x405 <= 1
C578: + x33 + x138 <= 1
C579: + x34 + x126 <= 1
C580: + x7 + x91 <= 1
C581: + x134 + x152 <= 1
C582: + x74 + x135 <= 1
C583: + x2 + x21 <= 1
C584: + x215 + x282 <= 1
C585: + x6 + x331 <= 1
C586: + x56 + x125 <= 1
C587: + x241 + x330 <= 1
C588: + x4 + x11 <= 1
C589: + x44 + x228 <= 1
C590: + x35 + x213 <= 1
C591: + x136 + x197 <= 1
C592: + x37 + x110 <= 1
C593: + x212 + x291 <= 1
C594: + x139 + x182 <= 1
C595: + x2 + x467 <= 1
C596: + x25 + x35 <= 1
C597: + x82 + x216 <= 1
C598: + x137 + x242 <= 1
C599: + x83 + x297 <= 1
C600: + x2 + x33 <= 1
C601: + x49 + x409 <= 1
C602: + x39 + x112 <= 1
C603: + x149 + x306 <= 1
C604: + x17 + x301 <= 1
C605: + x26 + x171 <= 1
C606: + x17 + x242 <= 1
C607: + x8 + x15 <= 1
C608: + x310 + x464 <= 1
C609: + x21 + x23 <= 1
C610: + x14 + x495 <= 1
C611: + x2 + x495 <= 1
C612: + x281 + x462 <= 1
C613: + x65 + x267 <= 1
C614: + x228 + x308 <= 1
C615: + x3 + x227 <= 1
C616: + x13 + x43 <= 1
C617: + x36 + x156 <= 1
C618: + x80 + x304 <= 1
C619: + x2 + x288 <= 1
C620: + x111 + x375 <= 1
C621: + x27 + x237 <= 1
C622: + x49 + x178 <= 1
C623: + x7 + x94 <= 1
C624: + x337 + x480 <= 1
C625: + x3 + x150 <= 1
C626: + x4 + x213 <= 1
C627: + x159 + x169 <= 1
C628: + x90 + x237 <= 1
C629: + x17 + x376 <= 1
C630: + x78 + x315 <= 1
C631: + x74 + x446 <= 1
C632: + x37 + x312 <= 1
C633: + x122 + x156 <= 1
C634: + x13 + x428 <= 1
C635: + x17 + x90 <= 1
C636: + x2 + x300 <= 1
C637: + x85 + x111 <= 1
C638: + x3 + x5 <= 1
C639: + x211 + x493 <= 1
C640: + x17 + x292 <= 1
C641: + x46 + x209 <= 1
C642: + x59 + x288 <= 1
C643: + x104 + x479 <= 1
C644: + x252 + x306 <= 1
C645: + x386 + x489 <= 1
C646: + x6 + x411 <= 1
C647: + x10 + x261 <= 1
C648: + x49 + x218 <= 1
C649: + x76 + x240 <= 1
C650: + x86 + x173 <= 1
C651: + x60 + x170 <= 1
C652: + x91 + x275 <= 1
C653: + x12 + x210 <= 1
C654: + x13 + x34 <= 1
C655: + x178 + x231 <= 1
C656: + x28 + x240 <= 1
C657: + x76 + x298 <= 1
C658: + x116 + x422 <= 1
C659: + x45 + x339 <= 1
C660: + x212 + x324 <= 1
C661: + x114 + x365 <= 1
C662: + x7 + x242 <= 1
C663: + x45 + x61 <= 1
C664: + x29 + x244 <= 1
C665: + x13 + x22 <= 1
C666: + x4 + x464 <= 1
C667: + x35 + x231 <= 1
C668: + x45 + x226 <= 1
C669: + x16 + x57 <= 1
C670: + x20 + x62 <= 1
C671: + x3 + x32 <= 1
C672: + x12 + x448 <= 1
C673: + x340 + x488 <= 1
C674: + x169 + x300 <= 1
C675: + x35 + x332 <= 1
C676: + x25 + x49 <= 1
C677: + x92 + x263 <= 1
C678: + x6 + x115 <= 1
C679: + x129 + x370 <= 1
C680: + x8 + x275 <= 1
C681: + x228 + x374 <= 1
C682: + x234 + x332 <= 1
C683: + x100 + x158 <= 1
C684: + x29 + x136 <= 1
C685: + x241 + x308 <= 1
C686: + x159 + x334 <= 1
C687: + x25 + x96 <= 1
C688: + x7 + x20 <= 1
C689: + x29 + x37 <= 1
C690: + x4 + x279 <= 1
C691: + x14 + x68 <= 1
C692: + x79 + x180 <= 1
C693: + x118 + x157 <= 1
C694: + x16 + x223 <= 1
C695: + x146 + x332 <= 1
C696: + x2 + x207 <= 1
C697: + x274 + x287 <= 1
C698: + x217 + x474 <= 1
C699: + x380 + x497 <= 1
C700: + x6 + x277 <= 1
C701: + x10 + x159 <= 1
C702: + x64 + x88 <= 1
C703: + x12 + x54 <= 1
C704: + x50 + x251 <= 1
C705: + x51 + x201 <= 1
C706: + x193 + x235 <= 1
C707: + x11 + x277 <= 1
C708: + x2 + x128 <= 1
C709: + x20 + x393 <= 1
C710: + x4 + x195 <= 1
C711: + x91 + x245 <= 1
C712: + x9 + x323 <= 1
C713: + x55 + x348 <= 1
C714: + x13 + x14 + x178 <= 1
C715: + x5 + x463 <= 1
C716: + x314 + x354 <= 1
C717: + x150 + x273 <= 1
C718: + x15 + x47 <= 1
C719: + x91 + x104 <= 1
C720: + x182 + x402 <= 1
C721: + x19 + x86 <= 1
C722: + x2 + x12 <= 1
C723: + x136 + x286 <= 1
C724: + x264 + x361 <= 1
C725: + x4 + x143 <= 1
C726: + x106 + x205 <= 1
C727: + x199 + x331 <= 1
C728: + x19 + x284 <= 1
C729: + x2 + x498 <= 1
C730: + x58 + x200 <= 1
C731: + x209 + x353 <= 1
C732: + x7 + x184 <= 1
C733: + x88 + x214 <= 1
C734: + x165 + x350 <= 1
C735: + x29 + x83 <= 1
C736: + x21 + x120 <= 1
C737: + x12 + x43 <= 1
C738: + x303 + x434 <= 1
C739: + x90 + x421 <= 1
C740: + x7 + x71 <= 1
C741: + x8 + x333 <= 1
C742: + x11 + x14 <= 1
C743: + x217 + x336 <= 1
C744: + x77 + x319 <= 1
C745: + x33 + x352 <= 1
C746: + x170 + x371 <= 1
C747: + x5 + x438 <= 1
C748: + x235 + x321 <= 1
C749: + x10 + x98 <= 1
C750: + x13 + x155 <= 1
C751: + x7 + x353 <= 1
C752: + x76 + x481 <= 1
C753: + x4 + x19 <= 1
C754: + x181 + x404 <= 1
C755: + x7 + x14 <= 1
C756: + x37 + x118 <= 1
C757: + x38 + x66 <= 1
C758: + x58 + x278 <= 1
C759: + x80 + x147 <= 1
C760: + x423 + x497 <= 1
C761: + x15 + x126 <= 1
C762: + x7 + x175 <= 1
C763: + x73 + x197 <= 1
C764: + x210 + x390 <= 1
C765: + x31 + x33 <= 1
C766: + x5 + x52 <= 1
C767: + x43 + x139 <= 1
C768: + x16 + x68 <= 1
C769: + x146 + x481 <= 1
C770: + x50 + x290 <= 1
C771: + x43 + x48 <= 1
C772: + x35 + x129 <= 1
C773: + x114 + x280 <= 1
C774: + x106 + x371 <= 1
C775: + x42 + x51 <= 1
C776: + x4 + x305 <= 1
C777: + x145 + x366 <= 1
C778: + x76 + x430 <= 1
C779: + x26 + x31 <= 1
C780: + x6 + x459 <= 1
C781: + x102 + x268 <= 1
C782: + x5 + x338 <= 1
C783: + x160 + x176 <= 1
C784: + x333 + x442 <= 1
C785: + x164 + x278 <= 1
C786: + x329 + x469 <= 1
C787: + x10 + x107 <= 1
C788: + x29 + x336 <= 1
C789: + x289 + x485 <= 1
C790: + x82 + x283 <= 1
C791: + x109 + x158 <= 1
C792: + x268 + x308 <= 1
C793: + x4 + x28 <= 1
C794: + x14 + x268 <= 1
C795: + x64 + x254 <= 1
C796: + x58 + x210 <= 1
C797: + x39 + x286 <= 1
C798: + x34 + x443 <= 1
C799: + x111 + x185 <= 1
C800: + x184 + x202 <= 1
C801: + x9 + x62 <= 1
C802: + x8 + x32 <= 1
C803: + x37 + x196 <= 1
C804: + x45 + x146 <= 1
C805: + x27 + x204 <= 1
C806: + x63 + x369 <= 1
C807: + x12 + x496 <= 1
C808: + x17 + x46 <= 1
C809: + x73 + x91 <= 1
C810: + x83 + x130 <= 1
C811: + x2 + x416 <= 1
C812: + x86 + x376 <= 1
C813: + x179 + x197 <= 1
C814: + x55 + x202 <= 1
C815: + x184 + x496 <= 1
C816: + x4 + x327 <= 1
C817: + x161 + x421 <= 1
C818: + x138 + x276 <= 1
C819: + x37 + x418 <= 1
C820: + x64 + x289 <= 1
C821: + x90 + x158 <= 1
C822: + x245 + x269 <= 1
C823: + x60 + x112 <= 1
C824: + x347 + x349 <= 1
C825: + x270 + x307 <= 1
C826: + x9 + x307 <= 1
C827: + x10 + x389 <= 1
C828: + x12 + x243 <= 1
C829: + x176 + x230 <= 1
C830: + x69 + x277 <= 1
C831: + x232 + x318 <= 1
C832: + x5 + x34 <= 1
C833: + x44 + x436 <= 1
C834: + x317 + x441 <= 1
C835: + x8 + x21 <= 1
C836: + x83 + x472 <= 1
C837: + x186 + x383 <= 1
C838: + x62 + x223 <= 1
C839: + x218 + x243 <= 1
C840: + x3 + x76 <= 1
C841: + x105 + x363 <= 1
C842: + x14 + x92 <= 1
C843: + x79 + x92 <= 1
C844: + x91 + x201 <= 1
C845: + x82 + x150 <= 1
C846: + x153 + x218 <= 1
C847: + x27 + x393 <= 1
C848: + x158 + x345 <= 1
C849: + x223 + x287 <= 1
C850: + x5 + x86 <= 1
C851: + x13 + x49 <= 1
C852: + x52 + x385 <= 1
C853: + x190 + x208 <= 1
C854: + x7 + x443 <= 1
C855: + x19 + x332 <= 1
C856: + x7 + x104 <= 1
C857: + x146 + x170 <= 1
C858: + x46 + x57 <= 1
C859: + x2 + x24 <= 1
C860: + x162 + x306 <= 1
C861: + x160 + x400 <= 1
C862: + x4 + x10 <= 1
C863: + x70 + x86 <= 1
C864: + x17 + x112 <= 1
C865: + x71 + x311 <= 1
C866: + x2 + x478 <= 1
C867: + x185 + x417 <= 1
C868: + x2 + x36 <= 1
C869: + x292 + x346 <= 1
C870: + x14 + x196 <= 1
C871: + x15 + x293 <= 1
C872: + x151 + x397 <= 1
C873: + x74 + x484 <= 1
C874: + x28 + x218 <= 1
C875: + x120 + x265 <= 1
C876: + x386 + x403 <= 1
C877: + x167 + x420 <= 1
C878: + x26 + x65 <= 1
C879: + x316 + x427 <= 1
C880: + x11 + x405 <= 1
C881: + x211 + x394 <= 1
C882: + x2 + x93 <= 1
C883: + x113 + x437 <= 1
C884: + x204 + x441 <= 1
C885: + x5 + x192 <= 1
C886: + x6 + x56 <= 1
C887: + x79 + x163 <= 1
C888: + x16 + x208 <= 1
C889: + x269 + x373 <= 1
C890: + x34 + x151 <= 1
C891: + x9 + x24 <= 1
C892: + x152 + x459 <= 1
C893: + x2 + x283 <= 1
C894: + x27 + x259 <= 1
C895: + x327 + x356 <= 1
C896: + x8 + x357 <= 1
C897: + x57 + x260 <= 1
C898: + x94 + x216 <= 1
C899: + x51 + x445 <= 1
C900: + x23 + x94 <= 1
C901: + x79 + x111 <= 1
C902: + x73 + x146 <= 1
C903: + x4 + x15 <= 1
C904: + x60 + x126 <= 1
C905: + x44 + x232 <= 1
C906: + x227 + x350 <= 1
C907: + x320 + x424 <= 1
C908: + x6 + x13 <= 1
C909: + x27 + x471 <= 1
C910: + x10 + x74 <= 1
C911: + x283 + x298 <= 1
C912: + x58 + x72 <= 1
C913: + x244 + x429 <= 1
C914: + x10 + x165 <= 1
C915: + x113 + x186 <= 1
C916: + x395 + x407 <= 1
C917: + x106 + x436 <= 1
C918: + x80 + x187 <= 1
C919: + x136 + x245 <= 1
C920: + x4 + x301 <= 1
C921: + x352 + x435 <= 1
C922: + x7 + x268 <= 1
C923: + x113 + x265 <= 1
C924: + x197 + x284 <= 1
C925: + x5 + x401 <= 1
C926: + x34 + x357 <= 1
C927: + x62 + x322 <= 1
C928: + x74 + x465 <= 1
C929: + x29 + x66 <= 1
C930: + x195 + x378 <= 1
C931: + x83 + x159 <= 1
C932: + x168 + x196 <= 1
C933: + x7 + x328 <= 1
C934: + x8 + x80 <= 1
C935: + x28 + x156 <= 1
C936: + x236 + x453 <= 1
C937: + x13 + x27 <= 1
C938: + x32 + x326 <= 1
C939: + x110 + x433 <= 1
C940: + x121 + x133 <= 1
C941: + x364 + x399 <= 1
C942: + x8 + x221 <= 1
C943: + x193 + x447 <= 1
C944: + x2 + x62 <= 1
C945: + x86 + x200 <= 1
C946: + x13 + x234 <= 1
C947: + x38 + x285 <= 1
C948: + x257 + x292 <= 1
C949: + x5 + x31 <= 1
C950: + x91 + x368 <= 1
C951: + x2 + x345 <= 1
C952: + x60 + x412 <= 1
C953: + x44 + x137 <= 1
C954: + x255 + x394 <= 1
C955: + x88 + x196 <= 1
C956: + x6 + x58 <= 1
C957: + x36 + x42 <= 1
C958: + x79 + x173 <= 1
C959: + x83 + x340 <= 1
C960: + x194 + x381 <= 1
C961: + x448 + x474 <= 1
C962: + x4 + x177 <= 1
C963: + x5 + x67 <= 1
C964: + x162 + x364 <= 1
C965: + x11 + x362 <= 1
C966: + x2 + x123 <= 1
C967: + x47 + x261 <= 1
C968: + x122 + x454 <= 1
C969: + x91 + x234 <= 1
C970: + x9 + x149 <= 1
C971: + x56 + x79 <= 1
C972: + x389 + x470 <= 1
C973: + x19 + x361 <= 1
C974: + x196 + x431 <= 1
C975: + x14 + x396 <= 1
C976: + x15 + x44 <= 1
C977: + x53 + x302 <= 1
C978: + x2 + x55 <= 1
C979: + x157 + x255 <= 1
C980: + x27 + x41 + x82 <= 1
C981: + x4 + x142 <= 1
C982: + x282 + x295 <= 1
C983: + x20 + x175 <= 1
C984: + x7 + x24 <= 1
C985: + x367 + x437 <= 1
C986: + x259 + x454 <= 1
C987: + x34 + x428 <= 1
C988: + x53 + x370 <= 1
C989: + x10 + x40 <= 1
C990: + x2 + x195 <= 1
C991: + x32 + x201 <= 1
C992: + x35 + x42 <= 1
C993: + x289 + x432 <= 1
C994: + x65 + x442 <= 1
C995: + x7 + x68 <= 1
C996: + x121 + x473 <= 1
C997: + x140 + x220 <= 1
C998: + x25 + x397 <= 1
C999: + x14 + x52 <= 1
C1000: + x110 + x256 <= 1
C1001: + x66 + x122 <= 1
C1002: + x38 + x428 <= 1
C1003: + x267 + x360 <= 1
C1004: + x150 + x285 <= 1
C1005: + x7 + x128 <= 1
C1006: + x2 + x16 <= 1
C1007: + x194 + x307 <= 1
C1008: + x4 + x243 <= 1
C1009: + x5 + x13 <= 1
C1010: + x88 + x97 <= 1
C1011: + x15 + x257 <= 1
C1012: + x381 + x412 <= 1
C1013: + x2 + x171 <= 1
C1014: + x121 + x258 <= 1
C1015: + x222 + x325 <= 1
C1016: + x4 + x18 <= 1
C1017: + x169 + x422 <= 1
C1018: + x116 + x364 <= 1
C1019: + x196 + x210 <= 1
C1020: + x196 + x293 <= 1
C1021: + x92 + x385 <= 1
C1022: + x151 + x215 <= 1
C1023: + x110 + x378 <= 1
C1024: + x28 + x83 <= 1
C1025: + x174 + x208 <= 1
C1026: + x4 + x191 <= 1
C1027: + x162 + x358 <= 1
C1028: + x8 + x38 <= 1
C1029: + x193 + x230 <= 1
C1030: + x158 + x473 <= 1
C1031: + x78 + x127 <= 1
C1032: + x425 + x452 <= 1
C1033: + x162 + x164 <= 1
C1034: + x409 + x446 <= 1
C1035: + x63 + x470 <= 1
C1036: + x56 + x93 <= 1
C1037: + x41 + x87 <= 1
C1038: + x286 + x309 <= 1
C1039: + x7 + x470 <= 1
C1040: + x182 + x324 <= 1
C1041: + x11 + x336 <= 1
C1042: + x77 + x416 <= 1
C1043: + x131 + x215 <= 1
C1044: + x12 + x418 <= 1
C1045: + x106 + x287 <= 1
C1046: + x6 + x97 <= 1
C1047: + x32 + x472 <= 1
C1048: + x47 + x483 <= 1
C1049: + x12 + x16 + x388 <= 1
C1050: + x70 + x393 <= 1
C1051: + x23 + x182 <= 1
C1052: + x160 + x413 <= 1
C1053: + x25 + x352 <= 1
C1054: + x19 + x238 <= 1
C1055: + x4 + x23 <= 1
C1056: + x5 + x486 <= 1
C1057: + x24 + x76 <= 1
C1058: + x29 + x484 <= 1
C1059: + x4 + x265 <= 1
C1060: + x23 + x37 <= 1
C1061: + x6 + x21 <= 1
C1062: + x172 + x354 <= 1
C1063: + x2 + x221 <= 1
C1064: + x297 + x359 <= 1
C1065: + x162 + x383 <= 1
C1066: + x24 + x185 <= 1
C1067: + x19 + x162 <= 1
C1068: + x219 + x378 <= 1
C1069: + x76 + x465 <= 1
C1070: + x23 + x408 <= 1
C1071: + x5 + x207 <= 1
C1072: + x17 + x344 <= 1
C1073: + x7 + x223 <= 1
C1074: + x2 + x233 <= 1
C1075: + x157 + x341 <= 1
C1076: + x213 + x426 <= 1
C1077: + x37 + x181 <= 1
C1078: + x133 + x222 <= 1
C1079: + x2 + x26 <= 1
C1080: + x264 + x347 <= 1
C1081: + x12 + x262 <= 1
C1082: + x6 + x328 <= 1
C1083: + x129 + x488 <= 1
C1084: + x166 + x276 <= 1
C1085: + x320 + x338 <= 1
C1086: + x225 + x487 <= 1
C1087: + x4 + x467 <= 1
C1088: + x178 + x182 <= 1
C1089: + x69 + x88 <= 1
C1090: + x154 + x482 <= 1
C1091: + x10 + x293 <= 1
C1092: + x21 + x30 + x149 <= 1
C1093: + x67 + x272 <= 1
C1094: + x68 + x251 <= 1
C1095: + x74 + x200 <= 1
C1096: + x185 + x372 <= 1
C1097: + x131 + x391 <= 1
C1098: + x61 + x415 <= 1
C1099: + x53 + x89 <= 1
C1100: + x9 + x34 <= 1
C1101: + x45 + x142 <= 1
C1102: + x17 + x133 <= 1
C1103: + x185 + x209 <= 1
C1104: + x11 + x495 <= 1
C1105: + x292 + x317 <= 1
C1106: + x55 + x392 <= 1
C1107: + x11 + x60 <= 1
C1108: + x9 + x177 <= 1
C1109: + x137 + x326 <= 1
C1110: + x229 + x415 <= 1
C1111: + x250 + x317 <= 1
C1112: + x74 + x327 <= 1
C1113: + x55 + x289 <= 1
C1114: + x130 + x469 <= 1
C1115: + x34 + x153 <= 1
C1116: + x4 + x89 <= 1
C1117: + x16 + x25 <= 1
C1118: + x5 + x107 <= 1
C1119: + x55 + x206 <= 1
C1120: + x2 + x269 <= 1
C1121: + x21 + x86 <= 1
C1122: + x131 + x169 <= 1
C1123: + x23 + x213 <= 1
C1124: + x17 + x478 <= 1
C1125: + x64 + x146 <= 1
C1126: + x111 + x124 <= 1
C1127: + x2 + x450 <= 1
C1128: + x5 + x250 <= 1
C1129: + x143 + x463 <= 1
C1130: + x8 + x93 <= 1
C1131: + x30 + x240 <= 1
C1132: + x4 + x5 <= 1
C1133: + x168 + x451 <= 1
C1134: + x26 + x56 <= 1
C1135: + x9 + x90 <= 1
C1136: + x27 + x176 <= 1
C1137: + x298 + x360 <= 1
C1138: + x388 + x486 <= 1
C1139: + x16 + x45 <= 1
C1140: + x218 + x299 <= 1
C1141: + x353 + x437 <= 1
C1142: + x2 + x47 <= 1
C1143: + x285 + x452 <= 1
C1144: + x13 + x249 <= 1
C1145: + x5 + x46 <= 1
C1146: + x126 + x141 <= 1
C1147: + x8 + x17 <= 1
C1148: + x72 + x337 <= 1
C1149: + x157 + x316 <= 1
C1150: + x133 + x160 <= 1
C1151: + x243 + x374 <= 1
C1152: + x199 + x368 <= 1
C1153: + x72 + x248 <= 1
C1154: + x78 + x205 <= 1
C1155: + x4 + x291 <= 1
C1156: + x6 + x203 <= 1
C1157: + x9 + x355 <= 1
C1158: + x82 + x349 <= 1
C1159: + x8 + x162 <= 1
C1160: + x121 + x338 <= 1
C1161: + x169 + x356 <= 1
C1162: + x17 + x326 <= 1
C1163: + x16 + x280 <= 1
C1164: + x76 + x96 <= 1
C1165: + x159 + x489 <= 1
C1166: + x114 + x225 <= 1
C1167: + x336 + x413 <= 1
C1168: + x6 + x92 <= 1
C1169: + x4 + x7 + x8 + x35 <= 1
C1170: + x328 + x375 <= 1
C1171: + x384 + x417 <= 1
C1172: + x149 + x239 <= 1
C1173: + x21 + x367 <= 1
C1174: + x206 + x460 <= 1
C1175: + x180 + x224 <= 1
C1176: + x2 + x183 <= 1
C1177: + x378 + x453 <= 1
C1178: + x4 + x14 <= 1
C1179: + x60 + x121 <= 1
C1180: + x460 + x486 <= 1
C1181: + x44 + x227 <= 1
C1182: + x329 + x342 <= 1
C1183: + x131 + x248 <= 1
C1184: + x169 + x319 <= 1
C1185: + x88 + x246 <= 1
C1186: + x18 + x279 <= 1
C1187: + x6 + x16 <= 1
C1188: + x82 + x215 <= 1
C1189: + x2 + x40 <= 1
C1190: + x9 + x318 <= 1
C1191: + x121 + x397 <= 1
C1192: + x157 + x238 <= 1
C1193: + x4 + x30 <= 1
C1194: + x6 + x163 <= 1
C1195: + x8 + x10 <= 1
C1196: + x54 + x276 <= 1
C1197: + x4 + x58 <= 1
C1198: + x24 + x43 <= 1
C1199: + x8 + x429 <= 1
C1200: + x2 + x494 <= 1
C1201: + x2 + x81 <= 1
C1202: + x93 + x152 <= 1
C1203: + x32 + x59 <= 1
C1204: + x18 + x150 <= 1
C1205: + x16 + x204 <= 1
C1206: + x109 + x211 <= 1
C1207: + x5 + x89 <= 1
C1208: + x289 + x415 <= 1
C1209: + x6 + x290 <= 1
C1210: + x9 + x28 <= 1
C1211: + x29 + x71 <= 1
C1212: + x39 + x134 <= 1
C1213: + x7 + x83 <= 1
C1214: + x45 + x341 <= 1
C1215: + x84 + x135 <= 1
C1216: + x2 + x109 <= 1
C1217: + x421 + x422 <= 1
C1218: + x361 + x471 <= 1
C1219: + x89 + x252 <= 1
C1220: + x343 + x347 <= 1
C1221: + x16 + x160 <= 1
C1222: + x45 + x71 <= 1
C1223: + x9 + x235 <= 1
C1224: + x449 + x498 <= 1
C1225: + x51 + x167 <= 1
C1226: + x13 + x421 <= 1
C1227: + x244 + x260 <= 1
C1228: + x15 + x385 <= 1
C1229: + x91 + x498 <= 1
C1230: + x3 + x6 <= 1
C1231: + x315 + x333 <= 1
C1232: + x6 + x9 <= 1
C1233: + x19 + x408 <= 1
C1234: + x10 + x78 <= 1
C1235: + x38 + x288 <= 1
C1236: + x29 + x357 <= 1
C1237: + x30 + x147 <= 1
C1238: + x14 + x249 <= 1
C1239: + x6 + x172 <= 1
C1240: + x162 + x216 <= 1
C1241: + x17 + x293 <= 1
C1242: + x131 + x309 <= 1
C1243: + x87 + x372 <= 1
C1244: + x53 + x203 <= 1
C1245: + x26 + x78 <= 1
C1246: + x347 + x383 <= 1
C1247: + x58 + x181 <= 1
C1248: + x149 + x169 <= 1
C1249: + x56 + x283 <= 1
C1250: + x88 + x465 <= 1
C1251: + x16 + x120 <= 1
C1252: + x24 + x145 <= 1
C1253: + x57 + x125 <= 1
C1254: + x8 + x59 <= 1
C1255: + x322 + x411 <= 1
C1256: + x31 + x291 <= 1
C1257: + x89 + x294 <= 1
C1258: + x55 + x116 <= 1
C1259: + x283 + x361 <= 1
C1260: + x111 + x476 <= 1
C1261: + x64 + x447 <= 1
C1262: + x48 + x81 <= 1
C1263: + x225 + x387 <= 1
C1264: + x51 + x162 <= 1
C1265: + x63 + x130 <= 1
C1266: + x13 + x257 <= 1
C1267: + x26 + x422 <= 1
C1268: + x10 + x119 <= 1
C1269: + x2 + x50 <= 1
C1270: + x32 + x60 + x176 <= 1
C1271: + x170 + x222 <= 1
C1272: + x53 + x61 <= 1
C1273: + x19 + x253 <= 1
C1274: + x51 + x329 <= 1
C1275: + x7 + x17 <= 1
C1276: + x103 + x468 <= 1
C1277: + x32 + x41 <= 1
C1278: + x14 + x67 <= 1
C1279: + x12 + x202 <= 1
C1280: + x86 + x280 <= 1
C1281: + x88 + x490 <= 1
C1282: + x9 + x10 <= 1
C1283: + x256 + x407 <= 1
C1284: + x59 + x364 <= 1
C1285: + x12 + x53 <= 1
C1286: + x50 + x311 <= 1
C1287: + x3 + x101 <= 1
C1288: + x12 + x295 <= 1
C1289: + x38 + x478 <= 1
C1290: + x9 + x324 <= 1
C1291: + x91 + x303 <= 1
C1292: + x82 + x372 <= 1
C1293: + x57 + x499 <= 1
C1294: + x3 + x266 <= 1
C1295: + x49 + x64 <= 1
C1296: + x78 + x399 <= 1
C1297: + x29 + x204 <= 1
C1298: + x70 + x77 <= 1
C1299: + x6 + x123 <= 1
C1300: + x344 + x464 <= 1
C1301: + x155 + x274 <= 1
C1302: + x8 + x210 <= 1
C1303: + x2 + x11 <= 1
C1304: + x37 + x438 <= 1
C1305: + x117 + x271 <= 1
C1306: + x298 + x493 <= 1
C1307: + x17 + x275 <= 1
C1308: + x8 + x117 <= 1
C1309: + x17 + x232 <= 1
C1310: + x36 + x70 <= 1
C1311: + x182 + x239 <= 1
C1312: + x57 + x63 <= 1
C1313: + x11 + x398 <= 1
C1314: + x3 + x44 <= 1
C1315: + x155 + x294 <= 1
C1316: + x291 + x311 <= 1
C1317: + x2 + x199 <= 1
C1318: + x57 + x430 <= 1
C1319: + x4 + x190 <= 1
C1320: + x17 + x148 <= 1
C1321: + x126 + x229 <= 1
C1322: + x8 + x41 <= 1
C1323: + x29 + x84 <= 1
C1324: + x31 + x301 <= 1
C1325: + x23 + x410 <= 1
C1326: + x17 + x49 <= 1
C1327: + x337 + x454 <= 1
C1328: + x15 + x491 <= 1
C1329: + x19 + x461 <= 1
C1330: + x2 + x120 <= 1
C1331: + x26 + x263 <= 1
C1332: + x16 + x320 <= 1
C1333: + x364 + x484 <= 1
C1334: + x337 + x355 <= 1
C1335: + x28 + x110 <= 1
C1336: + x157 + x323 <= 1
C1337: + x149 + x360 <= 1
C1338: + x277 + x285 <= 1
C1339: + x45 + x209 <= 1
C1340: + x37 + x131 <= 1
C1341: + x20 + x75 <= 1
C1342: + x41 + x241 <= 1
C1343: + x30 + x475 <= 1
C1344: + x124 + x420 <= 1
C1345: + x34 + x85 <= 1
C1346: + x165 + x259 <= 1
C1347: + x26 + x440 <= 1
C1348: + x123 + x405 <= 1
C1349: + x5 + x9 <= 1
C1350: + x4 + x22 <= 1
C1351: + x17 + x124 <= 1
C1352: + x64 + x248 <= 1
C1353: + x120 + x400 <= 1
C1354: + x122 + x400 <= 1
C1355: + x10 + x19 + x118 <= 1
C1356: + x151 + x235 <= 1
C1357: + x9 + x262 <= 1
C1358: + x160 + x214 <= 1
C1359: + x164 + x239 <= 1
C1360: + x85 + x174 <= 1
C1361: + x131 + x433 <= 1
C1362: + x69 + x296 <= 1
C1363: + x4 + x163 <= 1
C1364: + x32 + x265 <= 1
C1365: + x14 + x355 <= 1
C1366: + x43 + x319 <= 1
C1367: + x19 + x163 <= 1
C1368: + x23 + x312 <= 1
C1369: + x298 + x386 <= 1
C1370: + x131 + x159 <= 1
C1371: + x27 + x194 <= 1
C1372: + x43 + x45 <= 1
C1373: + x194 + x238 <= 1
C1374: + x80 + x162 <= 1
C1375: + x37 + x59 <= 1
C1376: + x138 + x241 <= 1
C1377: + x2 + x73 <= 1
C1378: + x76 + x194 <= 1
C1379: + x17 + x341 <= 1
C1380: + x174 + x256 <= 1
C1381: + x105 + x155 <= 1
C1382: + x32 + x226 <= 1
C1383: + x34 + x131 <= 1
C1384: + x161 + x322 <= 1
C1385: + x91 + x470 <= 1
C1386: + x2 + x311 <= 1
C1387: + x86 + x449 <= 1
C1388: + x13 + x302 <= 1
C1389: + x80 + x246 <= 1
C1390: + x74 + x151 <= 1
C1391: + x144 + x225 <= 1
C1392: + x55 + x454 <= 1
C1393: + x10 + x106 <= 1
C1394: + x48 + x477 <= 1
C1395: + x87 + x138 <= 1
C1396: + x26 + x348 <= 1
C1397: + x26 + x143 <= 1
C1398: + x81 + x406 <= 1
C1399: + x180 + x282 <= 1
C1400: + x55 + x359 <= 1
C1401: + x13 + x120 <= 1
C1402: + x51 + x374 <= 1
C1403: + x4 + x27 <= 1
C1404: + x223 + x346 <= 1
C1405: + x163 + x498 <= 1
C1406: + x4 + x466 <= 1
C1407: + x207 + x233 <= 1
C1408: + x76 + x328 <= 1
C1409: + x226 + x322 <= 1
C1410: + x85 + x411 <= 1
C1411: + x50 + x148 <= 1
C1412: + x6 + x17 <= 1
C1413: + x9 + x269 <= 1
C1414: + x53 + x324 <= 1
C1415: + x373 + x483 <= 1
C1416: + x91 + x187 <= 1
C1417: + x6 + x418 <= 1
C1418: + x416 + x447 <= 1
C1419: + x74 + x84 <= 1
C1420: + x64 + x384 <= 1
C1421: + x3 + x114 <= 1
C1422: + x4 + x313 <= 1
C1423: + x23 + x117 <= 1
C1424: + x9 + x377 <= 1
C1425: + x7 + x296 <= 1
C1426: + x227 + x404 <= 1
C1427: + x34 + x337 <= 1
C1428: + x53 + x98 <= 1
C1429: + x66 + x80 <= 1
C1430: + x106 + x268 <= 1
C1431: + x34 + x103 <= 1
C1432: + x44 + x348 <= 1
C1433: + x144 + x234 <= 1
C1434: + x2 + x30 <= 1
C1435: + x57 + x375 <= 1
C1436: + x26 + x152 <= 1
C1437: + x7 + x340 <= 1
C1438: + x8 + x100 <= 1
C1439: + x71 + x404 <= 1
C1440: + x276 + x381 <= 1
C1441: + x223 + x321 <= 1
C1442: + x9 + x87 <= 1
C1443: + x136 + x206 <= 1
C1444: + x38 + x115 <= 1
C1445: + x33 + x77 <= 1
C1446: + x91 + x134 <= 1
C1447: + x54 + x64 <= 1
C1448: + x55 + x489 <= 1
C1449: + x185 + x376 <= 1
C1450: + x40 + x125 <= 1
C1451: + x43 + x289 <= 1
C1452: + x15 + x234 <= 1
C1453: + x153 + x172 <= 1
C1454: + x6 + x189 <= 1
C1455: + x186 + x203 <= 1
C1456: + x351 + x411 <= 1
C1457: + x70 + x160 <= 1
C1458: + x64 + x170 <= 1
C1459: + x67 + x137 <= 1
C1460: + x15 + x153 <= 1
C1461: + x17 + x53 + x352 <= 1
C1462: + x8 + x165 <= 1
C1463: + x5 + x420 <= 1
C1464: + x2 + x257 <= 1
C1465: + x69 + x204 <= 1
C1466: + x6 + x95 <= 1
C1467: + x401 + x492 <= 1
C1468: + x2 + x420 <= 1
C1469: + x8 + x367 <= 1
C1470: + x5 + x230 <= 1
C1471: + x283 + x445 <= 1
C1472: + x202 + x330 <= 1
C1473: + x30 + x236 <= 1
C1474: + x22 + x191 <= 1
C1475: + x325 + x493 <= 1
C1476: + x29 + x462 <= 1
C1477: + x150 + x264 <= 1
C1478: + x155 + x314 <= 1
C1479: + x101 + x129 <= 1
C1480: + x30 + x157 <= 1
C1481: + x23 + x152 <= 1
C1482: + x207 + x433 <= 1
C1483: + x17 + x256 <= 1
C1484: + x44 + x127 <= 1
C1485: + x8 + x13 <= 1
C1486: + x38 + x205 <= 1
C1487: + x101 + x475 <= 1
C1488: + x2 + x84 <= 1
C1489: + x49 + x374 <= 1
C1490: + x4 + x295 <= 1
C1491: + x5 + x185 <= 1
C1492: + x36 + x59 <= 1
C1493: + x19 + x31 <= 1
C1494: + x2 + x255 <= 1
C1495: + x55 + x320 <= 1
C1496: + x27 + x78 <= 1
C1497: + x118 + x141 <= 1
C1498: + x104 + x106 <= 1
C1499: + x91 + x431 <= 1
C1500: + x135 + x136 <= 1
C1501: + x3 + x394 <= 1
C1502: + x22 + x258 <= 1
C1503: + x17 + x457 <= 1
C1504: + x7 + x96 <= 1
C1505: + x166 + x175 <= 1
C1506: + x4 + x211 <= 1
C1507: + x13 + x192 <= 1
C1508: + x26 + x303 <= 1
C1509: + x82 + x186 <= 1
C1510: + x87 + x147 <= 1
C1511: + x362 + x492 <= 1
C1512: + x1 + x5 <= 1
C1513: + x2 + x139 <= 1
C1514: + x105 + x188 <= 1
C1515: + x13 + x29 <= 1
C1516: + x38 + x130 <= 1
C1517: + x342 + x366 <= 1
C1518: + x25 + x139 <= 1
C1519: + x16 + x50 <= 1
C1520: + x76 + x363 <= 1
C1521: + x3 + x7 <= 1
C1522: + x114 + x455 <= 1
C1523: + x29 + x32 <= 1
C1524: + x320 + x423 <= 1
C1525: + x6 + x12 <= 1
C1526: + x345 + x477 <= 1
C1527: + x83 + x217 <= 1
C1528: + x229 + x325 <= 1
C1529: + x121 + x401 <= 1
C1530: + x4 + x159 <= 1
C1531: + x5 + x17 <= 1
C1532: + x17 + x290 <= 1
C1533: + x17 + x247 <= 1
C1534: + x15 + x301 <= 1
C1535: + x9 + x212 <= 1
C1536: + x11 + x316 <= 1
C1537: + x286 + x356 <= 1
C1538: + x18 + x412 <= 1
C1539: + x119 + x320 <= 1
C1540: + x11 + x42 <= 1
C1541: + x56 + x282 <= 1
C1542: + x203 + x291 <= 1
C1543: + x5 + x168 <= 1
C1544: + x19 + x26 <= 1
C1545: + x8 + x155 <= 1
C1546: + x29 + x318 <= 1
C1547: + x4 + x75 <= 1
C1548: + x60 + x499 <= 1
C1549: + x1 + x109 <= 1
C1550: + x251 + x396 <= 1
C1551: + x2 + x97 <= 1
C1552: + x167 + x241 <= 1
C1553: + x44 + x494 <= 1
C1554: + x29 + x242 <= 1
C1555: + x184 + x192 <= 1
C1556: + x33 + x336 <= 1
C1557: + x17 + x95 <= 1
C1558: + x244 + x264 <= 1
C1559: + x366 + x401 <= 1
C1560: + x2 + x5 + x6 + x18 <= 1
C1561: + x45 + x389 <= 1
C1562: + x2 + x61 <= 1
C1563: + x93 + x252 <= 1
C1564: + x437 + x500 <= 1
C1565: + x71 + x222 <= 1
C1566: + x176 + x353 <= 1
C1567: + x360 + x456 <= 1
C1568: + x142 + x145 <= 1
C1569: + x71 + x127 <= 1
C1570: + x6 + x57 <= 1
C1571: + x107 + x347 <= 1
C1572: + x17 + x154 <= 1
C1573: + x10 + x153 <= 1
C1574: + x111 + x259 <= 1
C1575: + x20 + x117 <= 1
C1576: + x12 + x52 <= 1
C1577: + x30 + x70 <= 1
C1578: + x183 + x299 <= 1
C1579: + x95 + x473 <= 1
C1580: + x15 + x29 <= 1
C1581: + x7 + x74 <= 1
C1582: + x130 + x173 <= 1
C1583: + x77 + x161 <= 1
C1584: + x146 + x386 <= 1
C1585: + x77 + x262 <= 1
C1586: + x214 + x266 <= 1
C1587: + x154 + x450 <= 1
C1588: + x195 + x262 <= 1
C1589: + x167 + x379 <= 1
C1590: + x104 + x382 <= 1
C1591: + x177 + x500 <= 1
C1592: + x7 + x134 <= 1
C1593: + x19 + x88 <= 1
C1594: + x11 + x73 <= 1
C1595: + x4 + x141 <= 1
C1596: + x5 + x7 <= 1
C1597: + x162 + x237 <= 1
C1598: + x160 + x426 <= 1
C1599: + x16 + x181 <= 1
C1600: + x74 + x406 <= 1
C1601: + x44 + x102 <= 1
C1602: + x29 + x157 <= 1
C1603: + x10 + x305 <= 1
C1604: + x149 + x180 <= 1
C1605: + x33 + x37 <= 1
C1606: + x240 + x243 <= 1
C1607: + x243 + x256 <= 1
C1608: + x164 + x229 <= 1
C1609: + x7 + x424 <= 1
C1610: + x8 + x48 <= 1
C1611: + x37 + x212 <= 1
C1612: + x2 + x115 <= 1
C1613: + x202 + x395 <= 1
C1614: + x365 + x486 <= 1
C1615: + x12 + x347 <= 1
C1616: + x45 + x492 <= 1
C1617: + x53 + x145 <= 1
C1618: + x148 + x458 <= 1
C1619: + x58 + x255 <= 1
C1620: + x88 + x100 <= 1
C1621: + x35 + x110 <= 1
C1622: + x17 + x220 <= 1
C1623: + x8 + x113 <= 1
C1624: + x241 + x304 <= 1
C1625: + x157 + x284 <= 1
C1626: + x22 + x167 <= 1
C1627: + x88 + x270 <= 1
C1628: + x10 + x314 <= 1
C1629: + x20 + x457 <= 1
C1630: + x175 + x381 <= 1
C1631: + x357 + x371 <= 1
C1632: + x5 + x399 <= 1
C1633: + x15 + x334 <= 1
C1634: + x8 + x37 <= 1
C1635: + x49 + x92 <= 1
C1636: + x131 + x132 <= 1
C1637: + x41 + x286 <= 1
C1638: + x50 + x82 <= 1
C1639: + x5 + x193 <= 1
C1640: + x6 + x223 <= 1
C1641: + x26 + x267 <= 1
C1642: + x126 + x295 <= 1
C1643: + x5 + x435 <= 1
C1644: + x6 + x461 <= 1
C1645: + x16 + x22 <= 1
C1646: + x9 + x97 <= 1
C1647: + x28 + x269 <= 1
C1648: + x30 + x108 <= 1
C1649: + x41 + x330 <= 1
C1650: + x71 + x184 <= 1
C1651: + x2 + x8 <= 1
C1652: + x6 + x131 <= 1
C1653: + x4 + x26 <= 1
C1654: + x395 + x396 <= 1
C1655: + x19 + x272 <= 1
C1656: + x64 + x244 <= 1
C1657: + x43 + x410 <= 1
C1658: + x79 + x135 <= 1
C1659: + x352 + x402 <= 1
C1660: + x10 + x81 <= 1
C1661: + x121 + x377 <= 1
C1662: + x76 + x117 <= 1
C1663: + x10 + x180 <= 1
C1664: + x37 + x194 <= 1
C1665: + x21 + x124 <= 1
C1666: + x240 + x443 <= 1
C1667: + x252 + x280 <= 1
C1668: + x226 + x281 <= 1
C1669: + x83 + x132 <= 1
C1670: + x2 + x410 <= 1
C1671: + x65 + x214 <= 1
C1672: + x11 + x50 <= 1
C1673: + x66 + x218 <= 1
C1674: + x138 + x245 <= 1
C1675: + x61 + x376 <= 1
C1676: + x153 + x209 <= 1
C1677: + x24 + x382 <= 1
C1678: + x18 + x351 <= 1
C1679: + x46 + x380 <= 1
C1680: + x20 + x249 <= 1
C1681: + x140 + x312 <= 1
C1682: + x34 + x340 <= 1
C1683: + x25 + x313 <= 1
C1684: + x142 + x414 <= 1
C1685: + x88 + x464 <= 1
C1686: + x99 + x333 <= 1
C1687: + x3 + x441 <= 1
C1688: + x359 + x432 <= 1
C1689: + x351 + x473 <= 1
C1690: + x15 + x62 <= 1
C1691: + x27 + x307 <= 1
C1692: + x137 + x154 <= 1
C1693: + x8 + x373 <= 1
C1694: + x410 + x427 <= 1
C1695: + x35 + x338 <= 1
C1696: + x367 + x480 <= 1
C1697: + x14 + x25 <= 1
C1698: + x111 + x211 <= 1
C1699: + x38 + x147 <= 1
C1700: + x33 + x237 <= 1
C1701: + x306 + x387 <= 1
C1702: + x17 + x119 <= 1
C1703: + x35 + x193 <= 1
C1704: + x258 + x296 <= 1
C1705: + x5 + x131 <= 1
C1706: + x99 + x102 <= 1
C1707: + x206 + x426 <= 1
C1708: + x76 + x110 <= 1
C1709: + x96 + x103 <= 1
C1710: + x98 + x217 <= 1
C1711: + x34 + x281 <= 1
C1712: + x27 + x213 <= 1
C1713: + x20 + x145 <= 1
C1714: + x12 + x96 <= 1
C1715: + x242 + x414 <= 1
C1716: + x4 + x386 <= 1
C1717: + x5 + x274 <= 1
C1718: + x167 + x427 <= 1
C1719: + x2 + x70 <= 1
C1720: + x348 + x395 <= 1
C1721: + x29 + x400 <= 1
C1722: + x2 + x225 <= 1
C1723: + x112 + x177 <= 1
C1724: + x90 + x299 <= 1
C1725: + x227 + x369 <= 1
C1726: + x101 + x424 <= 1
C1727: + x58 + x351 <= 1
C1728: + x8 + x366 <= 1
C1729: + x84 + x325 <= 1
C1730: + x408 + x478 <= 1
C1731: + x44 + x66 <= 1
C1732: + x2 + x189 <= 1
C1733: + x56 + x98 <= 1
C1734: + x289 + x350 <= 1
C1735: + x47 + x349 <= 1
C1736: + x142 + x174 <= 1
C1737: + x72 + x98 <= 1
C1738: + x2 + x46 <= 1
C1739: + x48 + x54 <= 1
C1740: + x207 + x430 <= 1
C1741: + x17 + x312 <= 1
C1742: + x389 + x398 <= 1
C1743: + x8 + x20 <= 1
C1744: + x11 + x310 <= 1
C1745: + x73 + x490 <= 1
C1746: + x111 + x290 <= 1
C1747: + x116 + x398 <= 1
C1748: + x53 + x198 <= 1
C1749: + x109 + x272 <= 1
C1750: + x100 + x250 <= 1
C1751: + x10 + x15 <= 1
C1752: + x9 + x11 + x56 <= 1
C1753: + x56 + x427 <= 1
C1754: + x4 + x65 <= 1
C1755: + x110 + x390 <= 1
C1756: + x4 + x435 <= 1
C1757: + x34 + x116 <= 1
C1758: + x6 + x91 <= 1
C1759: + x156 + x358 <= 1
C1760: + x206 + x459 <= 1
C1761: + x149 + x333 <= 1
C1762: + x4 + x13 <= 1
C1763: + x58 + x308 <= 1
C1764: + x76 + x362 <= 1
C1765: + x19 + x414 <= 1
C1766: + x19 + x103 <= 1
C1767: + x2 + x39 <= 1
C1768: + x3 + x173 <= 1
C1769: + x8 + x9 <= 1
C1770: + x4 + x57 <= 1
C1771: + x5 + x264 <= 1
C1772: + x253 + x421 <= 1
C1773: + x416 + x425 <= 1
C1774: + x7 + x193 <= 1
C1775: + x37 + x334 <= 1
C1776: + x5 + x407 <= 1
C1777: + x55 + x221 <= 1
C1778: + x29 + x72 <= 1
C1779: + x8 + x356 <= 1
C1780: + x146 + x166 <= 1
C1781: + x138 + x220 <= 1
C1782: + x275 + x452 <= 1
C1783: + x175 + x305 <= 1
C1784: + x6 + x231 <= 1
C1785: + x91 + x225 <= 1
C1786: + x80 + x100 <= 1
C1787: + x9 + x343 <= 1
C1788: + x135 + x267 <= 1
C1789: + x12 + x151 <= 1
C1790: + x4 + x118 <= 1
C1791: + x31 + x247 <= 1
C1792: + x61 + x99 <= 1
C1793: + x5 + x475 <= 1
C1794: + x253 + x496 <= 1
C1795: + x111 + x321 <= 1
C1796: + x139 + x187 <= 1
C1797: + x418 + x447 <= 1
C1798: + x2 + x64 <= 1
C1799: + x223 + x450 <= 1
C1800: + x5 + x29 <= 1
C1801: + x18 + x253 <= 1
C1802: + x28 + x214 <= 1
C1803: + x83 + x451 <= 1
C1804: + x30 + x53 <= 1
C1805: + x13 + x410 <= 1
C1806: + x5 + x271 <= 1
C1807: + x17 + x24 <= 1
C1808: + x26 + x77 <= 1
C1809: + x3 + x494 <= 1
C1810: + x91 + x168 <= 1
C1811: + x5 + x65 <= 1
C1812: + x17 + x167 <= 1
C1813: + x8 + x54 <= 1
C1814: + x11 + x364 <= 1
C1815: + x29 + x95 <= 1
C1816: + x30 + x73 <= 1
C1817: + x30 + x436 <= 1
C1818: + x223 + x228 <= 1
C1819: + x4 + x417 <= 1
C1820: + x27 + x279 <= 1
C1821: + x2 + x101 <= 1
C1822: + x21 + x382 <= 1
C1823: + x4 + x224 <= 1
C1824: + x36 + x477 <= 1
C1825: + x8 + x75 <= 1
C1826: + x2 + x136 <= 1
C1827: + x56 + x77 <= 1
C1828: + x112 + x148 <= 1
C1829: + x60 + x451 <= 1
C1830: + x17 + x83 <= 1
C1831: + x154 + x160 <= 1
C1832: + x2 + x49 <= 1
C1833: + x29 + x381 <= 1
C1834: + x40 + x104 <= 1
C1835: + x43 + x282 <= 1
C1836: + x14 + x241 <= 1
C1837: + x15 + x316 <= 1
C1838: + x82 + x310 <= 1
C1839: + x1 + x44 <= 1
C1840: + x294 + x310 <= 1
C1841: + x4 + x39 <= 1
C1842: + x34 + x203 <= 1
C1843: + x74 + x116 <= 1
C1844: + x191 + x371 <= 1
C1845: + x239 + x254 <= 1
C1846: + x112 + x370 <= 1
C1847: + x4 + x281 <= 1
C1848: + x12 + x366 <= 1
C1849: + x14 + x66 <= 1
C1850: + x26 + x199 <= 1
C1851: + x28 + x231 <= 1
C1852: + x58 + x379 <= 1
C1853: + x21 + x107 <= 1
C1854: + x77 + x128 <= 1
C1855: + x87 + x328 <= 1
C1856: + x27 + x274 <= 1
C1857: + x80 + x114 <= 1
C1858: + x14 + x153 <= 1
C1859: + x5 + x457 <= 1
C1860: + x8 + x487 <= 1
C1861: + x29 + x106 <= 1
C1862: + x12 + x439 <= 1
C1863: + x30 + x449 <= 1
C1864: + x14 + x391 <= 1
C1865: + x2 + x10 <= 1
C1866: + x29 + x380 <= 1
C1867: + x177 + x341 <= 1
C1868: + x26 + x329 <= 1
C1869: + x88 + x103 <= 1
C1870: + x146 + x434 <= 1
C1871: + x61 + x69 <= 1
C1872: + x170 + x316 <= 1
C1873: + x7 + x9 <= 1
C1874: + x6 + x395 <= 1
C1875: + x9 + x419 <= 1
C1876: + x113 + x479 <= 1
C1877: + x60 + x186 <= 1
C1878: + x14 + x123 <= 1
C1879: + x6 + x46 <= 1
C1880: + x76 + x123 <= 1
C1881: + x232 + x273 <= 1
C1882: + x5 + x55 <= 1
C1883: + x296 + x416 <= 1
C1884: + x126 + x228 <= 1
C1885: + x91 + x392 <= 1
C1886: + x273 + x303 <= 1
C1887: + x391 + x434 <= 1
C1888: + x20 + x130 <= 1
C1889: + x50 + x303 <= 1
C1890: + x133 + x161 <= 1
C1891: + x159 + x359 <= 1
C1892: + x8 + x335 <= 1
C1893: + x428 + x485 <= 1
C1894: + x17 + x351 <= 1
C1895: + x74 + x343 <= 1
C1896: + x2 + x146 <= 1
C1897: + x137 + x342 <= 1
C1898: + x41 + x85 <= 1
C1899: + x5 + x440 <= 1
C1900: + x80 + x329 <= 1
C1901: + x101 + x439 <= 1
C1902: + x43 + x87 <= 1
C1903: + x6 + x99 <= 1
C1904: + x7 + x113 <= 1
C1905: + x208 + x368 <= 1
C1906: + x155 + x211 <= 1
C1907: + x92 + x121 <= 1
C1908: + x293 + x432 <= 1
C1909: + x12 + x106 <= 1
C1910: + x13 + x122 <= 1
C1911: + x387 + x482 <= 1
C1912: + x63 + x253 <= 1
C1913: + x8 + x404 <= 1
C1914: + x20 + x26 <= 1
C1915: + x58 + x207 <= 1
C1916: + x23 + x39 <= 1
C1917: + x6 + x23 <= 1
C1918: + x155 + x302 <= 1
C1919: + x72 + x119 <= 1
C1920: + x11 + x164 <= 1
C1921: + x43 + x137 <= 1
C1922: + x11 + x261 <= 1
C1923: + x68 + x129 <= 1
C1924: + x4 + x408 <= 1
C1925: + x5 + x304 <= 1
C1926: + x90 + x436 <= 1
C1927: + x69 + x184 <= 1
C1928: + x197 + x397 <= 1
C1929: + x6 + x219 <= 1
C1930: + x82 + x365 <= 1
C1931: + x19 + x51 <= 1
C1932: + x144 + x298 <= 1
C1933: + x12 + x179 <= 1
C1934: + x178 + x252 <= 1
C1935: + x33 + x361 <= 1
C1936: + x44 + x199 <= 1
C1937: + x9 + x101 <= 1
C1938: + x153 + x480 <= 1
C1939: + x182 + x335 <= 1
C1940: + x2 + x310 <= 1
C1941: + x35 + x339 <= 1
C1942: + x100 + x385 <= 1
C1943: + x282 + x409 <= 1
C1944: + x2 + x28 <= 1
C1945: + x64 + x294 <= 1
C1946: + x157 + x202 <= 1
C1947: + x340 + x348 <= 1
C1948: + x13 + x148 <= 1
C1949: + x193 + x409 <= 1
C1950: + x17 + x258 <= 1
C1951: + x12 + x111 <= 1
C1952: + x95 + x390 <= 1
C1953: + x168 + x460 <= 1
C1954: + x88 + x263 <= 1
C1955: + x111 + x425 <= 1
C1956: + x122 + x408 <= 1

binary
x1 x2 x3 x4 x5 x6 x7 x8 x9 x10 x11 x12 x13 x14 x15 x16 x17 x18 x19 x20 x21 x22 x23 x24 x25 x26 x27 x28 x29 x30 x31 x32 x33 x34 x35 x36 x37 x38 x39 x40 x41 x42 x43 x44 x45 x46 x47 x48 x49 x50 x51 x52 x53 x54 x55 x56 x57 x58 x59 x60 x61 x62 x63 x64 x65 x66 x67 x68 x69 x70 x71 x72 x73 x74 x75 x76 x77 x78 x79 x80 x81 x82 x83 x84 x85 x86 x87 x88 x89 x90 x91 x92 x93 x94 x95 x96 x97 x98 x99 x100 x101 x102 x103 x104 x105 x106 x107 x108 x109 x110 x111 x112 x113 x114 x115 x116 x117 x118 x119 x120 x121 x122 x123 x124 x125 x126 x127 x128 x129 x130 x131 x132 x133 x134 x135 x136 x137 x138 x139 x140 x141 x142 x143 x144 x145 x146 x147 x148 x149 x150 x151 x152 x153 x154 x155 x156 x157 x158 x159 x160 x161 x162 x163 x164 x165 x166 x167 x168 x169 x170 x171 x172 x173 x174 x175 x176 x177 x178 x179 x180 x181 x182 x183 x184 x185 x186 x187 x188 x189 x190 x191 x192 x193 x194 x195 x196 x197 x198 x199 x200 x201 x202 x203 x204 x205 x206 x207 x208 x209 x210 x211 x212 x213 x214 x215 x216 x217 x218 x219 x220 x221 x222 x223 x224 x225 x226 x227 x228 x229 x230 x231 x232 x233 x234 x235 x236 x237 x238 x239 x240 x241 x242 x243 x244 x245 x246 x247 x248 x249 x250 x251 x252 x253 x254 x255 x256 x257 x258 x259 x260 x261 x262 x263 x264 x265 x266 x267 x268 x269 x270 x271 x272 x273 x274 x275 x276 x277 x278 x279 x280 x281 x282 x283 x284 x285 x286 x287 x288 x289 x290 x291 x292 x293 x294 x295 x296 x297 x298 x299 x300 x301 x302 x303 x304 x305 x306 x307 x308 x309 x310 x311 x312 x313 x314 x315 x316 x317 x318 x319 x320 x321 x322 x323 x324 x325 x326 x327 x328 x329 x330 x331 x332 x333 x334 x335 x336 x337 x338 x339 x340 x341 x342 x343 x344 x345 x346 x347 x348 x349 x350 x351 x352 x353 x354 x355 x356 x357 x358 x359 x360 x361 x362 x363 x364 x365 x366 x367 x368 x369 x370 x371 x372 x373 x374 x375 x376 x377 x378 x379 x380 x381 x382 x383 x384 x385 x386 x387 x388 x389 x390 x391 x392 x393 x394 x395 x396 x397 x398 x399 x400 x401 x402 x403 x404 x405 x406 x407 x408 x409 x410 x411 x412 x413 x414 x415 x416 x417 x418 x419 x420 x421 x422 x423 x424 x425 x426 x427 x428 x429 x430 x431 x432 x433 x434 x435 x436 x437 x438 x439 x440 x441 x442 x443 x444 x445 x446 x447 x448 x449 x450 x451 x452 x453 x454 x455 x456 x457 x458 x459 x460 x461 x462 x463 x464 x465 x466 x467 x468 x469 x470 x471 x472 x473 x474 x475 x476 x477 x478 x479 x480 x481 x482 x483 x484 x485 x486 x487 x488 x489 x490 x491 x492 x493 x494 x495 x496 x497 x498 x499 x500
