maximize
OBJ: + 1 x1 + 1 x2 + 1 x3 + 1 x4 + 1 x5 + 1 x6 + 1 x7 + 1 x8 + 1 x9 + 1 x10 + 1 x11 + 1 x12 + 1 x13 + 1 x14 + 1 x15 + 1 x16 + 1 x17 + 1 x18 + 1 x19 + 1 x20 + 1 x21 + 1 x22 + 1 x23 + 1 x24 + 1 x25 + 1 x26 + 1 x27 + 1 x28 + 1 x29 + 1 x30 + 1 x31 + 1 x32 + 1 x33 + 1 x34 + 1 x35 + 1 x36 + 1 x37 + 1 x38 + 1 x39 + 1 x40 + 1 x41 + 1 x42 + 1 x43 + 1 x44 + 1 x45 + 1 x46 + 1 x47 + 1 x48 + 1 x49 + 1 x50 + 1 x51 + 1 x52 + 1 x53 + 1 x54 + 1 x55 + 1 x56 + 1 x57 + 1 x58 + 1 x59 + 1 x60 + 1 x61 + 1 x62 + 1 x63 + 1 x64 + 1 x65 + 1 x66 + 1 x67 + 1 x68 + 1 x69 + 1 x70 + 1 x71 + 1 x72 + 1 x73 + 1 x74 + 1 x75 + 1 x76 + 1 x77 + 1 x78 + 1 x79 + 1 x80 + 1 x81 + 1 x82 + 1 x83 + 1 x84 + 1 x85 + 1 x86 + 1 x87 + 1 x88 + 1 x89 + 1 x90 + 1 x91 + 1 x92 + 1 x93 + 1 x94 + 1 x95 + 1 x96 + 1 x97 + 1 x98 + 1 x99 + 1 x100 + 1 x101 + 1 x102 + 1 x103 + 1 x104 + 1 x105 + 1 x106 + 1 x107 + 1 x108 + 1 x109 + 1 x110 + 1 x111 + 1 x112 + 1 x113 + 1 x114 + 1 x115 + 1 x116 + 1 x117 + 1 x118 + 1 x119 + 1 x120 + 1 x121 + 1 x122 + 1 x123 + 1 x124 + 1 x125 + 1 x126 + 1 x127 + 1 x128 + 1 x129 + 1 x130 + 1 x131 + 1 x132 + 1 x133 + 1 x134 + 1 x135 + 1 x136 + 1 x137 + 1 x138 + 1 x139 + 1 x140 + 1 x141 + 1 x142 + 1 x143 + 1 x144 + 1 x145 + 1 x146 + 1 x147 + 1 x148 + 1 x149 + 1 x150 + 1 x151 + 1 x152 + 1 x153 + 1 x154 + 1 x155 + 1 x156 + 1 x157 + 1 x158 + 1 x159 + 1 x160 + 1 x161 + 1 x162 + 1 x163 + 1 x164 + 1 x165 + 1 x166 + 1 x167 + 1 x168 + 1 x169 + 1 x170 + 1 x171 + 1 x172 + 1 x173 + 1 x174 + 1 x175 + 1 x176 + 1 x177 + 1 x178 + 1 x179 + 1 x180 + 1 x181 + 1 x182 + 1 x183 + 1 x184 + 1 x185 + 1 x186 + 1 x187 + 1 x188 + 1 x189 + 1 x190 + 1 x191 + 1 x192 + 1 x193 + 1 x194 + 1 x195 + 1 x196 + 1 x197 + 1 x198 + 1 x199 + 1 x200 + 1 x201 + 1 x202 + 1 x203 + 1 x204 + 1 x205 + 1 x206 + 1 x207 + 1 x208 + 1 x209 + 1 x210 + 1 x211 + 1 x212 + 1 x213 + 1 x214 + 1 x215 + 1 x216 + 1 x217 + 1 x218 + 1 x219 + 1 x220 + 1 x221 + 1 x222 + 1 x223 + 1 x224 + 1 x225 + 1 x226 + 1 x227 + 1 x228 + 1 x229 + 1 x230 + 1 x231 + 1 x232 + 1 x233 + 1 x234 + 1 x235 + 1 x236 + 1 x237 + 1 x238 + 1 x239 + 1 x240 + 1 x241 + 1 x242 + 1 x243 + 1 x244 + 1 x245 + 1 x246 + 1 x247 + 1 x248 + 1 x249 + 1 x250 + 1 x251 + 1 x252 + 1 x253 + 1 x254 + 1 x255 + 1 x256 + 1 x257 + 1 x258 + 1 x259 + 1 x260 + 1 x261 + 1 x262 + 1 x263 + 1 x264 + 1 x265 + 1 x266 + 1 x267 + 1 x268 + 1 x269 + 1 x270 + 1 x271 + 1 x272 + 1 x273 + 1 x274 + 1 x275 + 1 x276 + 1 x277 + 1 x278 + 1 x279 + 1 x280 + 1 x281 + 1 x282 + 1 x283 + 1 x284 + 1 x285 + 1 x286 + 1 x287 + 1 x288 + 1 x289 + 1 x290 + 1 x291 + 1 x292 + 1 x293 + 1 x294 + 1 x295 + 1 x296 + 1 x297 + 1 x298 + 1 x299 + 1 x300 + 1 x301 + 1 x302 + 1 x303 + 1 x304 + 1 x305 + 1 x306 + 1 x307 + 1 x308 + 1 x309 + 1 x310 + 1 x311 + 1 x312 + 1 x313 + 1 x314 + 1 x315 + 1 x316 + 1 x317 + 1 x318 + 1 x319 + 1 x320 + 1 x321 + 1 x322 + 1 x323 + 1 x324 + 1 x325 + 1 x326 + 1 x327 + 1 x328 + 1 x329 + 1 x330 + 1 x331 + 1 x332 + 1 x333 + 1 x334 + 1 x335 + 1 x336 + 1 x337 + 1 x338 + 1 x339 + 1 x340 + 1 x341 + 1 x342 + 1 x343 + 1 x344 + 1 x345 + 1 x346 + 1 x347 + 1 x348 + 1 x349 + 1 x350 + 1 x351 + 1 x352 + 1 x353 + 1 x354 + 1 x355 + 1 x356 + 1 x357 + 1 x358 + 1 x359 + 1 x360 + 1 x361 + 1 x362 + 1 x363 + 1 x364 + 1 x365 + 1 x366 + 1 x367 + 1 x368 + 1 x369 + 1 x370 + 1 x371 + 1 x372 + 1 x373 + 1 x374 + 1 x375 + 1 x376 + 1 x377 + 1 x378 + 1 x379 + 1 x380 + 1 x381 + 1 x382 + 1 x383 + 1 x384 + 1 x385 + 1 x386 + 1 x387 + 1 x388 + 1 x389 + 1 x390 + 1 x391 + 1 x392 + 1 x393 + 1 x394 + 1 x395 + 1 x396 + 1 x397 + 1 x398 + 1 x399 + 1 x400 + 1 x401 + 1 x402 + 1 x403 + 1 x404 + 1 x405 + 1 x406 + 1 x407 + 1 x408 + 1 x409 + 1 x410 + 1 x411 + 1 x412 + 1 x413 + 1 x414 + 1 x415 + 1 x416 + 1 x417 + 1 x418 + 1 x419 + 1 x420 + 1 x421 + 1 x422 + 1 x423 + 1 x424 + 1 x425 + 1 x426 + 1 x427 + 1 x428 + 1 x429 + 1 x430 + 1 x431 + 1 x432 + 1 x433 + 1 x434 + 1 x435 + 1 x436 + 1 x437 + 1 x438 + 1 x439 + 1 x440 + 1 x441 + 1 x442 + 1 x443 + 1 x444 + 1 x445 + 1 x446 + 1 x447 + 1 x448 + 1 x449 + 1 x450 + 1 x451 + 1 x452 + 1 x453 + 1 x454 + 1 x455 + 1 x456 + 1 x457 + 1 x458 + 1 x459 + 1 x460 + 1 x461 + 1 x462 + 1 x463 + 1 x464 + 1 x465 + 1 x466 + 1 x467 + 1 x468 + 1 x469 + 1 x470 + 1 x471 + 1 x472 + 1 x473 + 1 x474 + 1 x475 + 1 x476 + 1 x477 + 1 x478 + 1 x479 + 1 x480 + 1 x481 + 1 x482 + 1 x483 + 1 x484 + 1 x485 + 1 x486 + 1 x487 + 1 x488 + 1 x489 + 1 x490 + 1 x491 + 1 x492 + 1 x493 + 1 x494 + 1 x495 + 1 x496 + 1 x497 + 1 x498 + 1 x499 + 1 x500

subject to
C1: + x59 + x208 <= 1
C2: + x106 + x334 <= 1
C3: + x6 + x32 <= 1
C4: + x10 + x85 <= 1
C5: + x11 + x171 <= 1
C6: + x446 + x500 <= 1
C7: + x184 + x204 <= 1
C8: + x205 + x392 <= 1
C9: + x5 + x37 <= 1
C10: + x116 + x178 <= 1
C11: + x16 + x75 <= 1
C12: + x8 + x26 <= 1
C13: + x18 + x29 + x78 <= 1
C14: + x103 + x341 <= 1
C15: + x76 + x472 <= 1
C16: + x25 + x67 <= 1
C17: + x142 + x265 <= 1
C18: + x143 + x175 <= 1
C19: + x22 + x398 <= 1
C20: + x96 + x139 <= 1
C21: + x6 + x196 <= 1
C22: + x153 + x213 <= 1
C23: + x80 + x444 <= 1
C24: + x202 + x284 <= 1
C25: + x20 + x253 <= 1
C26: + x3 + x276 <= 1
C27: + x149 + x375 <= 1
C28: + x5 + x105 <= 1
C29: + x5 + x422 <= 1
C30: + x72 + x142 <= 1
C31: + x1 + x409 <= 1
C32: + x211 + x458 <= 1
C33: + x2 + x29 <= 1
C34: + x13 + x139 <= 1
C35: + x370 + x398 <= 1
C36: + x35 + x463 <= 1
C37: + x307 + x428 <= 1
C38: + x45 + x87 <= 1
C39: + x8 + x99 <= 1
C40: + x93 + x121 <= 1
C41: + x10 + x205 <= 1
C42: + x118 + x206 <= 1
C43: + x22 + x181 <= 1
C44: + x280 + x339 <= 1
C45: + x23 + x344 <= 1
C46: + x18 + x125 <= 1
C47: + x483 + x499 <= 1
C48: + x23 + x49 <= 1
C49: + x5 + x143 <= 1
C50: + x224 + x336 <= 1
C51: + x10 + x395 <= 1
C52: + x2 + x41 <= 1
C53: + x90 + x176 <= 1
C54: + x7 + x397 <= 1
C55: + x465 + x468 <= 1
C56: + x208 + x311 <= 1
C57: + x122 + x485 <= 1
C58: + x48 + x410 <= 1
C59: + x172 + x221 <= 1
C60: + x280 + x408 <= 1
C61: + x11 + x154 <= 1
C62: + x14 + x189 <= 1
C63: + x5 + x88 <= 1
C64: + x66 + x72 <= 1
C65: + x2 + x5 + x6 + x7 <= 1
C66: + x101 + x257 <= 1
C67: + x74 + x136 <= 1
C68: + x144 + x242 <= 1
C69: + x2 + x22 <= 1
C70: + x30 + x328 <= 1
C71: + x221 + x416 <= 1
C72: + x23 + x89 <= 1
C73: + x6 + x332 <= 1
C74: + x1 + x15 <= 1
C75: + x84 + x91 <= 1
C76: + x192 + x198 <= 1
C77: + x4 + x12 <= 1
C78: + x125 + x169 <= 1
C79: + x16 + x44 <= 1
C80: + x36 + x224 <= 1
C81: + x3 + x13 <= 1
C82: + x96 + x309 <= 1
C83: + x18 + x273 <= 1
C84: + x38 + x361 <= 1
C85: + x275 + x386 <= 1
C86: + x295 + x308 <= 1
C87: + x98 + x214 <= 1
C88: + x108 + x306 <= 1
C89: + x8 + x16 <= 1
C90: + x13 + x488 <= 1
C91: + x209 + x222 <= 1
C92: + x1 + x488 <= 1
C93: + x136 + x250 <= 1
C94: + x274 + x387 <= 1
C95: + x156 + x302 <= 1
C96: + x101 + x246 <= 1
C97: + x1 + x202 <= 1
C98: + x275 + x438 <= 1
C99: + x59 + x391 <= 1
C100: + x23 + x225 <= 1
C101: + x44 + x46 <= 1
C102: + x120 + x351 <= 1
C103: + x27 + x257 <= 1
C104: + x7 + x250 <= 1
C105: + x1 + x6 <= 1
C106: + x37 + x311 <= 1
C107: + x8 + x81 <= 1
C108: + x4 + x113 <= 1
C109: + x60 + x128 <= 1
C110: + x115 + x224 <= 1
C111: + x378 + x464 <= 1
C112: + x10 + x346 <= 1
C113: + x66 + x149 <= 1
C114: + x263 + x478 <= 1
C115: + x19 + x99 <= 1
C116: + x74 + x272 <= 1
C117: + x30 + x149 <= 1
C118: + x97 + x249 <= 1
C119: + x10 + x171 <= 1
C120: + x58 + x417 <= 1
C121: + x4 + x61 <= 1
C122: + x23 + x25 + x37 <= 1
C123: + x52 + x215 <= 1
C124: + x5 + x260 <= 1
C125: + x256 + x287 <= 1
C126: + x76 + x346 <= 1
C127: + x29 + x410 <= 1
C128: + x132 + x175 <= 1
C129: + x163 + x305 <= 1
C130: + x98 + x366 <= 1
C131: + x73 + x449 <= 1
C132: + x145 + x489 <= 1
C133: + x4 + x8 + x9 + x11 <= 1
C134: + x395 + x473 <= 1
C135: + x136 + x171 <= 1
C136: + x2 + x104 <= 1
C137: + x96 + x150 <= 1
C138: + x208 + x496 <= 1
C139: + x19 + x203 <= 1
C140: + x2 + x131 <= 1
C141: + x12 + x139 <= 1
C142: + x81 + x288 <= 1
C143: + x208 + x250 <= 1
C144: + x281 + x317 <= 1
C145: + x15 + x390 <= 1
C146: + x36 + x206 <= 1
C147: + x230 + x232 <= 1
C148: + x33 + x83 <= 1
C149: + x72 + x84 <= 1
C150: + x164 + x179 <= 1
C151: + x28 + x456 <= 1
C152: + x138 + x140 <= 1
C153: + x192 + x345 <= 1
C154: + x5 + x25 <= 1
C155: + x6 + x151 <= 1
C156: + x209 + x474 <= 1
C157: + x10 + x212 <= 1
C158: + x4 + x38 <= 1
C159: + x36 + x314 <= 1
C160: + x11 + x389 <= 1
C161: + x230 + x273 <= 1
C162: + x15 + x115 <= 1
C163: + x180 + x434 <= 1
C164: + x20 + x281 <= 1
C165: + x33 + x396 <= 1
C166: + x14 + x168 <= 1
C167: + x5 + x77 <= 1
C168: + x98 + x180 <= 1
C169: + x16 + x115 <= 1
C170: + x19 + x179 <= 1
C171: + x75 + x472 <= 1
C172: + x7 + x430 <= 1
C173: + x152 + x475 <= 1
C174: + x174 + x383 <= 1
C175: + x27 + x275 <= 1
C176: + x45 + x329 <= 1
C177: + x184 + x273 <= 1
C178: + x35 + x467 <= 1
C179: + x6 + x236 <= 1
C180: + x238 + x464 <= 1
C181: + x98 + x144 <= 1
C182: + x263 + x291 <= 1
C183: + x102 + x283 <= 1
C184: + x2 + x295 <= 1
C185: + x85 + x116 <= 1
C186: + x50 + x184 <= 1
C187: + x13 + x318 <= 1
C188: + x34 + x94 <= 1
C189: + x5 + x8 <= 1
C190: + x26 + x332 <= 1
C191: + x44 + x402 <= 1
C192: + x163 + x482 <= 1
C193: + x74 + x120 <= 1
C194: + x10 + x312 <= 1
C195: + x133 + x279 <= 1
C196: + x25 + x451 <= 1
C197: + x27 + x491 <= 1
C198: + x14 + x126 <= 1
C199: + x73 + x221 <= 1
C200: + x30 + x187 <= 1
C201: + x112 + x209 <= 1
C202: + x25 + x213 <= 1
C203: + x162 + x355 <= 1
C204: + x36 + x144 <= 1
C205: + x326 + x426 <= 1
C206: + x26 + x203 <= 1
C207: + x8 + x47 <= 1
C208: + x48 + x248 <= 1
C209: + x44 + x192 <= 1
C210: + x66 + x207 <= 1
C211: + x4 + x201 <= 1
C212: + x25 + x399 <= 1
C213: + x343 + x362 <= 1
C214: + x100 + x221 <= 1
C215: + x101 + x215 <= 1
C216: + x222 + x399 <= 1
C217: + x170 + x372 <= 1
C218: + x226 + x383 <= 1
C219: + x1 + x341 <= 1
C220: + x408 + x434 <= 1
C221: + x101 + x166 <= 1
C222: + x20 + x347 <= 1
C223: + x97 + x142 <= 1
C224: + x23 + x177 <= 1
C225: + x4 + x245 <= 1
C226: + x45 + x102 <= 1
C227: + x129 + x492 <= 1
C228: + x29 + x149 <= 1
C229: + x21 + x42 <= 1
C230: + x109 + x459 <= 1
C231: + x20 + x460 <= 1
C232: + x70 + x287 <= 1
C233: + x71 + x106 <= 1
C234: + x37 + x359 <= 1
C235: + x131 + x435 <= 1
C236: + x13 + x206 <= 1
C237: + x22 + x23 <= 1
C238: + x5 + x400 <= 1
C239: + x45 + x154 <= 1
C240: + x10 + x138 <= 1
C241: + x222 + x279 <= 1
C242: + x59 + x384 <= 1
C243: + x35 + x132 <= 1
C244: + x134 + x246 <= 1
C245: + x53 + x234 <= 1
C246: + x156 + x326 <= 1
C247: + x11 + x56 <= 1
C248: + x258 + x481 <= 1
C249: + x31 + x435 <= 1
C250: + x278 + x307 <= 1
C251: + x15 + x137 <= 1
C252: + x8 + x181 <= 1
C253: + x89 + x115 <= 1
C254: + x52 + x436 <= 1
C255: + x9 + x98 <= 1
C256: + x65 + x79 <= 1
C257: + x20 + x82 <= 1
C258: + x143 + x237 <= 1
C259: + x10 + x199 <= 1
C260: + x13 + x118 <= 1
C261: + x207 + x235 <= 1
C262: + x73 + x110 <= 1
C263: + x46 + x89 <= 1
C264: + x139 + x331 <= 1
C265: + x195 + x297 <= 1
C266: + x22 + x445 <= 1
C267: + x23 + x59 <= 1
C268: + x30 + x490 <= 1
C269: + x152 + x216 <= 1
C270: + x9 + x267 <= 1
C271: + x64 + x493 <= 1
C272: + x4 + x170 <= 1
C273: + x153 + x163 <= 1
C274: + x77 + x106 <= 1
C275: + x44 + x174 <= 1
C276: + x93 + x133 <= 1
C277: + x420 + x461 <= 1
C278: + x95 + x161 <= 1
C279: + x23 + x119 <= 1
C280: + x15 + x148 <= 1
C281: + x16 + x260 <= 1
C282: + x209 + x394 <= 1
C283: + x7 + x290 <= 1
C284: + x65 + x313 <= 1
C285: + x193 + x366 <= 1
C286: + x4 + x86 <= 1
C287: + x142 + x413 <= 1
C288: + x36 + x234 <= 1
C289: + x63 + x192 <= 1
C290: + x338 + x343 <= 1
C291: + x139 + x258 <= 1
C292: + x77 + x94 <= 1
C293: + x341 + x499 <= 1
C294: + x6 + x88 <= 1
C295: + x226 + x236 <= 1
C296: + x9 + x454 <= 1
C297: + x146 + x261 <= 1
C298: + x2 + x32 <= 1
C299: + x138 + x168 <= 1
C300: + x29 + x326 <= 1
C301: + x23 + x67 <= 1
C302: + x24 + x305 <= 1
C303: + x32 + x126 <= 1
C304: + x7 + x350 <= 1
C305: + x163 + x170 <= 1
C306: + x327 + x388 <= 1
C307: + x256 + x316 <= 1
C308: + x11 + x441 <= 1
C309: + x5 + x132 <= 1
C310: + x82 + x219 <= 1
C311: + x2 + x44 <= 1
C312: + x13 + x196 <= 1
C313: + x70 + x420 <= 1
C314: + x9 + x36 <= 1
C315: + x37 + x202 <= 1
C316: + x56 + x64 <= 1
C317: + x20 + x148 <= 1
C318: + x121 + x222 <= 1
C319: + x48 + x314 <= 1
C320: + x89 + x263 <= 1
C321: + x32 + x404 <= 1
C322: + x74 + x87 <= 1
C323: + x194 + x464 <= 1
C324: + x51 + x81 <= 1
C325: + x172 + x277 <= 1
C326: + x283 + x491 <= 1
C327: + x442 + x489 <= 1
C328: + x13 + x56 <= 1
C329: + x27 + x154 <= 1
C330: + x18 + x69 <= 1
C331: + x29 + x115 <= 1
C332: + x312 + x447 <= 1
C333: + x7 + x103 <= 1
C334: + x74 + x131 <= 1
C335: + x1 + x314 <= 1
C336: + x55 + x466 <= 1
C337: + x14 + x17 <= 1
C338: + x4 + x7 <= 1
C339: + x115 + x170 <= 1
C340: + x227 + x326 <= 1
C341: + x1 + x425 <= 1
C342: + x94 + x390 <= 1
C343: + x248 + x328 <= 1
C344: + x105 + x421 <= 1
C345: + x224 + x332 <= 1
C346: + x18 + x276 <= 1
C347: + x138 + x149 <= 1
C348: + x103 + x231 <= 1
C349: + x117 + x309 <= 1
C350: + x80 + x288 <= 1
C351: + x8 + x19 <= 1
C352: + x85 + x286 <= 1
C353: + x30 + x34 <= 1
C354: + x159 + x352 <= 1
C355: + x107 + x476 <= 1
C356: + x139 + x254 <= 1
C357: + x267 + x439 <= 1
C358: + x27 + x403 <= 1
C359: + x9 + x186 <= 1
C360: + x63 + x461 <= 1
C361: + x69 + x455 <= 1
C362: + x29 + x74 <= 1
C363: + x59 + x138 <= 1
C364: + x187 + x323 <= 1
C365: + x13 + x19 + x30 <= 1
C366: + x86 + x236 <= 1
C367: + x31 + x84 <= 1
C368: + x118 + x211 <= 1
C369: + x137 + x443 <= 1
C370: + x37 + x268 <= 1
C371: + x166 + x260 <= 1
C372: + x48 + x77 <= 1
C373: + x112 + x141 <= 1
C374: + x55 + x374 <= 1
C375: + x32 + x350 <= 1
C376: + x20 + x49 <= 1
C377: + x95 + x106 <= 1
C378: + x252 + x333 <= 1
C379: + x24 + x440 <= 1
C380: + x19 + x411 <= 1
C381: + x2 + x38 <= 1
C382: + x285 + x469 <= 1
C383: + x106 + x223 <= 1
C384: + x14 + x254 <= 1
C385: + x52 + x452 <= 1
C386: + x22 + x43 <= 1
C387: + x5 + x23 <= 1
C388: + x172 + x185 <= 1
C389: + x8 + x12 <= 1
C390: + x30 + x59 <= 1
C391: + x4 + x60 <= 1
C392: + x31 + x185 <= 1
C393: + x196 + x252 <= 1
C394: + x379 + x397 <= 1
C395: + x165 + x477 <= 1
C396: + x125 + x478 <= 1
C397: + x19 + x28 <= 1
C398: + x10 + x55 <= 1
C399: + x8 + x153 <= 1
C400: + x149 + x257 <= 1
C401: + x51 + x296 <= 1
C402: + x296 + x500 <= 1
C403: + x1 + x107 <= 1
C404: + x249 + x405 <= 1
C405: + x22 + x112 <= 1
C406: + x286 + x392 <= 1
C407: + x1 + x26 <= 1
C408: + x20 + x219 <= 1
C409: + x308 + x441 <= 1
C410: + x7 + x484 <= 1
C411: + x38 + x112 <= 1
C412: + x195 + x269 <= 1
C413: + x23 + x455 <= 1
C414: + x242 + x293 <= 1
C415: + x22 + x52 <= 1
C416: + x25 + x330 <= 1
C417: + x7 + x371 <= 1
C418: + x135 + x328 <= 1
C419: + x11 + x293 <= 1
C420: + x138 + x482 <= 1
C421: + x196 + x225 <= 1
C422: + x13 + x411 <= 1
C423: + x15 + x467 <= 1
C424: + x263 + x353 <= 1
C425: + x84 + x271 <= 1
C426: + x239 + x252 <= 1
C427: + x30 + x258 <= 1
C428: + x95 + x157 <= 1
C429: + x41 + x415 <= 1
C430: + x172 + x380 <= 1
C431: + x8 + x146 <= 1
C432: + x166 + x194 <= 1
C433: + x370 + x476 <= 1
C434: + x5 + x66 <= 1
C435: + x25 + x203 <= 1
C436: + x31 + x51 <= 1
C437: + x32 + x193 <= 1
C438: + x144 + x429 <= 1
C439: + x2 + x278 <= 1
C440: + x110 + x282 <= 1
C441: + x247 + x306 <= 1
C442: + x112 + x320 <= 1
C443: + x68 + x76 <= 1
C444: + x7 + x245 <= 1
C445: + x118 + x165 <= 1
C446: + x28 + x146 <= 1
C447: + x172 + x251 <= 1
C448: + x193 + x262 <= 1
C449: + x82 + x377 <= 1
C450: + x1 + x17 <= 1
C451: + x14 + x159 <= 1
C452: + x5 + x451 <= 1
C453: + x27 + x135 <= 1
C454: + x28 + x317 <= 1
C455: + x11 + x349 <= 1
C456: + x20 + x63 <= 1
C457: + x59 + x240 <= 1
C458: + x4 + x368 <= 1
C459: + x40 + x388 <= 1
C460: + x26 + x428 <= 1
C461: + x7 + x136 <= 1
C462: + x10 + x418 <= 1
C463: + x8 + x219 <= 1
C464: + x86 + x111 <= 1
C465: + x36 + x429 <= 1
C466: + x13 + x232 <= 1
C467: + x132 + x267 <= 1
C468: + x44 + x100 <= 1
C469: + x18 + x245 <= 1
C470: + x74 + x408 <= 1
C471: + x117 + x255 <= 1
C472: + x130 + x390 <= 1
C473: + x120 + x277 <= 1
C474: + x11 + x304 <= 1
C475: + x167 + x472 <= 1
C476: + x9 + x445 <= 1
C477: + x182 + x263 <= 1
C478: + x3 + x486 <= 1
C479: + x3 + x47 <= 1
C480: + x58 + x196 <= 1
C481: + x14 + x65 <= 1
C482: + x94 + x179 <= 1
C483: + x20 + x285 <= 1
C484: + x104 + x155 <= 1
C485: + x98 + x184 <= 1
C486: + x161 + x181 <= 1
C487: + x35 + x41 <= 1
C488: + x230 + x366 <= 1
C489: + x30 + x65 <= 1
C490: + x21 + x108 <= 1
C491: + x204 + x247 <= 1
C492: + x59 + x362 <= 1
C493: + x18 + x178 <= 1
C494: + x66 + x480 <= 1
C495: + x2 + x160 <= 1
C496: + x30 + x242 <= 1
C497: + x20 + x233 <= 1
C498: + x14 + x152 <= 1
C499: + x52 + x426 <= 1
C500: + x59 + x247 <= 1
C501: + x184 + x414 <= 1
C502: + x13 + x159 <= 1
C503: + x66 + x492 <= 1
C504: + x115 + x130 <= 1
C505: + x31 + x174 <= 1
C506: + x196 + x239 <= 1
C507: + x173 + x469 <= 1
C508: + x11 + x396 <= 1
C509: + x74 + x124 <= 1
C510: + x95 + x143 <= 1
C511: + x23 + x45 <= 1
C512: + x6 + x45 <= 1
C513: + x409 + x497 <= 1
C514: + x1 + x211 <= 1
C515: + x219 + x477 <= 1
C516: + x20 + x294 <= 1
C517: + x5 + x56 <= 1
C518: + x23 + x138 <= 1
C519: + x16 + x72 <= 1
C520: + x282 + x373 <= 1
C521: + x121 + x205 <= 1
C522: + x30 + x90 <= 1
C523: + x7 + x70 <= 1
C524: + x228 + x230 <= 1
C525: + x203 + x262 <= 1
C526: + x1 + x239 <= 1
C527: + x33 + x339 <= 1
C528: + x5 + x124 <= 1
C529: + x17 + x66 <= 1
C530: + x15 + x412 <= 1
C531: + x210 + x217 <= 1
C532: + x26 + x438 <= 1
C533: + x15 + x53 <= 1
C534: + x101 + x162 <= 1
C535: + x29 + x372 <= 1
C536: + x100 + x141 <= 1
C537: + x7 + x360 <= 1
C538: + x29 + x145 <= 1
C539: + x39 + x236 <= 1
C540: + x12 + x105 <= 1
C541: + x170 + x292 <= 1
C542: + x93 + x265 <= 1
C543: + x56 + x181 <= 1
C544: + x4 + x266 <= 1
C545: + x70 + x283 <= 1
C546: + x61 + x290 <= 1
C547: + x45 + x428 <= 1
C548: + x10 + x83 <= 1
C549: + x31 + x40 <= 1
C550: + x14 + x353 <= 1
C551: + x6 + x260 <= 1
C552: + x45 + x150 <= 1
C553: + x298 + x392 <= 1
C554: + x21 + x122 <= 1
C555: + x61 + x145 <= 1
C556: + x6 + x423 <= 1
C557: + x27 + x353 <= 1
C558: + x8 + x327 <= 1
C559: + x374 + x387 <= 1
C560: + x7 + x218 <= 1
C561: + x10 + x31 <= 1
C562: + x3 + x282 <= 1
C563: + x39 + x55 <= 1
C564: + x34 + x350 <= 1
C565: + x285 + x294 <= 1
C566: + x231 + x340 <= 1
C567: + x61 + x229 <= 1
C568: + x344 + x480 <= 1
C569: + x148 + x232 <= 1
C570: + x30 + x373 <= 1
C571: + x32 + x113 <= 1
C572: + x5 + x242 <= 1
C573: + x206 + x475 <= 1
C574: + x97 + x102 <= 1
C575: + x96 + x419 <= 1
C576: + x36 + x209 <= 1
C577: + x110 + x458 <= 1
C578: + x1 + x479 <= 1
C579: + x67 + x271 <= 1
C580: + x99 + x104 <= 1
C581: + x45 + x419 <= 1
C582: + x144 + x183 <= 1
C583: + x165 + x234 <= 1
C584: + x265 + x302 <= 1
C585: + x46 + x323 <= 1
C586: + x66 + x407 <= 1
C587: + x206 + x271 <= 1
C588: + x32 + x165 <= 1
C589: + x10 + x183 <= 1
C590: + x258 + x339 <= 1
C591: + x13 + x499 <= 1
C592: + x42 + x158 <= 1
C593: + x74 + x82 <= 1
C594: + x14 + x96 <= 1
C595: + x100 + x207 <= 1
C596: + x29 + x211 <= 1
C597: + x213 + x440 <= 1
C598: + x32 + x233 <= 1
C599: + x25 + x318 <= 1
C600: + x44 + x63 <= 1
C601: + x9 + x109 <= 1
C602: + x28 + x281 <= 1
C603: + x211 + x217 <= 1
C604: + x23 + x486 <= 1
C605: + x190 + x279 <= 1
C606: + x36 + x329 <= 1
C607: + x49 + x438 <= 1
C608: + x166 + x187 <= 1
C609: + x23 + x71 <= 1
C610: + x4 + x6 <= 1
C611: + x42 + x264 <= 1
C612: + x31 + x135 <= 1
C613: + x6 + x485 <= 1
C614: + x67 + x266 <= 1
C615: + x1 + x168 <= 1
C616: + x57 + x325 <= 1
C617: + x193 + x429 <= 1
C618: + x25 + x377 <= 1
C619: + x11 + x312 <= 1
C620: + x56 + x60 <= 1
C621: + x20 + x152 <= 1
C622: + x35 + x146 <= 1
C623: + x142 + x257 <= 1
C624: + x334 + x449 <= 1
C625: + x2 + x406 <= 1
C626: + x266 + x316 <= 1
C627: + x32 + x51 <= 1
C628: + x45 + x462 <= 1
C629: + x76 + x93 <= 1
C630: + x452 + x470 <= 1
C631: + x52 + x121 <= 1
C632: + x34 + x147 <= 1
C633: + x25 + x261 <= 1
C634: + x72 + x134 <= 1
C635: + x5 + x430 <= 1
C636: + x29 + x79 <= 1
C637: + x6 + x93 <= 1
C638: + x9 + x497 <= 1
C639: + x138 + x173 <= 1
C640: + x384 + x418 <= 1
C641: + x22 + x90 <= 1
C642: + x25 + x436 <= 1
C643: + x209 + x433 <= 1
C644: + x24 + x241 <= 1
C645: + x26 + x58 <= 1
C646: + x131 + x247 <= 1
C647: + x4 + x381 <= 1
C648: + x10 + x70 <= 1
C649: + x286 + x454 <= 1
C650: + x5 + x44 <= 1
C651: + x6 + x164 <= 1
C652: + x32 + x171 <= 1
C653: + x291 + x446 <= 1
C654: + x458 + x463 <= 1
C655: + x21 + x23 <= 1
C656: + x33 + x272 <= 1
C657: + x186 + x210 <= 1
C658: + x62 + x213 <= 1
C659: + x172 + x258 <= 1
C660: + x100 + x298 <= 1
C661: + x45 + x453 <= 1
C662: + x69 + x451 <= 1
C663: + x34 + x353 <= 1
C664: + x77 + x387 <= 1
C665: + x15 + x17 <= 1
C666: + x36 + x375 <= 1
C667: + x57 + x210 <= 1
C668: + x2 + x110 <= 1
C669: + x49 + x420 <= 1
C670: + x368 + x481 <= 1
C671: + x109 + x313 <= 1
C672: + x65 + x455 <= 1
C673: + x95 + x384 <= 1
C674: + x13 + x31 <= 1
C675: + x6 + x471 <= 1
C676: + x80 + x372 <= 1
C677: + x16 + x52 <= 1
C678: + x474 + x489 <= 1
C679: + x85 + x434 <= 1
C680: + x49 + x307 <= 1
C681: + x3 + x5 <= 1
C682: + x6 + x10 <= 1
C683: + x1 + x321 <= 1
C684: + x110 + x344 <= 1
C685: + x33 + x442 <= 1
C686: + x289 + x473 <= 1
C687: + x63 + x361 <= 1
C688: + x78 + x466 <= 1
C689: + x69 + x120 <= 1
C690: + x17 + x22 <= 1
C691: + x7 + x25 <= 1
C692: + x101 + x452 <= 1
C693: + x84 + x270 <= 1
C694: + x29 + x46 <= 1
C695: + x12 + x371 <= 1
C696: + x123 + x494 <= 1
C697: + x352 + x448 <= 1
C698: + x42 + x84 + x101 <= 1
C699: + x66 + x438 <= 1
C700: + x13 + x34 <= 1
C701: + x353 + x379 <= 1
C702: + x159 + x470 <= 1
C703: + x25 + x200 <= 1
C704: + x8 + x60 <= 1
C705: + x226 + x243 <= 1
C706: + x337 + x471 <= 1
C707: + x28 + x395 <= 1
C708: + x11 + x28 <= 1
C709: + x136 + x369 <= 1
C710: + x420 + x468 <= 1
C711: + x59 + x114 <= 1
C712: + x218 + x484 <= 1
C713: + x57 + x491 <= 1
C714: + x38 + x137 <= 1
C715: + x76 + x391 <= 1
C716: + x13 + x22 <= 1
C717: + x156 + x495 <= 1
C718: + x34 + x92 <= 1
C719: + x52 + x178 <= 1
C720: + x24 + x457 <= 1
C721: + x208 + x416 <= 1
C722: + x155 + x195 <= 1
C723: + x75 + x144 <= 1
C724: + x288 + x472 <= 1
C725: + x8 + x125 <= 1
C726: + x144 + x485 <= 1
C727: + x186 + x228 <= 1
C728: + x33 + x195 <= 1
C729: + x24 + x58 <= 1
C730: + x10 + x270 <= 1
C731: + x115 + x442 <= 1
C732: + x5 + x169 <= 1
C733: + x44 + x297 <= 1
C734: + x145 + x255 <= 1
C735: + x16 + x223 <= 1
C736: + x145 + x324 <= 1
C737: + x193 + x334 <= 1
C738: + x121 + x358 <= 1
C739: + x94 + x182 <= 1
C740: + x304 + x322 <= 1
C741: + x30 + x68 <= 1
C742: + x99 + x463 <= 1
C743: + x62 + x187 <= 1
C744: + x29 + x422 <= 1
C745: + x23 + x99 <= 1
C746: + x15 + x192 <= 1
C747: + x25 + x393 <= 1
C748: + x27 + x437 <= 1
C749: + x1 + x21 <= 1
C750: + x309 + x409 <= 1
C751: + x94 + x330 <= 1
C752: + x43 + x479 <= 1
C753: + x5 + x114 <= 1
C754: + x89 + x102 <= 1
C755: + x125 + x266 <= 1
C756: + x45 + x217 <= 1
C757: + x32 + x336 <= 1
C758: + x174 + x306 <= 1
C759: + x49 + x156 <= 1
C760: + x322 + x425 <= 1
C761: + x72 + x165 <= 1
C762: + x5 + x356 <= 1
C763: + x19 + x86 <= 1
C764: + x2 + x12 <= 1
C765: + x221 + x442 <= 1
C766: + x77 + x151 <= 1
C767: + x23 + x191 <= 1
C768: + x53 + x59 <= 1
C769: + x280 + x326 <= 1
C770: + x157 + x287 <= 1
C771: + x19 + x284 <= 1
C772: + x393 + x395 <= 1
C773: + x98 + x105 <= 1
C774: + x88 + x214 <= 1
C775: + x73 + x222 <= 1
C776: + x16 + x361 <= 1
C777: + x8 + x139 <= 1
C778: + x12 + x208 <= 1
C779: + x21 + x147 <= 1
C780: + x293 + x363 <= 1
C781: + x12 + x43 <= 1
C782: + x52 + x244 <= 1
C783: + x151 + x334 <= 1
C784: + x247 + x269 <= 1
C785: + x11 + x14 <= 1
C786: + x25 + x400 <= 1
C787: + x246 + x357 <= 1
C788: + x48 + x104 <= 1
C789: + x260 + x318 <= 1
C790: + x25 + x226 <= 1
C791: + x18 + x81 <= 1
C792: + x182 + x328 <= 1
C793: + x404 + x489 <= 1
C794: + x89 + x383 <= 1
C795: + x98 + x406 <= 1
C796: + x1 + x342 <= 1
C797: + x234 + x310 <= 1
C798: + x25 + x348 <= 1
C799: + x213 + x363 <= 1
C800: + x268 + x315 <= 1
C801: + x178 + x324 <= 1
C802: + x70 + x123 <= 1
C803: + x4 + x19 <= 1
C804: + x26 + x34 <= 1
C805: + x2 + x459 <= 1
C806: + x3 + x38 <= 1
C807: + x20 + x470 <= 1
C808: + x244 + x255 <= 1
C809: + x14 + x356 <= 1
C810: + x146 + x481 <= 1
C811: + x8 + x39 <= 1
C812: + x39 + x161 <= 1
C813: + x159 + x364 <= 1
C814: + x35 + x129 <= 1
C815: + x193 + x459 <= 1
C816: + x112 + x330 <= 1
C817: + x188 + x448 <= 1
C818: + x62 + x475 <= 1
C819: + x10 + x26 <= 1
C820: + x77 + x310 <= 1
C821: + x213 + x430 <= 1
C822: + x7 + x457 <= 1
C823: + x16 + x24 <= 1
C824: + x67 + x384 <= 1
C825: + x123 + x318 <= 1
C826: + x112 + x447 <= 1
C827: + x19 + x72 <= 1
C828: + x110 + x135 <= 1
C829: + x382 + x439 <= 1
C830: + x13 + x119 <= 1
C831: + x150 + x404 <= 1
C832: + x2 + x452 <= 1
C833: + x56 + x384 <= 1
C834: + x49 + x267 <= 1
C835: + x33 + x53 <= 1
C836: + x1 + x10 + x20 <= 1
C837: + x9 + x268 <= 1
C838: + x19 + x124 <= 1
C839: + x20 + x303 <= 1
C840: + x5 + x59 <= 1
C841: + x25 + x367 <= 1
C842: + x8 + x32 <= 1
C843: + x311 + x487 <= 1
C844: + x30 + x410 <= 1
C845: + x52 + x194 <= 1
C846: + x208 + x304 <= 1
C847: + x45 + x311 <= 1
C848: + x28 + x407 <= 1
C849: + x338 + x453 <= 1
C850: + x18 + x434 <= 1
C851: + x16 + x496 <= 1
C852: + x2 + x416 <= 1
C853: + x2 + x67 <= 1
C854: + x206 + x483 <= 1
C855: + x20 + x251 <= 1
C856: + x22 + x227 <= 1
C857: + x12 + x476 <= 1
C858: + x132 + x199 <= 1
C859: + x5 + x345 <= 1
C860: + x29 + x52 <= 1
C861: + x1 + x54 <= 1
C862: + x231 + x295 <= 1
C863: + x16 + x33 <= 1
C864: + x311 + x335 <= 1
C865: + x144 + x179 <= 1
C866: + x10 + x96 <= 1
C867: + x2 + x43 <= 1
C868: + x16 + x82 <= 1
C869: + x237 + x406 <= 1
C870: + x2 + x374 <= 1
C871: + x166 + x325 <= 1
C872: + x8 + x21 <= 1
C873: + x70 + x145 <= 1
C874: + x135 + x253 <= 1
C875: + x72 + x252 <= 1
C876: + x139 + x244 <= 1
C877: + x194 + x463 <= 1
C878: + x76 + x253 <= 1
C879: + x20 + x421 <= 1
C880: + x38 + x499 <= 1
C881: + x337 + x343 <= 1
C882: + x174 + x243 <= 1
C883: + x94 + x174 <= 1
C884: + x60 + x486 <= 1
C885: + x150 + x466 <= 1
C886: + x226 + x385 <= 1
C887: + x179 + x265 <= 1
C888: + x135 + x144 <= 1
C889: + x30 + x124 <= 1
C890: + x270 + x376 <= 1
C891: + x136 + x187 <= 1
C892: + x2 + x24 <= 1
C893: + x38 + x295 <= 1
C894: + x138 + x176 <= 1
C895: + x6 + x243 <= 1
C896: + x209 + x446 <= 1
C897: + x183 + x244 <= 1
C898: + x12 + x155 <= 1
C899: + x16 + x42 <= 1
C900: + x93 + x283 <= 1
C901: + x66 + x158 <= 1
C902: + x275 + x351 <= 1
C903: + x102 + x482 <= 1
C904: + x169 + x315 <= 1
C905: + x98 + x117 <= 1
C906: + x5 + x140 <= 1
C907: + x25 + x480 <= 1
C908: + x47 + x355 <= 1
C909: + x251 + x333 <= 1
C910: + x1 + x188 <= 1
C911: + x266 + x431 <= 1
C912: + x38 + x363 <= 1
C913: + x33 + x432 <= 1
C914: + x8 + x14 <= 1
C915: + x20 + x156 <= 1
C916: + x311 + x497 <= 1
C917: + x4 + x54 <= 1
C918: + x7 + x35 <= 1
C919: + x37 + x87 <= 1
C920: + x11 + x34 <= 1
C921: + x283 + x338 <= 1
C922: + x1 + x248 <= 1
C923: + x2 + x256 <= 1
C924: + x76 + x81 <= 1
C925: + x5 + x93 <= 1
C926: + x34 + x151 <= 1
C927: + x26 + x242 <= 1
C928: + x45 + x188 <= 1
C929: + x72 + x130 <= 1
C930: + x149 + x480 <= 1
C931: + x222 + x256 <= 1
C932: + x7 + x95 <= 1
C933: + x2 + x105 <= 1
C934: + x95 + x224 <= 1
C935: + x80 + x468 <= 1
C936: + x2 + x140 <= 1
C937: + x158 + x358 <= 1
C938: + x4 + x15 <= 1
C939: + x143 + x370 <= 1
C940: + x9 + x68 <= 1
C941: + x411 + x450 <= 1
C942: + x50 + x136 <= 1
C943: + x98 + x398 <= 1
C944: + x99 + x118 <= 1
C945: + x142 + x165 <= 1
C946: + x380 + x427 <= 1
C947: + x52 + x451 <= 1
C948: + x13 + x88 <= 1
C949: + x6 + x414 <= 1
C950: + x7 + x38 <= 1
C951: + x73 + x80 <= 1
C952: + x156 + x289 <= 1
C953: + x58 + x177 <= 1
C954: + x22 + x411 <= 1
C955: + x118 + x348 <= 1
C956: + x9 + x162 <= 1
C957: + x33 + x371 <= 1
C958: + x5 + x92 <= 1
C959: + x161 + x168 <= 1
C960: + x228 + x403 <= 1
C961: + x19 + x190 <= 1
C962: + x55 + x211 <= 1
C963: + x114 + x122 <= 1
C964: + x222 + x249 <= 1
C965: + x21 + x404 <= 1
C966: + x70 + x183 <= 1
C967: + x143 + x202 <= 1
C968: + x16 + x399 <= 1
C969: + x5 + x235 <= 1
C970: + x89 + x255 <= 1
C971: + x1 + x27 <= 1
C972: + x19 + x205 <= 1
C973: + x37 + x308 <= 1
C974: + x196 + x267 <= 1
C975: + x61 + x125 <= 1
C976: + x36 + x204 <= 1
C977: + x195 + x270 <= 1
C978: + x106 + x300 <= 1
C979: + x6 + x118 <= 1
C980: + x38 + x285 <= 1
C981: + x358 + x408 <= 1
C982: + x370 + x495 <= 1
C983: + x43 + x285 <= 1
C984: + x23 + x161 <= 1
C985: + x250 + x364 <= 1
C986: + x4 + x36 <= 1
C987: + x60 + x412 <= 1
C988: + x7 + x29 <= 1
C989: + x11 + x391 <= 1
C990: + x341 + x417 <= 1
C991: + x56 + x443 <= 1
C992: + x184 + x226 <= 1
C993: + x23 + x290 <= 1
C994: + x126 + x240 <= 1
C995: + x253 + x301 <= 1
C996: + x309 + x495 <= 1
C997: + x59 + x153 <= 1
C998: + x26 + x415 <= 1
C999: + x136 + x162 <= 1
C1000: + x29 + x427 <= 1
C1001: + x381 + x457 <= 1
C1002: + x1 + x18 <= 1
C1003: + x136 + x404 <= 1
C1004: + x5 + x119 <= 1
C1005: + x23 + x382 <= 1
C1006: + x2 + x289 <= 1
C1007: + x20 + x66 <= 1
C1008: + x3 + x431 <= 1
C1009: + x102 + x285 <= 1
C1010: + x156 + x483 <= 1
C1011: + x338 + x393 <= 1
C1012: + x360 + x365 <= 1
C1013: + x81 + x95 <= 1
C1014: + x6 + x146 <= 1
C1015: + x21 + x33 <= 1
C1016: + x98 + x265 <= 1
C1017: + x70 + x117 <= 1
C1018: + x7 + x24 <= 1
C1019: + x55 + x62 <= 1
C1020: + x256 + x259 <= 1
C1021: + x30 + x282 <= 1
C1022: + x132 + x155 <= 1
C1023: + x14 + x128 <= 1
C1024: + x350 + x389 <= 1
C1025: + x36 + x412 <= 1
C1026: + x62 + x70 <= 1
C1027: + x356 + x377 <= 1
C1028: + x5 + x74 <= 1
C1029: + x61 + x63 <= 1
C1030: + x9 + x13 <= 1
C1031: + x128 + x197 <= 1
C1032: + x19 + x465 <= 1
C1033: + x37 + x56 <= 1
C1034: + x32 + x90 <= 1
C1035: + x73 + x348 <= 1
C1036: + x344 + x348 <= 1
C1037: + x8 + x190 <= 1
C1038: + x130 + x450 <= 1
C1039: + x30 + x241 <= 1
C1040: + x70 + x74 <= 1
C1041: + x98 + x310 <= 1
C1042: + x58 + x325 <= 1
C1043: + x76 + x166 <= 1
C1044: + x219 + x394 <= 1
C1045: + x2 + x16 <= 1
C1046: + x22 + x69 <= 1
C1047: + x6 + x342 <= 1
C1048: + x118 + x241 <= 1
C1049: + x72 + x306 <= 1
C1050: + x10 + x224 <= 1
C1051: + x253 + x436 <= 1
C1052: + x7 + x15 <= 1
C1053: + x390 + x415 <= 1
C1054: + x30 + x275 <= 1
C1055: + x105 + x334 <= 1
C1056: + x184 + x337 <= 1
C1057: + x15 + x127 <= 1
C1058: + x16 + x373 <= 1
C1059: + x5 + x148 <= 1
C1060: + x75 + x103 <= 1
C1061: + x2 + x220 <= 1
C1062: + x31 + x62 <= 1
C1063: + x232 + x275 <= 1
C1064: + x89 + x410 <= 1
C1065: + x16 + x71 <= 1
C1066: + x388 + x443 <= 1
C1067: + x2 + x117 <= 1
C1068: + x3 + x123 <= 1
C1069: + x204 + x401 <= 1
C1070: + x5 + x200 <= 1
C1071: + x118 + x182 <= 1
C1072: + x19 + x58 <= 1
C1073: + x84 + x126 <= 1
C1074: + x98 + x335 <= 1
C1075: + x318 + x492 <= 1
C1076: + x44 + x367 <= 1
C1077: + x62 + x132 <= 1
C1078: + x13 + x151 <= 1
C1079: + x5 + x12 <= 1
C1080: + x71 + x421 <= 1
C1081: + x152 + x276 <= 1
C1082: + x33 + x50 <= 1
C1083: + x15 + x66 <= 1
C1084: + x199 + x483 <= 1
C1085: + x8 + x305 <= 1
C1086: + x8 + x256 <= 1
C1087: + x23 + x130 <= 1
C1088: + x8 + x35 <= 1
C1089: + x26 + x114 <= 1
C1090: + x84 + x369 <= 1
C1091: + x50 + x76 <= 1
C1092: + x260 + x396 <= 1
C1093: + x10 + x30 <= 1
C1094: + x76 + x418 <= 1
C1095: + x22 + x230 <= 1
C1096: + x5 + x100 <= 1
C1097: + x151 + x460 <= 1
C1098: + x16 + x20 <= 1
C1099: + x55 + x203 <= 1
C1100: + x75 + x439 <= 1
C1101: + x68 + x207 <= 1
C1102: + x167 + x367 <= 1
C1103: + x106 + x264 <= 1
C1104: + x59 + x91 <= 1
C1105: + x31 + x338 <= 1
C1106: + x9 + x83 <= 1
C1107: + x36 + x212 <= 1
C1108: + x57 + x173 <= 1
C1109: + x212 + x225 <= 1
C1110: + x3 + x57 <= 1
C1111: + x362 + x391 <= 1
C1112: + x6 + x30 <= 1
C1113: + x18 + x293 <= 1
C1114: + x92 + x225 <= 1
C1115: + x28 + x33 <= 1
C1116: + x285 + x453 <= 1
C1117: + x7 + x396 <= 1
C1118: + x199 + x204 <= 1
C1119: + x219 + x230 <= 1
C1120: + x66 + x263 <= 1
C1121: + x6 + x194 <= 1
C1122: + x46 + x374 <= 1
C1123: + x57 + x395 <= 1
C1124: + x239 + x446 <= 1
C1125: + x242 + x368 <= 1
C1126: + x14 + x130 <= 1
C1127: + x226 + x388 <= 1
C1128: + x2 + x269 <= 1
C1129: + x20 + x94 <= 1
C1130: + x11 + x370 <= 1
C1131: + x30 + x127 <= 1
C1132: + x226 + x239 <= 1
C1133: + x7 + x97 <= 1
C1134: + x141 + x261 <= 1
C1135: + x23 + x72 <= 1
C1136: + x44 + x79 <= 1
C1137: + x18 + x216 <= 1
C1138: + x153 + x344 <= 1
C1139: + x4 + x5 <= 1
C1140: + x69 + x95 <= 1
C1141: + x43 + x234 <= 1
C1142: + x16 + x45 <= 1
C1143: + x38 + x128 <= 1
C1144: + x89 + x157 <= 1
C1145: + x23 + x55 <= 1
C1146: + x8 + x238 <= 1
C1147: + x25 + x378 <= 1
C1148: + x99 + x270 <= 1
C1149: + x101 + x122 <= 1
C1150: + x10 + x191 <= 1
C1151: + x49 + x80 <= 1
C1152: + x166 + x321 <= 1
C1153: + x4 + x49 <= 1
C1154: + x25 + x76 <= 1
C1155: + x170 + x473 <= 1
C1156: + x7 + x48 <= 1
C1157: + x219 + x237 <= 1
C1158: + x7 + x201 <= 1
C1159: + x211 + x304 <= 1
C1160: + x20 + x264 <= 1
C1161: + x25 + x262 <= 1
C1162: + x26 + x237 <= 1
C1163: + x143 + x295 <= 1
C1164: + x1 + x402 <= 1
C1165: + x203 + x246 <= 1
C1166: + x4 + x436 <= 1
C1167: + x351 + x454 <= 1
C1168: + x26 + x400 <= 1
C1169: + x7 + x92 <= 1
C1170: + x14 + x425 <= 1
C1171: + x84 + x331 <= 1
C1172: + x11 + x23 <= 1
C1173: + x103 + x176 <= 1
C1174: + x17 + x469 <= 1
C1175: + x329 + x455 <= 1
C1176: + x55 + x98 <= 1
C1177: + x298 + x462 <= 1
C1178: + x100 + x163 <= 1
C1179: + x159 + x405 <= 1
C1180: + x44 + x227 <= 1
C1181: + x334 + x389 <= 1
C1182: + x266 + x376 <= 1
C1183: + x112 + x413 <= 1
C1184: + x138 + x160 <= 1
C1185: + x112 + x244 <= 1
C1186: + x161 + x233 <= 1
C1187: + x209 + x494 <= 1
C1188: + x151 + x385 <= 1
C1189: + x244 + x428 <= 1
C1190: + x20 + x160 <= 1
C1191: + x151 + x366 <= 1
C1192: + x7 + x39 <= 1
C1193: + x46 + x122 <= 1
C1194: + x28 + x75 <= 1
C1195: + x46 + x360 <= 1
C1196: + x13 + x44 <= 1
C1197: + x4 + x71 <= 1
C1198: + x32 + x277 <= 1
C1199: + x253 + x283 <= 1
C1200: + x36 + x155 <= 1
C1201: + x143 + x298 <= 1
C1202: + x11 + x356 <= 1
C1203: + x25 + x31 <= 1
C1204: + x424 + x431 <= 1
C1205: + x15 + x18 <= 1
C1206: + x138 + x258 <= 1
C1207: + x52 + x315 <= 1
C1208: + x1 + x8 <= 1
C1209: + x238 + x476 <= 1
C1210: + x239 + x412 <= 1
C1211: + x114 + x214 <= 1
C1212: + x13 + x32 <= 1
C1213: + x33 + x241 <= 1
C1214: + x79 + x321 <= 1
C1215: + x18 + x109 <= 1
C1216: + x311 + x349 <= 1
C1217: + x130 + x193 <= 1
C1218: + x124 + x413 <= 1
C1219: + x52 + x172 <= 1
C1220: + x6 + x9 <= 1
C1221: + x10 + x78 <= 1
C1222: + x4 + x132 <= 1
C1223: + x256 + x422 <= 1
C1224: + x24 + x36 <= 1
C1225: + x80 + x135 <= 1
C1226: + x493 + x498 <= 1
C1227: + x156 + x293 <= 1
C1228: + x29 + x47 <= 1
C1229: + x138 + x351 <= 1
C1230: + x22 + x423 <= 1
C1231: + x5 + x163 <= 1
C1232: + x6 + x61 <= 1
C1233: + x52 + x376 <= 1
C1234: + x135 + x465 <= 1
C1235: + x66 + x437 <= 1
C1236: + x4 + x80 <= 1
C1237: + x32 + x199 <= 1
C1238: + x89 + x393 <= 1
C1239: + x45 + x175 <= 1
C1240: + x28 + x239 <= 1
C1241: + x25 + x102 <= 1
C1242: + x7 + x86 <= 1
C1243: + x134 + x153 <= 1
C1244: + x36 + x383 <= 1
C1245: + x54 + x68 <= 1
C1246: + x74 + x184 <= 1
C1247: + x13 + x178 <= 1
C1248: + x32 + x88 <= 1
C1249: + x172 + x310 <= 1
C1250: + x163 + x208 <= 1
C1251: + x2 + x129 <= 1
C1252: + x306 + x432 <= 1
C1253: + x16 + x60 <= 1
C1254: + x49 + x230 <= 1
C1255: + x485 + x490 <= 1
C1256: + x58 + x319 <= 1
C1257: + x1 + x345 <= 1
C1258: + x1 + x142 <= 1
C1259: + x2 + x50 <= 1
C1260: + x284 + x423 <= 1
C1261: + x4 + x137 <= 1
C1262: + x5 + x27 <= 1
C1263: + x278 + x490 <= 1
C1264: + x270 + x445 <= 1
C1265: + x53 + x61 <= 1
C1266: + x29 + x129 <= 1
C1267: + x205 + x216 <= 1
C1268: + x190 + x358 <= 1
C1269: + x400 + x498 <= 1
C1270: + x46 + x108 <= 1
C1271: + x23 + x24 <= 1
C1272: + x89 + x190 <= 1
C1273: + x27 + x91 <= 1
C1274: + x152 + x370 <= 1
C1275: + x11 + x177 <= 1
C1276: + x309 + x342 <= 1
C1277: + x37 + x371 <= 1
C1278: + x312 + x382 <= 1
C1279: + x23 + x294 <= 1
C1280: + x1 + x103 <= 1
C1281: + x30 + x398 <= 1
C1282: + x66 + x319 <= 1
C1283: + x60 + x382 <= 1
C1284: + x32 + x93 <= 1
C1285: + x23 + x100 <= 1
C1286: + x13 + x14 <= 1
C1287: + x14 + x154 <= 1
C1288: + x45 + x218 <= 1
C1289: + x36 + x245 <= 1
C1290: + x76 + x286 <= 1
C1291: + x97 + x300 <= 1
C1292: + x6 + x123 <= 1
C1293: + x181 + x487 <= 1
C1294: + x72 + x75 <= 1
C1295: + x24 + x449 <= 1
C1296: + x11 + x120 <= 1
C1297: + x21 + x336 <= 1
C1298: + x32 + x129 <= 1
C1299: + x26 + x189 <= 1
C1300: + x9 + x197 <= 1
C1301: + x8 + x117 <= 1
C1302: + x311 + x474 <= 1
C1303: + x26 + x96 <= 1
C1304: + x37 + x80 <= 1
C1305: + x58 + x199 <= 1
C1306: + x89 + x133 <= 1
C1307: + x35 + x280 <= 1
C1308: + x118 + x298 <= 1
C1309: + x100 + x352 <= 1
C1310: + x73 + x223 <= 1
C1311: + x57 + x430 <= 1
C1312: + x166 + x246 <= 1
C1313: + x30 + x185 <= 1
C1314: + x31 + x63 <= 1
C1315: + x286 + x484 <= 1
C1316: + x20 + x292 <= 1
C1317: + x25 + x354 <= 1
C1318: + x254 + x432 <= 1
C1319: + x20 + x127 <= 1
C1320: + x5 + x296 <= 1
C1321: + x208 + x345 <= 1
C1322: + x36 + x365 <= 1
C1323: + x102 + x433 <= 1
C1324: + x331 + x337 <= 1
C1325: + x304 + x319 <= 1
C1326: + x295 + x354 <= 1
C1327: + x145 + x163 <= 1
C1328: + x62 + x449 <= 1
C1329: + x320 + x380 <= 1
C1330: + x77 + x320 <= 1
C1331: + x4 + x106 <= 1
C1332: + x35 + x250 <= 1
C1333: + x75 + x385 <= 1
C1334: + x29 + x104 <= 1
C1335: + x198 + x420 <= 1
C1336: + x10 + x97 <= 1
C1337: + x284 + x437 <= 1
C1338: + x105 + x291 <= 1
C1339: + x5 + x9 <= 1
C1340: + x26 + x339 <= 1
C1341: + x226 + x494 <= 1
C1342: + x14 + x228 <= 1
C1343: + x20 + x188 <= 1
C1344: + x4 + x22 <= 1
C1345: + x26 + x33 <= 1
C1346: + x134 + x208 <= 1
C1347: + x73 + x198 <= 1
C1348: + x8 + x131 <= 1
C1349: + x57 + x437 <= 1
C1350: + x20 + x297 <= 1
C1351: + x304 + x343 <= 1
C1352: + x14 + x216 <= 1
C1353: + x26 + x210 <= 1
C1354: + x79 + x401 <= 1
C1355: + x85 + x259 <= 1
C1356: + x31 + x280 <= 1
C1357: + x143 + x167 <= 1
C1358: + x2 + x390 <= 1
C1359: + x30 + x291 <= 1
C1360: + x1 + x228 <= 1
C1361: + x10 + x25 <= 1
C1362: + x31 + x238 <= 1
C1363: + x208 + x215 <= 1
C1364: + x143 + x243 <= 1
C1365: + x36 + x322 <= 1
C1366: + x416 + x486 <= 1
C1367: + x45 + x365 <= 1
C1368: + x184 + x309 <= 1
C1369: + x57 + x461 <= 1
C1370: + x29 + x238 <= 1
C1371: + x250 + x259 <= 1
C1372: + x69 + x85 <= 1
C1373: + x161 + x286 <= 1
C1374: + x42 + x212 <= 1
C1375: + x26 + x42 <= 1
C1376: + x33 + x54 <= 1
C1377: + x23 + x57 <= 1
C1378: + x28 + x48 <= 1
C1379: + x45 + x147 <= 1
C1380: + x2 + x372 <= 1
C1381: + x147 + x487 <= 1
C1382: + x230 + x411 <= 1
C1383: + x30 + x46 <= 1
C1384: + x48 + x136 <= 1
C1385: + x5 + x278 <= 1
C1386: + x335 + x490 <= 1
C1387: + x16 + x495 <= 1
C1388: + x19 + x319 <= 1
C1389: + x265 + x443 <= 1
C1390: + x264 + x419 <= 1
C1391: + x332 + x337 <= 1
C1392: + x6 + x197 <= 1
C1393: + x38 + x172 <= 1
C1394: + x70 + x493 <= 1
C1395: + x10 + x381 <= 1
C1396: + x30 + x429 <= 1
C1397: + x196 + x394 <= 1
C1398: + x64 + x292 <= 1
C1399: + x16 + x141 <= 1
C1400: + x10 + x297 <= 1
C1401: + x366 + x422 <= 1
C1402: + x59 + x202 <= 1
C1403: + x9 + x308 <= 1
C1404: + x76 + x111 <= 1
C1405: + x5 + x35 <= 1
C1406: + x71 + x336 <= 1
C1407: + x145 + x462 <= 1
C1408: + x101 + x127 <= 1
C1409: + x3 + x379 <= 1
C1410: + x312 + x485 <= 1
C1411: + x30 + x39 <= 1
C1412: + x13 + x496 <= 1
C1413: + x75 + x299 <= 1
C1414: + x2 + x91 <= 1
C1415: + x348 + x400 <= 1
C1416: + x26 + x282 <= 1
C1417: + x16 + x194 <= 1
C1418: + x19 + x40 <= 1
C1419: + x10 + x11 <= 1
C1420: + x38 + x341 <= 1
C1421: + x63 + x460 <= 1
C1422: + x5 + x87 <= 1
C1423: + x5 + x420 <= 1
C1424: + x16 + x101 <= 1
C1425: + x155 + x465 <= 1
C1426: + x48 + x209 <= 1
C1427: + x209 + x274 <= 1
C1428: + x55 + x99 <= 1
C1429: + x11 + x108 <= 1
C1430: + x283 + x284 <= 1
C1431: + x296 + x333 <= 1
C1432: + x8 + x89 <= 1
C1433: + x218 + x303 <= 1
C1434: + x13 + x280 <= 1
C1435: + x207 + x280 <= 1
C1436: + x54 + x57 <= 1
C1437: + x49 + x487 <= 1
C1438: + x30 + x157 <= 1
C1439: + x20 + x320 <= 1
C1440: + x98 + x215 <= 1
C1441: + x6 + x166 <= 1
C1442: + x24 + x288 <= 1
C1443: + x26 + x370 <= 1
C1444: + x1 + x90 <= 1
C1445: + x8 + x13 <= 1
C1446: + x46 + x218 <= 1
C1447: + x276 + x338 <= 1
C1448: + x249 + x359 <= 1
C1449: + x82 + x456 <= 1
C1450: + x318 + x386 <= 1
C1451: + x219 + x233 <= 1
C1452: + x310 + x357 <= 1
C1453: + x255 + x413 <= 1
C1454: + x73 + x167 <= 1
C1455: + x199 + x397 <= 1
C1456: + x82 + x337 <= 1
C1457: + x240 + x315 <= 1
C1458: + x14 + x183 <= 1
C1459: + x81 + x492 <= 1
C1460: + x333 + x424 <= 1
C1461: + x11 + x19 <= 1
C1462: + x30 + x322 <= 1
C1463: + x53 + x426 <= 1
C1464: + x1 + x5 <= 1
C1465: + x237 + x465 <= 1
C1466: + x29 + x251 <= 1
C1467: + x51 + x172 <= 1
C1468: + x33 + x254 <= 1
C1469: + x130 + x281 <= 1
C1470: + x7 + x140 <= 1
C1471: + x1 + x180 <= 1
C1472: + x29 + x362 <= 1
C1473: + x222 + x470 <= 1
C1474: + x43 + x143 + x164 <= 1
C1475: + x5 + x17 <= 1
C1476: + x15 + x301 <= 1
C1477: + x245 + x296 <= 1
C1478: + x11 + x316 <= 1
C1479: + x20 + x164 <= 1
C1480: + x156 + x389 <= 1
C1481: + x4 + x62 <= 1
C1482: + x60 + x73 <= 1
C1483: + x30 + x57 <= 1
C1484: + x106 + x128 <= 1
C1485: + x7 + x27 <= 1
C1486: + x2 + x85 <= 1
C1487: + x49 + x365 <= 1
C1488: + x348 + x414 <= 1
C1489: + x413 + x435 <= 1
C1490: + x25 + x500 <= 1
C1491: + x7 + x200 <= 1
C1492: + x114 + x158 <= 1
C1493: + x13 + x40 <= 1
C1494: + x5 + x69 <= 1
C1495: + x5 + x402 <= 1
C1496: + x143 + x302 <= 1
C1497: + x1 + x109 <= 1
C1498: + x66 + x83 <= 1
C1499: + x38 + x58 <= 1
C1500: + x59 + x159 <= 1
C1501: + x13 + x466 <= 1
C1502: + x43 + x53 <= 1
C1503: + x6 + x65 <= 1
C1504: + x138 + x262 <= 1
C1505: + x66 + x289 <= 1
C1506: + x59 + x116 <= 1
C1507: + x95 + x200 <= 1
C1508: + x23 + x86 <= 1
C1509: + x4 + x220 <= 1
C1510: + x114 + x367 <= 1
C1511: + x36 + x112 <= 1
C1512: + x8 + x79 <= 1
C1513: + x74 + x417 <= 1
C1514: + x81 + x287 <= 1
C1515: + x18 + x97 <= 1
C1516: + x143 + x378 <= 1
C1517: + x2 + x303 <= 1
C1518: + x30 + x460 <= 1
C1519: + x43 + x121 <= 1
C1520: + x110 + x158 <= 1
C1521: + x148 + x206 <= 1
C1522: + x22 + x50 <= 1
C1523: + x15 + x195 <= 1
C1524: + x29 + x134 <= 1
C1525: + x105 + x111 <= 1
C1526: + x302 + x407 <= 1
C1527: + x81 + x331 <= 1
C1528: + x71 + x222 <= 1
C1529: + x10 + x272 <= 1
C1530: + x183 + x444 <= 1
C1531: + x148 + x392 <= 1
C1532: + x5 + x175 <= 1
C1533: + x24 + x387 <= 1
C1534: + x109 + x377 <= 1
C1535: + x10 + x62 <= 1
C1536: + x8 + x148 <= 1
C1537: + x275 + x423 <= 1
C1538: + x5 + x68 <= 1
C1539: + x16 + x116 <= 1
C1540: + x85 + x498 <= 1
C1541: + x130 + x351 <= 1
C1542: + x213 + x220 <= 1
C1543: + x22 + x276 <= 1
C1544: + x70 + x191 <= 1
C1545: + x189 + x435 <= 1
C1546: + x203 + x274 <= 1
C1547: + x30 + x340 <= 1
C1548: + x370 + x427 <= 1
C1549: + x26 + x313 <= 1
C1550: + x30 + x247 <= 1
C1551: + x61 + x464 <= 1
C1552: + x63 + x134 <= 1
C1553: + x57 + x77 <= 1
C1554: + x2 + x296 <= 1
C1555: + x9 + x304 <= 1
C1556: + x137 + x229 <= 1
C1557: + x10 + x123 <= 1
C1558: + x45 + x388 <= 1
C1559: + x2 + x54 <= 1
C1560: + x78 + x355 <= 1
C1561: + x18 + x235 <= 1
C1562: + x1 + x47 <= 1
C1563: + x54 + x354 <= 1
C1564: + x193 + x212 <= 1
C1565: + x70 + x116 <= 1
C1566: + x7 + x21 <= 1
C1567: + x49 + x214 <= 1
C1568: + x3 + x45 <= 1
C1569: + x56 + x368 <= 1
C1570: + x13 + x369 <= 1
C1571: + x125 + x494 <= 1
C1572: + x98 + x107 <= 1
C1573: + x278 + x359 <= 1
C1574: + x185 + x352 <= 1
C1575: + x61 + x64 <= 1
C1576: + x15 + x331 <= 1
C1577: + x16 + x121 <= 1
C1578: + x36 + x141 <= 1
C1579: + x144 + x440 <= 1
C1580: + x313 + x445 <= 1
C1581: + x48 + x292 <= 1
C1582: + x51 + x198 <= 1
C1583: + x306 + x332 <= 1
C1584: + x15 + x488 <= 1
C1585: + x45 + x327 <= 1
C1586: + x249 + x421 <= 1
C1587: + x11 + x16 <= 1
C1588: + x139 + x217 <= 1
C1589: + x278 + x299 <= 1
C1590: + x423 + x440 <= 1
C1591: + x82 + x173 <= 1
C1592: + x14 + x51 <= 1
C1593: + x92 + x169 <= 1
C1594: + x229 + x483 <= 1
C1595: + x149 + x357 <= 1
C1596: + x14 + x150 <= 1
C1597: + x88 + x314 <= 1
C1598: + x340 + x500 <= 1
C1599: + x23 + x471 <= 1
C1600: + x62 + x138 <= 1
C1601: + x45 + x379 <= 1
C1602: + x10 + x100 <= 1
C1603: + x10 + x425 <= 1
C1604: + x47 + x473 <= 1
C1605: + x5 + x14 <= 1
C1606: + x36 + x74 <= 1
C1607: + x118 + x256 <= 1
C1608: + x95 + x415 <= 1
C1609: + x295 + x444 <= 1
C1610: + x196 + x209 <= 1
C1611: + x43 + x254 <= 1
C1612: + x139 + x323 <= 1
C1613: + x20 + x457 <= 1
C1614: + x86 + x186 <= 1
C1615: + x30 + x274 <= 1
C1616: + x12 + x360 <= 1
C1617: + x331 + x361 <= 1
C1618: + x9 + x259 <= 1
C1619: + x72 + x450 <= 1
C1620: + x5 + x399 <= 1
C1621: + x289 + x424 <= 1
C1622: + x228 + x393 <= 1
C1623: + x193 + x231 <= 1
C1624: + x11 + x281 <= 1
C1625: + x21 + x125 <= 1
C1626: + x66 + x193 <= 1
C1627: + x220 + x330 <= 1
C1628: + x174 + x405 <= 1
C1629: + x440 + x467 <= 1
C1630: + x337 + x359 <= 1
C1631: + x7 + x298 <= 1
C1632: + x262 + x426 <= 1
C1633: + x38 + x166 <= 1
C1634: + x205 + x321 <= 1
C1635: + x23 + x220 <= 1
C1636: + x58 + x333 <= 1
C1637: + x222 + x300 <= 1
C1638: + x143 + x240 <= 1
C1639: + x10 + x101 <= 1
C1640: + x2 + x8 <= 1
C1641: + x13 + x152 <= 1
C1642: + x360 + x414 <= 1
C1643: + x296 + x350 <= 1
C1644: + x25 + x417 <= 1
C1645: + x1 + x61 <= 1
C1646: + x120 + x229 <= 1
C1647: + x250 + x382 <= 1
C1648: + x12 + x107 <= 1
C1649: + x60 + x85 <= 1
C1650: + x36 + x302 <= 1
C1651: + x114 + x479 <= 1
C1652: + x52 + x335 <= 1
C1653: + x5 + x156 <= 1
C1654: + x82 + x227 <= 1
C1655: + x9 + x266 <= 1
C1656: + x65 + x364 <= 1
C1657: + x20 + x301 <= 1
C1658: + x113 + x147 <= 1
C1659: + x21 + x433 <= 1
C1660: + x53 + x248 <= 1
C1661: + x73 + x89 <= 1
C1662: + x24 + x31 <= 1
C1663: + x37 + x39 <= 1
C1664: + x334 + x461 <= 1
C1665: + x115 + x409 <= 1
C1666: + x176 + x324 <= 1
C1667: + x100 + x309 <= 1
C1668: + x10 + x29 <= 1
C1669: + x1 + x232 <= 1
C1670: + x178 + x249 <= 1
C1671: + x22 + x229 <= 1
C1672: + x5 + x109 <= 1
C1673: + x226 + x394 <= 1
C1674: + x54 + x204 <= 1
C1675: + x239 + x277 <= 1
C1676: + x96 + x288 <= 1
C1677: + x155 + x368 <= 1
C1678: + x166 + x192 <= 1
C1679: + x159 + x182 <= 1
C1680: + x87 + x113 + x180 <= 1
C1681: + x1 + x52 <= 1
C1682: + x8 + x103 <= 1
C1683: + x3 + x300 <= 1
C1684: + x228 + x459 <= 1
C1685: + x195 + x213 <= 1
C1686: + x81 + x311 <= 1
C1687: + x75 + x380 <= 1
C1688: + x38 + x118 <= 1
C1689: + x62 + x112 <= 1
C1690: + x155 + x308 <= 1
C1691: + x92 + x228 <= 1
C1692: + x94 + x156 <= 1
C1693: + x5 + x40 <= 1
C1694: + x249 + x349 <= 1
C1695: + x29 + x190 <= 1
C1696: + x30 + x42 <= 1
C1697: + x58 + x403 <= 1
C1698: + x4 + x386 <= 1
C1699: + x25 + x70 <= 1
C1700: + x1 + x493 <= 1
C1701: + x75 + x94 <= 1
C1702: + x275 + x447 <= 1
C1703: + x30 + x219 <= 1
C1704: + x69 + x479 <= 1
C1705: + x205 + x375 <= 1
C1706: + x37 + x189 <= 1
C1707: + x29 + x114 <= 1
C1708: + x77 + x92 <= 1
C1709: + x13 + x289 <= 1
C1710: + x45 + x360 <= 1
C1711: + x172 + x419 <= 1
C1712: + x54 + x120 <= 1
C1713: + x1 + x313 <= 1
C1714: + x2 + x18 <= 1
C1715: + x112 + x290 <= 1
C1716: + x24 + x335 <= 1
C1717: + x17 + x193 <= 1
C1718: + x16 + x137 <= 1
C1719: + x145 + x278 <= 1
C1720: + x227 + x484 <= 1
C1721: + x119 + x201 <= 1
C1722: + x56 + x98 <= 1
C1723: + x4 + x475 <= 1
C1724: + x23 + x363 <= 1
C1725: + x13 + x107 <= 1
C1726: + x72 + x195 <= 1
C1727: + x64 + x226 <= 1
C1728: + x20 + x41 <= 1
C1729: + x4 + x378 <= 1
C1730: + x98 + x119 <= 1
C1731: + x16 + x323 <= 1
C1732: + x1 + x186 <= 1
C1733: + x10 + x67 <= 1
C1734: + x23 + x145 <= 1
C1735: + x116 + x188 <= 1
C1736: + x8 + x20 <= 1
C1737: + x30 + x35 <= 1
C1738: + x13 + x95 <= 1
C1739: + x196 + x327 <= 1
C1740: + x95 + x448 <= 1
C1741: + x25 + x77 <= 1
C1742: + x96 + x346 <= 1
C1743: + x11 + x36 <= 1
C1744: + x56 + x264 <= 1
C1745: + x77 + x196 <= 1
C1746: + x43 + x448 <= 1
C1747: + x163 + x231 <= 1
C1748: + x272 + x376 <= 1
C1749: + x13 + x46 <= 1
C1750: + x23 + x237 <= 1
C1751: + x2 + x261 <= 1
C1752: + x330 + x381 <= 1
C1753: + x59 + x352 <= 1
C1754: + x30 + x418 <= 1
C1755: + x15 + x16 <= 1
C1756: + x2 + x424 <= 1
C1757: + x49 + x431 <= 1
C1758: + x59 + x110 <= 1
C1759: + x61 + x346 <= 1
C1760: + x180 + x364 <= 1
C1761: + x44 + x71 <= 1
C1762: + x45 + x73 <= 1
C1763: + x63 + x316 <= 1
C1764: + x4 + x13 <= 1
C1765: + x98 + x301 <= 1
C1766: + x26 + x64 <= 1
C1767: + x5 + x468 <= 1
C1768: + x318 + x458 <= 1
C1769: + x345 + x474 <= 1
C1770: + x6 + x15 <= 1
C1771: + x55 + x488 <= 1
C1772: + x94 + x238 <= 1
C1773: + x113 + x347 <= 1
C1774: + x60 + x294 <= 1
C1775: + x36 + x82 <= 1
C1776: + x11 + x317 <= 1
C1777: + x72 + x329 <= 1
C1778: + x20 + x159 <= 1
C1779: + x196 + x249 <= 1
C1780: + x222 + x380 <= 1
C1781: + x132 + x441 <= 1
C1782: + x307 + x375 <= 1
C1783: + x344 + x401 <= 1
C1784: + x6 + x416 <= 1
C1785: + x2 + x493 <= 1
C1786: + x283 + x347 <= 1
C1787: + x420 + x481 <= 1
C1788: + x25 + x497 <= 1
C1789: + x125 + x477 <= 1
C1790: + x20 + x272 <= 1
C1791: + x42 + x186 <= 1
C1792: + x53 + x273 <= 1
C1793: + x35 + x379 <= 1
C1794: + x20 + x381 <= 1
C1795: + x188 + x406 <= 1
C1796: + x99 + x160 <= 1
C1797: + x2 + x143 <= 1
C1798: + x71 + x291 <= 1
C1799: + x135 + x184 <= 1
C1800: + x11 + x341 <= 1
C1801: + x47 + x182 <= 1
C1802: + x259 + x441 <= 1
C1803: + x107 + x446 <= 1
C1804: + x208 + x401 <= 1
C1805: + x75 + x131 <= 1
C1806: + x264 + x373 <= 1
C1807: + x112 + x252 <= 1
C1808: + x33 + x444 <= 1
C1809: + x206 + x312 <= 1
C1810: + x53 + x55 <= 1
C1811: + x30 + x53 <= 1
C1812: + x22 + x152 <= 1
C1813: + x34 + x50 <= 1
C1814: + x99 + x482 <= 1
C1815: + x54 + x191 <= 1
C1816: + x29 + x48 <= 1
C1817: + x157 + x432 <= 1
C1818: + x105 + x251 <= 1
C1819: + x45 + x176 <= 1
C1820: + x1 + x97 <= 1
C1821: + x57 + x126 <= 1
C1822: + x102 + x299 <= 1
C1823: + x230 + x358 <= 1
C1824: + x48 + x227 <= 1
C1825: + x68 + x174 <= 1
C1826: + x5 + x307 <= 1
C1827: + x395 + x456 <= 1
C1828: + x15 + x26 <= 1
C1829: + x36 + x354 <= 1
C1830: + x163 + x447 <= 1
C1831: + x156 + x167 <= 1
C1832: + x401 + x478 <= 1
C1833: + x185 + x453 <= 1
C1834: + x24 + x342 <= 1
C1835: + x7 + x248 <= 1
C1836: + x219 + x274 <= 1
C1837: + x48 + x84 <= 1
C1838: + x33 + x324 <= 1
C1839: + x170 + x263 <= 1
C1840: + x5 + x450 <= 1
C1841: + x152 + x403 <= 1
C1842: + x90 + x458 <= 1
C1843: + x36 + x207 <= 1
C1844: + x293 + x299 <= 1
C1845: + x118 + x284 <= 1
C1846: + x8 + x269 <= 1
C1847: + x2 + x49 <= 1
C1848: + x20 + x338 <= 1
C1849: + x21 + x322 <= 1
C1850: + x266 + x452 <= 1
C1851: + x5 + x28 <= 1
C1852: + x36 + x96 <= 1
C1853: + x11 + x303 <= 1
C1854: + x2 + x340 <= 1
C1855: + x293 + x442 <= 1
C1856: + x125 + x142 <= 1
C1857: + x7 + x18 <= 1
C1858: + x113 + x424 <= 1
C1859: + x105 + x325 <= 1
C1860: + x13 + x374 <= 1
C1861: + x6 + x37 <= 1
C1862: + x160 + x231 <= 1
C1863: + x206 + x357 <= 1
C1864: + x45 + x167 <= 1
C1865: + x7 + x78 <= 1
C1866: + x19 + x467 <= 1
C1867: + x365 + x491 <= 1
C1868: + x38 + x477 <= 1
C1869: + x77 + x221 <= 1
C1870: + x13 + x170 <= 1
C1871: + x52 + x268 <= 1
C1872: + x273 + x327 <= 1
C1873: + x2 + x153 <= 1
C1874: + x21 + x218 <= 1
C1875: + x70 + x76 <= 1
C1876: + x87 + x439 <= 1
C1877: + x28 + x307 <= 1
C1878: + x52 + x185 <= 1
C1879: + x2 + x10 <= 1
C1880: + x59 + x75 <= 1
C1881: + x39 + x407 <= 1
C1882: + x170 + x198 <= 1
C1883: + x36 + x69 <= 1
C1884: + x12 + x113 <= 1
C1885: + x4 + x48 <= 1
C1886: + x116 + x362 <= 1
C1887: + x278 + x355 <= 1
C1888: + x208 + x427 <= 1
C1889: + x10 + x408 <= 1
C1890: + x10 + x43 <= 1
C1891: + x8 + x133 <= 1
C1892: + x273 + x386 <= 1
C1893: + x4 + x189 <= 1
C1894: + x53 + x73 <= 1
C1895: + x18 + x27 <= 1
C1896: + x219 + x369 <= 1
C1897: + x145 + x474 <= 1
C1898: + x166 + x344 <= 1
C1899: + x81 + x469 <= 1
C1900: + x102 + x349 <= 1
C1901: + x29 + x173 <= 1
C1902: + x19 + x462 <= 1
C1903: + x13 + x161 <= 1
C1904: + x69 + x329 <= 1
C1905: + x260 + x385 <= 1
C1906: + x6 + x210 <= 1
C1907: + x7 + x226 <= 1
C1908: + x47 + x110 <= 1
C1909: + x225 + x402 <= 1
C1910: + x17 + x65 <= 1
C1911: + x308 + x397 <= 1
C1912: + x28 + x268 <= 1
C1913: + x2 + x317 <= 1
C1914: + x149 + x454 <= 1
C1915: + x123 + x305 <= 1
C1916: + x13 + x312 <= 1
C1917: + x258 + x286 <= 1
C1918: + x96 + x278 <= 1
C1919: + x28 + x471 <= 1
C1920: + x1 + x157 <= 1
C1921: + x158 + x253 <= 1
C1922: + x5 + x10 <= 1
C1923: + x6 + x134 <= 1
C1924: + x9 + x205 <= 1
C1925: + x265 + x343 <= 1
C1926: + x85 + x320 <= 1
C1927: + x4 + x21 <= 1
C1928: + x51 + x133 <= 1
C1929: + x89 + x496 <= 1
C1930: + x42 + x279 <= 1
C1931: + x1 + x169 <= 1
C1932: + x30 + x177 <= 1
C1933: + x25 + x223 <= 1
C1934: + x153 + x433 <= 1
C1935: + x7 + x64 <= 1
C1936: + x27 + x356 <= 1
C1937: + x1 + x275 <= 1
C1938: + x430 + x498 <= 1
C1939: + x19 + x51 <= 1
C1940: + x2 + x235 <= 1
C1941: + x38 + x162 <= 1
C1942: + x21 + x240 <= 1
C1943: + x157 + x347 <= 1
C1944: + x5 + x98 <= 1
C1945: + x48 + x111 <= 1
C1946: + x71 + x271 <= 1
C1947: + x5 + x340 <= 1
C1948: + x6 + x108 <= 1
C1949: + x71 + x172 <= 1
C1950: + x74 + x150 <= 1
C1951: + x170 + x405 <= 1
C1952: + x33 + x456 <= 1
C1953: + x14 + x28 <= 1
C1954: + x53 + x478 <= 1
C1955: + x118 + x197 <= 1
C1956: + x69 + x409 <= 1
C1957: + x26 + x41 <= 1
C1958: + x72 + x201 <= 1
C1959: + x38 + x73 <= 1
C1960: + x56 + x378 <= 1

binary
x1 x2 x3 x4 x5 x6 x7 x8 x9 x10 x11 x12 x13 x14 x15 x16 x17 x18 x19 x20 x21 x22 x23 x24 x25 x26 x27 x28 x29 x30 x31 x32 x33 x34 x35 x36 x37 x38 x39 x40 x41 x42 x43 x44 x45 x46 x47 x48 x49 x50 x51 x52 x53 x54 x55 x56 x57 x58 x59 x60 x61 x62 x63 x64 x65 x66 x67 x68 x69 x70 x71 x72 x73 x74 x75 x76 x77 x78 x79 x80 x81 x82 x83 x84 x85 x86 x87 x88 x89 x90 x91 x92 x93 x94 x95 x96 x97 x98 x99 x100 x101 x102 x103 x104 x105 x106 x107 x108 x109 x110 x111 x112 x113 x114 x115 x116 x117 x118 x119 x120 x121 x122 x123 x124 x125 x126 x127 x128 x129 x130 x131 x132 x133 x134 x135 x136 x137 x138 x139 x140 x141 x142 x143 x144 x145 x146 x147 x148 x149 x150 x151 x152 x153 x154 x155 x156 x157 x158 x159 x160 x161 x162 x163 x164 x165 x166 x167 x168 x169 x170 x171 x172 x173 x174 x175 x176 x177 x178 x179 x180 x181 x182 x183 x184 x185 x186 x187 x188 x189 x190 x191 x192 x193 x194 x195 x196 x197 x198 x199 x200 x201 x202 x203 x204 x205 x206 x207 x208 x209 x210 x211 x212 x213 x214 x215 x216 x217 x218 x219 x220 x221 x222 x223 x224 x225 x226 x227 x228 x229 x230 x231 x232 x233 x234 x235 x236 x237 x238 x239 x240 x241 x242 x243 x244 x245 x246 x247 x248 x249 x250 x251 x252 x253 x254 x255 x256 x257 x258 x259 x260 x261 x262 x263 x264 x265 x266 x267 x268 x269 x270 x271 x272 x273 x274 x275 x276 x277 x278 x279 x280 x281 x282 x283 x284 x285 x286 x287 x288 x289 x290 x291 x292 x293 x294 x295 x296 x297 x298 x299 x300 x301 x302 x303 x304 x305 x306 x307 x308 x309 x310 x311 x312 x313 x314 x315 x316 x317 x318 x319 x320 x321 x322 x323 x324 x325 x326 x327 x328 x329 x330 x331 x332 x333 x334 x335 x336 x337 x338 x339 x340 x341 x342 x343 x344 x345 x346 x347 x348 x349 x350 x351 x352 x353 x354 x355 x356 x357 x358 x359 x360 x361 x362 x363 x364 x365 x366 x367 x368 x369 x370 x371 x372 x373 x374 x375 x376 x377 x378 x379 x380 x381 x382 x383 x384 x385 x386 x387 x388 x389 x390 x391 x392 x393 x394 x395 x396 x397 x398 x399 x400 x401 x402 x403 x404 x405 x406 x407 x408 x409 x410 x411 x412 x413 x414 x415 x416 x417 x418 x419 x420 x421 x422 x423 x424 x425 x426 x427 x428 x429 x430 x431 x432 x433 x434 x435 x436 x437 x438 x439 x440 x441 x442 x443 x444 x445 x446 x447 x448 x449 x450 x451 x452 x453 x454 x455 x456 x457 x458 x459 x460 x461 x462 x463 x464 x465 x466 x467 x468 x469 x470 x471 x472 x473 x474 x475 x476 x477 x478 x479 x480 x481 x482 x483 x484 x485 x486 x487 x488 x489 x490 x491 x492 x493 x494 x495 x496 x497 x498 x499 x500
