maximize
OBJ: + 1 x1 + 1 x2 + 1 x3 + 1 x4 + 1 x5 + 1 x6 + 1 x7 + 1 x8 + 1 x9 + 1 x10 + 1 x11 + 1 x12 + 1 x13 + 1 x14 + 1 x15 + 1 x16 + 1 x17 + 1 x18 + 1 x19 + 1 x20 + 1 x21 + 1 x22 + 1 x23 + 1 x24 + 1 x25 + 1 x26 + 1 x27 + 1 x28 + 1 x29 + 1 x30 + 1 x31 + 1 x32 + 1 x33 + 1 x34 + 1 x35 + 1 x36 + 1 x37 + 1 x38 + 1 x39 + 1 x40 + 1 x41 + 1 x42 + 1 x43 + 1 x44 + 1 x45 + 1 x46 + 1 x47 + 1 x48 + 1 x49 + 1 x50 + 1 x51 + 1 x52 + 1 x53 + 1 x54 + 1 x55 + 1 x56 + 1 x57 + 1 x58 + 1 x59 + 1 x60 + 1 x61 + 1 x62 + 1 x63 + 1 x64 + 1 x65 + 1 x66 + 1 x67 + 1 x68 + 1 x69 + 1 x70 + 1 x71 + 1 x72 + 1 x73 + 1 x74 + 1 x75 + 1 x76 + 1 x77 + 1 x78 + 1 x79 + 1 x80 + 1 x81 + 1 x82 + 1 x83 + 1 x84 + 1 x85 + 1 x86 + 1 x87 + 1 x88 + 1 x89 + 1 x90 + 1 x91 + 1 x92 + 1 x93 + 1 x94 + 1 x95 + 1 x96 + 1 x97 + 1 x98 + 1 x99 + 1 x100 + 1 x101 + 1 x102 + 1 x103 + 1 x104 + 1 x105 + 1 x106 + 1 x107 + 1 x108 + 1 x109 + 1 x110 + 1 x111 + 1 x112 + 1 x113 + 1 x114 + 1 x115 + 1 x116 + 1 x117 + 1 x118 + 1 x119 + 1 x120 + 1 x121 + 1 x122 + 1 x123 + 1 x124 + 1 x125 + 1 x126 + 1 x127 + 1 x128 + 1 x129 + 1 x130 + 1 x131 + 1 x132 + 1 x133 + 1 x134 + 1 x135 + 1 x136 + 1 x137 + 1 x138 + 1 x139 + 1 x140 + 1 x141 + 1 x142 + 1 x143 + 1 x144 + 1 x145 + 1 x146 + 1 x147 + 1 x148 + 1 x149 + 1 x150 + 1 x151 + 1 x152 + 1 x153 + 1 x154 + 1 x155 + 1 x156 + 1 x157 + 1 x158 + 1 x159 + 1 x160 + 1 x161 + 1 x162 + 1 x163 + 1 x164 + 1 x165 + 1 x166 + 1 x167 + 1 x168 + 1 x169 + 1 x170 + 1 x171 + 1 x172 + 1 x173 + 1 x174 + 1 x175 + 1 x176 + 1 x177 + 1 x178 + 1 x179 + 1 x180 + 1 x181 + 1 x182 + 1 x183 + 1 x184 + 1 x185 + 1 x186 + 1 x187 + 1 x188 + 1 x189 + 1 x190 + 1 x191 + 1 x192 + 1 x193 + 1 x194 + 1 x195 + 1 x196 + 1 x197 + 1 x198 + 1 x199 + 1 x200 + 1 x201 + 1 x202 + 1 x203 + 1 x204 + 1 x205 + 1 x206 + 1 x207 + 1 x208 + 1 x209 + 1 x210 + 1 x211 + 1 x212 + 1 x213 + 1 x214 + 1 x215 + 1 x216 + 1 x217 + 1 x218 + 1 x219 + 1 x220 + 1 x221 + 1 x222 + 1 x223 + 1 x224 + 1 x225 + 1 x226 + 1 x227 + 1 x228 + 1 x229 + 1 x230 + 1 x231 + 1 x232 + 1 x233 + 1 x234 + 1 x235 + 1 x236 + 1 x237 + 1 x238 + 1 x239 + 1 x240 + 1 x241 + 1 x242 + 1 x243 + 1 x244 + 1 x245 + 1 x246 + 1 x247 + 1 x248 + 1 x249 + 1 x250 + 1 x251 + 1 x252 + 1 x253 + 1 x254 + 1 x255 + 1 x256 + 1 x257 + 1 x258 + 1 x259 + 1 x260 + 1 x261 + 1 x262 + 1 x263 + 1 x264 + 1 x265 + 1 x266 + 1 x267 + 1 x268 + 1 x269 + 1 x270 + 1 x271 + 1 x272 + 1 x273 + 1 x274 + 1 x275 + 1 x276 + 1 x277 + 1 x278 + 1 x279 + 1 x280 + 1 x281 + 1 x282 + 1 x283 + 1 x284 + 1 x285 + 1 x286 + 1 x287 + 1 x288 + 1 x289 + 1 x290 + 1 x291 + 1 x292 + 1 x293 + 1 x294 + 1 x295 + 1 x296 + 1 x297 + 1 x298 + 1 x299 + 1 x300 + 1 x301 + 1 x302 + 1 x303 + 1 x304 + 1 x305 + 1 x306 + 1 x307 + 1 x308 + 1 x309 + 1 x310 + 1 x311 + 1 x312 + 1 x313 + 1 x314 + 1 x315 + 1 x316 + 1 x317 + 1 x318 + 1 x319 + 1 x320 + 1 x321 + 1 x322 + 1 x323 + 1 x324 + 1 x325 + 1 x326 + 1 x327 + 1 x328 + 1 x329 + 1 x330 + 1 x331 + 1 x332 + 1 x333 + 1 x334 + 1 x335 + 1 x336 + 1 x337 + 1 x338 + 1 x339 + 1 x340 + 1 x341 + 1 x342 + 1 x343 + 1 x344 + 1 x345 + 1 x346 + 1 x347 + 1 x348 + 1 x349 + 1 x350 + 1 x351 + 1 x352 + 1 x353 + 1 x354 + 1 x355 + 1 x356 + 1 x357 + 1 x358 + 1 x359 + 1 x360 + 1 x361 + 1 x362 + 1 x363 + 1 x364 + 1 x365 + 1 x366 + 1 x367 + 1 x368 + 1 x369 + 1 x370 + 1 x371 + 1 x372 + 1 x373 + 1 x374 + 1 x375 + 1 x376 + 1 x377 + 1 x378 + 1 x379 + 1 x380 + 1 x381 + 1 x382 + 1 x383 + 1 x384 + 1 x385 + 1 x386 + 1 x387 + 1 x388 + 1 x389 + 1 x390 + 1 x391 + 1 x392 + 1 x393 + 1 x394 + 1 x395 + 1 x396 + 1 x397 + 1 x398 + 1 x399 + 1 x400 + 1 x401 + 1 x402 + 1 x403 + 1 x404 + 1 x405 + 1 x406 + 1 x407 + 1 x408 + 1 x409 + 1 x410 + 1 x411 + 1 x412 + 1 x413 + 1 x414 + 1 x415 + 1 x416 + 1 x417 + 1 x418 + 1 x419 + 1 x420 + 1 x421 + 1 x422 + 1 x423 + 1 x424 + 1 x425 + 1 x426 + 1 x427 + 1 x428 + 1 x429 + 1 x430 + 1 x431 + 1 x432 + 1 x433 + 1 x434 + 1 x435 + 1 x436 + 1 x437 + 1 x438 + 1 x439 + 1 x440 + 1 x441 + 1 x442 + 1 x443 + 1 x444 + 1 x445 + 1 x446 + 1 x447 + 1 x448 + 1 x449 + 1 x450 + 1 x451 + 1 x452 + 1 x453 + 1 x454 + 1 x455 + 1 x456 + 1 x457 + 1 x458 + 1 x459 + 1 x460 + 1 x461 + 1 x462 + 1 x463 + 1 x464 + 1 x465 + 1 x466 + 1 x467 + 1 x468 + 1 x469 + 1 x470 + 1 x471 + 1 x472 + 1 x473 + 1 x474 + 1 x475 + 1 x476 + 1 x477 + 1 x478 + 1 x479 + 1 x480 + 1 x481 + 1 x482 + 1 x483 + 1 x484 + 1 x485 + 1 x486 + 1 x487 + 1 x488 + 1 x489 + 1 x490 + 1 x491 + 1 x492 + 1 x493 + 1 x494 + 1 x495 + 1 x496 + 1 x497 + 1 x498 + 1 x499 + 1 x500

subject to
C1: + x23 + x58 <= 1
C2: + x72 + x112 <= 1
C3: + x54 + x481 <= 1
C4: + x8 + x251 <= 1
C5: + x108 + x324 <= 1
C6: + x8 + x26 <= 1
C7: + x55 + x180 <= 1
C8: + x123 + x383 <= 1
C9: + x44 + x175 <= 1
C10: + x73 + x93 <= 1
C11: + x71 + x247 <= 1
C12: + x62 + x196 <= 1
C13: + x211 + x406 <= 1
C14: + x275 + x287 <= 1
C15: + x73 + x186 <= 1
C16: + x150 + x471 <= 1
C17: + x44 + x64 <= 1
C18: + x12 + x23 <= 1
C19: + x123 + x138 <= 1
C20: + x261 + x408 <= 1
C21: + x155 + x364 <= 1
C22: + x8 + x369 <= 1
C23: + x146 + x183 <= 1
C24: + x13 + x139 <= 1
C25: + x96 + x191 <= 1
C26: + x417 + x457 <= 1
C27: + x56 + x101 <= 1
C28: + x274 + x368 <= 1
C29: + x12 + x104 <= 1
C30: + x48 + x188 <= 1
C31: + x71 + x318 <= 1
C32: + x130 + x270 <= 1
C33: + x58 + x217 <= 1
C34: + x267 + x327 <= 1
C35: + x177 + x457 <= 1
C36: + x20 + x475 <= 1
C37: + x209 + x344 <= 1
C38: + x8 + x293 <= 1
C39: + x11 + x86 <= 1
C40: + x58 + x60 <= 1
C41: + x107 + x226 <= 1
C42: + x300 + x403 <= 1
C43: + x79 + x317 <= 1
C44: + x80 + x183 <= 1
C45: + x155 + x431 <= 1
C46: + x11 + x37 <= 1
C47: + x365 + x372 <= 1
C48: + x71 + x377 <= 1
C49: + x12 + x16 <= 1
C50: + x35 + x357 <= 1
C51: + x146 + x176 <= 1
C52: + x393 + x474 <= 1
C53: + x58 + x113 <= 1
C54: + x23 + x89 <= 1
C55: + x126 + x265 <= 1
C56: + x5 + x231 <= 1
C57: + x36 + x97 <= 1
C58: + x100 + x161 <= 1
C59: + x119 + x205 <= 1
C60: + x4 + x12 <= 1
C61: + x207 + x277 <= 1
C62: + x28 + x61 <= 1
C63: + x30 + x156 <= 1
C64: + x23 + x149 <= 1
C65: + x98 + x214 <= 1
C66: + x26 + x172 <= 1
C67: + x126 + x136 <= 1
C68: + x137 + x483 <= 1
C69: + x144 + x408 <= 1
C70: + x130 + x440 <= 1
C71: + x89 + x273 <= 1
C72: + x8 + x435 <= 1
C73: + x64 + x210 <= 1
C74: + x11 + x48 <= 1
C75: + x84 + x185 <= 1
C76: + x30 + x269 <= 1
C77: + x6 + x54 <= 1
C78: + x9 + x189 <= 1
C79: + x111 + x149 <= 1
C80: + x126 + x220 <= 1
C81: + x72 + x132 <= 1
C82: + x46 + x141 <= 1
C83: + x293 + x381 <= 1
C84: + x394 + x450 <= 1
C85: + x11 + x20 <= 1
C86: + x129 + x302 <= 1
C87: + x24 + x324 <= 1
C88: + x21 + x201 <= 1
C89: + x17 + x89 <= 1
C90: + x9 + x70 <= 1
C91: + x330 + x429 <= 1
C92: + x47 + x364 <= 1
C93: + x414 + x488 <= 1
C94: + x6 + x11 <= 1
C95: + x71 + x73 <= 1
C96: + x19 + x410 <= 1
C97: + x19 + x99 <= 1
C98: + x179 + x188 <= 1
C99: + x26 + x378 <= 1
C100: + x24 + x195 <= 1
C101: + x227 + x459 <= 1
C102: + x119 + x148 <= 1
C103: + x29 + x144 <= 1
C104: + x77 + x453 <= 1
C105: + x31 + x192 <= 1
C106: + x226 + x296 <= 1
C107: + x10 + x262 <= 1
C108: + x24 + x389 <= 1
C109: + x46 + x355 <= 1
C110: + x12 + x223 <= 1
C111: + x235 + x430 <= 1
C112: + x119 + x176 <= 1
C113: + x475 + x477 <= 1
C114: + x114 + x128 <= 1
C115: + x59 + x160 <= 1
C116: + x22 + x266 <= 1
C117: + x351 + x434 <= 1
C118: + x13 + x467 <= 1
C119: + x32 + x86 <= 1
C120: + x45 + x68 <= 1
C121: + x5 + x455 <= 1
C122: + x47 + x186 <= 1
C123: + x122 + x436 <= 1
C124: + x48 + x353 <= 1
C125: + x15 + x39 <= 1
C126: + x346 + x475 <= 1
C127: + x92 + x264 <= 1
C128: + x1 + x327 <= 1
C129: + x10 + x113 <= 1
C130: + x20 + x333 <= 1
C131: + x203 + x476 <= 1
C132: + x211 + x487 <= 1
C133: + x5 + x25 <= 1
C134: + x296 + x434 <= 1
C135: + x298 + x486 <= 1
C136: + x27 + x46 <= 1
C137: + x2 + x351 <= 1
C138: + x29 + x135 <= 1
C139: + x4 + x38 <= 1
C140: + x342 + x442 <= 1
C141: + x22 + x418 <= 1
C142: + x13 + x379 <= 1
C143: + x36 + x405 <= 1
C144: + x134 + x462 <= 1
C145: + x36 + x44 <= 1
C146: + x85 + x158 <= 1
C147: + x41 + x63 <= 1
C148: + x23 + x243 <= 1
C149: + x17 + x155 <= 1
C150: + x18 + x45 <= 1
C151: + x126 + x238 <= 1
C152: + x55 + x172 <= 1
C153: + x26 + x194 <= 1
C154: + x6 + x278 <= 1
C155: + x151 + x489 <= 1
C156: + x7 + x79 <= 1
C157: + x119 + x452 <= 1
C158: + x47 + x57 + x76 <= 1
C159: + x31 + x65 <= 1
C160: + x22 + x118 <= 1
C161: + x45 + x494 <= 1
C162: + x10 + x233 <= 1
C163: + x158 + x374 <= 1
C164: + x51 + x274 <= 1
C165: + x290 + x361 <= 1
C166: + x19 + x359 <= 1
C167: + x58 + x322 <= 1
C168: + x38 + x417 <= 1
C169: + x42 + x83 <= 1
C170: + x5 + x355 <= 1
C171: + x288 + x319 <= 1
C172: + x110 + x331 <= 1
C173: + x6 + x125 <= 1
C174: + x2 + x53 <= 1
C175: + x8 + x265 <= 1
C176: + x24 + x294 <= 1
C177: + x71 + x425 <= 1
C178: + x12 + x128 <= 1
C179: + x48 + x164 <= 1
C180: + x141 + x456 <= 1
C181: + x107 + x308 <= 1
C182: + x325 + x399 <= 1
C183: + x4 + x43 <= 1
C184: + x134 + x217 <= 1
C185: + x43 + x71 + x114 <= 1
C186: + x23 + x41 <= 1
C187: + x6 + x33 <= 1
C188: + x89 + x96 <= 1
C189: + x197 + x268 <= 1
C190: + x81 + x466 <= 1
C191: + x127 + x205 <= 1
C192: + x9 + x15 <= 1
C193: + x466 + x500 <= 1
C194: + x29 + x82 <= 1
C195: + x35 + x137 <= 1
C196: + x16 + x415 <= 1
C197: + x204 + x414 <= 1
C198: + x45 + x485 <= 1
C199: + x290 + x391 <= 1
C200: + x118 + x171 <= 1
C201: + x10 + x18 <= 1
C202: + x8 + x192 <= 1
C203: + x306 + x476 <= 1
C204: + x154 + x458 <= 1
C205: + x8 + x483 <= 1
C206: + x71 + x273 <= 1
C207: + x203 + x224 <= 1
C208: + x112 + x439 <= 1
C209: + x51 + x55 <= 1
C210: + x144 + x154 <= 1
C211: + x110 + x143 <= 1
C212: + x146 + x267 <= 1
C213: + x436 + x465 <= 1
C214: + x193 + x399 <= 1
C215: + x29 + x376 <= 1
C216: + x43 + x269 <= 1
C217: + x19 + x241 <= 1
C218: + x31 + x145 <= 1
C219: + x7 + x13 <= 1
C220: + x47 + x152 <= 1
C221: + x212 + x213 <= 1
C222: + x31 + x391 <= 1
C223: + x224 + x349 <= 1
C224: + x11 + x165 <= 1
C225: + x2 + x218 <= 1
C226: + x148 + x167 <= 1
C227: + x33 + x410 <= 1
C228: + x14 + x218 <= 1
C229: + x56 + x395 <= 1
C230: + x35 + x63 <= 1
C231: + x22 + x23 <= 1
C232: + x43 + x305 <= 1
C233: + x23 + x306 <= 1
C234: + x6 + x264 <= 1
C235: + x8 + x40 <= 1
C236: + x10 + x138 <= 1
C237: + x84 + x399 <= 1
C238: + x62 + x206 <= 1
C239: + x10 + x485 <= 1
C240: + x75 + x315 <= 1
C241: + x76 + x208 <= 1
C242: + x177 + x276 <= 1
C243: + x13 + x349 <= 1
C244: + x150 + x179 <= 1
C245: + x16 + x242 <= 1
C246: + x19 + x56 <= 1
C247: + x8 + x181 <= 1
C248: + x38 + x165 <= 1
C249: + x21 + x237 <= 1
C250: + x115 + x196 <= 1
C251: + x225 + x406 <= 1
C252: + x52 + x103 <= 1
C253: + x207 + x223 <= 1
C254: + x116 + x454 <= 1
C255: + x15 + x60 <= 1
C256: + x2 + x7 <= 1
C257: + x129 + x326 <= 1
C258: + x8 + x105 <= 1
C259: + x48 + x178 <= 1
C260: + x42 + x283 <= 1
C261: + x4 + x496 <= 1
C262: + x5 + x488 <= 1
C263: + x207 + x235 <= 1
C264: + x49 + x197 <= 1
C265: + x50 + x60 + x365 <= 1
C266: + x34 + x444 <= 1
C267: + x118 + x318 <= 1
C268: + x8 + x307 <= 1
C269: + x114 + x185 <= 1
C270: + x34 + x263 <= 1
C271: + x126 + x334 <= 1
C272: + x260 + x381 <= 1
C273: + x26 + x354 <= 1
C274: + x128 + x245 <= 1
C275: + x24 + x187 <= 1
C276: + x3 + x358 <= 1
C277: + x12 + x493 <= 1
C278: + x199 + x372 <= 1
C279: + x8 + x324 <= 1
C280: + x139 + x204 <= 1
C281: + x13 + x348 <= 1
C282: + x32 + x74 <= 1
C283: + x45 + x475 <= 1
C284: + x163 + x214 <= 1
C285: + x144 + x310 <= 1
C286: + x155 + x183 <= 1
C287: + x21 + x236 <= 1
C288: + x223 + x279 <= 1
C289: + x152 + x438 <= 1
C290: + x8 + x465 <= 1
C291: + x106 + x262 <= 1
C292: + x273 + x456 <= 1
C293: + x148 + x233 <= 1
C294: + x22 + x85 <= 1
C295: + x13 + x144 <= 1
C296: + x52 + x298 <= 1
C297: + x51 + x398 <= 1
C298: + x45 + x92 <= 1
C299: + x13 + x109 <= 1
C300: + x9 + x85 <= 1
C301: + x173 + x454 <= 1
C302: + x75 + x377 <= 1
C303: + x85 + x424 <= 1
C304: + x39 + x280 <= 1
C305: + x50 + x151 <= 1
C306: + x5 + x132 <= 1
C307: + x6 + x28 <= 1
C308: + x10 + x89 <= 1
C309: + x129 + x361 <= 1
C310: + x76 + x109 <= 1
C311: + x12 + x244 <= 1
C312: + x227 + x318 <= 1
C313: + x65 + x385 <= 1
C314: + x332 + x489 <= 1
C315: + x171 + x494 <= 1
C316: + x147 + x261 <= 1
C317: + x184 + x373 <= 1
C318: + x78 + x210 <= 1
C319: + x32 + x55 <= 1
C320: + x4 + x320 <= 1
C321: + x7 + x281 <= 1
C322: + x122 + x323 <= 1
C323: + x115 + x246 <= 1
C324: + x43 + x164 <= 1
C325: + x6 + x318 <= 1
C326: + x34 + x159 <= 1
C327: + x318 + x351 <= 1
C328: + x2 + x430 <= 1
C329: + x95 + x216 <= 1
C330: + x179 + x384 <= 1
C331: + x27 + x174 <= 1
C332: + x199 + x467 <= 1
C333: + x8 + x289 <= 1
C334: + x10 + x66 <= 1
C335: + x47 + x447 <= 1
C336: + x12 + x233 <= 1
C337: + x76 + x102 <= 1
C338: + x114 + x171 <= 1
C339: + x21 + x182 <= 1
C340: + x5 + x48 <= 1
C341: + x19 + x146 <= 1
C342: + x8 + x19 <= 1
C343: + x64 + x114 <= 1
C344: + x4 + x394 <= 1
C345: + x17 + x27 <= 1
C346: + x11 + x33 <= 1
C347: + x139 + x254 <= 1
C348: + x221 + x328 <= 1
C349: + x6 + x201 <= 1
C350: + x73 + x165 <= 1
C351: + x18 + x147 <= 1
C352: + x183 + x186 <= 1
C353: + x39 + x40 <= 1
C354: + x6 + x295 <= 1
C355: + x9 + x23 <= 1
C356: + x15 + x372 <= 1
C357: + x4 + x438 <= 1
C358: + x133 + x206 <= 1
C359: + x19 + x487 <= 1
C360: + x55 + x104 <= 1
C361: + x147 + x253 <= 1
C362: + x119 + x499 <= 1
C363: + x41 + x477 <= 1
C364: + x11 + x21 <= 1
C365: + x84 + x132 <= 1
C366: + x30 + x324 <= 1
C367: + x374 + x377 <= 1
C368: + x4 + x16 <= 1
C369: + x36 + x196 <= 1
C370: + x155 + x482 <= 1
C371: + x177 + x452 <= 1
C372: + x176 + x278 <= 1
C373: + x160 + x208 <= 1
C374: + x8 + x282 <= 1
C375: + x28 + x49 <= 1
C376: + x136 + x308 <= 1
C377: + x63 + x396 <= 1
C378: + x158 + x280 <= 1
C379: + x10 + x440 <= 1
C380: + x179 + x189 <= 1
C381: + x146 + x224 <= 1
C382: + x23 + x169 <= 1
C383: + x81 + x112 <= 1
C384: + x6 + x380 <= 1
C385: + x69 + x447 <= 1
C386: + x5 + x257 <= 1
C387: + x7 + x37 <= 1
C388: + x18 + x422 <= 1
C389: + x393 + x409 <= 1
C390: + x211 + x388 <= 1
C391: + x11 + x415 <= 1
C392: + x3 + x93 <= 1
C393: + x13 + x321 <= 1
C394: + x6 + x50 <= 1
C395: + x175 + x199 <= 1
C396: + x112 + x144 + x209 <= 1
C397: + x9 + x30 <= 1
C398: + x59 + x145 <= 1
C399: + x70 + x184 <= 1
C400: + x224 + x246 <= 1
C401: + x11 + x451 <= 1
C402: + x11 + x32 <= 1
C403: + x12 + x299 <= 1
C404: + x15 + x177 <= 1
C405: + x120 + x204 <= 1
C406: + x11 + x241 <= 1
C407: + x202 + x374 <= 1
C408: + x20 + x219 <= 1
C409: + x179 + x370 <= 1
C410: + x43 + x218 <= 1
C411: + x45 + x230 <= 1
C412: + x19 + x369 <= 1
C413: + x134 + x303 <= 1
C414: + x131 + x205 <= 1
C415: + x4 + x359 <= 1
C416: + x341 + x468 <= 1
C417: + x217 + x237 <= 1
C418: + x404 + x471 <= 1
C419: + x145 + x207 <= 1
C420: + x33 + x445 <= 1
C421: + x286 + x476 <= 1
C422: + x100 + x154 <= 1
C423: + x21 + x25 <= 1
C424: + x39 + x199 <= 1
C425: + x12 + x70 <= 1
C426: + x33 + x282 <= 1
C427: + x6 + x392 <= 1
C428: + x233 + x493 <= 1
C429: + x119 + x305 <= 1
C430: + x197 + x493 <= 1
C431: + x36 + x404 <= 1
C432: + x9 + x168 <= 1
C433: + x75 + x120 <= 1
C434: + x47 + x405 <= 1
C435: + x160 + x491 <= 1
C436: + x45 + x169 <= 1
C437: + x8 + x53 <= 1
C438: + x20 + x115 <= 1
C439: + x108 + x161 <= 1
C440: + x16 + x231 <= 1
C441: + x102 + x187 <= 1
C442: + x29 + x207 <= 1
C443: + x136 + x401 <= 1
C444: + x112 + x147 <= 1
C445: + x245 + x389 <= 1
C446: + x340 + x489 <= 1
C447: + x4 + x368 <= 1
C448: + x10 + x117 <= 1
C449: + x373 + x452 <= 1
C450: + x211 + x483 <= 1
C451: + x1 + x144 <= 1
C452: + x20 + x337 <= 1
C453: + x4 + x139 <= 1
C454: + x24 + x297 <= 1
C455: + x29 + x131 <= 1
C456: + x60 + x69 <= 1
C457: + x40 + x273 <= 1
C458: + x156 + x320 <= 1
C459: + x32 + x43 <= 1
C460: + x43 + x426 <= 1
C461: + x71 + x116 <= 1
C462: + x6 + x36 <= 1
C463: + x282 + x465 <= 1
C464: + x37 + x381 <= 1
C465: + x56 + x433 <= 1
C466: + x179 + x227 <= 1
C467: + x61 + x62 <= 1
C468: + x24 + x172 <= 1
C469: + x188 + x249 <= 1
C470: + x65 + x441 <= 1
C471: + x96 + x453 <= 1
C472: + x29 + x87 <= 1
C473: + x47 + x249 <= 1
C474: + x20 + x124 <= 1
C475: + x33 + x146 <= 1
C476: + x51 + x200 <= 1
C477: + x17 + x60 <= 1
C478: + x89 + x303 <= 1
C479: + x40 + x325 <= 1
C480: + x12 + x345 <= 1
C481: + x106 + x134 <= 1
C482: + x14 + x53 <= 1
C483: + x45 + x490 <= 1
C484: + x18 + x367 <= 1
C485: + x8 + x67 <= 1
C486: + x14 + x152 <= 1
C487: + x24 + x128 <= 1
C488: + x101 + x393 <= 1
C489: + x58 + x326 <= 1
C490: + x8 + x261 <= 1
C491: + x88 + x98 <= 1
C492: + x67 + x412 <= 1
C493: + x12 + x116 <= 1
C494: + x195 + x197 <= 1
C495: + x14 + x279 <= 1
C496: + x10 + x316 <= 1
C497: + x94 + x105 <= 1
C498: + x4 + x257 <= 1
C499: + x34 + x430 <= 1
C500: + x133 + x275 <= 1
C501: + x6 + x45 <= 1
C502: + x115 + x432 <= 1
C503: + x75 + x122 <= 1
C504: + x117 + x448 <= 1
C505: + x39 + x68 <= 1
C506: + x205 + x403 <= 1
C507: + x228 + x300 <= 1
C508: + x141 + x339 <= 1
C509: + x8 + x43 <= 1
C510: + x64 + x90 <= 1
C511: + x30 + x90 <= 1
C512: + x213 + x240 <= 1
C513: + x23 + x416 <= 1
C514: + x6 + x446 <= 1
C515: + x7 + x70 <= 1
C516: + x1 + x285 <= 1
C517: + x51 + x420 <= 1
C518: + x91 + x312 <= 1
C519: + x28 + x112 <= 1
C520: + x37 + x304 <= 1
C521: + x12 + x189 <= 1
C522: + x33 + x339 <= 1
C523: + x4 + x108 <= 1
C524: + x306 + x480 <= 1
C525: + x26 + x27 <= 1
C526: + x92 + x459 <= 1
C527: + x31 + x479 <= 1
C528: + x52 + x129 <= 1
C529: + x144 + x337 <= 1
C530: + x22 + x79 <= 1
C531: + x16 + x185 <= 1
C532: + x73 + x270 <= 1
C533: + x303 + x500 <= 1
C534: + x4 + x24 <= 1
C535: + x16 + x480 <= 1
C536: + x67 + x225 <= 1
C537: + x106 + x332 <= 1
C538: + x217 + x270 <= 1
C539: + x4 + x266 <= 1
C540: + x16 + x371 <= 1
C541: + x92 + x294 <= 1
C542: + x54 + x487 <= 1
C543: + x6 + x22 <= 1
C544: + x10 + x416 <= 1
C545: + x28 + x41 <= 1
C546: + x135 + x444 <= 1
C547: + x13 + x202 <= 1
C548: + x23 + x310 <= 1
C549: + x10 + x142 <= 1
C550: + x137 + x463 <= 1
C551: + x1 + x119 <= 1
C552: + x98 + x472 <= 1
C553: + x143 + x165 <= 1
C554: + x71 + x253 <= 1
C555: + x75 + x244 <= 1
C556: + x265 + x438 <= 1
C557: + x204 + x407 <= 1
C558: + x154 + x193 <= 1
C559: + x8 + x177 <= 1
C560: + x47 + x118 <= 1
C561: + x29 + x220 <= 1
C562: + x141 + x446 <= 1
C563: + x108 + x378 <= 1
C564: + x65 + x67 <= 1
C565: + x28 + x260 <= 1
C566: + x50 + x275 <= 1
C567: + x87 + x291 <= 1
C568: + x17 + x486 <= 1
C569: + x7 + x105 <= 1
C570: + x9 + x451 <= 1
C571: + x246 + x284 <= 1
C572: + x144 + x346 <= 1
C573: + x184 + x311 <= 1
C574: + x39 + x386 <= 1
C575: + x36 + x118 <= 1
C576: + x20 + x195 <= 1
C577: + x112 + x126 <= 1
C578: + x39 + x227 <= 1
C579: + x25 + x184 <= 1
C580: + x43 + x226 <= 1
C581: + x52 + x55 <= 1
C582: + x31 + x398 <= 1
C583: + x24 + x421 <= 1
C584: + x72 + x111 <= 1
C585: + x28 + x34 <= 1
C586: + x22 + x28 <= 1
C587: + x217 + x434 <= 1
C588: + x39 + x223 <= 1
C589: + x5 + x280 <= 1
C590: + x325 + x429 <= 1
C591: + x134 + x251 <= 1
C592: + x28 + x364 <= 1
C593: + x11 + x59 <= 1
C594: + x50 + x78 <= 1
C595: + x201 + x389 <= 1
C596: + x64 + x477 <= 1
C597: + x26 + x229 <= 1
C598: + x151 + x462 <= 1
C599: + x1 + x410 <= 1
C600: + x10 + x355 <= 1
C601: + x336 + x405 <= 1
C602: + x8 + x461 <= 1
C603: + x114 + x415 <= 1
C604: + x88 + x170 <= 1
C605: + x18 + x483 <= 1
C606: + x66 + x233 <= 1
C607: + x129 + x236 <= 1
C608: + x177 + x379 <= 1
C609: + x13 + x140 <= 1
C610: + x307 + x425 <= 1
C611: + x1 + x9 <= 1
C612: + x47 + x73 <= 1
C613: + x27 + x175 <= 1
C614: + x13 + x283 <= 1
C615: + x160 + x198 <= 1
C616: + x151 + x251 <= 1
C617: + x8 + x296 <= 1
C618: + x28 + x39 <= 1
C619: + x35 + x388 <= 1
C620: + x8 + x18 <= 1
C621: + x65 + x389 <= 1
C622: + x20 + x152 <= 1
C623: + x51 + x351 <= 1
C624: + x4 + x50 <= 1
C625: + x40 + x222 <= 1
C626: + x47 + x299 <= 1
C627: + x32 + x51 <= 1
C628: + x24 + x370 <= 1
C629: + x154 + x211 <= 1
C630: + x137 + x332 <= 1
C631: + x25 + x261 <= 1
C632: + x61 + x489 <= 1
C633: + x339 + x340 <= 1
C634: + x38 + x54 <= 1
C635: + x76 + x316 <= 1
C636: + x29 + x79 <= 1
C637: + x12 + x15 <= 1
C638: + x32 + x452 <= 1
C639: + x7 + x91 <= 1
C640: + x80 + x198 <= 1
C641: + x155 + x372 <= 1
C642: + x128 + x385 <= 1
C643: + x2 + x21 <= 1
C644: + x1 + x16 <= 1
C645: + x10 + x245 <= 1
C646: + x48 + x68 <= 1
C647: + x12 + x160 <= 1
C648: + x5 + x466 <= 1
C649: + x45 + x244 <= 1
C650: + x321 + x466 <= 1
C651: + x13 + x274 <= 1
C652: + x89 + x355 <= 1
C653: + x7 + x151 <= 1
C654: + x242 + x303 <= 1
C655: + x24 + x197 <= 1
C656: + x9 + x47 <= 1
C657: + x8 + x15 <= 1
C658: + x31 + x182 <= 1
C659: + x132 + x439 <= 1
C660: + x45 + x296 <= 1
C661: + x10 + x260 <= 1
C662: + x41 + x405 <= 1
C663: + x454 + x470 <= 1
C664: + x229 + x388 <= 1
C665: + x78 + x426 <= 1
C666: + x5 + x96 <= 1
C667: + x61 + x242 <= 1
C668: + x15 + x17 <= 1
C669: + x1 + x309 <= 1
C670: + x11 + x17 <= 1
C671: + x418 + x464 <= 1
C672: + x9 + x234 <= 1
C673: + x13 + x31 <= 1
C674: + x4 + x455 <= 1
C675: + x153 + x450 <= 1
C676: + x6 + x471 <= 1
C677: + x3 + x5 <= 1
C678: + x56 + x328 <= 1
C679: + x1 + x321 <= 1
C680: + x382 + x403 <= 1
C681: + x8 + x225 <= 1
C682: + x112 + x250 <= 1
C683: + x126 + x160 <= 1
C684: + x27 + x36 <= 1
C685: + x128 + x240 <= 1
C686: + x233 + x490 <= 1
C687: + x51 + x158 <= 1
C688: + x150 + x384 <= 1
C689: + x17 + x22 <= 1
C690: + x24 + x33 <= 1
C691: + x75 + x347 <= 1
C692: + x221 + x238 <= 1
C693: + x38 + x482 <= 1
C694: + x142 + x150 <= 1
C695: + x36 + x38 <= 1
C696: + x10 + x59 <= 1
C697: + x50 + x468 <= 1
C698: + x448 + x478 <= 1
C699: + x282 + x358 <= 1
C700: + x120 + x343 <= 1
C701: + x204 + x253 <= 1
C702: + x71 + x149 <= 1
C703: + x144 + x199 <= 1
C704: + x11 + x28 <= 1
C705: + x229 + x282 <= 1
C706: + x48 + x499 <= 1
C707: + x31 + x95 <= 1
C708: + x35 + x473 <= 1
C709: + x13 + x22 <= 1
C710: + x13 + x419 <= 1
C711: + x71 + x296 <= 1
C712: + x38 + x108 <= 1
C713: + x203 + x360 <= 1
C714: + x94 + x404 <= 1
C715: + x7 + x129 <= 1
C716: + x63 + x126 <= 1
C717: + x11 + x80 <= 1
C718: + x56 + x484 <= 1
C719: + x22 + x64 <= 1
C720: + x4 + x138 <= 1
C721: + x32 + x153 <= 1
C722: + x15 + x310 <= 1
C723: + x100 + x158 <= 1
C724: + x8 + x125 <= 1
C725: + x14 + x481 <= 1
C726: + x307 + x363 <= 1
C727: + x19 + x289 <= 1
C728: + x29 + x402 <= 1
C729: + x132 + x151 <= 1
C730: + x224 + x362 <= 1
C731: + x81 + x234 <= 1
C732: + x44 + x297 <= 1
C733: + x70 + x300 <= 1
C734: + x266 + x394 <= 1
C735: + x204 + x246 <= 1
C736: + x12 + x54 <= 1
C737: + x43 + x62 <= 1
C738: + x17 + x57 <= 1
C739: + x7 + x80 <= 1
C740: + x35 + x143 <= 1
C741: + x175 + x317 <= 1
C742: + x30 + x338 <= 1
C743: + x4 + x195 <= 1
C744: + x277 + x440 <= 1
C745: + x82 + x170 <= 1
C746: + x190 + x414 <= 1
C747: + x7 + x479 <= 1
C748: + x11 + x345 <= 1
C749: + x130 + x212 <= 1
C750: + x43 + x98 <= 1
C751: + x15 + x47 <= 1
C752: + x26 + x432 <= 1
C753: + x72 + x407 <= 1
C754: + x26 + x331 <= 1
C755: + x72 + x310 <= 1
C756: + x20 + x180 <= 1
C757: + x106 + x112 <= 1
C758: + x61 + x75 <= 1
C759: + x7 + x11 <= 1
C760: + x208 + x278 <= 1
C761: + x38 + x89 <= 1
C762: + x204 + x417 <= 1
C763: + x44 + x290 <= 1
C764: + x28 + x95 <= 1
C765: + x33 + x388 <= 1
C766: + x370 + x465 <= 1
C767: + x7 + x71 <= 1
C768: + x71 + x135 <= 1
C769: + x11 + x14 <= 1
C770: + x229 + x272 <= 1
C771: + x14 + x49 <= 1
C772: + x139 + x444 <= 1
C773: + x114 + x250 <= 1
C774: + x68 + x468 <= 1
C775: + x31 + x230 <= 1
C776: + x120 + x377 <= 1
C777: + x84 + x469 <= 1
C778: + x29 + x468 <= 1
C779: + x36 + x346 <= 1
C780: + x1 + x342 <= 1
C781: + x144 + x344 <= 1
C782: + x65 + x150 <= 1
C783: + x10 + x431 <= 1
C784: + x64 + x307 <= 1
C785: + x15 + x211 <= 1
C786: + x8 + x115 <= 1
C787: + x102 + x148 <= 1
C788: + x58 + x443 <= 1
C789: + x4 + x19 <= 1
C790: + x176 + x414 <= 1
C791: + x27 + x338 <= 1
C792: + x28 + x326 <= 1
C793: + x412 + x490 <= 1
C794: + x8 + x309 <= 1
C795: + x210 + x390 <= 1
C796: + x455 + x458 <= 1
C797: + x33 + x411 <= 1
C798: + x32 + x179 <= 1
C799: + x324 + x398 <= 1
C800: + x170 + x336 <= 1
C801: + x72 + x359 <= 1
C802: + x33 + x173 <= 1
C803: + x107 + x496 <= 1
C804: + x26 + x110 <= 1
C805: + x143 + x162 <= 1
C806: + x11 + x53 <= 1
C807: + x30 + x292 <= 1
C808: + x123 + x459 <= 1
C809: + x82 + x156 <= 1
C810: + x82 + x367 <= 1
C811: + x38 + x164 <= 1
C812: + x70 + x485 <= 1
C813: + x387 + x423 <= 1
C814: + x179 + x279 <= 1
C815: + x134 + x262 <= 1
C816: + x65 + x80 <= 1
C817: + x42 + x68 <= 1
C818: + x81 + x163 <= 1
C819: + x10 + x472 <= 1
C820: + x2 + x6 <= 1
C821: + x185 + x292 <= 1
C822: + x45 + x94 <= 1
C823: + x8 + x108 <= 1
C824: + x144 + x500 <= 1
C825: + x21 + x50 <= 1
C826: + x22 + x174 <= 1
C827: + x51 + x130 <= 1
C828: + x4 + x495 <= 1
C829: + x23 + x351 <= 1
C830: + x155 + x406 <= 1
C831: + x76 + x140 <= 1
C832: + x6 + x18 <= 1
C833: + x18 + x289 <= 1
C834: + x9 + x10 + x24 <= 1
C835: + x19 + x124 <= 1
C836: + x60 + x273 <= 1
C837: + x5 + x59 <= 1
C838: + x24 + x271 <= 1
C839: + x90 + x284 <= 1
C840: + x9 + x62 <= 1
C841: + x128 + x248 <= 1
C842: + x55 + x95 <= 1
C843: + x8 + x173 <= 1
C844: + x4 + x85 <= 1
C845: + x171 + x371 <= 1
C846: + x9 + x106 <= 1
C847: + x17 + x189 <= 1
C848: + x267 + x277 <= 1
C849: + x324 + x350 <= 1
C850: + x9 + x455 <= 1
C851: + x29 + x327 <= 1
C852: + x67 + x490 <= 1
C853: + x21 + x57 <= 1
C854: + x316 + x474 <= 1
C855: + x71 + x320 <= 1
C856: + x94 + x396 <= 1
C857: + x192 + x461 <= 1
C858: + x323 + x366 <= 1
C859: + x6 + x27 <= 1
C860: + x36 + x436 <= 1
C861: + x63 + x70 <= 1
C862: + x72 + x107 <= 1
C863: + x92 + x230 <= 1
C864: + x42 + x404 <= 1
C865: + x24 + x264 <= 1
C866: + x9 + x37 <= 1
C867: + x153 + x445 <= 1
C868: + x42 + x61 <= 1
C869: + x15 + x156 <= 1
C870: + x9 + x383 <= 1
C871: + x10 + x12 <= 1
C872: + x4 + x94 <= 1
C873: + x56 + x243 <= 1
C874: + x12 + x14 <= 1
C875: + x21 + x81 <= 1
C876: + x13 + x291 <= 1
C877: + x39 + x340 <= 1
C878: + x15 + x36 + x42 <= 1
C879: + x29 + x350 <= 1
C880: + x48 + x484 <= 1
C881: + x32 + x102 <= 1
C882: + x24 + x329 <= 1
C883: + x354 + x463 <= 1
C884: + x8 + x90 <= 1
C885: + x13 + x101 <= 1
C886: + x4 + x10 <= 1
C887: + x187 + x255 <= 1
C888: + x88 + x283 <= 1
C889: + x79 + x374 <= 1
C890: + x119 + x364 <= 1
C891: + x39 + x272 <= 1
C892: + x21 + x466 <= 1
C893: + x9 + x314 <= 1
C894: + x8 + x292 <= 1
C895: + x110 + x173 <= 1
C896: + x2 + x36 <= 1
C897: + x309 + x312 <= 1
C898: + x56 + x401 <= 1
C899: + x15 + x293 <= 1
C900: + x8 + x14 <= 1
C901: + x183 + x272 <= 1
C902: + x337 + x417 <= 1
C903: + x264 + x402 <= 1
C904: + x15 + x99 <= 1
C905: + x6 + x56 <= 1
C906: + x45 + x458 <= 1
C907: + x55 + x319 <= 1
C908: + x12 + x168 <= 1
C909: + x4 + x67 <= 1
C910: + x13 + x48 <= 1
C911: + x11 + x360 <= 1
C912: + x55 + x220 <= 1
C913: + x3 + x393 <= 1
C914: + x25 + x27 <= 1
C915: + x11 + x22 <= 1
C916: + x21 + x362 <= 1
C917: + x5 + x228 <= 1
C918: + x296 + x331 <= 1
C919: + x8 + x87 <= 1
C920: + x10 + x249 <= 1
C921: + x40 + x227 <= 1
C922: + x115 + x363 <= 1
C923: + x23 + x356 <= 1
C924: + x226 + x342 <= 1
C925: + x42 + x99 <= 1
C926: + x25 + x39 <= 1
C927: + x6 + x13 <= 1
C928: + x5 + x371 <= 1
C929: + x65 + x142 <= 1
C930: + x10 + x74 <= 1
C931: + x401 + x414 <= 1
C932: + x103 + x159 <= 1
C933: + x128 + x497 <= 1
C934: + x4 + x160 <= 1
C935: + x207 + x443 <= 1
C936: + x162 + x263 <= 1
C937: + x8 + x11 <= 1
C938: + x11 + x315 <= 1
C939: + x282 + x341 <= 1
C940: + x33 + x260 <= 1
C941: + x26 + x74 <= 1
C942: + x53 + x207 <= 1
C943: + x119 + x319 <= 1
C944: + x128 + x322 <= 1
C945: + x11 + x41 <= 1
C946: + x47 + x306 <= 1
C947: + x81 + x256 <= 1
C948: + x102 + x205 <= 1
C949: + x229 + x400 <= 1
C950: + x42 + x330 <= 1
C951: + x51 + x293 <= 1
C952: + x14 + x177 <= 1
C953: + x11 + x367 <= 1
C954: + x204 + x252 <= 1
C955: + x92 + x330 <= 1
C956: + x173 + x285 <= 1
C957: + x398 + x437 <= 1
C958: + x220 + x356 <= 1
C959: + x15 + x178 <= 1
C960: + x337 + x369 <= 1
C961: + x71 + x392 <= 1
C962: + x182 + x214 <= 1
C963: + x84 + x103 <= 1
C964: + x193 + x272 <= 1
C965: + x323 + x470 <= 1
C966: + x5 + x453 <= 1
C967: + x298 + x343 <= 1
C968: + x388 + x469 <= 1
C969: + x102 + x276 <= 1
C970: + x204 + x379 <= 1
C971: + x314 + x348 <= 1
C972: + x88 + x133 + x215 <= 1
C973: + x101 + x182 <= 1
C974: + x284 + x419 <= 1
C975: + x184 + x302 <= 1
C976: + x13 + x234 <= 1
C977: + x153 + x192 <= 1
C978: + x15 + x311 <= 1
C979: + x45 + x118 <= 1
C980: + x154 + x363 <= 1
C981: + x55 + x154 <= 1
C982: + x29 + x133 <= 1
C983: + x51 + x333 <= 1
C984: + x286 + x382 <= 1
C985: + x174 + x496 <= 1
C986: + x29 + x42 <= 1
C987: + x3 + x492 <= 1
C988: + x3 + x85 <= 1
C989: + x269 + x390 <= 1
C990: + x148 + x151 <= 1
C991: + x303 + x335 <= 1
C992: + x102 + x134 + x250 <= 1
C993: + x153 + x257 <= 1
C994: + x330 + x365 <= 1
C995: + x106 + x481 <= 1
C996: + x4 + x419 <= 1
C997: + x96 + x382 <= 1
C998: + x247 + x252 <= 1
C999: + x68 + x75 <= 1
C1000: + x4 + x194 <= 1
C1001: + x5 + x210 <= 1
C1002: + x12 + x291 <= 1
C1003: + x280 + x373 <= 1
C1004: + x137 + x426 <= 1
C1005: + x146 + x387 <= 1
C1006: + x112 + x158 <= 1
C1007: + x107 + x181 <= 1
C1008: + x188 + x191 <= 1
C1009: + x171 + x411 <= 1
C1010: + x19 + x361 <= 1
C1011: + x10 + x326 <= 1
C1012: + x26 + x427 <= 1
C1013: + x45 + x387 <= 1
C1014: + x92 + x194 <= 1
C1015: + x103 + x137 <= 1
C1016: + x198 + x338 <= 1
C1017: + x23 + x188 <= 1
C1018: + x19 + x252 <= 1
C1019: + x48 + x162 <= 1
C1020: + x60 + x72 <= 1
C1021: + x124 + x264 <= 1
C1022: + x160 + x334 <= 1
C1023: + x7 + x24 <= 1
C1024: + x258 + x478 <= 1
C1025: + x6 + x35 <= 1
C1026: + x151 + x224 <= 1
C1027: + x100 + x348 <= 1
C1028: + x3 + x241 <= 1
C1029: + x114 + x137 <= 1
C1030: + x31 + x59 <= 1
C1031: + x387 + x413 <= 1
C1032: + x18 + x40 <= 1
C1033: + x64 + x84 <= 1
C1034: + x123 + x183 <= 1
C1035: + x39 + x384 <= 1
C1036: + x4 + x428 <= 1
C1037: + x44 + x190 <= 1
C1038: + x11 + x15 <= 1
C1039: + x4 + x199 <= 1
C1040: + x9 + x156 <= 1
C1041: + x10 + x20 <= 1
C1042: + x8 + x190 <= 1
C1043: + x32 + x332 <= 1
C1044: + x127 + x187 <= 1
C1045: + x12 + x280 <= 1
C1046: + x33 + x460 <= 1
C1047: + x5 + x13 <= 1
C1048: + x6 + x155 <= 1
C1049: + x307 + x445 <= 1
C1050: + x79 + x449 <= 1
C1051: + x210 + x376 <= 1
C1052: + x66 + x491 <= 1
C1053: + x49 + x111 <= 1
C1054: + x4 + x18 <= 1
C1055: + x31 + x147 <= 1
C1056: + x25 + x171 <= 1
C1057: + x15 + x478 <= 1
C1058: + x83 + x88 <= 1
C1059: + x105 + x334 <= 1
C1060: + x211 + x271 <= 1
C1061: + x86 + x286 <= 1
C1062: + x13 + x212 <= 1
C1063: + x25 + x357 <= 1
C1064: + x107 + x336 <= 1
C1065: + x55 + x168 <= 1
C1066: + x204 + x239 <= 1
C1067: + x61 + x155 <= 1
C1068: + x127 + x339 <= 1
C1069: + x9 + x401 <= 1
C1070: + x2 + x117 <= 1
C1071: + x75 + x202 <= 1
C1072: + x56 + x314 <= 1
C1073: + x65 + x222 <= 1
C1074: + x49 + x333 <= 1
C1075: + x26 + x268 <= 1
C1076: + x13 + x163 <= 1
C1077: + x32 + x71 <= 1
C1078: + x10 + x21 <= 1
C1079: + x52 + x275 <= 1
C1080: + x145 + x166 <= 1
C1081: + x141 + x291 <= 1
C1082: + x268 + x488 <= 1
C1083: + x59 + x481 <= 1
C1084: + x80 + x331 <= 1
C1085: + x20 + x80 <= 1
C1086: + x4 + x349 <= 1
C1087: + x106 + x287 <= 1
C1088: + x7 + x119 <= 1
C1089: + x373 + x467 <= 1
C1090: + x55 + x450 <= 1
C1091: + x19 + x238 <= 1
C1092: + x265 + x345 <= 1
C1093: + x21 + x55 <= 1
C1094: + x22 + x161 <= 1
C1095: + x115 + x323 <= 1
C1096: + x271 + x282 <= 1
C1097: + x19 + x271 <= 1
C1098: + x33 + x50 <= 1
C1099: + x6 + x21 <= 1
C1100: + x9 + x265 <= 1
C1101: + x255 + x288 <= 1
C1102: + x229 + x420 <= 1
C1103: + x277 + x467 <= 1
C1104: + x289 + x446 <= 1
C1105: + x8 + x35 <= 1
C1106: + x37 + x193 <= 1
C1107: + x21 + x123 <= 1
C1108: + x12 + x491 <= 1
C1109: + x39 + x362 <= 1
C1110: + x22 + x304 <= 1
C1111: + x88 + x352 <= 1
C1112: + x37 + x499 <= 1
C1113: + x283 + x321 <= 1
C1114: + x152 + x341 <= 1
C1115: + x282 + x494 <= 1
C1116: + x18 + x163 <= 1
C1117: + x29 + x213 <= 1
C1118: + x4 + x84 <= 1
C1119: + x25 + x312 <= 1
C1120: + x14 + x340 <= 1
C1121: + x6 + x311 <= 1
C1122: + x37 + x181 <= 1
C1123: + x250 + x407 <= 1
C1124: + x92 + x354 <= 1
C1125: + x2 + x26 <= 1
C1126: + x59 + x91 <= 1
C1127: + x114 + x328 <= 1
C1128: + x89 + x231 <= 1
C1129: + x31 + x157 <= 1
C1130: + x43 + x239 <= 1
C1131: + x38 + x386 <= 1
C1132: + x141 + x157 <= 1
C1133: + x323 + x367 <= 1
C1134: + x169 + x305 <= 1
C1135: + x71 + x102 <= 1
C1136: + x54 + x495 <= 1
C1137: + x10 + x91 <= 1
C1138: + x304 + x345 <= 1
C1139: + x107 + x229 <= 1
C1140: + x44 + x447 <= 1
C1141: + x34 + x48 <= 1
C1142: + x44 + x161 <= 1
C1143: + x76 + x252 <= 1
C1144: + x114 + x240 <= 1
C1145: + x170 + x353 <= 1
C1146: + x58 + x352 <= 1
C1147: + x145 + x441 <= 1
C1148: + x42 + x73 <= 1
C1149: + x8 + x371 <= 1
C1150: + x2 + x19 <= 1
C1151: + x185 + x303 <= 1
C1152: + x23 + x72 <= 1
C1153: + x128 + x181 <= 1
C1154: + x93 + x123 <= 1
C1155: + x293 + x480 <= 1
C1156: + x8 + x93 <= 1
C1157: + x22 + x179 <= 1
C1158: + x286 + x347 <= 1
C1159: + x24 + x90 <= 1
C1160: + x379 + x436 <= 1
C1161: + x34 + x213 <= 1
C1162: + x94 + x392 <= 1
C1163: + x3 + x52 <= 1
C1164: + x74 + x201 <= 1
C1165: + x8 + x295 <= 1
C1166: + x280 + x478 <= 1
C1167: + x95 + x286 <= 1
C1168: + x5 + x46 <= 1
C1169: + x6 + x186 <= 1
C1170: + x8 + x17 <= 1
C1171: + x309 + x458 <= 1
C1172: + x4 + x49 <= 1
C1173: + x22 + x306 <= 1
C1174: + x132 + x433 <= 1
C1175: + x24 + x46 <= 1
C1176: + x190 + x347 <= 1
C1177: + x63 + x217 <= 1
C1178: + x11 + x136 <= 1
C1179: + x276 + x443 <= 1
C1180: + x13 + x45 <= 1
C1181: + x4 + x66 <= 1
C1182: + x131 + x470 <= 1
C1183: + x26 + x237 <= 1
C1184: + x8 + x453 <= 1
C1185: + x55 + x197 <= 1
C1186: + x130 + x329 <= 1
C1187: + x78 + x94 <= 1
C1188: + x66 + x300 <= 1
C1189: + x260 + x422 <= 1
C1190: + x53 + x430 <= 1
C1191: + x90 + x350 <= 1
C1192: + x4 + x14 <= 1
C1193: + x4 + x449 <= 1
C1194: + x236 + x362 <= 1
C1195: + x14 + x413 <= 1
C1196: + x6 + x16 <= 1
C1197: + x91 + x140 <= 1
C1198: + x4 + x30 <= 1
C1199: + x119 + x126 <= 1
C1200: + x365 + x433 <= 1
C1201: + x83 + x298 <= 1
C1202: + x131 + x409 <= 1
C1203: + x210 + x493 <= 1
C1204: + x151 + x385 <= 1
C1205: + x254 + x433 <= 1
C1206: + x8 + x10 <= 1
C1207: + x65 + x413 <= 1
C1208: + x12 + x75 <= 1
C1209: + x17 + x32 <= 1
C1210: + x35 + x170 <= 1
C1211: + x44 + x159 <= 1
C1212: + x292 + x299 <= 1
C1213: + x114 + x319 <= 1
C1214: + x14 + x81 <= 1
C1215: + x373 + x392 <= 1
C1216: + x47 + x400 <= 1
C1217: + x12 + x220 <= 1
C1218: + x62 + x325 <= 1
C1219: + x252 + x376 <= 1
C1220: + x6 + x69 <= 1
C1221: + x7 + x83 <= 1
C1222: + x181 + x461 <= 1
C1223: + x340 + x369 <= 1
C1224: + x254 + x374 <= 1
C1225: + x20 + x217 <= 1
C1226: + x293 + x462 <= 1
C1227: + x115 + x222 <= 1
C1228: + x106 + x396 <= 1
C1229: + x9 + x72 <= 1
C1230: + x11 + x344 <= 1
C1231: + x20 + x56 <= 1
C1232: + x3 + x6 <= 1
C1233: + x267 + x375 <= 1
C1234: + x10 + x78 <= 1
C1235: + x68 + x397 <= 1
C1236: + x13 + x239 <= 1
C1237: + x5 + x20 <= 1
C1238: + x197 + x340 <= 1
C1239: + x342 + x447 <= 1
C1240: + x5 + x270 <= 1
C1241: + x8 + x422 <= 1
C1242: + x29 + x47 <= 1
C1243: + x22 + x423 <= 1
C1244: + x427 + x439 <= 1
C1245: + x11 + x138 <= 1
C1246: + x30 + x167 <= 1
C1247: + x197 + x221 <= 1
C1248: + x36 + x132 <= 1
C1249: + x12 + x64 <= 1
C1250: + x4 + x418 <= 1
C1251: + x43 + x52 <= 1
C1252: + x80 + x203 <= 1
C1253: + x1 + x269 <= 1
C1254: + x158 + x216 <= 1
C1255: + x59 + x127 <= 1
C1256: + x45 + x497 <= 1
C1257: + x381 + x462 <= 1
C1258: + x92 + x96 <= 1
C1259: + x183 + x194 <= 1
C1260: + x237 + x459 <= 1
C1261: + x27 + x104 <= 1
C1262: + x32 + x322 <= 1
C1263: + x307 + x312 <= 1
C1264: + x66 + x100 <= 1
C1265: + x293 + x298 <= 1
C1266: + x20 + x500 <= 1
C1267: + x89 + x370 <= 1
C1268: + x5 + x358 <= 1
C1269: + x284 + x423 <= 1
C1270: + x22 + x63 <= 1
C1271: + x33 + x434 <= 1
C1272: + x88 + x111 <= 1
C1273: + x35 + x87 <= 1
C1274: + x254 + x323 <= 1
C1275: + x8 + x128 <= 1
C1276: + x280 + x336 <= 1
C1277: + x19 + x253 <= 1
C1278: + x43 + x247 <= 1
C1279: + x71 + x209 <= 1
C1280: + x16 + x464 <= 1
C1281: + x7 + x17 <= 1
C1282: + x22 + x432 <= 1
C1283: + x154 + x288 <= 1
C1284: + x10 + x35 <= 1
C1285: + x1 + x218 <= 1
C1286: + x43 + x333 <= 1
C1287: + x6 + x276 <= 1
C1288: + x20 + x122 <= 1
C1289: + x30 + x67 <= 1
C1290: + x403 + x477 <= 1
C1291: + x68 + x148 <= 1
C1292: + x5 + x313 <= 1
C1293: + x16 + x404 <= 1
C1294: + x110 + x277 <= 1
C1295: + x7 + x307 <= 1
C1296: + x64 + x424 <= 1
C1297: + x464 + x472 <= 1
C1298: + x70 + x77 <= 1
C1299: + x134 + x275 <= 1
C1300: + x36 + x245 <= 1
C1301: + x2 + x11 <= 1
C1302: + x112 + x271 <= 1
C1303: + x223 + x435 <= 1
C1304: + x32 + x129 <= 1
C1305: + x84 + x448 <= 1
C1306: + x186 + x236 <= 1
C1307: + x69 + x426 <= 1
C1308: + x99 + x499 <= 1
C1309: + x172 + x457 <= 1
C1310: + x29 + x61 <= 1
C1311: + x114 + x290 <= 1
C1312: + x33 + x40 <= 1
C1313: + x296 + x314 <= 1
C1314: + x43 + x403 <= 1
C1315: + x54 + x416 <= 1
C1316: + x59 + x402 <= 1
C1317: + x5 + x54 <= 1
C1318: + x5 + x387 <= 1
C1319: + x11 + x285 <= 1
C1320: + x56 + x317 <= 1
C1321: + x13 + x168 <= 1
C1322: + x260 + x386 <= 1
C1323: + x6 + x211 <= 1
C1324: + x7 + x225 <= 1
C1325: + x100 + x223 <= 1
C1326: + x1 + x237 <= 1
C1327: + x15 + x406 <= 1
C1328: + x1 + x394 <= 1
C1329: + x11 + x321 <= 1
C1330: + x12 + x26 <= 1
C1331: + x60 + x228 <= 1
C1332: + x217 + x256 <= 1
C1333: + x4 + x348 <= 1
C1334: + x71 + x180 <= 1
C1335: + x155 + x214 <= 1
C1336: + x148 + x221 <= 1
C1337: + x5 + x9 <= 1
C1338: + x24 + x236 <= 1
C1339: + x99 + x297 <= 1
C1340: + x8 + x110 <= 1
C1341: + x50 + x373 <= 1
C1342: + x26 + x33 <= 1
C1343: + x11 + x437 <= 1
C1344: + x187 + x497 <= 1
C1345: + x10 + x45 <= 1
C1346: + x55 + x287 <= 1
C1347: + x17 + x139 <= 1
C1348: + x71 + x350 <= 1
C1349: + x19 + x163 <= 1
C1350: + x144 + x442 <= 1
C1351: + x20 + x136 <= 1
C1352: + x8 + x34 <= 1
C1353: + x114 + x428 <= 1
C1354: + x249 + x338 <= 1
C1355: + x318 + x375 <= 1
C1356: + x338 + x451 <= 1
C1357: + x130 + x180 <= 1
C1358: + x48 + x393 <= 1
C1359: + x10 + x25 <= 1
C1360: + x85 + x370 <= 1
C1361: + x60 + x471 <= 1
C1362: + x61 + x473 <= 1
C1363: + x315 + x400 <= 1
C1364: + x26 + x30 <= 1
C1365: + x44 + x200 <= 1
C1366: + x197 + x289 <= 1
C1367: + x102 + x267 <= 1
C1368: + x19 + x343 <= 1
C1369: + x30 + x105 <= 1
C1370: + x20 + x84 <= 1
C1371: + x351 + x469 <= 1
C1372: + x189 + x408 <= 1
C1373: + x143 + x243 <= 1
C1374: + x7 + x107 <= 1
C1375: + x10 + x106 <= 1
C1376: + x2 + x5 <= 1
C1377: + x246 + x286 <= 1
C1378: + x5 + x248 <= 1
C1379: + x32 + x119 <= 1
C1380: + x5 + x482 <= 1
C1381: + x17 + x115 <= 1
C1382: + x71 + x198 <= 1
C1383: + x20 + x32 <= 1
C1384: + x94 + x125 <= 1
C1385: + x221 + x243 <= 1
C1386: + x58 + x286 <= 1
C1387: + x275 + x366 <= 1
C1388: + x212 + x224 <= 1
C1389: + x433 + x451 <= 1
C1390: + x35 + x395 <= 1
C1391: + x24 + x266 <= 1
C1392: + x36 + x192 <= 1
C1393: + x9 + x63 <= 1
C1394: + x8 + x31 <= 1
C1395: + x38 + x219 <= 1
C1396: + x30 + x46 <= 1
C1397: + x5 + x278 <= 1
C1398: + x6 + x418 <= 1
C1399: + x27 + x366 <= 1
C1400: + x374 + x398 <= 1
C1401: + x56 + x82 <= 1
C1402: + x4 + x88 <= 1
C1403: + x17 + x190 <= 1
C1404: + x7 + x449 <= 1
C1405: + x210 + x213 <= 1
C1406: + x57 + x101 <= 1
C1407: + x213 + x267 <= 1
C1408: + x13 + x293 <= 1
C1409: + x52 + x141 <= 1
C1410: + x70 + x219 <= 1
C1411: + x6 + x86 <= 1
C1412: + x209 + x283 <= 1
C1413: + x2 + x30 <= 1
C1414: + x11 + x97 <= 1
C1415: + x21 + x357 <= 1
C1416: + x189 + x431 <= 1
C1417: + x26 + x349 <= 1
C1418: + x11 + x198 <= 1
C1419: + x94 + x360 <= 1
C1420: + x41 + x142 <= 1
C1421: + x71 + x317 <= 1
C1422: + x9 + x87 <= 1
C1423: + x349 + x484 <= 1
C1424: + x6 + x26 <= 1
C1425: + x142 + x259 <= 1
C1426: + x1 + x496 <= 1
C1427: + x197 + x498 <= 1
C1428: + x127 + x446 <= 1
C1429: + x1 + x242 <= 1
C1430: + x11 + x153 <= 1
C1431: + x193 + x359 <= 1
C1432: + x224 + x408 <= 1
C1433: + x134 + x375 <= 1
C1434: + x263 + x269 <= 1
C1435: + x57 + x108 <= 1
C1436: + x12 + x13 <= 1
C1437: + x59 + x141 <= 1
C1438: + x208 + x380 <= 1
C1439: + x49 + x427 <= 1
C1440: + x51 + x387 <= 1
C1441: + x177 + x221 <= 1
C1442: + x33 + x306 <= 1
C1443: + x4 + x9 <= 1
C1444: + x16 + x41 <= 1
C1445: + x9 + x315 <= 1
C1446: + x190 + x486 <= 1
C1447: + x17 + x299 <= 1
C1448: + x36 + x174 <= 1
C1449: + x382 + x383 <= 1
C1450: + x377 + x412 <= 1
C1451: + x77 + x461 <= 1
C1452: + x5 + x284 <= 1
C1453: + x318 + x386 <= 1
C1454: + x31 + x422 <= 1
C1455: + x73 + x380 <= 1
C1456: + x10 + x52 <= 1
C1457: + x28 + x74 <= 1
C1458: + x20 + x268 <= 1
C1459: + x68 + x463 <= 1
C1460: + x78 + x428 <= 1
C1461: + x5 + x94 <= 1
C1462: + x23 + x228 <= 1
C1463: + x73 + x473 <= 1
C1464: + x93 + x479 <= 1
C1465: + x29 + x76 <= 1
C1466: + x30 + x116 <= 1
C1467: + x250 + x421 <= 1
C1468: + x233 + x429 <= 1
C1469: + x41 + x290 <= 1
C1470: + x126 + x448 <= 1
C1471: + x45 + x346 <= 1
C1472: + x146 + x162 <= 1
C1473: + x11 + x19 <= 1
C1474: + x80 + x104 <= 1
C1475: + x118 + x209 <= 1
C1476: + x199 + x441 <= 1
C1477: + x1 + x5 <= 1
C1478: + x13 + x29 <= 1
C1479: + x9 + x69 <= 1
C1480: + x11 + x425 <= 1
C1481: + x6 + x12 <= 1
C1482: + x10 + x73 <= 1
C1483: + x19 + x102 <= 1
C1484: + x132 + x287 <= 1
C1485: + x215 + x495 <= 1
C1486: + x6 + x175 <= 1
C1487: + x15 + x301 <= 1
C1488: + x24 + x196 <= 1
C1489: + x54 + x288 <= 1
C1490: + x27 + x38 <= 1
C1491: + x241 + x315 <= 1
C1492: + x101 + x109 <= 1
C1493: + x117 + x235 <= 1
C1494: + x135 + x323 <= 1
C1495: + x7 + x378 <= 1
C1496: + x15 + x107 <= 1
C1497: + x6 + x64 <= 1
C1498: + x7 + x265 <= 1
C1499: + x82 + x330 <= 1
C1500: + x102 + x204 <= 1
C1501: + x161 + x366 <= 1
C1502: + x245 + x492 <= 1
C1503: + x8 + x58 <= 1
C1504: + x30 + x77 <= 1
C1505: + x4 + x445 <= 1
C1506: + x47 + x259 <= 1
C1507: + x25 + x448 <= 1
C1508: + x16 + x301 <= 1
C1509: + x10 + x225 <= 1
C1510: + x1 + x28 <= 1
C1511: + x128 + x167 <= 1
C1512: + x48 + x88 <= 1
C1513: + x129 + x449 <= 1
C1514: + x9 + x76 <= 1
C1515: + x182 + x376 <= 1
C1516: + x65 + x121 <= 1
C1517: + x11 + x66 <= 1
C1518: + x265 + x456 <= 1
C1519: + x68 + x113 <= 1
C1520: + x438 + x492 <= 1
C1521: + x5 + x32 <= 1
C1522: + x4 + x5 + x6 + x7 + x8 <= 1
C1523: + x302 + x407 <= 1
C1524: + x4 + x35 <= 1
C1525: + x47 + x314 <= 1
C1526: + x7 + x191 <= 1
C1527: + x152 + x202 <= 1
C1528: + x66 + x393 <= 1
C1529: + x140 + x341 <= 1
C1530: + x23 + x295 <= 1
C1531: + x36 + x136 <= 1
C1532: + x10 + x153 <= 1
C1533: + x11 + x279 <= 1
C1534: + x39 + x177 <= 1
C1535: + x131 + x178 <= 1
C1536: + x25 + x106 <= 1
C1537: + x17 + x455 <= 1
C1538: + x81 + x135 <= 1
C1539: + x55 + x441 <= 1
C1540: + x211 + x429 <= 1
C1541: + x114 + x360 <= 1
C1542: + x158 + x212 <= 1
C1543: + x14 + x157 <= 1
C1544: + x161 + x305 <= 1
C1545: + x24 + x97 <= 1
C1546: + x264 + x460 <= 1
C1547: + x232 + x254 <= 1
C1548: + x6 + x126 <= 1
C1549: + x140 + x146 <= 1
C1550: + x13 + x226 <= 1
C1551: + x4 + x141 <= 1
C1552: + x17 + x229 <= 1
C1553: + x18 + x235 <= 1
C1554: + x258 + x420 <= 1
C1555: + x282 + x294 <= 1
C1556: + x123 + x228 <= 1
C1557: + x40 + x200 <= 1
C1558: + x295 + x385 <= 1
C1559: + x35 + x184 <= 1
C1560: + x82 + x86 <= 1
C1561: + x1 + x460 <= 1
C1562: + x6 + x34 <= 1
C1563: + x62 + x69 <= 1
C1564: + x65 + x169 <= 1
C1565: + x10 + x39 <= 1
C1566: + x231 + x399 <= 1
C1567: + x78 + x343 <= 1
C1568: + x16 + x121 <= 1
C1569: + x128 + x200 <= 1
C1570: + x58 + x384 <= 1
C1571: + x30 + x95 <= 1
C1572: + x48 + x292 <= 1
C1573: + x6 + x435 <= 1
C1574: + x2 + x400 <= 1
C1575: + x321 + x397 <= 1
C1576: + x376 + x431 <= 1
C1577: + x61 + x354 <= 1
C1578: + x190 + x409 <= 1
C1579: + x145 + x176 <= 1
C1580: + x210 + x443 <= 1
C1581: + x85 + x368 <= 1
C1582: + x34 + x245 <= 1
C1583: + x160 + x258 <= 1
C1584: + x36 + x249 <= 1
C1585: + x8 + x484 <= 1
C1586: + x46 + x173 <= 1
C1587: + x58 + x332 <= 1
C1588: + x29 + x101 <= 1
C1589: + x49 + x294 <= 1
C1590: + x132 + x215 <= 1
C1591: + x49 + x145 <= 1
C1592: + x50 + x170 <= 1
C1593: + x51 + x58 <= 1
C1594: + x65 + x148 <= 1
C1595: + x10 + x100 <= 1
C1596: + x8 + x206 <= 1
C1597: + x161 + x242 <= 1
C1598: + x16 + x190 <= 1
C1599: + x1 + x38 <= 1
C1600: + x210 + x375 <= 1
C1601: + x102 + x150 <= 1
C1602: + x22 + x167 <= 1
C1603: + x169 + x423 <= 1
C1604: + x35 + x207 <= 1
C1605: + x4 + x259 <= 1
C1606: + x14 + x120 <= 1
C1607: + x34 + x420 <= 1
C1608: + x5 + x157 <= 1
C1609: + x6 + x43 <= 1
C1610: + x182 + x191 <= 1
C1611: + x11 + x281 <= 1
C1612: + x20 + x131 <= 1
C1613: + x12 + x34 <= 1
C1614: + x161 + x480 <= 1
C1615: + x25 + x120 <= 1
C1616: + x6 + x444 <= 1
C1617: + x56 + x313 <= 1
C1618: + x49 + x334 <= 1
C1619: + x23 + x127 <= 1
C1620: + x14 + x44 <= 1
C1621: + x7 + x229 <= 1
C1622: + x154 + x254 <= 1
C1623: + x126 + x295 <= 1
C1624: + x383 + x432 <= 1
C1625: + x20 + x244 <= 1
C1626: + x59 + x482 <= 1
C1627: + x11 + x12 + x29 <= 1
C1628: + x89 + x114 <= 1
C1629: + x161 + x335 <= 1
C1630: + x49 + x152 <= 1
C1631: + x124 + x424 <= 1
C1632: + x161 + x428 <= 1
C1633: + x8 + x203 <= 1
C1634: + x66 + x328 <= 1
C1635: + x75 + x187 <= 1
C1636: + x184 + x316 <= 1
C1637: + x298 + x474 <= 1
C1638: + x1 + x61 <= 1
C1639: + x341 + x346 <= 1
C1640: + x24 + x75 <= 1
C1641: + x29 + x56 <= 1
C1642: + x95 + x120 <= 1
C1643: + x33 + x51 <= 1
C1644: + x34 + x421 <= 1
C1645: + x17 + x413 <= 1
C1646: + x71 + x100 <= 1
C1647: + x16 + x381 <= 1
C1648: + x401 + x439 <= 1
C1649: + x129 + x401 <= 1
C1650: + x39 + x121 <= 1
C1651: + x169 + x232 <= 1
C1652: + x223 + x486 <= 1
C1653: + x13 + x204 <= 1
C1654: + x6 + x258 <= 1
C1655: + x107 + x251 <= 1
C1656: + x64 + x65 <= 1
C1657: + x42 + x155 <= 1
C1658: + x17 + x44 <= 1
C1659: + x54 + x91 <= 1
C1660: + x5 + x208 <= 1
C1661: + x18 + x162 <= 1
C1662: + x25 + x238 <= 1
C1663: + x303 + x394 <= 1
C1664: + x158 + x485 <= 1
C1665: + x34 + x98 <= 1
C1666: + x15 + x62 <= 1
C1667: + x160 + x171 <= 1
C1668: + x8 + x373 <= 1
C1669: + x92 + x216 <= 1
C1670: + x75 + x166 <= 1
C1671: + x67 + x71 <= 1
C1672: + x6 + x327 <= 1
C1673: + x9 + x247 <= 1
C1674: + x237 + x488 <= 1
C1675: + x8 + x103 <= 1
C1676: + x174 + x176 <= 1
C1677: + x210 + x353 <= 1
C1678: + x4 + x31 <= 1
C1679: + x60 + x110 <= 1
C1680: + x27 + x166 <= 1
C1681: + x10 + x300 <= 1
C1682: + x19 + x263 <= 1
C1683: + x48 + x330 <= 1
C1684: + x78 + x322 <= 1
C1685: + x107 + x230 <= 1
C1686: + x15 + x352 <= 1
C1687: + x11 + x267 <= 1
C1688: + x230 + x391 <= 1
C1689: + x267 + x302 <= 1
C1690: + x167 + x427 <= 1
C1691: + x87 + x368 <= 1
C1692: + x45 + x308 <= 1
C1693: + x66 + x211 <= 1
C1694: + x20 + x419 <= 1
C1695: + x413 + x418 <= 1
C1696: + x24 + x379 <= 1
C1697: + x7 + x215 <= 1
C1698: + x27 + x72 <= 1
C1699: + x8 + x172 <= 1
C1700: + x297 + x411 <= 1
C1701: + x24 + x133 <= 1
C1702: + x1 + x412 <= 1
C1703: + x166 + x395 <= 1
C1704: + x190 + x277 <= 1
C1705: + x9 + x460 <= 1
C1706: + x58 + x109 <= 1
C1707: + x60 + x337 <= 1
C1708: + x96 + x188 <= 1
C1709: + x6 + x336 <= 1
C1710: + x45 + x82 <= 1
C1711: + x7 + x344 <= 1
C1712: + x20 + x206 <= 1
C1713: + x30 + x239 <= 1
C1714: + x22 + x178 <= 1
C1715: + x140 + x281 <= 1
C1716: + x19 + x258 <= 1
C1717: + x175 + x402 <= 1
C1718: + x15 + x81 <= 1
C1719: + x88 + x256 <= 1
C1720: + x65 + x378 <= 1
C1721: + x11 + x81 <= 1
C1722: + x39 + x107 <= 1
C1723: + x5 + x47 <= 1
C1724: + x8 + x20 <= 1
C1725: + x2 + x329 <= 1
C1726: + x60 + x396 <= 1
C1727: + x178 + x301 <= 1
C1728: + x262 + x354 <= 1
C1729: + x182 + x301 <= 1
C1730: + x9 + x391 <= 1
C1731: + x247 + x363 <= 1
C1732: + x185 + x491 <= 1
C1733: + x100 + x456 <= 1
C1734: + x336 + x495 <= 1
C1735: + x152 + x358 <= 1
C1736: + x28 + x117 <= 1
C1737: + x36 + x58 <= 1
C1738: + x144 + x313 <= 1
C1739: + x4 + x65 <= 1
C1740: + x5 + x83 <= 1
C1741: + x307 + x463 <= 1
C1742: + x19 + x325 <= 1
C1743: + x65 + x83 <= 1
C1744: + x167 + x410 <= 1
C1745: + x43 + x79 <= 1
C1746: + x33 + x140 <= 1
C1747: + x70 + x208 <= 1
C1748: + x410 + x437 <= 1
C1749: + x46 + x52 <= 1
C1750: + x28 + x129 <= 1
C1751: + x220 + x440 <= 1
C1752: + x84 + x96 <= 1
C1753: + x114 + x212 <= 1
C1754: + x115 + x164 <= 1
C1755: + x132 + x397 <= 1
C1756: + x280 + x357 <= 1
C1757: + x207 + x255 <= 1
C1758: + x10 + x342 <= 1
C1759: + x390 + x498 <= 1
C1760: + x47 + x179 <= 1
C1761: + x195 + x309 <= 1
C1762: + x15 + x92 <= 1
C1763: + x7 + x149 <= 1
C1764: + x155 + x262 <= 1
C1765: + x8 + x9 <= 1
C1766: + x157 + x308 <= 1
C1767: + x12 + x78 <= 1
C1768: + x124 + x193 <= 1
C1769: + x134 + x235 <= 1
C1770: + x10 + x258 <= 1
C1771: + x208 + x313 <= 1
C1772: + x229 + x297 <= 1
C1773: + x194 + x475 <= 1
C1774: + x112 + x356 <= 1
C1775: + x6 + x51 <= 1
C1776: + x35 + x268 <= 1
C1777: + x36 + x492 <= 1
C1778: + x92 + x142 <= 1
C1779: + x13 + x37 <= 1
C1780: + x23 + x232 <= 1
C1781: + x110 + x127 <= 1
C1782: + x76 + x307 <= 1
C1783: + x7 + x84 <= 1
C1784: + x64 + x135 <= 1
C1785: + x11 + x454 <= 1
C1786: + x121 + x457 <= 1
C1787: + x128 + x166 <= 1
C1788: + x8 + x78 <= 1
C1789: + x13 + x25 <= 1
C1790: + x141 + x409 <= 1
C1791: + x81 + x284 <= 1
C1792: + x235 + x342 <= 1
C1793: + x8 + x497 <= 1
C1794: + x218 + x316 <= 1
C1795: + x103 + x494 <= 1
C1796: + x76 + x182 <= 1
C1797: + x132 + x232 <= 1
C1798: + x65 + x131 <= 1
C1799: + x19 + x98 <= 1
C1800: + x10 + x77 <= 1
C1801: + x8 + x227 <= 1
C1802: + x4 + x131 <= 1
C1803: + x106 + x193 <= 1
C1804: + x87 + x99 <= 1
C1805: + x45 + x124 <= 1
C1806: + x29 + x139 <= 1
C1807: + x13 + x77 <= 1
C1808: + x196 + x226 <= 1
C1809: + x187 + x260 <= 1
C1810: + x133 + x143 <= 1
C1811: + x244 + x335 <= 1
C1812: + x7 + x31 <= 1
C1813: + x8 + x421 <= 1
C1814: + x221 + x341 <= 1
C1815: + x112 + x361 <= 1
C1816: + x4 + x276 <= 1
C1817: + x20 + x442 <= 1
C1818: + x13 + x383 <= 1
C1819: + x87 + x222 <= 1
C1820: + x35 + x259 <= 1
C1821: + x137 + x380 <= 1
C1822: + x71 + x124 <= 1
C1823: + x21 + x143 <= 1
C1824: + x5 + x65 <= 1
C1825: + x20 + x116 <= 1
C1826: + x231 + x382 <= 1
C1827: + x184 + x498 <= 1
C1828: + x374 + x425 <= 1
C1829: + x168 + x255 <= 1
C1830: + x171 + x175 <= 1
C1831: + x7 + x248 <= 1
C1832: + x94 + x335 <= 1
C1833: + x149 + x339 <= 1
C1834: + x4 + x123 <= 1
C1835: + x5 + x117 <= 1
C1836: + x23 + x203 <= 1
C1837: + x211 + x248 <= 1
C1838: + x221 + x288 <= 1
C1839: + x4 + x365 <= 1
C1840: + x324 + x356 <= 1
C1841: + x6 + x113 <= 1
C1842: + x12 + x285 <= 1
C1843: + x33 + x435 <= 1
C1844: + x261 + x337 <= 1
C1845: + x55 + x147 <= 1
C1846: + x29 + x130 <= 1
C1847: + x69 + x121 <= 1
C1848: + x57 + x150 <= 1
C1849: + x192 + x427 <= 1
C1850: + x141 + x246 <= 1
C1851: + x32 + x44 <= 1
C1852: + x118 + x304 <= 1
C1853: + x27 + x92 <= 1
C1854: + x227 + x436 <= 1
C1855: + x47 + x415 <= 1
C1856: + x13 + x219 <= 1
C1857: + x116 + x274 <= 1
C1858: + x71 + x353 <= 1
C1859: + x152 + x472 <= 1
C1860: + x8 + x51 <= 1
C1861: + x28 + x231 <= 1
C1862: + x104 + x390 <= 1
C1863: + x393 + x498 <= 1
C1864: + x177 + x281 <= 1
C1865: + x30 + x304 <= 1
C1866: + x153 + x256 <= 1
C1867: + x36 + x454 <= 1
C1868: + x9 + x154 <= 1
C1869: + x1 + x23 <= 1
C1870: + x443 + x450 <= 1
C1871: + x43 + x203 <= 1
C1872: + x81 + x266 <= 1
C1873: + x9 + x119 <= 1
C1874: + x62 + x298 <= 1
C1875: + x8 + x487 <= 1
C1876: + x29 + x106 <= 1
C1877: + x306 + x424 <= 1
C1878: + x143 + x325 <= 1
C1879: + x236 + x352 <= 1
C1880: + x59 + x234 <= 1
C1881: + x6 + x122 <= 1
C1882: + x7 + x122 <= 1
C1883: + x1 + x134 <= 1
C1884: + x144 + x329 <= 1
C1885: + x10 + x127 <= 1
C1886: + x51 + x416 <= 1
C1887: + x98 + x254 <= 1
C1888: + x35 + x111 <= 1
C1889: + x3 + x347 <= 1
C1890: + x233 + x474 <= 1
C1891: + x24 + x49 <= 1
C1892: + x182 + x257 <= 1
C1893: + x8 + x411 <= 1
C1894: + x46 + x100 <= 1
C1895: + x66 + x184 <= 1
C1896: + x21 + x320 <= 1
C1897: + x87 + x240 <= 1
C1898: + x269 + x442 <= 1
C1899: + x8 + x133 <= 1
C1900: + x11 + x185 <= 1
C1901: + x65 + x274 <= 1
C1902: + x33 + x390 <= 1
C1903: + x92 + x145 <= 1
C1904: + x456 + x479 <= 1
C1905: + x43 + x309 <= 1
C1906: + x30 + x66 + x130 <= 1
C1907: + x31 + x302 <= 1
C1908: + x227 + x241 <= 1
C1909: + x143 + x221 <= 1
C1910: + x47 + x110 <= 1
C1911: + x5 + x123 <= 1
C1912: + x6 + x464 <= 1
C1913: + x153 + x473 <= 1
C1914: + x57 + x88 <= 1
C1915: + x331 + x417 <= 1
C1916: + x232 + x247 <= 1
C1917: + x81 + x174 <= 1
C1918: + x8 + x202 <= 1
C1919: + x229 + x382 <= 1
C1920: + x210 + x464 <= 1
C1921: + x5 + x10 <= 1
C1922: + x90 + x146 <= 1
C1923: + x45 + x97 <= 1
C1924: + x10 + x195 <= 1
C1925: + x17 + x125 <= 1
C1926: + x11 + x438 <= 1
C1927: + x12 + x412 <= 1
C1928: + x5 + x153 <= 1
C1929: + x8 + x311 <= 1
C1930: + x28 + x42 <= 1
C1931: + x238 + x395 <= 1
C1932: + x94 + x134 <= 1
C1933: + x116 + x169 <= 1
C1934: + x43 + x137 <= 1
C1935: + x9 + x57 <= 1
C1936: + x128 + x201 <= 1
C1937: + x11 + x261 <= 1
C1938: + x30 + x290 <= 1
C1939: + x23 + x115 <= 1
C1940: + x56 + x92 <= 1
C1941: + x26 + x29 <= 1
C1942: + x145 + x397 <= 1
C1943: + x8 + x469 <= 1
C1944: + x43 + x82 <= 1
C1945: + x16 + x437 <= 1
C1946: + x10 + x470 <= 1
C1947: + x11 + x103 <= 1
C1948: + x275 + x476 <= 1
C1949: + x59 + x93 <= 1
C1950: + x4 + x255 <= 1
C1951: + x31 + x159 <= 1
C1952: + x36 + x210 <= 1
C1953: + x63 + x232 <= 1
C1954: + x93 + x263 <= 1
C1955: + x58 + x216 <= 1

binary
x1 x2 x3 x4 x5 x6 x7 x8 x9 x10 x11 x12 x13 x14 x15 x16 x17 x18 x19 x20 x21 x22 x23 x24 x25 x26 x27 x28 x29 x30 x31 x32 x33 x34 x35 x36 x37 x38 x39 x40 x41 x42 x43 x44 x45 x46 x47 x48 x49 x50 x51 x52 x53 x54 x55 x56 x57 x58 x59 x60 x61 x62 x63 x64 x65 x66 x67 x68 x69 x70 x71 x72 x73 x74 x75 x76 x77 x78 x79 x80 x81 x82 x83 x84 x85 x86 x87 x88 x89 x90 x91 x92 x93 x94 x95 x96 x97 x98 x99 x100 x101 x102 x103 x104 x105 x106 x107 x108 x109 x110 x111 x112 x113 x114 x115 x116 x117 x118 x119 x120 x121 x122 x123 x124 x125 x126 x127 x128 x129 x130 x131 x132 x133 x134 x135 x136 x137 x138 x139 x140 x141 x142 x143 x144 x145 x146 x147 x148 x149 x150 x151 x152 x153 x154 x155 x156 x157 x158 x159 x160 x161 x162 x163 x164 x165 x166 x167 x168 x169 x170 x171 x172 x173 x174 x175 x176 x177 x178 x179 x180 x181 x182 x183 x184 x185 x186 x187 x188 x189 x190 x191 x192 x193 x194 x195 x196 x197 x198 x199 x200 x201 x202 x203 x204 x205 x206 x207 x208 x209 x210 x211 x212 x213 x214 x215 x216 x217 x218 x219 x220 x221 x222 x223 x224 x225 x226 x227 x228 x229 x230 x231 x232 x233 x234 x235 x236 x237 x238 x239 x240 x241 x242 x243 x244 x245 x246 x247 x248 x249 x250 x251 x252 x253 x254 x255 x256 x257 x258 x259 x260 x261 x262 x263 x264 x265 x266 x267 x268 x269 x270 x271 x272 x273 x274 x275 x276 x277 x278 x279 x280 x281 x282 x283 x284 x285 x286 x287 x288 x289 x290 x291 x292 x293 x294 x295 x296 x297 x298 x299 x300 x301 x302 x303 x304 x305 x306 x307 x308 x309 x310 x311 x312 x313 x314 x315 x316 x317 x318 x319 x320 x321 x322 x323 x324 x325 x326 x327 x328 x329 x330 x331 x332 x333 x334 x335 x336 x337 x338 x339 x340 x341 x342 x343 x344 x345 x346 x347 x348 x349 x350 x351 x352 x353 x354 x355 x356 x357 x358 x359 x360 x361 x362 x363 x364 x365 x366 x367 x368 x369 x370 x371 x372 x373 x374 x375 x376 x377 x378 x379 x380 x381 x382 x383 x384 x385 x386 x387 x388 x389 x390 x391 x392 x393 x394 x395 x396 x397 x398 x399 x400 x401 x402 x403 x404 x405 x406 x407 x408 x409 x410 x411 x412 x413 x414 x415 x416 x417 x418 x419 x420 x421 x422 x423 x424 x425 x426 x427 x428 x429 x430 x431 x432 x433 x434 x435 x436 x437 x438 x439 x440 x441 x442 x443 x444 x445 x446 x447 x448 x449 x450 x451 x452 x453 x454 x455 x456 x457 x458 x459 x460 x461 x462 x463 x464 x465 x466 x467 x468 x469 x470 x471 x472 x473 x474 x475 x476 x477 x478 x479 x480 x481 x482 x483 x484 x485 x486 x487 x488 x489 x490 x491 x492 x493 x494 x495 x496 x497 x498 x499 x500
