maximize
OBJ: + 1 x1 + 1 x2 + 1 x3 + 1 x4 + 1 x5 + 1 x6 + 1 x7 + 1 x8 + 1 x9 + 1 x10 + 1 x11 + 1 x12 + 1 x13 + 1 x14 + 1 x15 + 1 x16 + 1 x17 + 1 x18 + 1 x19 + 1 x20 + 1 x21 + 1 x22 + 1 x23 + 1 x24 + 1 x25 + 1 x26 + 1 x27 + 1 x28 + 1 x29 + 1 x30 + 1 x31 + 1 x32 + 1 x33 + 1 x34 + 1 x35 + 1 x36 + 1 x37 + 1 x38 + 1 x39 + 1 x40 + 1 x41 + 1 x42 + 1 x43 + 1 x44 + 1 x45 + 1 x46 + 1 x47 + 1 x48 + 1 x49 + 1 x50 + 1 x51 + 1 x52 + 1 x53 + 1 x54 + 1 x55 + 1 x56 + 1 x57 + 1 x58 + 1 x59 + 1 x60 + 1 x61 + 1 x62 + 1 x63 + 1 x64 + 1 x65 + 1 x66 + 1 x67 + 1 x68 + 1 x69 + 1 x70 + 1 x71 + 1 x72 + 1 x73 + 1 x74 + 1 x75 + 1 x76 + 1 x77 + 1 x78 + 1 x79 + 1 x80 + 1 x81 + 1 x82 + 1 x83 + 1 x84 + 1 x85 + 1 x86 + 1 x87 + 1 x88 + 1 x89 + 1 x90 + 1 x91 + 1 x92 + 1 x93 + 1 x94 + 1 x95 + 1 x96 + 1 x97 + 1 x98 + 1 x99 + 1 x100 + 1 x101 + 1 x102 + 1 x103 + 1 x104 + 1 x105 + 1 x106 + 1 x107 + 1 x108 + 1 x109 + 1 x110 + 1 x111 + 1 x112 + 1 x113 + 1 x114 + 1 x115 + 1 x116 + 1 x117 + 1 x118 + 1 x119 + 1 x120 + 1 x121 + 1 x122 + 1 x123 + 1 x124 + 1 x125 + 1 x126 + 1 x127 + 1 x128 + 1 x129 + 1 x130 + 1 x131 + 1 x132 + 1 x133 + 1 x134 + 1 x135 + 1 x136 + 1 x137 + 1 x138 + 1 x139 + 1 x140 + 1 x141 + 1 x142 + 1 x143 + 1 x144 + 1 x145 + 1 x146 + 1 x147 + 1 x148 + 1 x149 + 1 x150 + 1 x151 + 1 x152 + 1 x153 + 1 x154 + 1 x155 + 1 x156 + 1 x157 + 1 x158 + 1 x159 + 1 x160 + 1 x161 + 1 x162 + 1 x163 + 1 x164 + 1 x165 + 1 x166 + 1 x167 + 1 x168 + 1 x169 + 1 x170 + 1 x171 + 1 x172 + 1 x173 + 1 x174 + 1 x175 + 1 x176 + 1 x177 + 1 x178 + 1 x179 + 1 x180 + 1 x181 + 1 x182 + 1 x183 + 1 x184 + 1 x185 + 1 x186 + 1 x187 + 1 x188 + 1 x189 + 1 x190 + 1 x191 + 1 x192 + 1 x193 + 1 x194 + 1 x195 + 1 x196 + 1 x197 + 1 x198 + 1 x199 + 1 x200 + 1 x201 + 1 x202 + 1 x203 + 1 x204 + 1 x205 + 1 x206 + 1 x207 + 1 x208 + 1 x209 + 1 x210 + 1 x211 + 1 x212 + 1 x213 + 1 x214 + 1 x215 + 1 x216 + 1 x217 + 1 x218 + 1 x219 + 1 x220 + 1 x221 + 1 x222 + 1 x223 + 1 x224 + 1 x225 + 1 x226 + 1 x227 + 1 x228 + 1 x229 + 1 x230 + 1 x231 + 1 x232 + 1 x233 + 1 x234 + 1 x235 + 1 x236 + 1 x237 + 1 x238 + 1 x239 + 1 x240 + 1 x241 + 1 x242 + 1 x243 + 1 x244 + 1 x245 + 1 x246 + 1 x247 + 1 x248 + 1 x249 + 1 x250 + 1 x251 + 1 x252 + 1 x253 + 1 x254 + 1 x255 + 1 x256 + 1 x257 + 1 x258 + 1 x259 + 1 x260 + 1 x261 + 1 x262 + 1 x263 + 1 x264 + 1 x265 + 1 x266 + 1 x267 + 1 x268 + 1 x269 + 1 x270 + 1 x271 + 1 x272 + 1 x273 + 1 x274 + 1 x275 + 1 x276 + 1 x277 + 1 x278 + 1 x279 + 1 x280 + 1 x281 + 1 x282 + 1 x283 + 1 x284 + 1 x285 + 1 x286 + 1 x287 + 1 x288 + 1 x289 + 1 x290 + 1 x291 + 1 x292 + 1 x293 + 1 x294 + 1 x295 + 1 x296 + 1 x297 + 1 x298 + 1 x299 + 1 x300 + 1 x301 + 1 x302 + 1 x303 + 1 x304 + 1 x305 + 1 x306 + 1 x307 + 1 x308 + 1 x309 + 1 x310 + 1 x311 + 1 x312 + 1 x313 + 1 x314 + 1 x315 + 1 x316 + 1 x317 + 1 x318 + 1 x319 + 1 x320 + 1 x321 + 1 x322 + 1 x323 + 1 x324 + 1 x325 + 1 x326 + 1 x327 + 1 x328 + 1 x329 + 1 x330 + 1 x331 + 1 x332 + 1 x333 + 1 x334 + 1 x335 + 1 x336 + 1 x337 + 1 x338 + 1 x339 + 1 x340 + 1 x341 + 1 x342 + 1 x343 + 1 x344 + 1 x345 + 1 x346 + 1 x347 + 1 x348 + 1 x349 + 1 x350 + 1 x351 + 1 x352 + 1 x353 + 1 x354 + 1 x355 + 1 x356 + 1 x357 + 1 x358 + 1 x359 + 1 x360 + 1 x361 + 1 x362 + 1 x363 + 1 x364 + 1 x365 + 1 x366 + 1 x367 + 1 x368 + 1 x369 + 1 x370 + 1 x371 + 1 x372 + 1 x373 + 1 x374 + 1 x375 + 1 x376 + 1 x377 + 1 x378 + 1 x379 + 1 x380 + 1 x381 + 1 x382 + 1 x383 + 1 x384 + 1 x385 + 1 x386 + 1 x387 + 1 x388 + 1 x389 + 1 x390 + 1 x391 + 1 x392 + 1 x393 + 1 x394 + 1 x395 + 1 x396 + 1 x397 + 1 x398 + 1 x399 + 1 x400 + 1 x401 + 1 x402 + 1 x403 + 1 x404 + 1 x405 + 1 x406 + 1 x407 + 1 x408 + 1 x409 + 1 x410 + 1 x411 + 1 x412 + 1 x413 + 1 x414 + 1 x415 + 1 x416 + 1 x417 + 1 x418 + 1 x419 + 1 x420 + 1 x421 + 1 x422 + 1 x423 + 1 x424 + 1 x425 + 1 x426 + 1 x427 + 1 x428 + 1 x429 + 1 x430 + 1 x431 + 1 x432 + 1 x433 + 1 x434 + 1 x435 + 1 x436 + 1 x437 + 1 x438 + 1 x439 + 1 x440 + 1 x441 + 1 x442 + 1 x443 + 1 x444 + 1 x445 + 1 x446 + 1 x447 + 1 x448 + 1 x449 + 1 x450 + 1 x451 + 1 x452 + 1 x453 + 1 x454 + 1 x455 + 1 x456 + 1 x457 + 1 x458 + 1 x459 + 1 x460 + 1 x461 + 1 x462 + 1 x463 + 1 x464 + 1 x465 + 1 x466 + 1 x467 + 1 x468 + 1 x469 + 1 x470 + 1 x471 + 1 x472 + 1 x473 + 1 x474 + 1 x475 + 1 x476 + 1 x477 + 1 x478 + 1 x479 + 1 x480 + 1 x481 + 1 x482 + 1 x483 + 1 x484 + 1 x485 + 1 x486 + 1 x487 + 1 x488 + 1 x489 + 1 x490 + 1 x491 + 1 x492 + 1 x493 + 1 x494 + 1 x495 + 1 x496 + 1 x497 + 1 x498 + 1 x499 + 1 x500

subject to
C1: + x30 + x487 <= 1
C2: + x24 + x422 <= 1
C3: + x7 + x168 <= 1
C4: + x42 + x425 <= 1
C5: + x218 + x333 <= 1
C6: + x30 + x45 <= 1
C7: + x105 + x116 <= 1
C8: + x77 + x101 <= 1
C9: + x34 + x42 <= 1
C10: + x88 + x347 <= 1
C11: + x8 + x445 <= 1
C12: + x264 + x414 <= 1
C13: + x114 + x271 <= 1
C14: + x422 + x478 <= 1
C15: + x224 + x267 <= 1
C16: + x69 + x191 <= 1
C17: + x14 + x33 <= 1
C18: + x9 + x143 <= 1
C19: + x103 + x296 <= 1
C20: + x40 + x187 <= 1
C21: + x5 + x105 <= 1
C22: + x159 + x484 <= 1
C23: + x25 + x317 <= 1
C24: + x153 + x295 <= 1
C25: + x208 + x223 <= 1
C26: + x20 + x92 <= 1
C27: + x52 + x144 <= 1
C28: + x252 + x360 <= 1
C29: + x17 + x476 <= 1
C30: + x18 + x484 <= 1
C31: + x11 + x469 <= 1
C32: + x30 + x335 <= 1
C33: + x5 + x256 <= 1
C34: + x62 + x422 <= 1
C35: + x46 + x300 <= 1
C36: + x21 + x59 <= 1
C37: + x40 + x239 <= 1
C38: + x54 + x156 <= 1
C39: + x182 + x284 <= 1
C40: + x94 + x394 <= 1
C41: + x59 + x215 <= 1
C42: + x144 + x189 <= 1
C43: + x173 + x179 <= 1
C44: + x37 + x408 <= 1
C45: + x18 + x25 + x65 <= 1
C46: + x149 + x298 <= 1
C47: + x105 + x222 <= 1
C48: + x13 + x255 <= 1
C49: + x32 + x163 <= 1
C50: + x69 + x279 <= 1
C51: + x8 + x23 <= 1
C52: + x377 + x406 <= 1
C53: + x70 + x159 <= 1
C54: + x5 + x286 <= 1
C55: + x36 + x259 <= 1
C56: + x7 + x42 <= 1
C57: + x140 + x198 <= 1
C58: + x207 + x474 <= 1
C59: + x262 + x392 <= 1
C60: + x8 + x168 <= 1
C61: + x229 + x412 <= 1
C62: + x122 + x328 <= 1
C63: + x25 + x249 <= 1
C64: + x128 + x291 <= 1
C65: + x139 + x312 <= 1
C66: + x6 + x94 <= 1
C67: + x7 + x102 <= 1
C68: + x16 + x443 <= 1
C69: + x11 + x105 <= 1
C70: + x185 + x308 <= 1
C71: + x214 + x411 <= 1
C72: + x5 + x231 <= 1
C73: + x90 + x352 <= 1
C74: + x26 + x160 <= 1
C75: + x54 + x322 <= 1
C76: + x76 + x394 <= 1
C77: + x140 + x285 <= 1
C78: + x11 + x15 + x40 <= 1
C79: + x8 + x286 <= 1
C80: + x42 + x411 <= 1
C81: + x434 + x454 <= 1
C82: + x6 + x165 <= 1
C83: + x8 + x16 <= 1
C84: + x379 + x385 <= 1
C85: + x24 + x41 <= 1
C86: + x82 + x98 <= 1
C87: + x251 + x287 <= 1
C88: + x7 + x206 <= 1
C89: + x27 + x75 <= 1
C90: + x91 + x210 <= 1
C91: + x16 + x275 <= 1
C92: + x86 + x264 <= 1
C93: + x42 + x327 <= 1
C94: + x81 + x493 <= 1
C95: + x191 + x301 <= 1
C96: + x21 + x407 <= 1
C97: + x331 + x453 <= 1
C98: + x83 + x166 <= 1
C99: + x25 + x442 <= 1
C100: + x2 + x138 <= 1
C101: + x8 + x81 <= 1
C102: + x95 + x383 <= 1
C103: + x254 + x475 <= 1
C104: + x129 + x152 <= 1
C105: + x47 + x183 <= 1
C106: + x49 + x237 <= 1
C107: + x411 + x464 <= 1
C108: + x342 + x464 <= 1
C109: + x23 + x451 <= 1
C110: + x6 + x11 <= 1
C111: + x1 + x336 <= 1
C112: + x11 + x72 <= 1
C113: + x126 + x342 <= 1
C114: + x99 + x258 <= 1
C115: + x108 + x311 <= 1
C116: + x10 + x171 <= 1
C117: + x11 + x313 <= 1
C118: + x1 + x82 <= 1
C119: + x12 + x66 <= 1
C120: + x39 + x195 <= 1
C121: + x351 + x390 <= 1
C122: + x7 + x28 <= 1
C123: + x63 + x197 <= 1
C124: + x250 + x452 <= 1
C125: + x192 + x417 <= 1
C126: + x345 + x490 <= 1
C127: + x218 + x465 <= 1
C128: + x8 + x150 <= 1
C129: + x59 + x386 <= 1
C130: + x26 + x249 <= 1
C131: + x170 + x202 + x343 <= 1
C132: + x1 + x110 <= 1
C133: + x213 + x222 <= 1
C134: + x42 + x190 <= 1
C135: + x30 + x439 <= 1
C136: + x15 + x27 <= 1
C137: + x11 + x27 <= 1
C138: + x33 + x484 <= 1
C139: + x6 + x227 <= 1
C140: + x1 + x29 <= 1
C141: + x166 + x266 <= 1
C142: + x304 + x398 <= 1
C143: + x5 + x455 <= 1
C144: + x7 + x487 <= 1
C145: + x293 + x304 <= 1
C146: + x49 + x297 <= 1
C147: + x366 + x400 <= 1
C148: + x52 + x175 <= 1
C149: + x10 + x446 <= 1
C150: + x8 + x223 <= 1
C151: + x57 + x345 <= 1
C152: + x384 + x409 <= 1
C153: + x22 + x49 <= 1
C154: + x67 + x100 <= 1
C155: + x195 + x429 <= 1
C156: + x304 + x371 <= 1
C157: + x17 + x282 <= 1
C158: + x50 + x325 <= 1
C159: + x186 + x221 <= 1
C160: + x51 + x152 <= 1
C161: + x289 + x316 <= 1
C162: + x109 + x469 <= 1
C163: + x54 + x187 <= 1
C164: + x103 + x478 <= 1
C165: + x45 + x86 + x92 <= 1
C166: + x187 + x481 <= 1
C167: + x16 + x353 <= 1
C168: + x8 + x147 <= 1
C169: + x65 + x264 <= 1
C170: + x166 + x207 <= 1
C171: + x20 + x281 <= 1
C172: + x97 + x204 <= 1
C173: + x24 + x176 <= 1
C174: + x25 + x107 <= 1
C175: + x252 + x260 <= 1
C176: + x15 + x30 <= 1
C177: + x1 + x258 <= 1
C178: + x129 + x316 <= 1
C179: + x130 + x164 <= 1
C180: + x55 + x442 <= 1
C181: + x37 + x456 <= 1
C182: + x61 + x364 <= 1
C183: + x181 + x374 <= 1
C184: + x1 + x20 <= 1
C185: + x77 + x263 <= 1
C186: + x178 + x213 <= 1
C187: + x65 + x158 <= 1
C188: + x49 + x397 <= 1
C189: + x361 + x399 <= 1
C190: + x32 + x135 <= 1
C191: + x35 + x84 <= 1
C192: + x16 + x184 <= 1
C193: + x18 + x234 <= 1
C194: + x37 + x233 <= 1
C195: + x127 + x382 <= 1
C196: + x19 + x283 <= 1
C197: + x7 + x22 <= 1
C198: + x56 + x164 <= 1
C199: + x187 + x492 <= 1
C200: + x150 + x230 <= 1
C201: + x6 + x33 <= 1
C202: + x154 + x176 <= 1
C203: + x65 + x170 <= 1
C204: + x61 + x303 <= 1
C205: + x43 + x405 <= 1
C206: + x33 + x38 <= 1
C207: + x89 + x131 <= 1
C208: + x92 + x297 <= 1
C209: + x37 + x384 <= 1
C210: + x113 + x313 <= 1
C211: + x9 + x15 <= 1
C212: + x21 + x119 <= 1
C213: + x30 + x94 <= 1
C214: + x196 + x366 <= 1
C215: + x53 + x227 <= 1
C216: + x36 + x363 <= 1
C217: + x11 + x13 <= 1
C218: + x53 + x392 <= 1
C219: + x1 + x235 <= 1
C220: + x102 + x161 <= 1
C221: + x130 + x456 <= 1
C222: + x179 + x287 <= 1
C223: + x151 + x320 <= 1
C224: + x11 + x323 <= 1
C225: + x57 + x85 <= 1
C226: + x146 + x200 <= 1
C227: + x30 + x37 + x147 <= 1
C228: + x171 + x218 <= 1
C229: + x380 + x436 <= 1
C230: + x27 + x64 <= 1
C231: + x227 + x472 <= 1
C232: + x92 + x104 <= 1
C233: + x13 + x127 <= 1
C234: + x350 + x377 <= 1
C235: + x42 + x211 <= 1
C236: + x1 + x452 <= 1
C237: + x23 + x36 <= 1
C238: + x101 + x234 <= 1
C239: + x30 + x180 <= 1
C240: + x14 + x218 <= 1
C241: + x25 + x359 <= 1
C242: + x72 + x360 <= 1
C243: + x321 + x389 <= 1
C244: + x11 + x56 <= 1
C245: + x20 + x408 <= 1
C246: + x15 + x137 <= 1
C247: + x153 + x203 <= 1
C248: + x9 + x133 <= 1
C249: + x33 + x342 <= 1
C250: + x34 + x141 <= 1
C251: + x17 + x69 <= 1
C252: + x62 + x319 <= 1
C253: + x54 + x194 <= 1
C254: + x55 + x242 <= 1
C255: + x19 + x71 <= 1
C256: + x2 + x7 <= 1
C257: + x6 + x130 <= 1
C258: + x6 + x349 <= 1
C259: + x226 + x481 <= 1
C260: + x83 + x428 <= 1
C261: + x17 + x271 <= 1
C262: + x187 + x240 <= 1
C263: + x104 + x452 <= 1
C264: + x223 + x348 <= 1
C265: + x23 + x346 <= 1
C266: + x54 + x150 <= 1
C267: + x330 + x437 <= 1
C268: + x204 + x352 <= 1
C269: + x33 + x52 <= 1
C270: + x14 + x112 <= 1
C271: + x6 + x19 <= 1
C272: + x99 + x108 <= 1
C273: + x15 + x72 <= 1
C274: + x5 + x58 <= 1
C275: + x289 + x448 <= 1
C276: + x18 + x24 <= 1
C277: + x6 + x257 <= 1
C278: + x101 + x118 <= 1
C279: + x20 + x139 <= 1
C280: + x6 + x420 <= 1
C281: + x137 + x175 <= 1
C282: + x54 + x90 <= 1
C283: + x132 + x183 <= 1
C284: + x61 + x369 <= 1
C285: + x15 + x148 <= 1
C286: + x164 + x194 <= 1
C287: + x165 + x210 <= 1
C288: + x228 + x258 <= 1
C289: + x4 + x86 <= 1
C290: + x43 + x368 <= 1
C291: + x269 + x326 <= 1
C292: + x1 + x5 + x6 + x7 + x8 <= 1
C293: + x9 + x105 <= 1
C294: + x5 + x352 <= 1
C295: + x6 + x88 <= 1
C296: + x8 + x376 <= 1
C297: + x2 + x32 <= 1
C298: + x90 + x159 <= 1
C299: + x154 + x325 <= 1
C300: + x373 + x377 <= 1
C301: + x290 + x493 <= 1
C302: + x460 + x490 <= 1
C303: + x42 + x215 <= 1
C304: + x20 + x474 <= 1
C305: + x40 + x416 <= 1
C306: + x61 + x316 <= 1
C307: + x18 + x283 <= 1
C308: + x1 + x383 <= 1
C309: + x228 + x347 <= 1
C310: + x56 + x75 + x335 <= 1
C311: + x141 + x324 <= 1
C312: + x22 + x25 <= 1
C313: + x15 + x236 <= 1
C314: + x162 + x374 <= 1
C315: + x73 + x484 <= 1
C316: + x297 + x368 <= 1
C317: + x171 + x329 <= 1
C318: + x9 + x36 <= 1
C319: + x276 + x327 <= 1
C320: + x459 + x466 <= 1
C321: + x40 + x365 <= 1
C322: + x10 + x188 <= 1
C323: + x185 + x485 <= 1
C324: + x77 + x198 <= 1
C325: + x106 + x382 <= 1
C326: + x150 + x197 <= 1
C327: + x129 + x421 <= 1
C328: + x25 + x246 <= 1
C329: + x34 + x159 <= 1
C330: + x27 + x154 <= 1
C331: + x127 + x174 <= 1
C332: + x3 + x433 <= 1
C333: + x33 + x118 <= 1
C334: + x414 + x478 <= 1
C335: + x109 + x417 <= 1
C336: + x125 + x388 <= 1
C337: + x216 + x394 <= 1
C338: + x307 + x424 <= 1
C339: + x317 + x355 <= 1
C340: + x59 + x453 <= 1
C341: + x31 + x134 <= 1
C342: + x5 + x470 <= 1
C343: + x15 + x437 <= 1
C344: + x221 + x308 <= 1
C345: + x204 + x334 <= 1
C346: + x61 + x307 <= 1
C347: + x109 + x341 <= 1
C348: + x54 + x59 <= 1
C349: + x84 + x199 <= 1
C350: + x194 + x344 <= 1
C351: + x86 + x311 <= 1
C352: + x15 + x243 <= 1
C353: + x99 + x268 <= 1
C354: + x8 + x19 <= 1
C355: + x120 + x266 <= 1
C356: + x7 + x46 <= 1
C357: + x36 + x263 <= 1
C358: + x156 + x160 <= 1
C359: + x30 + x272 <= 1
C360: + x87 + x193 <= 1
C361: + x90 + x221 <= 1
C362: + x125 + x455 <= 1
C363: + x26 + x285 <= 1
C364: + x201 + x399 <= 1
C365: + x111 + x146 <= 1
C366: + x45 + x457 <= 1
C367: + x41 + x78 <= 1
C368: + x77 + x290 <= 1
C369: + x136 + x495 <= 1
C370: + x160 + x485 <= 1
C371: + x1 + x404 <= 1
C372: + x2 + x284 <= 1
C373: + x332 + x478 <= 1
C374: + x87 + x308 <= 1
C375: + x351 + x460 <= 1
C376: + x238 + x243 <= 1
C377: + x40 + x61 <= 1
C378: + x4 + x209 <= 1
C379: + x90 + x233 <= 1
C380: + x72 + x280 <= 1
C381: + x283 + x442 <= 1
C382: + x112 + x141 <= 1
C383: + x31 + x322 <= 1
C384: + x72 + x187 <= 1
C385: + x320 + x421 <= 1
C386: + x48 + x351 <= 1
C387: + x412 + x499 <= 1
C388: + x61 + x202 <= 1
C389: + x6 + x14 <= 1
C390: + x7 + x150 <= 1
C391: + x20 + x323 <= 1
C392: + x39 + x99 <= 1
C393: + x242 + x292 <= 1
C394: + x189 + x348 <= 1
C395: + x15 + x303 <= 1
C396: + x30 + x59 <= 1
C397: + x13 + x87 <= 1
C398: + x24 + x37 <= 1
C399: + x83 + x110 <= 1
C400: + x8 + x431 <= 1
C401: + x416 + x428 <= 1
C402: + x185 + x499 <= 1
C403: + x42 + x48 <= 1
C404: + x108 + x128 <= 1
C405: + x18 + x321 <= 1
C406: + x91 + x279 <= 1
C407: + x8 + x153 <= 1
C408: + x257 + x360 <= 1
C409: + x21 + x129 <= 1
C410: + x25 + x196 <= 1
C411: + x52 + x67 <= 1
C412: + x80 + x297 <= 1
C413: + x228 + x404 <= 1
C414: + x36 + x157 <= 1
C415: + x41 + x295 <= 1
C416: + x33 + x132 <= 1
C417: + x44 + x333 <= 1
C418: + x328 + x362 <= 1
C419: + x11 + x32 <= 1
C420: + x20 + x384 <= 1
C421: + x106 + x156 <= 1
C422: + x47 + x90 <= 1
C423: + x56 + x119 <= 1
C424: + x289 + x365 <= 1
C425: + x6 + x468 <= 1
C426: + x47 + x187 <= 1
C427: + x53 + x294 <= 1
C428: + x62 + x122 <= 1
C429: + x7 + x141 <= 1
C430: + x8 + x222 <= 1
C431: + x10 + x441 <= 1
C432: + x37 + x386 <= 1
C433: + x22 + x52 <= 1
C434: + x116 + x137 <= 1
C435: + x137 + x494 <= 1
C436: + x328 + x400 <= 1
C437: + x36 + x309 <= 1
C438: + x92 + x436 <= 1
C439: + x16 + x449 <= 1
C440: + x91 + x165 <= 1
C441: + x36 + x404 <= 1
C442: + x9 + x275 <= 1
C443: + x9 + x168 <= 1
C444: + x7 + x270 <= 1
C445: + x120 + x141 <= 1
C446: + x5 + x415 <= 1
C447: + x159 + x473 <= 1
C448: + x289 + x408 <= 1
C449: + x18 + x48 <= 1
C450: + x1 + x98 <= 1
C451: + x58 + x369 <= 1
C452: + x22 + x278 <= 1
C453: + x150 + x321 <= 1
C454: + x6 + x76 <= 1
C455: + x191 + x437 <= 1
C456: + x117 + x382 <= 1
C457: + x108 + x161 <= 1
C458: + x84 + x109 <= 1
C459: + x67 + x461 <= 1
C460: + x233 + x296 <= 1
C461: + x13 + x17 <= 1
C462: + x41 + x104 <= 1
C463: + x161 + x319 <= 1
C464: + x159 + x389 <= 1
C465: + x297 + x445 <= 1
C466: + x1 + x446 <= 1
C467: + x188 + x265 <= 1
C468: + x23 + x381 <= 1
C469: + x173 + x426 <= 1
C470: + x52 + x179 <= 1
C471: + x15 + x43 <= 1
C472: + x72 + x411 <= 1
C473: + x158 + x234 <= 1
C474: + x1 + x45 <= 1
C475: + x10 + x216 <= 1
C476: + x121 + x250 <= 1
C477: + x49 + x119 <= 1
C478: + x395 + x412 <= 1
C479: + x6 + x385 <= 1
C480: + x31 + x409 <= 1
C481: + x210 + x393 <= 1
C482: + x30 + x190 <= 1
C483: + x370 + x477 <= 1
C484: + x5 + x73 <= 1
C485: + x104 + x155 <= 1
C486: + x6 + x274 <= 1
C487: + x9 + x12 <= 1
C488: + x8 + x46 <= 1
C489: + x10 + x132 <= 1
C490: + x176 + x195 <= 1
C491: + x165 + x338 <= 1
C492: + x51 + x200 <= 1
C493: + x8 + x337 <= 1
C494: + x40 + x44 <= 1
C495: + x13 + x171 <= 1
C496: + x7 + x305 <= 1
C497: + x254 + x262 <= 1
C498: + x66 + x480 <= 1
C499: + x12 + x136 <= 1
C500: + x13 + x16 <= 1
C501: + x158 + x370 <= 1
C502: + x66 + x123 <= 1
C503: + x58 + x326 <= 1
C504: + x25 + x59 <= 1
C505: + x24 + x451 <= 1
C506: + x8 + x261 <= 1
C507: + x273 + x471 <= 1
C508: + x212 + x410 <= 1
C509: + x6 + x156 <= 1
C510: + x44 + x89 <= 1
C511: + x45 + x107 <= 1
C512: + x1 + x36 <= 1
C513: + x9 + x199 <= 1
C514: + x10 + x217 <= 1
C515: + x21 + x47 <= 1
C516: + x214 + x345 <= 1
C517: + x55 + x56 <= 1
C518: + x47 + x145 <= 1
C519: + x129 + x182 <= 1
C520: + x3 + x42 <= 1
C521: + x6 + x45 <= 1
C522: + x1 + x366 <= 1
C523: + x94 + x140 <= 1
C524: + x59 + x416 <= 1
C525: + x40 + x84 <= 1
C526: + x25 + x356 <= 1
C527: + x131 + x440 <= 1
C528: + x30 + x183 <= 1
C529: + x80 + x264 <= 1
C530: + x31 + x61 <= 1
C531: + x1 + x128 <= 1
C532: + x133 + x162 <= 1
C533: + x17 + x51 <= 1
C534: + x7 + x70 <= 1
C535: + x156 + x184 <= 1
C536: + x97 + x182 <= 1
C537: + x104 + x225 <= 1
C538: + x18 + x171 <= 1
C539: + x136 + x391 <= 1
C540: + x148 + x370 <= 1
C541: + x107 + x186 <= 1
C542: + x5 + x433 <= 1
C543: + x44 + x193 <= 1
C544: + x101 + x440 <= 1
C545: + x94 + x483 <= 1
C546: + x5 + x342 <= 1
C547: + x7 + x114 <= 1
C548: + x8 + x382 <= 1
C549: + x1 + x158 <= 1
C550: + x184 + x314 <= 1
C551: + x5 + x11 <= 1
C552: + x15 + x267 <= 1
C553: + x88 + x422 <= 1
C554: + x74 + x386 <= 1
C555: + x233 + x450 <= 1
C556: + x327 + x406 <= 1
C557: + x84 + x294 <= 1
C558: + x33 + x49 <= 1
C559: + x14 + x115 <= 1
C560: + x6 + x22 <= 1
C561: + x146 + x248 <= 1
C562: + x83 + x320 <= 1
C563: + x240 + x358 <= 1
C564: + x5 + x63 <= 1
C565: + x291 + x401 <= 1
C566: + x256 + x391 <= 1
C567: + x157 + x293 <= 1
C568: + x123 + x188 <= 1
C569: + x61 + x145 <= 1
C570: + x1 + x276 <= 1
C571: + x37 + x498 <= 1
C572: + x32 + x77 <= 1
C573: + x10 + x31 <= 1
C574: + x8 + x177 <= 1
C575: + x446 + x462 <= 1
C576: + x197 + x256 <= 1
C577: + x25 + x236 <= 1
C578: + x18 + x79 <= 1
C579: + x37 + x140 <= 1
C580: + x20 + x86 <= 1
C581: + x41 + x250 <= 1
C582: + x139 + x259 <= 1
C583: + x30 + x103 <= 1
C584: + x106 + x257 <= 1
C585: + x81 + x166 <= 1
C586: + x53 + x314 <= 1
C587: + x146 + x189 <= 1
C588: + x31 + x99 <= 1
C589: + x22 + x88 <= 1
C590: + x60 + x346 <= 1
C591: + x1 + x50 <= 1
C592: + x289 + x325 <= 1
C593: + x9 + x82 <= 1
C594: + x191 + x357 <= 1
C595: + x18 + x123 <= 1
C596: + x38 + x120 <= 1
C597: + x30 + x486 <= 1
C598: + x61 + x313 <= 1
C599: + x113 + x299 <= 1
C600: + x214 + x476 <= 1
C601: + x278 + x471 <= 1
C602: + x6 + x269 <= 1
C603: + x9 + x33 <= 1
C604: + x15 + x346 <= 1
C605: + x120 + x312 <= 1
C606: + x1 + x78 <= 1
C607: + x95 + x439 <= 1
C608: + x186 + x379 <= 1
C609: + x23 + x52 + x66 <= 1
C610: + x136 + x338 <= 1
C611: + x275 + x288 <= 1
C612: + x163 + x210 <= 1
C613: + x1 + x253 <= 1
C614: + x66 + x419 <= 1
C615: + x41 + x68 <= 1
C616: + x441 + x500 <= 1
C617: + x52 + x445 <= 1
C618: + x161 + x347 <= 1
C619: + x253 + x268 <= 1
C620: + x5 + x423 <= 1
C621: + x19 + x336 <= 1
C622: + x230 + x333 <= 1
C623: + x9 + x458 <= 1
C624: + x144 + x236 <= 1
C625: + x136 + x262 <= 1
C626: + x25 + x429 <= 1
C627: + x180 + x353 <= 1
C628: + x274 + x367 <= 1
C629: + x34 + x214 <= 1
C630: + x1 + x470 <= 1
C631: + x239 + x358 <= 1
C632: + x38 + x396 <= 1
C633: + x366 + x420 <= 1
C634: + x166 + x497 <= 1
C635: + x89 + x156 <= 1
C636: + x166 + x239 <= 1
C637: + x298 + x498 <= 1
C638: + x245 + x468 <= 1
C639: + x35 + x77 <= 1
C640: + x38 + x194 <= 1
C641: + x124 + x202 <= 1
C642: + x277 + x325 <= 1
C643: + x7 + x47 <= 1
C644: + x330 + x494 <= 1
C645: + x106 + x354 <= 1
C646: + x70 + x305 <= 1
C647: + x100 + x289 <= 1
C648: + x2 + x252 <= 1
C649: + x114 + x226 <= 1
C650: + x234 + x413 <= 1
C651: + x109 + x128 <= 1
C652: + x39 + x343 <= 1
C653: + x68 + x89 <= 1
C654: + x22 + x90 <= 1
C655: + x1 + x16 <= 1
C656: + x119 + x206 <= 1
C657: + x11 + x203 <= 1
C658: + x40 + x231 <= 1
C659: + x42 + x196 <= 1
C660: + x26 + x58 <= 1
C661: + x65 + x109 <= 1
C662: + x67 + x257 <= 1
C663: + x22 + x459 <= 1
C664: + x160 + x195 <= 1
C665: + x17 + x400 <= 1
C666: + x66 + x353 <= 1
C667: + x141 + x375 <= 1
C668: + x116 + x191 <= 1
C669: + x133 + x428 <= 1
C670: + x316 + x321 <= 1
C671: + x94 + x307 <= 1
C672: + x150 + x375 <= 1
C673: + x79 + x261 <= 1
C674: + x274 + x386 <= 1
C675: + x185 + x496 <= 1
C676: + x11 + x45 <= 1
C677: + x6 + x53 <= 1
C678: + x213 + x454 <= 1
C679: + x124 + x192 <= 1
C680: + x40 + x172 <= 1
C681: + x368 + x372 <= 1
C682: + x18 + x50 <= 1
C683: + x7 + x433 <= 1
C684: + x5 + x330 <= 1
C685: + x6 + x70 <= 1
C686: + x11 + x17 <= 1
C687: + x106 + x151 <= 1
C688: + x215 + x273 <= 1
C689: + x40 + x57 <= 1
C690: + x16 + x290 <= 1
C691: + x146 + x406 <= 1
C692: + x94 + x376 <= 1
C693: + x136 + x415 <= 1
C694: + x176 + x435 <= 1
C695: + x79 + x324 <= 1
C696: + x230 + x254 <= 1
C697: + x3 + x5 <= 1
C698: + x34 + x67 <= 1
C699: + x6 + x10 <= 1
C700: + x119 + x120 <= 1
C701: + x220 + x316 <= 1
C702: + x129 + x379 <= 1
C703: + x21 + x185 <= 1
C704: + x95 + x271 <= 1
C705: + x205 + x430 <= 1
C706: + x121 + x403 <= 1
C707: + x176 + x245 <= 1
C708: + x18 + x255 <= 1
C709: + x41 + x170 <= 1
C710: + x40 + x212 <= 1
C711: + x390 + x417 <= 1
C712: + x46 + x116 <= 1
C713: + x420 + x488 <= 1
C714: + x49 + x367 <= 1
C715: + x332 + x378 <= 1
C716: + x69 + x149 <= 1
C717: + x217 + x310 <= 1
C718: + x222 + x488 <= 1
C719: + x17 + x165 <= 1
C720: + x24 + x146 <= 1
C721: + x240 + x417 <= 1
C722: + x25 + x101 <= 1
C723: + x143 + x205 <= 1
C724: + x8 + x351 <= 1
C725: + x28 + x395 <= 1
C726: + x182 + x453 <= 1
C727: + x198 + x220 + x306 <= 1
C728: + x26 + x310 <= 1
C729: + x112 + x146 <= 1
C730: + x114 + x208 <= 1
C731: + x31 + x333 <= 1
C732: + x14 + x301 <= 1
C733: + x338 + x362 <= 1
C734: + x11 + x338 <= 1
C735: + x202 + x213 <= 1
C736: + x264 + x461 <= 1
C737: + x324 + x354 <= 1
C738: + x167 + x322 <= 1
C739: + x164 + x182 <= 1
C740: + x291 + x363 <= 1
C741: + x49 + x407 <= 1
C742: + x26 + x181 <= 1
C743: + x15 + x310 <= 1
C744: + x146 + x443 <= 1
C745: + x147 + x457 <= 1
C746: + x50 + x380 <= 1
C747: + x6 + x388 <= 1
C748: + x37 + x72 <= 1
C749: + x86 + x182 <= 1
C750: + x13 + x380 <= 1
C751: + x6 + x39 <= 1
C752: + x101 + x229 <= 1
C753: + x31 + x55 <= 1
C754: + x23 + x244 <= 1
C755: + x52 + x80 <= 1
C756: + x142 + x445 <= 1
C757: + x25 + x282 <= 1
C758: + x1 + x102 <= 1
C759: + x23 + x293 <= 1
C760: + x223 + x229 <= 1
C761: + x36 + x357 <= 1
C762: + x26 + x319 <= 1
C763: + x1 + x21 <= 1
C764: + x20 + x232 <= 1
C765: + x25 + x294 <= 1
C766: + x23 + x369 <= 1
C767: + x101 + x398 <= 1
C768: + x138 + x414 <= 1
C769: + x52 + x183 <= 1
C770: + x7 + x124 <= 1
C771: + x63 + x101 <= 1
C772: + x32 + x372 <= 1
C773: + x66 + x178 <= 1
C774: + x335 + x368 <= 1
C775: + x10 + x37 <= 1
C776: + x28 + x95 <= 1
C777: + x121 + x365 <= 1
C778: + x257 + x330 <= 1
C779: + x24 + x168 <= 1
C780: + x29 + x83 <= 1
C781: + x105 + x473 <= 1
C782: + x395 + x460 <= 1
C783: + x12 + x498 <= 1
C784: + x142 + x281 <= 1
C785: + x66 + x206 <= 1
C786: + x247 + x269 <= 1
C787: + x11 + x14 <= 1
C788: + x30 + x299 <= 1
C789: + x162 + x176 <= 1
C790: + x80 + x125 <= 1
C791: + x7 + x228 <= 1
C792: + x146 + x377 <= 1
C793: + x155 + x166 <= 1
C794: + x49 + x54 <= 1
C795: + x39 + x57 <= 1
C796: + x79 + x341 <= 1
C797: + x65 + x73 <= 1
C798: + x42 + x91 <= 1
C799: + x15 + x50 <= 1
C800: + x7 + x115 <= 1
C801: + x410 + x479 <= 1
C802: + x19 + x77 <= 1
C803: + x146 + x266 <= 1
C804: + x94 + x244 <= 1
C805: + x77 + x142 <= 1
C806: + x10 + x98 <= 1
C807: + x5 + x16 <= 1
C808: + x11 + x114 <= 1
C809: + x86 + x215 <= 1
C810: + x69 + x371 <= 1
C811: + x1 + x40 <= 1
C812: + x47 + x60 <= 1
C813: + x81 + x315 <= 1
C814: + x172 + x463 <= 1
C815: + x357 + x416 <= 1
C816: + x160 + x235 <= 1
C817: + x306 + x488 <= 1
C818: + x7 + x413 <= 1
C819: + x5 + x302 <= 1
C820: + x137 + x169 <= 1
C821: + x84 + x365 <= 1
C822: + x11 + x53 <= 1
C823: + x7 + x219 <= 1
C824: + x1 + x227 <= 1
C825: + x3 + x283 <= 1
C826: + x115 + x193 <= 1
C827: + x59 + x254 <= 1
C828: + x52 + x133 <= 1
C829: + x1 + x301 <= 1
C830: + x10 + x107 <= 1
C831: + x2 + x6 <= 1
C832: + x225 + x262 <= 1
C833: + x23 + x73 <= 1
C834: + x106 + x191 <= 1
C835: + x174 + x181 <= 1
C836: + x39 + x240 <= 1
C837: + x4 + x28 <= 1
C838: + x52 + x54 <= 1
C839: + x61 + x89 <= 1
C840: + x10 + x289 <= 1
C841: + x106 + x336 <= 1
C842: + x23 + x60 <= 1
C843: + x18 + x289 <= 1
C844: + x19 + x124 <= 1
C845: + x59 + x419 <= 1
C846: + x161 + x199 <= 1
C847: + x24 + x271 <= 1
C848: + x199 + x216 <= 1
C849: + x256 + x387 <= 1
C850: + x156 + x447 <= 1
C851: + x40 + x375 <= 1
C852: + x251 + x430 <= 1
C853: + x39 + x458 <= 1
C854: + x60 + x130 <= 1
C855: + x14 + x35 <= 1
C856: + x17 + x331 <= 1
C857: + x281 + x282 <= 1
C858: + x12 + x21 <= 1
C859: + x10 + x473 <= 1
C860: + x57 + x193 <= 1
C861: + x111 + x120 <= 1
C862: + x45 + x85 <= 1
C863: + x7 + x339 <= 1
C864: + x120 + x256 <= 1
C865: + x40 + x237 <= 1
C866: + x16 + x109 + x273 <= 1
C867: + x26 + x52 <= 1
C868: + x74 + x106 <= 1
C869: + x6 + x27 <= 1
C870: + x151 + x232 <= 1
C871: + x10 + x96 <= 1
C872: + x54 + x492 <= 1
C873: + x5 + x34 <= 1
C874: + x24 + x179 <= 1
C875: + x127 + x231 <= 1
C876: + x1 + x66 <= 1
C877: + x169 + x451 <= 1
C878: + x61 + x172 <= 1
C879: + x51 + x237 <= 1
C880: + x37 + x48 <= 1
C881: + x11 + x39 <= 1
C882: + x172 + x219 <= 1
C883: + x1 + x241 <= 1
C884: + x47 + x385 <= 1
C885: + x150 + x466 <= 1
C886: + x24 + x135 <= 1
C887: + x7 + x443 <= 1
C888: + x52 + x120 <= 1
C889: + x11 + x381 <= 1
C890: + x14 + x330 <= 1
C891: + x41 + x314 <= 1
C892: + x161 + x444 <= 1
C893: + x32 + x455 <= 1
C894: + x6 + x96 <= 1
C895: + x2 + x24 <= 1
C896: + x133 + x357 <= 1
C897: + x6 + x243 <= 1
C898: + x117 + x354 <= 1
C899: + x89 + x241 <= 1
C900: + x1 + x13 <= 1
C901: + x193 + x306 <= 1
C902: + x47 + x77 <= 1
C903: + x214 + x384 <= 1
C904: + x33 + x230 <= 1
C905: + x9 + x93 <= 1
C906: + x102 + x482 <= 1
C907: + x33 + x67 <= 1
C908: + x181 + x270 <= 1
C909: + x1 + x188 <= 1
C910: + x20 + x317 <= 1
C911: + x158 + x286 <= 1
C912: + x240 + x376 <= 1
C913: + x6 + x167 <= 1
C914: + x44 + x128 <= 1
C915: + x6 + x370 <= 1
C916: + x147 + x476 <= 1
C917: + x120 + x265 <= 1
C918: + x41 + x192 <= 1
C919: + x9 + x393 <= 1
C920: + x63 + x224 <= 1
C921: + x37 + x87 <= 1
C922: + x2 + x93 <= 1
C923: + x6 + x56 <= 1
C924: + x217 + x300 <= 1
C925: + x79 + x163 <= 1
C926: + x100 + x252 <= 1
C927: + x10 + x13 <= 1
C928: + x5 + x93 <= 1
C929: + x52 + x125 <= 1
C930: + x1 + x405 <= 1
C931: + x30 + x117 <= 1
C932: + x177 + x393 <= 1
C933: + x136 + x180 <= 1
C934: + x79 + x111 <= 1
C935: + x207 + x495 <= 1
C936: + x57 + x481 <= 1
C937: + x94 + x379 <= 1
C938: + x77 + x279 <= 1
C939: + x66 + x151 <= 1
C940: + x1 + x334 <= 1
C941: + x10 + x74 <= 1
C942: + x48 + x61 <= 1
C943: + x40 + x116 <= 1
C944: + x5 + x24 <= 1
C945: + x170 + x209 <= 1
C946: + x77 + x459 <= 1
C947: + x115 + x150 <= 1
C948: + x6 + x414 <= 1
C949: + x72 + x234 <= 1
C950: + x492 + x494 <= 1
C951: + x11 + x41 <= 1
C952: + x103 + x106 <= 1
C953: + x2 + x86 <= 1
C954: + x7 + x199 <= 1
C955: + x118 + x151 <= 1
C956: + x82 + x331 <= 1
C957: + x13 + x39 <= 1
C958: + x6 + x303 <= 1
C959: + x299 + x313 <= 1
C960: + x259 + x355 <= 1
C961: + x7 + x82 <= 1
C962: + x1 + x265 <= 1
C963: + x255 + x371 <= 1
C964: + x11 + x29 <= 1
C965: + x43 + x489 <= 1
C966: + x24 + x351 <= 1
C967: + x42 + x201 <= 1
C968: + x53 + x130 <= 1
C969: + x182 + x396 <= 1
C970: + x1 + x87 <= 1
C971: + x2 + x345 <= 1
C972: + x246 + x474 <= 1
C973: + x304 + x472 <= 1
C974: + x208 + x260 <= 1
C975: + x106 + x344 <= 1
C976: + x5 + x174 <= 1
C977: + x6 + x58 <= 1
C978: + x455 + x473 <= 1
C979: + x102 + x246 <= 1
C980: + x14 + x373 <= 1
C981: + x151 + x491 <= 1
C982: + x40 + x335 <= 1
C983: + x15 + x32 <= 1
C984: + x54 + x65 <= 1
C985: + x247 + x252 <= 1
C986: + x357 + x467 <= 1
C987: + x6 + x238 <= 1
C988: + x1 + x18 <= 1
C989: + x49 + x60 <= 1
C990: + x170 + x261 <= 1
C991: + x254 + x495 <= 1
C992: + x11 + x350 <= 1
C993: + x248 + x302 <= 1
C994: + x38 + x419 <= 1
C995: + x66 + x375 <= 1
C996: + x94 + x254 <= 1
C997: + x195 + x426 <= 1
C998: + x34 + x315 <= 1
C999: + x197 + x326 <= 1
C1000: + x462 + x464 <= 1
C1001: + x28 + x173 <= 1
C1002: + x121 + x251 <= 1
C1003: + x293 + x444 <= 1
C1004: + x40 + x276 <= 1
C1005: + x31 + x381 <= 1
C1006: + x44 + x130 <= 1
C1007: + x13 + x403 <= 1
C1008: + x160 + x334 <= 1
C1009: + x91 + x173 <= 1
C1010: + x10 + x40 <= 1
C1011: + x370 + x468 <= 1
C1012: + x142 + x441 <= 1
C1013: + x29 + x88 <= 1
C1014: + x20 + x123 <= 1
C1015: + x223 + x233 <= 1
C1016: + x116 + x431 <= 1
C1017: + x6 + x436 <= 1
C1018: + x7 + x68 <= 1
C1019: + x20 + x397 <= 1
C1020: + x22 + x113 <= 1
C1021: + x245 + x368 <= 1
C1022: + x11 + x228 <= 1
C1023: + x211 + x332 <= 1
C1024: + x449 + x451 <= 1
C1025: + x205 + x329 <= 1
C1026: + x34 + x323 <= 1
C1027: + x23 + x373 <= 1
C1028: + x289 + x380 <= 1
C1029: + x201 + x206 <= 1
C1030: + x1 + x438 <= 1
C1031: + x49 + x293 <= 1
C1032: + x51 + x57 <= 1
C1033: + x1 + x136 <= 1
C1034: + x33 + x460 <= 1
C1035: + x12 + x115 <= 1
C1036: + x7 + x15 <= 1
C1037: + x71 + x207 <= 1
C1038: + x109 + x366 <= 1
C1039: + x166 + x243 <= 1
C1040: + x21 + x159 <= 1
C1041: + x112 + x224 <= 1
C1042: + x13 + x212 <= 1
C1043: + x23 + x308 <= 1
C1044: + x161 + x370 <= 1
C1045: + x289 + x423 <= 1
C1046: + x239 + x449 <= 1
C1047: + x30 + x89 <= 1
C1048: + x222 + x281 <= 1
C1049: + x10 + x487 <= 1
C1050: + x147 + x277 <= 1
C1051: + x362 + x449 <= 1
C1052: + x24 + x358 <= 1
C1053: + x27 + x444 <= 1
C1054: + x17 + x337 <= 1
C1055: + x10 + x21 <= 1
C1056: + x84 + x126 <= 1
C1057: + x11 + x235 <= 1
C1058: + x66 + x472 <= 1
C1059: + x273 + x448 <= 1
C1060: + x34 + x143 <= 1
C1061: + x5 + x434 <= 1
C1062: + x42 + x95 <= 1
C1063: + x6 + x97 <= 1
C1064: + x9 + x477 <= 1
C1065: + x8 + x381 <= 1
C1066: + x10 + x102 <= 1
C1067: + x77 + x138 <= 1
C1068: + x269 + x292 <= 1
C1069: + x5 + x12 <= 1
C1070: + x76 + x485 <= 1
C1071: + x21 + x55 <= 1
C1072: + x4 + x23 <= 1
C1073: + x106 + x432 <= 1
C1074: + x45 + x264 <= 1
C1075: + x255 + x419 <= 1
C1076: + x47 + x153 <= 1
C1077: + x141 + x230 <= 1
C1078: + x5 + x155 <= 1
C1079: + x6 + x21 <= 1
C1080: + x133 + x283 <= 1
C1081: + x25 + x463 <= 1
C1082: + x8 + x256 <= 1
C1083: + x121 + x376 <= 1
C1084: + x261 + x472 <= 1
C1085: + x212 + x494 <= 1
C1086: + x116 + x171 <= 1
C1087: + x81 + x121 <= 1
C1088: + x6 + x184 <= 1
C1089: + x6 + x259 <= 1
C1090: + x435 + x479 <= 1
C1091: + x7 + x62 <= 1
C1092: + x158 + x192 <= 1
C1093: + x15 + x142 <= 1
C1094: + x19 + x49 <= 1
C1095: + x52 + x439 <= 1
C1096: + x5 + x100 <= 1
C1097: + x99 + x336 <= 1
C1098: + x92 + x354 <= 1
C1099: + x20 + x359 <= 1
C1100: + x53 + x480 <= 1
C1101: + x117 + x213 <= 1
C1102: + x36 + x117 <= 1
C1103: + x6 + x328 <= 1
C1104: + x301 + x500 <= 1
C1105: + x26 + x47 <= 1
C1106: + x266 + x326 <= 1
C1107: + x15 + x73 <= 1
C1108: + x199 + x486 <= 1
C1109: + x6 + x30 <= 1
C1110: + x146 + x307 <= 1
C1111: + x10 + x392 <= 1
C1112: + x94 + x157 <= 1
C1113: + x112 + x238 <= 1
C1114: + x169 + x238 <= 1
C1115: + x136 + x452 <= 1
C1116: + x6 + x177 <= 1
C1117: + x235 + x395 <= 1
C1118: + x249 + x348 <= 1
C1119: + x123 + x196 <= 1
C1120: + x178 + x309 <= 1
C1121: + x32 + x402 <= 1
C1122: + x109 + x499 <= 1
C1123: + x20 + x420 <= 1
C1124: + x39 + x462 <= 1
C1125: + x132 + x190 <= 1
C1126: + x25 + x482 <= 1
C1127: + x19 + x44 <= 1
C1128: + x54 + x435 <= 1
C1129: + x29 + x212 <= 1
C1130: + x238 + x438 <= 1
C1131: + x102 + x305 <= 1
C1132: + x240 + x405 <= 1
C1133: + x59 + x129 <= 1
C1134: + x168 + x366 <= 1
C1135: + x6 + x83 <= 1
C1136: + x279 + x304 <= 1
C1137: + x83 + x178 <= 1
C1138: + x46 + x60 <= 1
C1139: + x74 + x157 <= 1
C1140: + x164 + x287 <= 1
C1141: + x158 + x205 <= 1
C1142: + x2 + x19 <= 1
C1143: + x26 + x149 <= 1
C1144: + x183 + x253 <= 1
C1145: + x311 + x418 <= 1
C1146: + x4 + x5 <= 1
C1147: + x13 + x106 <= 1
C1148: + x81 + x301 <= 1
C1149: + x18 + x115 <= 1
C1150: + x54 + x154 <= 1
C1151: + x66 + x153 <= 1
C1152: + x136 + x207 <= 1
C1153: + x143 + x364 <= 1
C1154: + x173 + x360 <= 1
C1155: + x65 + x377 <= 1
C1156: + x86 + x297 <= 1
C1157: + x40 + x122 <= 1
C1158: + x37 + x247 <= 1
C1159: + x50 + x344 <= 1
C1160: + x124 + x201 <= 1
C1161: + x276 + x334 <= 1
C1162: + x40 + x221 <= 1
C1163: + x17 + x25 <= 1
C1164: + x7 + x48 <= 1
C1165: + x156 + x343 <= 1
C1166: + x274 + x400 <= 1
C1167: + x30 + x306 <= 1
C1168: + x115 + x398 <= 1
C1169: + x18 + x330 <= 1
C1170: + x231 + x482 <= 1
C1171: + x116 + x197 <= 1
C1172: + x43 + x340 <= 1
C1173: + x44 + x55 <= 1
C1174: + x29 + x80 <= 1
C1175: + x149 + x477 <= 1
C1176: + x19 + x489 <= 1
C1177: + x11 + x23 <= 1
C1178: + x274 + x444 <= 1
C1179: + x35 + x456 <= 1
C1180: + x126 + x178 <= 1
C1181: + x19 + x215 <= 1
C1182: + x183 + x248 <= 1
C1183: + x40 + x226 <= 1
C1184: + x25 + x135 <= 1
C1185: + x9 + x65 <= 1
C1186: + x38 + x121 <= 1
C1187: + x3 + x11 <= 1
C1188: + x341 + x459 <= 1
C1189: + x1 + x331 <= 1
C1190: + x229 + x345 <= 1
C1191: + x218 + x349 <= 1
C1192: + x8 + x10 <= 1
C1193: + x83 + x459 <= 1
C1194: + x19 + x139 <= 1
C1195: + x12 + x75 <= 1
C1196: + x33 + x257 <= 1
C1197: + x66 + x174 <= 1
C1198: + x61 + x260 <= 1
C1199: + x360 + x467 <= 1
C1200: + x15 + x103 <= 1
C1201: + x36 + x64 <= 1
C1202: + x19 + x30 <= 1
C1203: + x41 + x51 <= 1
C1204: + x26 + x246 <= 1
C1205: + x36 + x155 <= 1
C1206: + x137 + x465 <= 1
C1207: + x202 + x231 <= 1
C1208: + x66 + x95 <= 1
C1209: + x11 + x356 <= 1
C1210: + x123 + x154 <= 1
C1211: + x32 + x460 <= 1
C1212: + x318 + x339 <= 1
C1213: + x146 + x167 <= 1
C1214: + x11 + x18 <= 1
C1215: + x356 + x471 <= 1
C1216: + x402 + x490 <= 1
C1217: + x31 + x85 <= 1
C1218: + x32 + x111 <= 1
C1219: + x36 + x108 <= 1
C1220: + x16 + x160 <= 1
C1221: + x181 + x223 <= 1
C1222: + x245 + x287 <= 1
C1223: + x161 + x294 <= 1
C1224: + x17 + x91 <= 1
C1225: + x3 + x6 <= 1
C1226: + x25 + x43 <= 1
C1227: + x15 + x94 <= 1
C1228: + x36 + x422 <= 1
C1229: + x6 + x9 <= 1
C1230: + x28 + x56 <= 1
C1231: + x90 + x192 <= 1
C1232: + x134 + x434 <= 1
C1233: + x10 + x169 <= 1
C1234: + x11 + x295 <= 1
C1235: + x6 + x410 <= 1
C1236: + x49 + x219 <= 1
C1237: + x30 + x260 <= 1
C1238: + x6 + x61 <= 1
C1239: + x26 + x489 <= 1
C1240: + x7 + x272 <= 1
C1241: + x39 + x84 <= 1
C1242: + x22 + x250 <= 1
C1243: + x24 + x145 <= 1
C1244: + x202 + x240 <= 1
C1245: + x20 + x113 <= 1
C1246: + x102 + x300 <= 1
C1247: + x30 + x74 <= 1
C1248: + x15 + x25 <= 1
C1249: + x183 + x500 <= 1
C1250: + x348 + x427 <= 1
C1251: + x217 + x323 <= 1
C1252: + x25 + x387 <= 1
C1253: + x6 + x225 <= 1
C1254: + x1 + x31 <= 1
C1255: + x37 + x320 <= 1
C1256: + x395 + x426 <= 1
C1257: + x9 + x79 <= 1
C1258: + x10 + x321 <= 1
C1259: + x102 + x288 <= 1
C1260: + x128 + x263 <= 1
C1261: + x202 + x220 <= 1
C1262: + x185 + x435 <= 1
C1263: + x52 + x177 <= 1
C1264: + x90 + x102 <= 1
C1265: + x207 + x357 <= 1
C1266: + x8 + x217 <= 1
C1267: + x22 + x63 <= 1
C1268: + x87 + x101 <= 1
C1269: + x21 + x38 <= 1
C1270: + x40 + x279 <= 1
C1271: + x164 + x463 <= 1
C1272: + x11 + x387 <= 1
C1273: + x130 + x291 <= 1
C1274: + x94 + x423 <= 1
C1275: + x6 + x38 <= 1
C1276: + x16 + x355 <= 1
C1277: + x7 + x263 <= 1
C1278: + x36 + x46 <= 1
C1279: + x201 + x418 <= 1
C1280: + x5 + x412 <= 1
C1281: + x15 + x327 <= 1
C1282: + x36 + x137 <= 1
C1283: + x1 + x103 <= 1
C1284: + x111 + x258 <= 1
C1285: + x24 + x170 <= 1
C1286: + x9 + x10 <= 1
C1287: + x77 + x127 <= 1
C1288: + x28 + x232 <= 1
C1289: + x6 + x439 <= 1
C1290: + x338 + x465 <= 1
C1291: + x274 + x431 <= 1
C1292: + x47 + x265 <= 1
C1293: + x27 + x111 <= 1
C1294: + x1 + x22 <= 1
C1295: + x154 + x300 <= 1
C1296: + x83 + x388 <= 1
C1297: + x5 + x464 <= 1
C1298: + x186 + x302 <= 1
C1299: + x21 + x491 <= 1
C1300: + x1 + x352 <= 1
C1301: + x408 + x443 <= 1
C1302: + x6 + x158 <= 1
C1303: + x6 + x361 <= 1
C1304: + x88 + x104 <= 1
C1305: + x92 + x97 <= 1
C1306: + x103 + x362 <= 1
C1307: + x86 + x432 <= 1
C1308: + x5 + x500 <= 1
C1309: + x7 + x12 <= 1
C1310: + x12 + x356 <= 1
C1311: + x31 + x414 <= 1
C1312: + x195 + x469 <= 1
C1313: + x189 + x470 <= 1
C1314: + x7 + x181 <= 1
C1315: + x10 + x401 <= 1
C1316: + x8 + x134 <= 1
C1317: + x15 + x124 <= 1
C1318: + x6 + x285 <= 1
C1319: + x1 + x126 <= 1
C1320: + x10 + x135 <= 1
C1321: + x241 + x488 <= 1
C1322: + x294 + x356 <= 1
C1323: + x6 + x448 <= 1
C1324: + x37 + x457 <= 1
C1325: + x30 + x298 <= 1
C1326: + x10 + x24 <= 1
C1327: + x21 + x232 <= 1
C1328: + x114 + x249 <= 1
C1329: + x170 + x191 <= 1
C1330: + x52 + x429 <= 1
C1331: + x179 + x285 <= 1
C1332: + x53 + x148 <= 1
C1333: + x49 + x148 <= 1
C1334: + x20 + x75 <= 1
C1335: + x30 + x475 <= 1
C1336: + x51 + x53 <= 1
C1337: + x21 + x69 <= 1
C1338: + x345 + x437 <= 1
C1339: + x16 + x429 <= 1
C1340: + x13 + x14 + x80 <= 1
C1341: + x274 + x468 <= 1
C1342: + x5 + x9 <= 1
C1343: + x8 + x110 <= 1
C1344: + x92 + x122 <= 1
C1345: + x21 + x44 <= 1
C1346: + x26 + x33 <= 1
C1347: + x155 + x396 <= 1
C1348: + x357 + x409 <= 1
C1349: + x105 + x434 <= 1
C1350: + x350 + x410 <= 1
C1351: + x7 + x176 <= 1
C1352: + x8 + x312 <= 1
C1353: + x36 + x389 <= 1
C1354: + x37 + x353 <= 1
C1355: + x40 + x79 <= 1
C1356: + x169 + x228 <= 1
C1357: + x71 + x350 <= 1
C1358: + x8 + x34 <= 1
C1359: + x83 + x136 <= 1
C1360: + x86 + x139 <= 1
C1361: + x177 + x278 <= 1
C1362: + x14 + x41 <= 1
C1363: + x87 + x190 <= 1
C1364: + x169 + x371 <= 1
C1365: + x236 + x432 <= 1
C1366: + x133 + x324 <= 1
C1367: + x28 + x99 <= 1
C1368: + x40 + x131 <= 1
C1369: + x24 + x116 <= 1
C1370: + x139 + x261 <= 1
C1371: + x12 + x31 <= 1
C1372: + x191 + x408 <= 1
C1373: + x10 + x106 <= 1
C1374: + x2 + x5 <= 1
C1375: + x94 + x204 <= 1
C1376: + x55 + x454 <= 1
C1377: + x14 + x29 <= 1
C1378: + x99 + x247 <= 1
C1379: + x18 + x218 <= 1
C1380: + x11 + x219 <= 1
C1381: + x33 + x292 <= 1
C1382: + x40 + x318 <= 1
C1383: + x58 + x286 <= 1
C1384: + x6 + x17 <= 1
C1385: + x165 + x240 <= 1
C1386: + x270 + x412 <= 1
C1387: + x236 + x280 <= 1
C1388: + x30 + x46 <= 1
C1389: + x61 + x174 <= 1
C1390: + x216 + x220 <= 1
C1391: + x10 + x276 <= 1
C1392: + x177 + x269 <= 1
C1393: + x77 + x201 <= 1
C1394: + x14 + x34 <= 1
C1395: + x7 + x296 <= 1
C1396: + x111 + x134 <= 1
C1397: + x23 + x210 <= 1
C1398: + x43 + x167 <= 1
C1399: + x133 + x496 <= 1
C1400: + x1 + x392 <= 1
C1401: + x59 + x329 <= 1
C1402: + x271 + x374 <= 1
C1403: + x109 + x428 <= 1
C1404: + x11 + x97 <= 1
C1405: + x136 + x268 <= 1
C1406: + x95 + x211 <= 1
C1407: + x25 + x427 <= 1
C1408: + x99 + x315 <= 1
C1409: + x7 + x340 <= 1
C1410: + x74 + x398 <= 1
C1411: + x113 + x209 <= 1
C1412: + x234 + x450 <= 1
C1413: + x6 + x487 <= 1
C1414: + x112 + x395 <= 1
C1415: + x30 + x481 <= 1
C1416: + x6 + x26 <= 1
C1417: + x343 + x421 <= 1
C1418: + x2 + x42 <= 1
C1419: + x37 + x407 <= 1
C1420: + x233 + x349 <= 1
C1421: + x148 + x278 <= 1
C1422: + x85 + x273 <= 1
C1423: + x30 + x39 <= 1
C1424: + x104 + x431 <= 1
C1425: + x6 + x427 <= 1
C1426: + x10 + x277 <= 1
C1427: + x14 + x91 <= 1
C1428: + x218 + x456 <= 1
C1429: + x221 + x496 <= 1
C1430: + x68 + x458 <= 1
C1431: + x49 + x185 <= 1
C1432: + x12 + x13 <= 1
C1433: + x59 + x340 <= 1
C1434: + x31 + x462 <= 1
C1435: + x6 + x95 <= 1
C1436: + x120 + x486 <= 1
C1437: + x11 + x108 <= 1
C1438: + x5 + x230 <= 1
C1439: + x6 + x242 <= 1
C1440: + x24 + x247 <= 1
C1441: + x15 + x165 <= 1
C1442: + x126 + x266 <= 1
C1443: + x1 + x14 <= 1
C1444: + x235 + x462 <= 1
C1445: + x332 + x440 <= 1
C1446: + x34 + x233 <= 1
C1447: + x61 + x112 <= 1
C1448: + x43 + x214 <= 1
C1449: + x200 + x320 <= 1
C1450: + x37 + x100 <= 1
C1451: + x151 + x275 <= 1
C1452: + x136 + x203 <= 1
C1453: + x131 + x249 <= 1
C1454: + x230 + x247 <= 1
C1455: + x207 + x280 <= 1
C1456: + x19 + x107 <= 1
C1457: + x136 + x309 <= 1
C1458: + x66 + x355 <= 1
C1459: + x30 + x157 <= 1
C1460: + x21 + x184 <= 1
C1461: + x10 + x163 <= 1
C1462: + x75 + x497 <= 1
C1463: + x7 + x36 <= 1
C1464: + x27 + x384 <= 1
C1465: + x93 + x304 <= 1
C1466: + x265 + x425 <= 1
C1467: + x402 + x441 <= 1
C1468: + x109 + x216 <= 1
C1469: + x100 + x251 <= 1
C1470: + x111 + x152 <= 1
C1471: + x246 + x328 <= 1
C1472: + x121 + x342 <= 1
C1473: + x4 + x70 <= 1
C1474: + x23 + x228 <= 1
C1475: + x326 + x448 <= 1
C1476: + x72 + x129 <= 1
C1477: + x314 + x390 <= 1
C1478: + x324 + x331 <= 1
C1479: + x53 + x277 <= 1
C1480: + x8 + x82 <= 1
C1481: + x120 + x205 <= 1
C1482: + x11 + x248 <= 1
C1483: + x30 + x229 <= 1
C1484: + x20 + x216 <= 1
C1485: + x21 + x208 <= 1
C1486: + x227 + x347 <= 1
C1487: + x95 + x112 <= 1
C1488: + x6 + x12 <= 1
C1489: + x10 + x438 <= 1
C1490: + x1 + x180 <= 1
C1491: + x11 + x71 <= 1
C1492: + x156 + x250 <= 1
C1493: + x42 + x413 <= 1
C1494: + x5 + x17 <= 1
C1495: + x6 + x175 <= 1
C1496: + x117 + x318 <= 1
C1497: + x6 + x378 <= 1
C1498: + x1 + x81 <= 1
C1499: + x10 + x172 <= 1
C1500: + x17 + x20 <= 1
C1501: + x7 + x27 <= 1
C1502: + x37 + x492 <= 1
C1503: + x70 + x293 <= 1
C1504: + x6 + x64 <= 1
C1505: + x19 + x26 <= 1
C1506: + x210 + x413 <= 1
C1507: + x52 + x402 <= 1
C1508: + x150 + x483 <= 1
C1509: + x45 + x180 <= 1
C1510: + x22 + x267 <= 1
C1511: + x43 + x53 <= 1
C1512: + x55 + x125 <= 1
C1513: + x47 + x259 <= 1
C1514: + x77 + x170 <= 1
C1515: + x370 + x434 <= 1
C1516: + x224 + x299 <= 1
C1517: + x153 + x245 <= 1
C1518: + x36 + x112 <= 1
C1519: + x18 + x198 <= 1
C1520: + x41 + x99 <= 1
C1521: + x9 + x76 <= 1
C1522: + x1 + x441 <= 1
C1523: + x65 + x121 <= 1
C1524: + x62 + x277 <= 1
C1525: + x7 + x482 <= 1
C1526: + x6 + x117 <= 1
C1527: + x90 + x97 <= 1
C1528: + x19 + x93 <= 1
C1529: + x274 + x493 <= 1
C1530: + x5 + x32 <= 1
C1531: + x316 + x349 <= 1
C1532: + x1 + x88 <= 1
C1533: + x166 + x383 <= 1
C1534: + x23 + x440 <= 1
C1535: + x10 + x272 <= 1
C1536: + x8 + x418 <= 1
C1537: + x72 + x226 <= 1
C1538: + x37 + x70 <= 1
C1539: + x113 + x420 <= 1
C1540: + x13 + x378 <= 1
C1541: + x36 + x406 <= 1
C1542: + x109 + x198 <= 1
C1543: + x62 + x76 <= 1
C1544: + x111 + x162 <= 1
C1545: + x10 + x62 <= 1
C1546: + x116 + x270 <= 1
C1547: + x142 + x447 <= 1
C1548: + x196 + x358 <= 1
C1549: + x15 + x29 <= 1
C1550: + x17 + x455 <= 1
C1551: + x327 + x339 <= 1
C1552: + x19 + x471 <= 1
C1553: + x6 + x74 <= 1
C1554: + x7 + x74 <= 1
C1555: + x31 + x68 <= 1
C1556: + x5 + x211 <= 1
C1557: + x163 + x204 <= 1
C1558: + x8 + x72 <= 1
C1559: + x94 + x332 <= 1
C1560: + x149 + x350 <= 1
C1561: + x207 + x208 <= 1
C1562: + x164 + x391 <= 1
C1563: + x475 + x491 <= 1
C1564: + x66 + x104 <= 1
C1565: + x315 + x340 <= 1
C1566: + x9 + x304 <= 1
C1567: + x203 + x454 <= 1
C1568: + x42 + x399 <= 1
C1569: + x126 + x361 <= 1
C1570: + x25 + x339 <= 1
C1571: + x317 + x350 <= 1
C1572: + x1 + x47 <= 1
C1573: + x183 + x274 <= 1
C1574: + x227 + x480 <= 1
C1575: + x13 + x71 <= 1
C1576: + x104 + x467 <= 1
C1577: + x6 + x399 <= 1
C1578: + x49 + x214 <= 1
C1579: + x40 + x498 <= 1
C1580: + x35 + x281 <= 1
C1581: + x127 + x474 <= 1
C1582: + x1 + x361 <= 1
C1583: + x19 + x447 <= 1
C1584: + x242 + x272 <= 1
C1585: + x104 + x149 <= 1
C1586: + x7 + x424 <= 1
C1587: + x1 + x123 <= 1
C1588: + x305 + x490 <= 1
C1589: + x9 + x491 <= 1
C1590: + x14 + x51 <= 1
C1591: + x146 + x379 <= 1
C1592: + x11 + x225 <= 1
C1593: + x40 + x137 <= 1
C1594: + x5 + x127 <= 1
C1595: + x59 + x245 <= 1
C1596: + x44 + x361 <= 1
C1597: + x8 + x113 <= 1
C1598: + x63 + x288 <= 1
C1599: + x22 + x167 <= 1
C1600: + x143 + x152 <= 1
C1601: + x330 + x397 <= 1
C1602: + x197 + x477 <= 1
C1603: + x35 + x276 <= 1
C1604: + x6 + x43 <= 1
C1605: + x129 + x410 <= 1
C1606: + x94 + x138 <= 1
C1607: + x113 + x319 <= 1
C1608: + x40 + x78 <= 1
C1609: + x23 + x144 <= 1
C1610: + x77 + x328 <= 1
C1611: + x66 + x411 <= 1
C1612: + x233 + x364 <= 1
C1613: + x8 + x37 <= 1
C1614: + x1 + x114 <= 1
C1615: + x213 + x317 <= 1
C1616: + x164 + x296 <= 1
C1617: + x42 + x461 <= 1
C1618: + x13 + x164 <= 1
C1619: + x7 + x229 <= 1
C1620: + x355 + x465 <= 1
C1621: + x10 + x28 <= 1
C1622: + x202 + x367 <= 1
C1623: + x47 + x113 <= 1
C1624: + x30 + x201 <= 1
C1625: + x78 + x388 <= 1
C1626: + x66 + x114 <= 1
C1627: + x137 + x147 <= 1
C1628: + x8 + x203 <= 1
C1629: + x192 + x373 <= 1
C1630: + x30 + x378 <= 1
C1631: + x53 + x466 <= 1
C1632: + x6 + x131 <= 1
C1633: + x10 + x200 <= 1
C1634: + x135 + x303 <= 1
C1635: + x66 + x483 <= 1
C1636: + x53 + x164 <= 1
C1637: + x62 + x244 <= 1
C1638: + x262 + x332 <= 1
C1639: + x46 + x90 <= 1
C1640: + x66 + x142 <= 1
C1641: + x6 + x20 <= 1
C1642: + x1 + x359 <= 1
C1643: + x8 + x255 <= 1
C1644: + x11 + x175 <= 1
C1645: + x242 + x314 <= 1
C1646: + x370 + x461 <= 1
C1647: + x30 + x142 <= 1
C1648: + x13 + x204 <= 1
C1649: + x32 + x186 <= 1
C1650: + x7 + x402 <= 1
C1651: + x14 + x212 <= 1
C1652: + x84 + x405 <= 1
C1653: + x16 + x79 <= 1
C1654: + x30 + x81 <= 1
C1655: + x37 + x194 <= 1
C1656: + x20 + x140 <= 1
C1657: + x165 + x322 <= 1
C1658: + x7 + x51 <= 1
C1659: + x11 + x485 <= 1
C1660: + x188 + x435 <= 1
C1661: + x7 + x224 <= 1
C1662: + x170 + x172 <= 1
C1663: + x6 + x310 <= 1
C1664: + x16 + x19 <= 1
C1665: + x1 + x389 <= 1
C1666: + x479 + x497 <= 1
C1667: + x173 + x401 <= 1
C1668: + x47 + x213 <= 1
C1669: + x6 + x105 <= 1
C1670: + x15 + x62 <= 1
C1671: + x1 + x290 <= 1
C1672: + x1 + x151 <= 1
C1673: + x291 + x369 <= 1
C1674: + x67 + x71 <= 1
C1675: + x358 + x395 <= 1
C1676: + x33 + x475 <= 1
C1677: + x15 + x223 <= 1
C1678: + x162 + x248 <= 1
C1679: + x126 + x372 <= 1
C1680: + x207 + x415 <= 1
C1681: + x24 + x253 <= 1
C1682: + x94 + x363 <= 1
C1683: + x135 + x195 <= 1
C1684: + x130 + x253 <= 1
C1685: + x208 + x390 <= 1
C1686: + x105 + x218 <= 1
C1687: + x117 + x154 <= 1
C1688: + x9 + x35 <= 1
C1689: + x102 + x332 <= 1
C1690: + x142 + x262 <= 1
C1691: + x9 + x416 <= 1
C1692: + x8 + x442 <= 1
C1693: + x11 + x57 <= 1
C1694: + x14 + x94 <= 1
C1695: + x36 + x49 <= 1
C1696: + x163 + x291 <= 1
C1697: + x4 + x92 <= 1
C1698: + x43 + x163 <= 1
C1699: + x25 + x245 <= 1
C1700: + x9 + x111 <= 1
C1701: + x63 + x162 <= 1
C1702: + x37 + x189 <= 1
C1703: + x47 + x224 <= 1
C1704: + x30 + x425 <= 1
C1705: + x66 + x239 <= 1
C1706: + x102 + x403 <= 1
C1707: + x129 + x238 <= 1
C1708: + x112 + x290 <= 1
C1709: + x14 + x18 <= 1
C1710: + x53 + x424 <= 1
C1711: + x35 + x119 <= 1
C1712: + x109 + x146 <= 1
C1713: + x1 + x11 <= 1
C1714: + x23 + x69 <= 1
C1715: + x53 + x178 <= 1
C1716: + x46 + x76 <= 1
C1717: + x20 + x41 <= 1
C1718: + x67 + x241 <= 1
C1719: + x293 + x318 <= 1
C1720: + x94 + x391 <= 1
C1721: + x148 + x425 <= 1
C1722: + x5 + x138 <= 1
C1723: + x424 + x496 <= 1
C1724: + x1 + x186 <= 1
C1725: + x11 + x81 <= 1
C1726: + x21 + x181 <= 1
C1727: + x42 + x407 <= 1
C1728: + x69 + x274 <= 1
C1729: + x146 + x470 <= 1
C1730: + x2 + x329 <= 1
C1731: + x155 + x430 <= 1
C1732: + x129 + x169 <= 1
C1733: + x3 + x69 <= 1
C1734: + x30 + x305 <= 1
C1735: + x10 + x15 <= 1
C1736: + x103 + x222 <= 1
C1737: + x49 + x480 <= 1
C1738: + x5 + x83 <= 1
C1739: + x25 + x252 <= 1
C1740: + x53 + x117 <= 1
C1741: + x18 + x63 <= 1
C1742: + x36 + x149 <= 1
C1743: + x24 + x158 <= 1
C1744: + x9 + x22 <= 1
C1745: + x43 + x337 <= 1
C1746: + x5 + x432 <= 1
C1747: + x302 + x348 <= 1
C1748: + x96 + x270 <= 1
C1749: + x6 + x91 <= 1
C1750: + x36 + x372 <= 1
C1751: + x121 + x450 <= 1
C1752: + x103 + x173 <= 1
C1753: + x195 + x390 <= 1
C1754: + x132 + x338 <= 1
C1755: + x34 + x479 <= 1
C1756: + x65 + x450 <= 1
C1757: + x31 + x144 <= 1
C1758: + x96 + x403 <= 1
C1759: + x7 + x492 <= 1
C1760: + x11 + x430 <= 1
C1761: + x21 + x479 <= 1
C1762: + x8 + x9 <= 1
C1763: + x12 + x78 <= 1
C1764: + x187 + x208 <= 1
C1765: + x314 + x446 <= 1
C1766: + x316 + x418 <= 1
C1767: + x43 + x423 <= 1
C1768: + x32 + x38 <= 1
C1769: + x9 + x363 <= 1
C1770: + x1 + x205 <= 1
C1771: + x45 + x177 <= 1
C1772: + x80 + x298 <= 1
C1773: + x6 + x68 <= 1
C1774: + x269 + x449 <= 1
C1775: + x11 + x244 <= 1
C1776: + x293 + x463 <= 1
C1777: + x150 + x426 <= 1
C1778: + x53 + x136 <= 1
C1779: + x208 + x254 <= 1
C1780: + x18 + x100 <= 1
C1781: + x11 + x341 <= 1
C1782: + x25 + x44 <= 1
C1783: + x15 + x35 <= 1
C1784: + x163 + x380 <= 1
C1785: + x43 + x126 <= 1
C1786: + x7 + x144 <= 1
C1787: + x45 + x394 <= 1
C1788: + x8 + x227 <= 1
C1789: + x212 + x393 <= 1
C1790: + x370 + x489 <= 1
C1791: + x29 + x139 <= 1
C1792: + x161 + x499 <= 1
C1793: + x24 + x35 <= 1
C1794: + x7 + x31 <= 1
C1795: + x62 + x236 <= 1
C1796: + x6 + x409 <= 1
C1797: + x77 + x242 <= 1
C1798: + x33 + x43 <= 1
C1799: + x278 + x337 <= 1
C1800: + x154 + x278 <= 1
C1801: + x92 + x131 <= 1
C1802: + x164 + x251 <= 1
C1803: + x222 + x486 <= 1
C1804: + x8 + x54 <= 1
C1805: + x12 + x63 <= 1
C1806: + x59 + x155 <= 1
C1807: + x5 + x307 <= 1
C1808: + x15 + x26 <= 1
C1809: + x53 + x288 <= 1
C1810: + x35 + x374 <= 1
C1811: + x66 + x242 <= 1
C1812: + x11 + x26 <= 1
C1813: + x77 + x166 <= 1
C1814: + x32 + x87 <= 1
C1815: + x89 + x196 <= 1
C1816: + x11 + x251 <= 1
C1817: + x41 + x103 <= 1
C1818: + x387 + x476 <= 1
C1819: + x34 + x255 <= 1
C1820: + x17 + x83 <= 1
C1821: + x20 + x64 <= 1
C1822: + x40 + x385 <= 1
C1823: + x198 + x433 <= 1
C1824: + x144 + x324 <= 1
C1825: + x10 + x118 <= 1
C1826: + x4 + x140 <= 1
C1827: + x162 + x275 <= 1
C1828: + x7 + x373 <= 1
C1829: + x37 + x237 <= 1
C1830: + x304 + x467 <= 1
C1831: + x31 + x383 <= 1
C1832: + x40 + x274 <= 1
C1833: + x36 + x315 <= 1
C1834: + x7 + x18 <= 1
C1835: + x80 + x143 <= 1
C1836: + x30 + x284 <= 1
C1837: + x423 + x453 <= 1
C1838: + x26 + x497 <= 1
C1839: + x7 + x179 <= 1
C1840: + x10 + x34 <= 1
C1841: + x260 + x267 <= 1
C1842: + x24 + x169 <= 1
C1843: + x237 + x436 <= 1
C1844: + x37 + x209 <= 1
C1845: + x247 + x495 <= 1
C1846: + x49 + x162 <= 1
C1847: + x25 + x110 <= 1
C1848: + x44 + x188 <= 1
C1849: + x6 + x438 <= 1
C1850: + x137 + x189 <= 1
C1851: + x77 + x221 <= 1
C1852: + x14 + x54 <= 1
C1853: + x79 + x126 <= 1
C1854: + x1 + x23 <= 1
C1855: + x55 + x346 <= 1
C1856: + x46 + x269 <= 1
C1857: + x98 + x312 <= 1
C1858: + x24 + x125 <= 1
C1859: + x62 + x298 <= 1
C1860: + x14 + x292 <= 1
C1861: + x47 + x200 <= 1
C1862: + x112 + x427 <= 1
C1863: + x52 + x185 <= 1
C1864: + x88 + x132 <= 1
C1865: + x53 + x299 <= 1
C1866: + x61 + x214 <= 1
C1867: + x1 + x134 <= 1
C1868: + x55 + x457 <= 1
C1869: + x258 + x424 <= 1
C1870: + x33 + x458 <= 1
C1871: + x6 + x344 <= 1
C1872: + x143 + x145 <= 1
C1873: + x7 + x9 <= 1
C1874: + x29 + x62 <= 1
C1875: + x47 + x148 <= 1
C1876: + x79 + x185 <= 1
C1877: + x15 + x121 <= 1
C1878: + x65 + x173 <= 1
C1879: + x347 + x483 <= 1
C1880: + x39 + x67 <= 1
C1881: + x5 + x55 <= 1
C1882: + x289 + x421 <= 1
C1883: + x1 + x127 <= 1
C1884: + x6 + x284 <= 1
C1885: + x190 + x239 <= 1
C1886: + x154 + x387 <= 1
C1887: + x87 + x351 <= 1
C1888: + x6 + x447 <= 1
C1889: + x17 + x50 <= 1
C1890: + x54 + x85 <= 1
C1891: + x66 + x311 <= 1
C1892: + x25 + x402 <= 1
C1893: + x15 + x133 <= 1
C1894: + x7 + x226 <= 1
C1895: + x16 + x246 <= 1
C1896: + x28 + x109 <= 1
C1897: + x300 + x317 <= 1
C1898: + x40 + x133 <= 1
C1899: + x26 + x28 <= 1
C1900: + x72 + x160 <= 1
C1901: + x47 + x207 <= 1
C1902: + x5 + x341 <= 1
C1903: + x262 + x318 <= 1
C1904: + x8 + x202 <= 1
C1905: + x113 + x327 <= 1
C1906: + x5 + x10 <= 1
C1907: + x7 + x359 <= 1
C1908: + x1 + x58 <= 1
C1909: + x59 + x311 <= 1
C1910: + x13 + x122 <= 1
C1911: + x33 + x302 <= 1
C1912: + x60 + x84 <= 1
C1913: + x8 + x404 <= 1
C1914: + x61 + x289 <= 1
C1915: + x120 + x153 <= 1
C1916: + x66 + x415 <= 1
C1917: + x23 + x132 <= 1
C1918: + x52 + x96 <= 1
C1919: + x25 + x362 <= 1
C1920: + x18 + x20 <= 1
C1921: + x36 + x186 <= 1
C1922: + x200 + x225 <= 1
C1923: + x228 + x397 <= 1
C1924: + x49 + x96 <= 1
C1925: + x230 + x401 <= 1
C1926: + x50 + x235 <= 1
C1927: + x84 + x367 <= 1
C1928: + x89 + x217 <= 1
C1929: + x52 + x282 <= 1
C1930: + x126 + x291 <= 1
C1931: + x30 + x197 <= 1
C1932: + x5 + x98 <= 1
C1933: + x371 + x396 <= 1
C1934: + x8 + x469 <= 1
C1935: + x66 + x118 <= 1
C1936: + x106 + x129 + x161 <= 1
C1937: + x267 + x364 <= 1
C1938: + x349 + x466 <= 1
C1939: + x7 + x108 <= 1
C1940: + x122 + x295 <= 1
C1941: + x104 + x211 <= 1
C1942: + x5 + x241 <= 1
C1943: + x6 + x143 <= 1
C1944: + x24 + x309 <= 1
C1945: + x108 + x280 <= 1
C1946: + x18 + x217 <= 1
C1947: + x11 + x220 <= 1
C1948: + x67 + x493 <= 1
C1949: + x236 + x475 <= 1
C1950: + x4 + x30 <= 1
C1951: + x13 + x446 <= 1
C1952: + x19 + x268 <= 1
C1953: + x94 + x124 <= 1

binary
x1 x2 x3 x4 x5 x6 x7 x8 x9 x10 x11 x12 x13 x14 x15 x16 x17 x18 x19 x20 x21 x22 x23 x24 x25 x26 x27 x28 x29 x30 x31 x32 x33 x34 x35 x36 x37 x38 x39 x40 x41 x42 x43 x44 x45 x46 x47 x48 x49 x50 x51 x52 x53 x54 x55 x56 x57 x58 x59 x60 x61 x62 x63 x64 x65 x66 x67 x68 x69 x70 x71 x72 x73 x74 x75 x76 x77 x78 x79 x80 x81 x82 x83 x84 x85 x86 x87 x88 x89 x90 x91 x92 x93 x94 x95 x96 x97 x98 x99 x100 x101 x102 x103 x104 x105 x106 x107 x108 x109 x110 x111 x112 x113 x114 x115 x116 x117 x118 x119 x120 x121 x122 x123 x124 x125 x126 x127 x128 x129 x130 x131 x132 x133 x134 x135 x136 x137 x138 x139 x140 x141 x142 x143 x144 x145 x146 x147 x148 x149 x150 x151 x152 x153 x154 x155 x156 x157 x158 x159 x160 x161 x162 x163 x164 x165 x166 x167 x168 x169 x170 x171 x172 x173 x174 x175 x176 x177 x178 x179 x180 x181 x182 x183 x184 x185 x186 x187 x188 x189 x190 x191 x192 x193 x194 x195 x196 x197 x198 x199 x200 x201 x202 x203 x204 x205 x206 x207 x208 x209 x210 x211 x212 x213 x214 x215 x216 x217 x218 x219 x220 x221 x222 x223 x224 x225 x226 x227 x228 x229 x230 x231 x232 x233 x234 x235 x236 x237 x238 x239 x240 x241 x242 x243 x244 x245 x246 x247 x248 x249 x250 x251 x252 x253 x254 x255 x256 x257 x258 x259 x260 x261 x262 x263 x264 x265 x266 x267 x268 x269 x270 x271 x272 x273 x274 x275 x276 x277 x278 x279 x280 x281 x282 x283 x284 x285 x286 x287 x288 x289 x290 x291 x292 x293 x294 x295 x296 x297 x298 x299 x300 x301 x302 x303 x304 x305 x306 x307 x308 x309 x310 x311 x312 x313 x314 x315 x316 x317 x318 x319 x320 x321 x322 x323 x324 x325 x326 x327 x328 x329 x330 x331 x332 x333 x334 x335 x336 x337 x338 x339 x340 x341 x342 x343 x344 x345 x346 x347 x348 x349 x350 x351 x352 x353 x354 x355 x356 x357 x358 x359 x360 x361 x362 x363 x364 x365 x366 x367 x368 x369 x370 x371 x372 x373 x374 x375 x376 x377 x378 x379 x380 x381 x382 x383 x384 x385 x386 x387 x388 x389 x390 x391 x392 x393 x394 x395 x396 x397 x398 x399 x400 x401 x402 x403 x404 x405 x406 x407 x408 x409 x410 x411 x412 x413 x414 x415 x416 x417 x418 x419 x420 x421 x422 x423 x424 x425 x426 x427 x428 x429 x430 x431 x432 x433 x434 x435 x436 x437 x438 x439 x440 x441 x442 x443 x444 x445 x446 x447 x448 x449 x450 x451 x452 x453 x454 x455 x456 x457 x458 x459 x460 x461 x462 x463 x464 x465 x466 x467 x468 x469 x470 x471 x472 x473 x474 x475 x476 x477 x478 x479 x480 x481 x482 x483 x484 x485 x486 x487 x488 x489 x490 x491 x492 x493 x494 x495 x496 x497 x498 x499 x500
