maximize
OBJ: + 1 x1 + 1 x2 + 1 x3 + 1 x4 + 1 x5 + 1 x6 + 1 x7 + 1 x8 + 1 x9 + 1 x10 + 1 x11 + 1 x12 + 1 x13 + 1 x14 + 1 x15 + 1 x16 + 1 x17 + 1 x18 + 1 x19 + 1 x20 + 1 x21 + 1 x22 + 1 x23 + 1 x24 + 1 x25 + 1 x26 + 1 x27 + 1 x28 + 1 x29 + 1 x30 + 1 x31 + 1 x32 + 1 x33 + 1 x34 + 1 x35 + 1 x36 + 1 x37 + 1 x38 + 1 x39 + 1 x40 + 1 x41 + 1 x42 + 1 x43 + 1 x44 + 1 x45 + 1 x46 + 1 x47 + 1 x48 + 1 x49 + 1 x50 + 1 x51 + 1 x52 + 1 x53 + 1 x54 + 1 x55 + 1 x56 + 1 x57 + 1 x58 + 1 x59 + 1 x60 + 1 x61 + 1 x62 + 1 x63 + 1 x64 + 1 x65 + 1 x66 + 1 x67 + 1 x68 + 1 x69 + 1 x70 + 1 x71 + 1 x72 + 1 x73 + 1 x74 + 1 x75 + 1 x76 + 1 x77 + 1 x78 + 1 x79 + 1 x80 + 1 x81 + 1 x82 + 1 x83 + 1 x84 + 1 x85 + 1 x86 + 1 x87 + 1 x88 + 1 x89 + 1 x90 + 1 x91 + 1 x92 + 1 x93 + 1 x94 + 1 x95 + 1 x96 + 1 x97 + 1 x98 + 1 x99 + 1 x100 + 1 x101 + 1 x102 + 1 x103 + 1 x104 + 1 x105 + 1 x106 + 1 x107 + 1 x108 + 1 x109 + 1 x110 + 1 x111 + 1 x112 + 1 x113 + 1 x114 + 1 x115 + 1 x116 + 1 x117 + 1 x118 + 1 x119 + 1 x120 + 1 x121 + 1 x122 + 1 x123 + 1 x124 + 1 x125 + 1 x126 + 1 x127 + 1 x128 + 1 x129 + 1 x130 + 1 x131 + 1 x132 + 1 x133 + 1 x134 + 1 x135 + 1 x136 + 1 x137 + 1 x138 + 1 x139 + 1 x140 + 1 x141 + 1 x142 + 1 x143 + 1 x144 + 1 x145 + 1 x146 + 1 x147 + 1 x148 + 1 x149 + 1 x150 + 1 x151 + 1 x152 + 1 x153 + 1 x154 + 1 x155 + 1 x156 + 1 x157 + 1 x158 + 1 x159 + 1 x160 + 1 x161 + 1 x162 + 1 x163 + 1 x164 + 1 x165 + 1 x166 + 1 x167 + 1 x168 + 1 x169 + 1 x170 + 1 x171 + 1 x172 + 1 x173 + 1 x174 + 1 x175 + 1 x176 + 1 x177 + 1 x178 + 1 x179 + 1 x180 + 1 x181 + 1 x182 + 1 x183 + 1 x184 + 1 x185 + 1 x186 + 1 x187 + 1 x188 + 1 x189 + 1 x190 + 1 x191 + 1 x192 + 1 x193 + 1 x194 + 1 x195 + 1 x196 + 1 x197 + 1 x198 + 1 x199 + 1 x200 + 1 x201 + 1 x202 + 1 x203 + 1 x204 + 1 x205 + 1 x206 + 1 x207 + 1 x208 + 1 x209 + 1 x210 + 1 x211 + 1 x212 + 1 x213 + 1 x214 + 1 x215 + 1 x216 + 1 x217 + 1 x218 + 1 x219 + 1 x220 + 1 x221 + 1 x222 + 1 x223 + 1 x224 + 1 x225 + 1 x226 + 1 x227 + 1 x228 + 1 x229 + 1 x230 + 1 x231 + 1 x232 + 1 x233 + 1 x234 + 1 x235 + 1 x236 + 1 x237 + 1 x238 + 1 x239 + 1 x240 + 1 x241 + 1 x242 + 1 x243 + 1 x244 + 1 x245 + 1 x246 + 1 x247 + 1 x248 + 1 x249 + 1 x250 + 1 x251 + 1 x252 + 1 x253 + 1 x254 + 1 x255 + 1 x256 + 1 x257 + 1 x258 + 1 x259 + 1 x260 + 1 x261 + 1 x262 + 1 x263 + 1 x264 + 1 x265 + 1 x266 + 1 x267 + 1 x268 + 1 x269 + 1 x270 + 1 x271 + 1 x272 + 1 x273 + 1 x274 + 1 x275 + 1 x276 + 1 x277 + 1 x278 + 1 x279 + 1 x280 + 1 x281 + 1 x282 + 1 x283 + 1 x284 + 1 x285 + 1 x286 + 1 x287 + 1 x288 + 1 x289 + 1 x290 + 1 x291 + 1 x292 + 1 x293 + 1 x294 + 1 x295 + 1 x296 + 1 x297 + 1 x298 + 1 x299 + 1 x300 + 1 x301 + 1 x302 + 1 x303 + 1 x304 + 1 x305 + 1 x306 + 1 x307 + 1 x308 + 1 x309 + 1 x310 + 1 x311 + 1 x312 + 1 x313 + 1 x314 + 1 x315 + 1 x316 + 1 x317 + 1 x318 + 1 x319 + 1 x320 + 1 x321 + 1 x322 + 1 x323 + 1 x324 + 1 x325 + 1 x326 + 1 x327 + 1 x328 + 1 x329 + 1 x330 + 1 x331 + 1 x332 + 1 x333 + 1 x334 + 1 x335 + 1 x336 + 1 x337 + 1 x338 + 1 x339 + 1 x340 + 1 x341 + 1 x342 + 1 x343 + 1 x344 + 1 x345 + 1 x346 + 1 x347 + 1 x348 + 1 x349 + 1 x350 + 1 x351 + 1 x352 + 1 x353 + 1 x354 + 1 x355 + 1 x356 + 1 x357 + 1 x358 + 1 x359 + 1 x360 + 1 x361 + 1 x362 + 1 x363 + 1 x364 + 1 x365 + 1 x366 + 1 x367 + 1 x368 + 1 x369 + 1 x370 + 1 x371 + 1 x372 + 1 x373 + 1 x374 + 1 x375 + 1 x376 + 1 x377 + 1 x378 + 1 x379 + 1 x380 + 1 x381 + 1 x382 + 1 x383 + 1 x384 + 1 x385 + 1 x386 + 1 x387 + 1 x388 + 1 x389 + 1 x390 + 1 x391 + 1 x392 + 1 x393 + 1 x394 + 1 x395 + 1 x396 + 1 x397 + 1 x398 + 1 x399 + 1 x400 + 1 x401 + 1 x402 + 1 x403 + 1 x404 + 1 x405 + 1 x406 + 1 x407 + 1 x408 + 1 x409 + 1 x410 + 1 x411 + 1 x412 + 1 x413 + 1 x414 + 1 x415 + 1 x416 + 1 x417 + 1 x418 + 1 x419 + 1 x420 + 1 x421 + 1 x422 + 1 x423 + 1 x424 + 1 x425 + 1 x426 + 1 x427 + 1 x428 + 1 x429 + 1 x430 + 1 x431 + 1 x432 + 1 x433 + 1 x434 + 1 x435 + 1 x436 + 1 x437 + 1 x438 + 1 x439 + 1 x440 + 1 x441 + 1 x442 + 1 x443 + 1 x444 + 1 x445 + 1 x446 + 1 x447 + 1 x448 + 1 x449 + 1 x450 + 1 x451 + 1 x452 + 1 x453 + 1 x454 + 1 x455 + 1 x456 + 1 x457 + 1 x458 + 1 x459 + 1 x460 + 1 x461 + 1 x462 + 1 x463 + 1 x464 + 1 x465 + 1 x466 + 1 x467 + 1 x468 + 1 x469 + 1 x470 + 1 x471 + 1 x472 + 1 x473 + 1 x474 + 1 x475 + 1 x476 + 1 x477 + 1 x478 + 1 x479 + 1 x480 + 1 x481 + 1 x482 + 1 x483 + 1 x484 + 1 x485 + 1 x486 + 1 x487 + 1 x488 + 1 x489 + 1 x490 + 1 x491 + 1 x492 + 1 x493 + 1 x494 + 1 x495 + 1 x496 + 1 x497 + 1 x498 + 1 x499 + 1 x500

subject to
C1: + x207 + x267 <= 1
C2: + x7 + x168 <= 1
C3: + x30 + x138 <= 1
C4: + x297 + x364 <= 1
C5: + x5 + x37 <= 1
C6: + x6 + x179 <= 1
C7: + x42 + x425 <= 1
C8: + x146 + x480 <= 1
C9: + x97 + x486 <= 1
C10: + x96 + x344 <= 1
C11: + x7 + x55 <= 1
C12: + x11 + x481 <= 1
C13: + x129 + x260 <= 1
C14: + x84 + x171 <= 1
C15: + x212 + x354 <= 1
C16: + x78 + x214 <= 1
C17: + x30 + x315 <= 1
C18: + x26 + x280 <= 1
C19: + x290 + x406 <= 1
C20: + x139 + x428 <= 1
C21: + x213 + x439 <= 1
C22: + x234 + x405 <= 1
C23: + x41 + x67 <= 1
C24: + x222 + x414 <= 1
C25: + x119 + x347 <= 1
C26: + x50 + x224 <= 1
C27: + x408 + x449 <= 1
C28: + x148 + x238 <= 1
C29: + x35 + x124 <= 1
C30: + x242 + x422 <= 1
C31: + x18 + x125 <= 1
C32: + x28 + x342 <= 1
C33: + x164 + x494 <= 1
C34: + x230 + x306 <= 1
C35: + x3 + x457 <= 1
C36: + x21 + x469 <= 1
C37: + x413 + x490 <= 1
C38: + x6 + x25 <= 1
C39: + x44 + x279 <= 1
C40: + x1 + x370 <= 1
C41: + x147 + x190 <= 1
C42: + x11 + x86 <= 1
C43: + x149 + x298 <= 1
C44: + x29 + x277 <= 1
C45: + x30 + x131 <= 1
C46: + x219 + x334 <= 1
C47: + x186 + x202 <= 1
C48: + x258 + x341 <= 1
C49: + x106 + x456 <= 1
C50: + x11 + x37 <= 1
C51: + x359 + x460 <= 1
C52: + x109 + x218 <= 1
C53: + x129 + x424 <= 1
C54: + x168 + x390 <= 1
C55: + x5 + x429 <= 1
C56: + x18 + x58 <= 1
C57: + x8 + x459 <= 1
C58: + x2 + x5 + x6 + x7 <= 1
C59: + x49 + x186 <= 1
C60: + x21 + x83 <= 1
C61: + x303 + x405 <= 1
C62: + x48 + x271 <= 1
C63: + x39 + x72 + x81 <= 1
C64: + x407 + x470 <= 1
C65: + x21 + x365 <= 1
C66: + x78 + x259 <= 1
C67: + x15 + x166 <= 1
C68: + x7 + x332 <= 1
C69: + x55 + x370 <= 1
C70: + x47 + x83 <= 1
C71: + x21 + x194 <= 1
C72: + x48 + x65 <= 1
C73: + x4 + x479 <= 1
C74: + x29 + x253 <= 1
C75: + x139 + x391 <= 1
C76: + x281 + x303 <= 1
C77: + x147 + x327 <= 1
C78: + x47 + x176 <= 1
C79: + x248 + x321 <= 1
C80: + x48 + x339 <= 1
C81: + x359 + x407 <= 1
C82: + x122 + x418 <= 1
C83: + x38 + x123 <= 1
C84: + x18 + x273 <= 1
C85: + x81 + x207 <= 1
C86: + x28 + x61 <= 1
C87: + x57 + x331 <= 1
C88: + x101 + x130 <= 1
C89: + x138 + x154 <= 1
C90: + x6 + x165 <= 1
C91: + x44 + x114 <= 1
C92: + x117 + x312 <= 1
C93: + x107 + x233 <= 1
C94: + x6 + x384 <= 1
C95: + x228 + x420 <= 1
C96: + x244 + x325 <= 1
C97: + x45 + x295 <= 1
C98: + x2 + x496 <= 1
C99: + x11 + x48 <= 1
C100: + x234 + x236 <= 1
C101: + x81 + x251 <= 1
C102: + x15 + x97 <= 1
C103: + x11 + x129 <= 1
C104: + x105 + x241 <= 1
C105: + x303 + x323 <= 1
C106: + x269 + x375 <= 1
C107: + x78 + x427 <= 1
C108: + x5 + x95 <= 1
C109: + x5 + x428 <= 1
C110: + x44 + x46 <= 1
C111: + x9 + x26 <= 1
C112: + x6 + x292 <= 1
C113: + x39 + x329 <= 1
C114: + x6 + x71 <= 1
C115: + x7 + x93 <= 1
C116: + x3 + x149 <= 1
C117: + x258 + x389 <= 1
C118: + x7 + x250 <= 1
C119: + x143 + x475 <= 1
C120: + x1 + x6 <= 1
C121: + x82 + x260 <= 1
C122: + x304 + x389 <= 1
C123: + x9 + x70 <= 1
C124: + x146 + x221 <= 1
C125: + x114 + x161 <= 1
C126: + x5 + x18 <= 1
C127: + x153 + x368 <= 1
C128: + x30 + x56 <= 1
C129: + x50 + x324 <= 1
C130: + x21 + x29 <= 1
C131: + x22 + x326 <= 1
C132: + x24 + x34 <= 1
C133: + x26 + x80 <= 1
C134: + x221 + x237 <= 1
C135: + x51 + x66 <= 1
C136: + x87 + x223 <= 1
C137: + x31 + x430 <= 1
C138: + x17 + x434 <= 1
C139: + x73 + x356 <= 1
C140: + x19 + x23 <= 1
C141: + x375 + x441 <= 1
C142: + x236 + x298 <= 1
C143: + x5 + x312 <= 1
C144: + x155 + x325 <= 1
C145: + x328 + x363 <= 1
C146: + x121 + x461 <= 1
C147: + x218 + x413 <= 1
C148: + x245 + x284 <= 1
C149: + x48 + x87 <= 1
C150: + x86 + x341 <= 1
C151: + x37 + x147 <= 1
C152: + x85 + x117 <= 1
C153: + x22 + x478 <= 1
C154: + x6 + x116 <= 1
C155: + x18 + x259 <= 1
C156: + x406 + x452 <= 1
C157: + x228 + x371 <= 1
C158: + x358 + x406 <= 1
C159: + x20 + x172 <= 1
C160: + x41 + x176 <= 1
C161: + x60 + x65 <= 1
C162: + x150 + x378 <= 1
C163: + x106 + x342 <= 1
C164: + x2 + x208 <= 1
C165: + x49 + x450 <= 1
C166: + x125 + x226 <= 1
C167: + x43 + x156 <= 1
C168: + x72 + x370 <= 1
C169: + x241 + x495 <= 1
C170: + x21 + x112 <= 1
C171: + x149 + x496 <= 1
C172: + x49 + x175 <= 1
C173: + x30 + x69 <= 1
C174: + x6 + x73 <= 1
C175: + x50 + x252 <= 1
C176: + x106 + x487 <= 1
C177: + x11 + x457 <= 1
C178: + x296 + x379 <= 1
C179: + x15 + x191 <= 1
C180: + x154 + x294 <= 1
C181: + x49 + x304 <= 1
C182: + x320 + x472 <= 1
C183: + x88 + x135 <= 1
C184: + x35 + x326 <= 1
C185: + x22 + x58 <= 1
C186: + x5 + x8 <= 1
C187: + x42 + x398 <= 1
C188: + x17 + x273 <= 1
C189: + x91 + x373 <= 1
C190: + x309 + x420 <= 1
C191: + x240 + x484 <= 1
C192: + x22 + x344 <= 1
C193: + x61 + x74 <= 1
C194: + x15 + x473 <= 1
C195: + x284 + x299 <= 1
C196: + x30 + x280 <= 1
C197: + x106 + x351 <= 1
C198: + x71 + x119 <= 1
C199: + x63 + x84 <= 1
C200: + x92 + x297 <= 1
C201: + x30 + x187 <= 1
C202: + x106 + x250 <= 1
C203: + x89 + x96 <= 1
C204: + x169 + x251 <= 1
C205: + x5 + x76 <= 1
C206: + x38 + x43 <= 1
C207: + x41 + x195 <= 1
C208: + x37 + x50 <= 1
C209: + x11 + x13 <= 1
C210: + x192 + x411 <= 1
C211: + x31 + x76 <= 1
C212: + x9 + x158 <= 1
C213: + x92 + x172 <= 1
C214: + x228 + x276 <= 1
C215: + x39 + x60 <= 1
C216: + x17 + x78 <= 1
C217: + x49 + x295 <= 1
C218: + x30 + x477 <= 1
C219: + x176 + x302 <= 1
C220: + x42 + x92 <= 1
C221: + x8 + x258 <= 1
C222: + x284 + x435 <= 1
C223: + x59 + x87 <= 1
C224: + x35 + x107 <= 1
C225: + x73 + x266 <= 1
C226: + x47 + x59 <= 1
C227: + x68 + x285 <= 1
C228: + x25 + x173 <= 1
C229: + x7 + x13 <= 1
C230: + x10 + x313 <= 1
C231: + x37 + x117 <= 1
C232: + x5 + x158 <= 1
C233: + x154 + x177 <= 1
C234: + x12 + x198 <= 1
C235: + x40 + x77 <= 1
C236: + x5 + x51 <= 1
C237: + x35 + x63 <= 1
C238: + x7 + x416 <= 1
C239: + x123 + x192 <= 1
C240: + x5 + x301 <= 1
C241: + x48 + x89 + x387 <= 1
C242: + x100 + x468 <= 1
C243: + x255 + x358 <= 1
C244: + x75 + x248 <= 1
C245: + x23 + x128 <= 1
C246: + x5 + x194 <= 1
C247: + x389 + x454 <= 1
C248: + x63 + x181 <= 1
C249: + x320 + x454 <= 1
C250: + x56 + x254 <= 1
C251: + x71 + x181 <= 1
C252: + x7 + x117 <= 1
C253: + x177 + x336 <= 1
C254: + x13 + x145 <= 1
C255: + x30 + x377 <= 1
C256: + x81 + x404 <= 1
C257: + x307 + x438 <= 1
C258: + x228 + x453 <= 1
C259: + x183 + x225 <= 1
C260: + x48 + x178 <= 1
C261: + x21 + x49 <= 1
C262: + x88 + x262 <= 1
C263: + x54 + x150 <= 1
C264: + x23 + x59 <= 1
C265: + x53 + x322 <= 1
C266: + x291 + x331 <= 1
C267: + x12 + x251 <= 1
C268: + x26 + x213 <= 1
C269: + x21 + x434 <= 1
C270: + x213 + x242 <= 1
C271: + x37 + x40 <= 1
C272: + x22 + x385 <= 1
C273: + x23 + x119 <= 1
C274: + x261 + x262 <= 1
C275: + x278 + x316 <= 1
C276: + x101 + x197 <= 1
C277: + x12 + x183 <= 1
C278: + x43 + x368 <= 1
C279: + x134 + x272 <= 1
C280: + x28 + x261 <= 1
C281: + x146 + x178 <= 1
C282: + x219 + x410 <= 1
C283: + x229 + x353 <= 1
C284: + x3 + x136 <= 1
C285: + x21 + x347 <= 1
C286: + x22 + x85 <= 1
C287: + x79 + x465 <= 1
C288: + x152 + x299 <= 1
C289: + x109 + x156 <= 1
C290: + x1 + x53 <= 1
C291: + x236 + x479 <= 1
C292: + x44 + x247 <= 1
C293: + x94 + x397 <= 1
C294: + x38 + x400 <= 1
C295: + x79 + x143 <= 1
C296: + x15 + x79 <= 1
C297: + x336 + x372 <= 1
C298: + x83 + x310 <= 1
C299: + x72 + x108 <= 1
C300: + x192 + x289 <= 1
C301: + x3 + x220 <= 1
C302: + x21 + x175 <= 1
C303: + x240 + x368 <= 1
C304: + x391 + x424 <= 1
C305: + x78 + x111 <= 1
C306: + x169 + x450 <= 1
C307: + x64 + x176 <= 1
C308: + x13 + x339 <= 1
C309: + x42 + x62 <= 1
C310: + x44 + x52 <= 1
C311: + x37 + x190 <= 1
C312: + x29 + x115 <= 1
C313: + x2 + x17 <= 1
C314: + x11 + x110 <= 1
C315: + x48 + x481 <= 1
C316: + x6 + x335 <= 1
C317: + x35 + x120 <= 1
C318: + x383 + x395 <= 1
C319: + x4 + x7 <= 1
C320: + x15 + x437 <= 1
C321: + x16 + x47 <= 1
C322: + x164 + x402 <= 1
C323: + x220 + x221 <= 1
C324: + x3 + x453 <= 1
C325: + x208 + x239 <= 1
C326: + x78 + x151 <= 1
C327: + x68 + x385 <= 1
C328: + x21 + x182 <= 1
C329: + x15 + x243 <= 1
C330: + x6 + x168 <= 1
C331: + x151 + x400 <= 1
C332: + x62 + x374 <= 1
C333: + x3 + x376 <= 1
C334: + x17 + x27 <= 1
C335: + x344 + x411 <= 1
C336: + x32 + x64 <= 1
C337: + x5 + x191 <= 1
C338: + x92 + x184 <= 1
C339: + x164 + x208 <= 1
C340: + x22 + x246 <= 1
C341: + x31 + x193 <= 1
C342: + x70 + x465 <= 1
C343: + x324 + x430 <= 1
C344: + x63 + x170 <= 1
C345: + x72 + x135 <= 1
C346: + x30 + x118 <= 1
C347: + x303 + x409 <= 1
C348: + x42 + x184 <= 1
C349: + x88 + x164 <= 1
C350: + x9 + x500 <= 1
C351: + x256 + x345 <= 1
C352: + x86 + x236 <= 1
C353: + x22 + x103 <= 1
C354: + x45 + x74 <= 1
C355: + x80 + x102 <= 1
C356: + x84 + x95 <= 1
C357: + x265 + x336 <= 1
C358: + x135 + x273 <= 1
C359: + x13 + x99 <= 1
C360: + x487 + x499 <= 1
C361: + x36 + x196 <= 1
C362: + x245 + x439 <= 1
C363: + x3 + x9 <= 1
C364: + x186 + x281 <= 1
C365: + x34 + x79 <= 1
C366: + x9 + x320 <= 1
C367: + x6 + x161 <= 1
C368: + x253 + x321 <= 1
C369: + x26 + x373 <= 1
C370: + x27 + x40 <= 1
C371: + x28 + x224 <= 1
C372: + x6 + x380 <= 1
C373: + x84 + x427 <= 1
C374: + x40 + x216 <= 1
C375: + x25 + x85 <= 1
C376: + x42 + x48 <= 1
C377: + x32 + x37 <= 1
C378: + x22 + x412 <= 1
C379: + x188 + x473 <= 1
C380: + x28 + x77 <= 1
C381: + x31 + x204 <= 1
C382: + x43 + x150 <= 1
C383: + x298 + x428 <= 1
C384: + x198 + x240 <= 1
C385: + x111 + x374 <= 1
C386: + x43 + x55 <= 1
C387: + x189 + x442 <= 1
C388: + x3 + x145 <= 1
C389: + x59 + x118 <= 1
C390: + x67 + x81 <= 1
C391: + x5 + x234 <= 1
C392: + x34 + x471 <= 1
C393: + x30 + x256 <= 1
C394: + x25 + x144 <= 1
C395: + x420 + x445 <= 1
C396: + x152 + x252 <= 1
C397: + x101 + x181 <= 1
C398: + x84 + x213 <= 1
C399: + x2 + x63 <= 1
C400: + x6 + x170 <= 1
C401: + x53 + x56 <= 1
C402: + x16 + x174 <= 1
C403: + x79 + x498 <= 1
C404: + x21 + x25 <= 1
C405: + x31 + x164 <= 1
C406: + x11 + x410 <= 1
C407: + x241 + x413 <= 1
C408: + x284 + x337 <= 1
C409: + x12 + x376 <= 1
C410: + x69 + x152 <= 1
C411: + x430 + x466 <= 1
C412: + x160 + x249 <= 1
C413: + x35 + x260 <= 1
C414: + x7 + x185 <= 1
C415: + x2 + x203 <= 1
C416: + x49 + x463 <= 1
C417: + x24 + x147 <= 1
C418: + x1 + x98 <= 1
C419: + x201 + x282 <= 1
C420: + x15 + x31 <= 1
C421: + x62 + x191 <= 1
C422: + x9 + x482 <= 1
C423: + x79 + x124 <= 1
C424: + x8 + x70 <= 1
C425: + x1 + x17 <= 1
C426: + x37 + x314 <= 1
C427: + x21 + x212 <= 1
C428: + x59 + x466 <= 1
C429: + x57 + x75 <= 1
C430: + x3 + x27 <= 1
C431: + x76 + x174 <= 1
C432: + x38 + x263 <= 1
C433: + x203 + x456 <= 1
C434: + x42 + x393 <= 1
C435: + x6 + x366 <= 1
C436: + x31 + x384 <= 1
C437: + x35 + x186 <= 1
C438: + x7 + x23 <= 1
C439: + x135 + x220 <= 1
C440: + x55 + x61 <= 1
C441: + x6 + x36 <= 1
C442: + x228 + x291 <= 1
C443: + x158 + x318 <= 1
C444: + x31 + x54 <= 1
C445: + x5 + x73 <= 1
C446: + x9 + x12 <= 1
C447: + x28 + x250 <= 1
C448: + x38 + x46 <= 1
C449: + x143 + x219 <= 1
C450: + x16 + x414 <= 1
C451: + x57 + x227 <= 1
C452: + x18 + x452 <= 1
C453: + x247 + x265 <= 1
C454: + x84 + x356 <= 1
C455: + x393 + x499 <= 1
C456: + x5 + x224 <= 1
C457: + x188 + x419 <= 1
C458: + x152 + x153 <= 1
C459: + x172 + x244 <= 1
C460: + x31 + x69 <= 1
C461: + x89 + x204 <= 1
C462: + x18 + x367 <= 1
C463: + x5 + x125 <= 1
C464: + x99 + x445 <= 1
C465: + x76 + x163 <= 1
C466: + x22 + x70 <= 1
C467: + x4 + x244 <= 1
C468: + x42 + x301 <= 1
C469: + x106 + x323 <= 1
C470: + x117 + x448 <= 1
C471: + x7 + x171 <= 1
C472: + x9 + x257 <= 1
C473: + x92 + x148 <= 1
C474: + x3 + x203 <= 1
C475: + x41 + x42 <= 1
C476: + x370 + x470 <= 1
C477: + x32 + x183 <= 1
C478: + x116 + x282 <= 1
C479: + x298 + x415 <= 1
C480: + x35 + x36 <= 1
C481: + x44 + x180 <= 1
C482: + x37 + x62 <= 1
C483: + x129 + x311 <= 1
C484: + x123 + x463 <= 1
C485: + x13 + x162 <= 1
C486: + x32 + x72 <= 1
C487: + x18 + x360 <= 1
C488: + x10 + x22 <= 1
C489: + x19 + x57 <= 1
C490: + x179 + x210 <= 1
C491: + x23 + x198 <= 1
C492: + x44 + x193 <= 1
C493: + x153 + x474 <= 1
C494: + x101 + x440 <= 1
C495: + x12 + x28 <= 1
C496: + x68 + x199 <= 1
C497: + x97 + x293 <= 1
C498: + x7 + x114 <= 1
C499: + x10 + x468 <= 1
C500: + x46 + x406 <= 1
C501: + x56 + x499 <= 1
C502: + x5 + x11 <= 1
C503: + x35 + x103 <= 1
C504: + x26 + x140 <= 1
C505: + x273 + x363 <= 1
C506: + x148 + x318 <= 1
C507: + x33 + x212 <= 1
C508: + x150 + x408 <= 1
C509: + x95 + x114 <= 1
C510: + x5 + x154 <= 1
C511: + x6 + x22 <= 1
C512: + x207 + x257 <= 1
C513: + x61 + x290 <= 1
C514: + x249 + x340 <= 1
C515: + x35 + x160 <= 1
C516: + x344 + x396 <= 1
C517: + x9 + x407 <= 1
C518: + x84 + x104 + x143 <= 1
C519: + x5 + x206 <= 1
C520: + x89 + x218 <= 1
C521: + x215 + x308 <= 1
C522: + x125 + x283 <= 1
C523: + x34 + x129 <= 1
C524: + x289 + x393 <= 1
C525: + x143 + x344 <= 1
C526: + x188 + x195 <= 1
C527: + x171 + x375 <= 1
C528: + x7 + x464 <= 1
C529: + x415 + x496 <= 1
C530: + x18 + x490 <= 1
C531: + x146 + x419 <= 1
C532: + x41 + x137 <= 1
C533: + x49 + x270 <= 1
C534: + x23 + x63 <= 1
C535: + x53 + x334 <= 1
C536: + x6 + x31 <= 1
C537: + x255 + x258 <= 1
C538: + x133 + x257 <= 1
C539: + x114 + x189 <= 1
C540: + x305 + x320 <= 1
C541: + x116 + x177 <= 1
C542: + x53 + x96 <= 1
C543: + x30 + x44 <= 1
C544: + x394 + x491 <= 1
C545: + x143 + x176 <= 1
C546: + x51 + x86 <= 1
C547: + x17 + x334 <= 1
C548: + x453 + x492 <= 1
C549: + x57 + x394 <= 1
C550: + x76 + x424 <= 1
C551: + x107 + x172 <= 1
C552: + x5 + x423 <= 1
C553: + x243 + x461 <= 1
C554: + x151 + x462 <= 1
C555: + x2 + x270 <= 1
C556: + x21 + x85 <= 1
C557: + x69 + x207 <= 1
C558: + x2 + x20 <= 1
C559: + x67 + x68 <= 1
C560: + x15 + x277 <= 1
C561: + x16 + x143 <= 1
C562: + x1 + x9 <= 1
C563: + x109 + x152 <= 1
C564: + x26 + x150 <= 1
C565: + x7 + x338 <= 1
C566: + x205 + x246 <= 1
C567: + x154 + x492 <= 1
C568: + x67 + x266 <= 1
C569: + x141 + x155 <= 1
C570: + x15 + x83 <= 1
C571: + x6 + x8 <= 1
C572: + x365 + x441 <= 1
C573: + x42 + x401 <= 1
C574: + x32 + x174 <= 1
C575: + x35 + x388 <= 1
C576: + x9 + x40 <= 1
C577: + x8 + x18 <= 1
C578: + x154 + x405 <= 1
C579: + x22 + x136 <= 1
C580: + x176 + x497 <= 1
C581: + x223 + x371 <= 1
C582: + x147 + x206 <= 1
C583: + x129 + x284 <= 1
C584: + x21 + x282 <= 1
C585: + x192 + x446 <= 1
C586: + x96 + x243 <= 1
C587: + x72 + x487 <= 1
C588: + x57 + x401 <= 1
C589: + x41 + x75 <= 1
C590: + x21 + x255 <= 1
C591: + x149 + x383 <= 1
C592: + x469 + x478 <= 1
C593: + x84 + x493 <= 1
C594: + x27 + x263 <= 1
C595: + x190 + x304 <= 1
C596: + x10 + x455 <= 1
C597: + x55 + x97 <= 1
C598: + x85 + x241 <= 1
C599: + x202 + x493 <= 1
C600: + x232 + x324 <= 1
C601: + x114 + x371 <= 1
C602: + x6 + x331 <= 1
C603: + x8 + x91 <= 1
C604: + x2 + x184 <= 1
C605: + x10 + x245 <= 1
C606: + x114 + x222 <= 1
C607: + x4 + x11 <= 1
C608: + x298 + x362 <= 1
C609: + x84 + x313 <= 1
C610: + x3 + x14 <= 1
C611: + x56 + x335 <= 1
C612: + x83 + x224 <= 1
C613: + x2 + x33 <= 1
C614: + x147 + x182 <= 1
C615: + x57 + x332 <= 1
C616: + x128 + x231 <= 1
C617: + x46 + x216 <= 1
C618: + x37 + x253 <= 1
C619: + x7 + x34 <= 1
C620: + x72 + x238 <= 1
C621: + x402 + x447 <= 1
C622: + x101 + x247 <= 1
C623: + x146 + x346 <= 1
C624: + x223 + x261 <= 1
C625: + x368 + x372 <= 1
C626: + x52 + x66 <= 1
C627: + x333 + x381 <= 1
C628: + x18 + x50 <= 1
C629: + x8 + x451 <= 1
C630: + x11 + x355 <= 1
C631: + x41 + x239 <= 1
C632: + x30 + x445 <= 1
C633: + x14 + x419 <= 1
C634: + x26 + x402 <= 1
C635: + x345 + x403 <= 1
C636: + x410 + x448 <= 1
C637: + x31 + x88 <= 1
C638: + x22 + x99 <= 1
C639: + x168 + x200 <= 1
C640: + x9 + x341 <= 1
C641: + x80 + x477 <= 1
C642: + x38 + x144 <= 1
C643: + x51 + x285 <= 1
C644: + x5 + x473 <= 1
C645: + x17 + x90 <= 1
C646: + x148 + x437 <= 1
C647: + x3 + x5 <= 1
C648: + x166 + x483 <= 1
C649: + x6 + x10 <= 1
C650: + x79 + x157 <= 1
C651: + x44 + x264 <= 1
C652: + x209 + x327 <= 1
C653: + x147 + x173 <= 1
C654: + x40 + x109 <= 1
C655: + x5 + x19 <= 1
C656: + x81 + x100 <= 1
C657: + x15 + x307 <= 1
C658: + x101 + x111 <= 1
C659: + x60 + x75 <= 1
C660: + x24 + x33 <= 1
C661: + x26 + x79 <= 1
C662: + x38 + x482 <= 1
C663: + x21 + x304 <= 1
C664: + x60 + x170 <= 1
C665: + x67 + x153 <= 1
C666: + x287 + x360 <= 1
C667: + x15 + x105 <= 1
C668: + x38 + x325 <= 1
C669: + x187 + x188 <= 1
C670: + x28 + x240 <= 1
C671: + x62 + x79 + x185 <= 1
C672: + x53 + x286 <= 1
C673: + x137 + x180 <= 1
C674: + x5 + x214 <= 1
C675: + x38 + x137 <= 1
C676: + x41 + x101 <= 1
C677: + x7 + x488 <= 1
C678: + x49 + x229 <= 1
C679: + x42 + x105 <= 1
C680: + x343 + x464 <= 1
C681: + x6 + x115 <= 1
C682: + x138 + x139 <= 1
C683: + x103 + x149 <= 1
C684: + x157 + x227 <= 1
C685: + x35 + x429 <= 1
C686: + x45 + x113 <= 1
C687: + x55 + x157 <= 1
C688: + x49 + x116 <= 1
C689: + x37 + x227 <= 1
C690: + x21 + x37 <= 1
C691: + x31 + x377 <= 1
C692: + x89 + x288 <= 1
C693: + x35 + x187 <= 1
C694: + x104 + x472 <= 1
C695: + x313 + x364 <= 1
C696: + x44 + x142 <= 1
C697: + x58 + x268 <= 1
C698: + x3 + x84 <= 1
C699: + x49 + x209 <= 1
C700: + x392 + x438 <= 1
C701: + x116 + x272 <= 1
C702: + x108 + x347 <= 1
C703: + x5 + x411 <= 1
C704: + x72 + x369 <= 1
C705: + x2 + x128 <= 1
C706: + x67 + x168 <= 1
C707: + x68 + x80 <= 1
C708: + x421 + x427 <= 1
C709: + x40 + x47 <= 1
C710: + x186 + x446 <= 1
C711: + x41 + x463 <= 1
C712: + x154 + x242 <= 1
C713: + x1 + x21 <= 1
C714: + x47 + x101 <= 1
C715: + x192 + x244 <= 1
C716: + x233 + x300 <= 1
C717: + x62 + x300 <= 1
C718: + x49 + x156 <= 1
C719: + x3 + x430 <= 1
C720: + x6 + x124 <= 1
C721: + x71 + x188 <= 1
C722: + x143 + x228 <= 1
C723: + x110 + x330 <= 1
C724: + x1 + x351 <= 1
C725: + x45 + x382 <= 1
C726: + x53 + x59 <= 1
C727: + x2 + x343 <= 1
C728: + x21 + x36 <= 1
C729: + x186 + x229 <= 1
C730: + x369 + x384 <= 1
C731: + x110 + x475 <= 1
C732: + x136 + x232 <= 1
C733: + x16 + x361 <= 1
C734: + x92 + x300 <= 1
C735: + x8 + x16 + x19 <= 1
C736: + x13 + x216 <= 1
C737: + x40 + x87 <= 1
C738: + x5 + x53 <= 1
C739: + x9 + x16 <= 1
C740: + x76 + x296 <= 1
C741: + x115 + x260 <= 1
C742: + x106 + x495 <= 1
C743: + x28 + x409 <= 1
C744: + x32 + x91 <= 1
C745: + x279 + x431 <= 1
C746: + x145 + x162 <= 1
C747: + x9 + x159 <= 1
C748: + x302 + x467 <= 1
C749: + x31 + x230 <= 1
C750: + x134 + x192 <= 1
C751: + x119 + x408 <= 1
C752: + x5 + x16 <= 1
C753: + x61 + x440 <= 1
C754: + x35 + x447 <= 1
C755: + x194 + x211 <= 1
C756: + x21 + x43 <= 1
C757: + x186 + x238 <= 1
C758: + x25 + x174 <= 1
C759: + x7 + x14 <= 1
C760: + x62 + x249 <= 1
C761: + x3 + x38 <= 1
C762: + x78 + x235 <= 1
C763: + x5 + x159 <= 1
C764: + x261 + x492 <= 1
C765: + x10 + x46 <= 1
C766: + x12 + x197 <= 1
C767: + x31 + x33 <= 1
C768: + x70 + x433 <= 1
C769: + x36 + x184 <= 1
C770: + x290 + x302 <= 1
C771: + x281 + x327 <= 1
C772: + x135 + x354 <= 1
C773: + x294 + x366 <= 1
C774: + x122 + x199 <= 1
C775: + x101 + x301 <= 1
C776: + x55 + x393 <= 1
C777: + x18 + x348 <= 1
C778: + x164 + x220 <= 1
C779: + x202 + x365 <= 1
C780: + x28 + x100 <= 1
C781: + x101 + x223 <= 1
C782: + x5 + x104 <= 1
C783: + x68 + x120 + x140 <= 1
C784: + x318 + x489 <= 1
C785: + x55 + x247 <= 1
C786: + x34 + x111 <= 1
C787: + x8 + x197 <= 1
C788: + x297 + x318 <= 1
C789: + x69 + x378 <= 1
C790: + x16 + x133 <= 1
C791: + x18 + x219 <= 1
C792: + x2 + x161 <= 1
C793: + x49 + x198 <= 1
C794: + x353 + x442 <= 1
C795: + x140 + x382 <= 1
C796: + x176 + x221 <= 1
C797: + x268 + x385 <= 1
C798: + x51 + x456 <= 1
C799: + x22 + x31 <= 1
C800: + x8 + x32 <= 1
C801: + x30 + x47 <= 1
C802: + x42 + x153 <= 1
C803: + x171 + x484 <= 1
C804: + x88 + x345 <= 1
C805: + x83 + x130 <= 1
C806: + x217 + x350 <= 1
C807: + x26 + x274 <= 1
C808: + x109 + x225 <= 1
C809: + x28 + x121 <= 1
C810: + x42 + x343 <= 1
C811: + x304 + x417 <= 1
C812: + x116 + x303 <= 1
C813: + x6 + x308 <= 1
C814: + x243 + x466 <= 1
C815: + x10 + x382 <= 1
C816: + x198 + x244 <= 1
C817: + x88 + x458 <= 1
C818: + x77 + x402 <= 1
C819: + x14 + x436 <= 1
C820: + x7 + x109 <= 1
C821: + x410 + x425 <= 1
C822: + x165 + x405 <= 1
C823: + x111 + x120 <= 1
C824: + x20 + x364 <= 1
C825: + x11 + x471 <= 1
C826: + x42 + x488 <= 1
C827: + x6 + x325 <= 1
C828: + x3 + x298 <= 1
C829: + x32 + x367 <= 1
C830: + x45 + x250 <= 1
C831: + x62 + x267 <= 1
C832: + x21 + x459 <= 1
C833: + x23 + x51 <= 1
C834: + x88 + x225 <= 1
C835: + x1 + x384 <= 1
C836: + x32 + x161 <= 1
C837: + x35 + x50 <= 1
C838: + x37 + x203 <= 1
C839: + x114 + x423 <= 1
C840: + x218 + x243 <= 1
C841: + x1 + x495 <= 1
C842: + x319 + x362 <= 1
C843: + x38 + x499 <= 1
C844: + x145 + x348 <= 1
C845: + x19 + x39 <= 1
C846: + x1 + x241 <= 1
C847: + x4 + x94 <= 1
C848: + x34 + x363 <= 1
C849: + x173 + x394 <= 1
C850: + x30 + x423 <= 1
C851: + x141 + x163 <= 1
C852: + x42 + x78 <= 1
C853: + x60 + x248 <= 1
C854: + x3 + x160 <= 1
C855: + x20 + x369 <= 1
C856: + x30 + x330 <= 1
C857: + x23 + x91 <= 1
C858: + x198 + x307 <= 1
C859: + x28 + x142 <= 1
C860: + x11 + x208 <= 1
C861: + x67 + x481 <= 1
C862: + x140 + x283 <= 1
C863: + x38 + x154 <= 1
C864: + x148 + x336 <= 1
C865: + x4 + x10 <= 1
C866: + x5 + x471 <= 1
C867: + x239 + x362 <= 1
C868: + x47 + x355 <= 1
C869: + x206 + x417 <= 1
C870: + x44 + x270 <= 1
C871: + x18 + x275 <= 1
C872: + x10 + x398 <= 1
C873: + x32 + x170 <= 1
C874: + x44 + x128 <= 1
C875: + x30 + x33 <= 1
C876: + x22 + x132 <= 1
C877: + x115 + x155 <= 1
C878: + x40 + x357 <= 1
C879: + x4 + x393 <= 1
C880: + x130 + x136 <= 1
C881: + x126 + x464 <= 1
C882: + x71 + x465 <= 1
C883: + x10 + x13 <= 1
C884: + x86 + x378 <= 1
C885: + x116 + x202 <= 1
C886: + x179 + x247 <= 1
C887: + x21 + x96 <= 1
C888: + x30 + x448 <= 1
C889: + x12 + x458 <= 1
C890: + x59 + x151 <= 1
C891: + x78 + x91 <= 1
C892: + x8 + x357 <= 1
C893: + x75 + x281 <= 1
C894: + x11 + x22 <= 1
C895: + x149 + x234 <= 1
C896: + x78 + x318 <= 1
C897: + x224 + x291 <= 1
C898: + x6 + x252 <= 1
C899: + x9 + x338 <= 1
C900: + x21 + x362 <= 1
C901: + x30 + x323 <= 1
C902: + x286 + x398 <= 1
C903: + x433 + x443 <= 1
C904: + x15 + x175 <= 1
C905: + x108 + x182 <= 1
C906: + x270 + x468 <= 1
C907: + x4 + x15 <= 1
C908: + x73 + x388 <= 1
C909: + x38 + x102 <= 1
C910: + x33 + x90 <= 1
C911: + x96 + x308 <= 1
C912: + x18 + x268 <= 1
C913: + x173 + x346 <= 1
C914: + x28 + x52 <= 1
C915: + x438 + x484 <= 1
C916: + x5 + x24 <= 1
C917: + x100 + x148 <= 1
C918: + x29 + x142 <= 1
C919: + x12 + x80 <= 1
C920: + x231 + x269 <= 1
C921: + x62 + x209 <= 1
C922: + x120 + x421 <= 1
C923: + x2 + x86 <= 1
C924: + x3 + x94 <= 1
C925: + x13 + x39 <= 1
C926: + x31 + x201 <= 1
C927: + x108 + x353 <= 1
C928: + x18 + x54 <= 1
C929: + x51 + x211 <= 1
C930: + x96 + x373 <= 1
C931: + x15 + x21 <= 1
C932: + x71 + x146 <= 1
C933: + x7 + x82 <= 1
C934: + x129 + x254 <= 1
C935: + x11 + x29 <= 1
C936: + x7 + x328 <= 1
C937: + x12 + x137 <= 1
C938: + x30 + x255 <= 1
C939: + x369 + x394 <= 1
C940: + x171 + x404 <= 1
C941: + x10 + x349 <= 1
C942: + x101 + x412 <= 1
C943: + x6 + x118 <= 1
C944: + x35 + x333 <= 1
C945: + x211 + x489 <= 1
C946: + x179 + x181 <= 1
C947: + x270 + x385 <= 1
C948: + x6 + x169 <= 1
C949: + x279 + x470 <= 1
C950: + x101 + x107 <= 1
C951: + x7 + x29 <= 1
C952: + x46 + x112 <= 1
C953: + x37 + x69 <= 1
C954: + x12 + x375 <= 1
C955: + x33 + x45 <= 1
C956: + x6 + x58 <= 1
C957: + x7 + x186 <= 1
C958: + x45 + x448 <= 1
C959: + x146 + x343 <= 1
C960: + x212 + x471 <= 1
C961: + x40 + x93 <= 1
C962: + x198 + x216 <= 1
C963: + x289 + x425 <= 1
C964: + x29 + x89 <= 1
C965: + x231 + x372 <= 1
C966: + x28 + x44 + x169 <= 1
C967: + x150 + x336 <= 1
C968: + x402 + x488 <= 1
C969: + x283 + x376 <= 1
C970: + x13 + x173 <= 1
C971: + x163 + x258 <= 1
C972: + x166 + x309 <= 1
C973: + x63 + x133 <= 1
C974: + x11 + x350 <= 1
C975: + x5 + x353 <= 1
C976: + x84 + x221 <= 1
C977: + x49 + x395 <= 1
C978: + x2 + x55 <= 1
C979: + x69 + x265 <= 1
C980: + x81 + x95 <= 1
C981: + x8 + x121 <= 1
C982: + x13 + x403 <= 1
C983: + x25 + x164 <= 1
C984: + x45 + x274 <= 1
C985: + x73 + x126 <= 1
C986: + x92 + x396 <= 1
C987: + x38 + x92 <= 1
C988: + x58 + x195 <= 1
C989: + x6 + x35 <= 1
C990: + x20 + x288 <= 1
C991: + x9 + x13 <= 1
C992: + x72 + x365 <= 1
C993: + x30 + x96 <= 1
C994: + x151 + x335 <= 1
C995: + x78 + x297 <= 1
C996: + x89 + x205 <= 1
C997: + x6 + x215 <= 1
C998: + x7 + x237 <= 1
C999: + x24 + x365 <= 1
C1000: + x344 + x348 <= 1
C1001: + x73 + x441 <= 1
C1002: + x245 + x397 <= 1
C1003: + x3 + x19 <= 1
C1004: + x25 + x60 <= 1
C1005: + x15 + x51 <= 1
C1006: + x45 + x378 <= 1
C1007: + x143 + x232 <= 1
C1008: + x8 + x211 <= 1
C1009: + x126 + x416 <= 1
C1010: + x430 + x434 <= 1
C1011: + x108 + x284 <= 1
C1012: + x92 + x102 <= 1
C1013: + x182 + x236 <= 1
C1014: + x144 + x490 <= 1
C1015: + x242 + x433 <= 1
C1016: + x42 + x276 <= 1
C1017: + x61 + x71 <= 1
C1018: + x171 + x458 <= 1
C1019: + x3 + x39 <= 1
C1020: + x21 + x314 <= 1
C1021: + x167 + x297 <= 1
C1022: + x15 + x127 <= 1
C1023: + x6 + x44 <= 1
C1024: + x151 + x215 <= 1
C1025: + x1 + x212 <= 1
C1026: + x291 + x310 <= 1
C1027: + x18 + x25 <= 1
C1028: + x8 + x329 <= 1
C1029: + x38 + x452 <= 1
C1030: + x295 + x357 <= 1
C1031: + x31 + x77 <= 1
C1032: + x14 + x45 <= 1
C1033: + x15 + x139 <= 1
C1034: + x9 + x131 <= 1
C1035: + x63 + x470 <= 1
C1036: + x145 + x166 <= 1
C1037: + x12 + x192 <= 1
C1038: + x39 + x61 <= 1
C1039: + x179 + x207 <= 1
C1040: + x17 + x67 <= 1
C1041: + x35 + x245 <= 1
C1042: + x15 + x409 <= 1
C1043: + x21 + x72 <= 1
C1044: + x5 + x343 <= 1
C1045: + x288 + x291 <= 1
C1046: + x364 + x374 <= 1
C1047: + x8 + x204 <= 1
C1048: + x84 + x235 <= 1
C1049: + x140 + x141 <= 1
C1050: + x5 + x12 <= 1
C1051: + x17 + x269 <= 1
C1052: + x58 + x447 <= 1
C1053: + x98 + x283 <= 1
C1054: + x35 + x201 <= 1
C1055: + x8 + x398 <= 1
C1056: + x11 + x436 <= 1
C1057: + x131 + x235 <= 1
C1058: + x61 + x291 <= 1
C1059: + x364 + x418 <= 1
C1060: + x7 + x163 <= 1
C1061: + x10 + x415 <= 1
C1062: + x120 + x155 <= 1
C1063: + x47 + x431 <= 1
C1064: + x234 + x358 <= 1
C1065: + x5 + x64 <= 1
C1066: + x14 + x213 <= 1
C1067: + x139 + x480 <= 1
C1068: + x50 + x233 <= 1
C1069: + x35 + x157 <= 1
C1070: + x18 + x445 <= 1
C1071: + x106 + x375 <= 1
C1072: + x6 + x217 <= 1
C1073: + x41 + x94 <= 1
C1074: + x14 + x340 <= 1
C1075: + x28 + x259 <= 1
C1076: + x12 + x20 <= 1
C1077: + x39 + x294 <= 1
C1078: + x31 + x455 <= 1
C1079: + x2 + x26 <= 1
C1080: + x3 + x138 <= 1
C1081: + x37 + x423 <= 1
C1082: + x78 + x271 <= 1
C1083: + x35 + x127 <= 1
C1084: + x3 + x299 <= 1
C1085: + x48 + x189 <= 1
C1086: + x60 + x424 <= 1
C1087: + x51 + x190 <= 1
C1088: + x43 + x239 <= 1
C1089: + x23 + x339 <= 1
C1090: + x15 + x432 <= 1
C1091: + x6 + x30 <= 1
C1092: + x18 + x293 <= 1
C1093: + x207 + x265 <= 1
C1094: + x101 + x321 <= 1
C1095: + x117 + x292 <= 1
C1096: + x6 + x268 <= 1
C1097: + x8 + x28 <= 1
C1098: + x30 + x43 <= 1
C1099: + x231 + x288 <= 1
C1100: + x71 + x245 <= 1
C1101: + x200 + x383 <= 1
C1102: + x7 + x53 <= 1
C1103: + x3 + x10 + x256 <= 1
C1104: + x175 + x342 <= 1
C1105: + x216 + x444 <= 1
C1106: + x228 + x261 <= 1
C1107: + x75 + x93 <= 1
C1108: + x25 + x319 <= 1
C1109: + x315 + x406 <= 1
C1110: + x99 + x327 <= 1
C1111: + x16 + x25 <= 1
C1112: + x66 + x77 <= 1
C1113: + x49 + x133 <= 1
C1114: + x21 + x86 <= 1
C1115: + x30 + x127 <= 1
C1116: + x50 + x222 <= 1
C1117: + x233 + x418 <= 1
C1118: + x26 + x391 <= 1
C1119: + x45 + x359 <= 1
C1120: + x9 + x459 <= 1
C1121: + x11 + x467 <= 1
C1122: + x345 + x390 <= 1
C1123: + x3 + x129 <= 1
C1124: + x292 + x456 <= 1
C1125: + x369 + x409 <= 1
C1126: + x4 + x5 <= 1
C1127: + x115 + x172 <= 1
C1128: + x22 + x179 <= 1
C1129: + x222 + x432 <= 1
C1130: + x388 + x486 <= 1
C1131: + x35 + x219 <= 1
C1132: + x248 + x326 <= 1
C1133: + x56 + x134 <= 1
C1134: + x40 + x122 <= 1
C1135: + x9 + x41 <= 1
C1136: + x101 + x122 <= 1
C1137: + x48 + x138 <= 1
C1138: + x22 + x135 <= 1
C1139: + x42 + x307 <= 1
C1140: + x32 + x415 <= 1
C1141: + x225 + x458 <= 1
C1142: + x44 + x154 <= 1
C1143: + x6 + x408 <= 1
C1144: + x3 + x72 <= 1
C1145: + x14 + x88 <= 1
C1146: + x117 + x346 <= 1
C1147: + x9 + x355 <= 1
C1148: + x1 + x245 <= 1
C1149: + x2 + x251 <= 1
C1150: + x41 + x76 <= 1
C1151: + x5 + x82 <= 1
C1152: + x168 + x392 <= 1
C1153: + x61 + x490 <= 1
C1154: + x389 + x433 <= 1
C1155: + x119 + x340 <= 1
C1156: + x21 + x93 <= 1
C1157: + x32 + x451 <= 1
C1158: + x408 + x476 <= 1
C1159: + x138 + x281 <= 1
C1160: + x11 + x23 <= 1
C1161: + x55 + x98 <= 1
C1162: + x31 + x110 <= 1
C1163: + x108 + x264 <= 1
C1164: + x2 + x183 <= 1
C1165: + x40 + x226 <= 1
C1166: + x13 + x97 <= 1
C1167: + x196 + x206 <= 1
C1168: + x7 + x491 <= 1
C1169: + x20 + x486 <= 1
C1170: + x88 + x246 <= 1
C1171: + x35 + x311 <= 1
C1172: + x58 + x67 <= 1
C1173: + x266 + x467 <= 1
C1174: + x22 + x45 <= 1
C1175: + x5 + x21 <= 1
C1176: + x40 + x119 <= 1
C1177: + x171 + x228 <= 1
C1178: + x9 + x48 <= 1
C1179: + x223 + x474 <= 1
C1180: + x64 + x125 <= 1
C1181: + x209 + x494 <= 1
C1182: + x231 + x266 <= 1
C1183: + x31 + x187 <= 1
C1184: + x21 + x24 <= 1
C1185: + x15 + x40 + x42 <= 1
C1186: + x53 + x196 <= 1
C1187: + x82 + x104 <= 1
C1188: + x10 + x259 <= 1
C1189: + x37 + x496 <= 1
C1190: + x5 + x188 <= 1
C1191: + x6 + x52 <= 1
C1192: + x303 + x321 <= 1
C1193: + x40 + x171 <= 1
C1194: + x125 + x289 <= 1
C1195: + x6 + x290 <= 1
C1196: + x28 + x234 <= 1
C1197: + x42 + x187 <= 1
C1198: + x400 + x440 <= 1
C1199: + x22 + x98 <= 1
C1200: + x23 + x82 <= 1
C1201: + x115 + x121 <= 1
C1202: + x1 + x8 <= 1
C1203: + x102 + x180 <= 1
C1204: + x20 + x217 <= 1
C1205: + x40 + x159 <= 1
C1206: + x51 + x167 <= 1
C1207: + x191 + x287 <= 1
C1208: + x10 + x352 <= 1
C1209: + x94 + x410 <= 1
C1210: + x49 + x308 <= 1
C1211: + x3 + x6 <= 1
C1212: + x13 + x266 <= 1
C1213: + x5 + x383 <= 1
C1214: + x6 + x9 <= 1
C1215: + x405 + x463 <= 1
C1216: + x10 + x78 <= 1
C1217: + x51 + x493 <= 1
C1218: + x87 + x110 <= 1
C1219: + x18 + x254 <= 1
C1220: + x30 + x54 <= 1
C1221: + x4 + x63 <= 1
C1222: + x395 + x403 <= 1
C1223: + x42 + x317 <= 1
C1224: + x139 + x226 <= 1
C1225: + x5 + x163 <= 1
C1226: + x89 + x183 <= 1
C1227: + x35 + x262 <= 1
C1228: + x360 + x460 <= 1
C1229: + x28 + x68 <= 1
C1230: + x16 + x209 <= 1
C1231: + x111 + x158 <= 1
C1232: + x188 + x226 <= 1
C1233: + x6 + x299 <= 1
C1234: + x66 + x88 <= 1
C1235: + x203 + x278 <= 1
C1236: + x21 + x381 <= 1
C1237: + x223 + x416 <= 1
C1238: + x5 + x215 <= 1
C1239: + x108 + x175 <= 1
C1240: + x53 + x436 <= 1
C1241: + x35 + x474 <= 1
C1242: + x274 + x337 <= 1
C1243: + x88 + x293 <= 1
C1244: + x143 + x381 <= 1
C1245: + x66 + x100 <= 1
C1246: + x146 + x287 <= 1
C1247: + x26 + x188 <= 1
C1248: + x21 + x38 <= 1
C1249: + x205 + x267 <= 1
C1250: + x98 + x268 <= 1
C1251: + x166 + x479 <= 1
C1252: + x96 + x233 <= 1
C1253: + x32 + x41 <= 1
C1254: + x15 + x113 <= 1
C1255: + x9 + x173 <= 1
C1256: + x18 + x35 <= 1
C1257: + x19 + x177 <= 1
C1258: + x7 + x420 <= 1
C1259: + x58 + x380 <= 1
C1260: + x235 + x312 <= 1
C1261: + x143 + x213 <= 1
C1262: + x318 + x357 <= 1
C1263: + x163 + x441 <= 1
C1264: + x66 + x319 <= 1
C1265: + x2 + x396 <= 1
C1266: + x12 + x295 <= 1
C1267: + x234 + x264 <= 1
C1268: + x51 + x427 <= 1
C1269: + x57 + x278 <= 1
C1270: + x275 + x309 <= 1
C1271: + x54 + x347 <= 1
C1272: + x10 + x239 <= 1
C1273: + x13 + x14 <= 1
C1274: + x151 + x315 <= 1
C1275: + x37 + x156 <= 1
C1276: + x131 + x193 <= 1
C1277: + x34 + x84 <= 1
C1278: + x70 + x240 <= 1
C1279: + x164 + x190 <= 1
C1280: + x2 + x11 <= 1
C1281: + x21 + x30 + x106 <= 1
C1282: + x77 + x152 <= 1
C1283: + x258 + x417 <= 1
C1284: + x17 + x275 <= 1
C1285: + x239 + x498 <= 1
C1286: + x21 + x45 <= 1
C1287: + x304 + x473 <= 1
C1288: + x5 + x500 <= 1
C1289: + x2 + x497 <= 1
C1290: + x47 + x147 <= 1
C1291: + x49 + x286 <= 1
C1292: + x240 + x256 <= 1
C1293: + x5 + x145 <= 1
C1294: + x10 + x44 <= 1
C1295: + x78 + x340 <= 1
C1296: + x18 + x28 <= 1
C1297: + x37 + x223 <= 1
C1298: + x49 + x168 <= 1
C1299: + x114 + x435 <= 1
C1300: + x4 + x432 <= 1
C1301: + x83 + x141 <= 1
C1302: + x2 + x397 <= 1
C1303: + x129 + x309 <= 1
C1304: + x86 + x130 <= 1
C1305: + x331 + x337 <= 1
C1306: + x43 + x455 <= 1
C1307: + x154 + x301 <= 1
C1308: + x10 + x24 <= 1
C1309: + x47 + x109 <= 1
C1310: + x4 + x106 <= 1
C1311: + x5 + x122 <= 1
C1312: + x23 + x265 <= 1
C1313: + x78 + x392 <= 1
C1314: + x5 + x439 <= 1
C1315: + x6 + x449 <= 1
C1316: + x14 + x147 <= 1
C1317: + x94 + x485 <= 1
C1318: + x50 + x284 <= 1
C1319: + x21 + x498 <= 1
C1320: + x173 + x323 <= 1
C1321: + x57 + x361 <= 1
C1322: + x358 + x390 <= 1
C1323: + x5 + x9 <= 1
C1324: + x45 + x104 <= 1
C1325: + x7 + x354 <= 1
C1326: + x134 + x429 <= 1
C1327: + x40 + x261 <= 1
C1328: + x125 + x131 <= 1
C1329: + x72 + x209 <= 1
C1330: + x37 + x119 <= 1
C1331: + x92 + x151 <= 1
C1332: + x75 + x99 <= 1
C1333: + x434 + x468 <= 1
C1334: + x16 + x67 <= 1
C1335: + x39 + x162 <= 1
C1336: + x78 + x123 <= 1
C1337: + x160 + x379 <= 1
C1338: + x182 + x479 <= 1
C1339: + x203 + x271 <= 1
C1340: + x7 + x220 <= 1
C1341: + x56 + x89 <= 1
C1342: + x43 + x355 <= 1
C1343: + x25 + x234 <= 1
C1344: + x44 + x200 <= 1
C1345: + x278 + x404 <= 1
C1346: + x10 + x380 <= 1
C1347: + x18 + x73 <= 1
C1348: + x2 + x311 <= 1
C1349: + x50 + x285 <= 1
C1350: + x231 + x350 <= 1
C1351: + x12 + x422 <= 1
C1352: + x243 + x313 <= 1
C1353: + x71 + x171 <= 1
C1354: + x1 + x302 <= 1
C1355: + x219 + x413 <= 1
C1356: + x16 + x438 <= 1
C1357: + x78 + x274 <= 1
C1358: + x34 + x457 <= 1
C1359: + x288 + x462 <= 1
C1360: + x18 + x218 <= 1
C1361: + x11 + x219 <= 1
C1362: + x115 + x182 <= 1
C1363: + x297 + x476 <= 1
C1364: + x8 + x394 <= 1
C1365: + x130 + x310 <= 1
C1366: + x23 + x57 <= 1
C1367: + x6 + x17 <= 1
C1368: + x26 + x453 <= 1
C1369: + x18 + x296 <= 1
C1370: + x37 + x368 <= 1
C1371: + x76 + x106 <= 1
C1372: + x240 + x353 <= 1
C1373: + x171 + x243 <= 1
C1374: + x334 + x359 <= 1
C1375: + x16 + x76 <= 1
C1376: + x37 + x205 <= 1
C1377: + x121 + x217 <= 1
C1378: + x168 + x317 <= 1
C1379: + x3 + x114 <= 1
C1380: + x267 + x387 <= 1
C1381: + x60 + x129 <= 1
C1382: + x108 + x139 <= 1
C1383: + x163 + x295 <= 1
C1384: + x18 + x167 <= 1
C1385: + x126 + x317 <= 1
C1386: + x369 + x426 <= 1
C1387: + x30 + x223 <= 1
C1388: + x13 + x59 <= 1
C1389: + x55 + x207 <= 1
C1390: + x59 + x329 <= 1
C1391: + x97 + x305 <= 1
C1392: + x40 + x422 <= 1
C1393: + x2 + x30 <= 1
C1394: + x4 + x229 <= 1
C1395: + x78 + x267 <= 1
C1396: + x26 + x349 <= 1
C1397: + x82 + x275 <= 1
C1398: + x21 + x58 <= 1
C1399: + x60 + x111 <= 1
C1400: + x97 + x432 <= 1
C1401: + x327 + x386 <= 1
C1402: + x135 + x194 <= 1
C1403: + x47 + x345 <= 1
C1404: + x167 + x351 <= 1
C1405: + x173 + x178 <= 1
C1406: + x30 + x132 <= 1
C1407: + x96 + x100 <= 1
C1408: + x127 + x232 <= 1
C1409: + x9 + x38 <= 1
C1410: + x31 + x258 <= 1
C1411: + x106 + x449 <= 1
C1412: + x235 + x300 <= 1
C1413: + x93 + x337 <= 1
C1414: + x138 + x227 <= 1
C1415: + x58 + x166 <= 1
C1416: + x50 + x65 <= 1
C1417: + x32 + x49 <= 1
C1418: + x109 + x276 <= 1
C1419: + x18 + x160 <= 1
C1420: + x109 + x217 <= 1
C1421: + x101 + x206 <= 1
C1422: + x149 + x381 <= 1
C1423: + x50 + x420 <= 1
C1424: + x5 + x87 <= 1
C1425: + x215 + x425 <= 1
C1426: + x434 + x442 <= 1
C1427: + x9 + x18 <= 1
C1428: + x65 + x95 <= 1
C1429: + x108 + x374 <= 1
C1430: + x16 + x101 <= 1
C1431: + x285 + x314 <= 1
C1432: + x143 + x292 <= 1
C1433: + x37 + x192 <= 1
C1434: + x87 + x319 <= 1
C1435: + x40 + x419 <= 1
C1436: + x1 + x316 <= 1
C1437: + x93 + x210 <= 1
C1438: + x20 + x372 <= 1
C1439: + x95 + x214 <= 1
C1440: + x60 + x342 <= 1
C1441: + x14 + x15 <= 1
C1442: + x15 + x165 <= 1
C1443: + x162 + x305 <= 1
C1444: + x28 + x141 <= 1
C1445: + x84 + x92 <= 1
C1446: + x119 + x208 <= 1
C1447: + x15 + x443 <= 1
C1448: + x16 + x41 <= 1
C1449: + x20 + x46 <= 1
C1450: + x313 + x493 <= 1
C1451: + x186 + x278 <= 1
C1452: + x212 + x289 <= 1
C1453: + x106 + x313 <= 1
C1454: + x119 + x438 <= 1
C1455: + x74 + x205 <= 1
C1456: + x266 + x430 <= 1
C1457: + x48 + x55 <= 1
C1458: + x435 + x461 <= 1
C1459: + x35 + x74 <= 1
C1460: + x44 + x127 <= 1
C1461: + x63 + x356 <= 1
C1462: + x42 + x138 <= 1
C1463: + x23 + x422 <= 1
C1464: + x44 + x158 <= 1
C1465: + x13 + x487 <= 1
C1466: + x10 + x286 <= 1
C1467: + x3 + x68 <= 1
C1468: + x30 + x270 <= 1
C1469: + x1 + x201 <= 1
C1470: + x37 + x322 <= 1
C1471: + x28 + x74 <= 1
C1472: + x276 + x447 <= 1
C1473: + x4 + x70 <= 1
C1474: + x478 + x498 <= 1
C1475: + x7 + x435 <= 1
C1476: + x47 + x230 <= 1
C1477: + x56 + x203 <= 1
C1478: + x130 + x333 <= 1
C1479: + x358 + x442 <= 1
C1480: + x5 + x237 <= 1
C1481: + x7 + x249 <= 1
C1482: + x9 + x232 <= 1
C1483: + x28 + x134 <= 1
C1484: + x352 + x377 <= 1
C1485: + x9 + x339 <= 1
C1486: + x89 + x249 <= 1
C1487: + x1 + x5 <= 1
C1488: + x13 + x426 <= 1
C1489: + x32 + x352 <= 1
C1490: + x26 + x61 <= 1
C1491: + x18 + x112 <= 1
C1492: + x73 + x389 <= 1
C1493: + x9 + x69 <= 1
C1494: + x212 + x298 <= 1
C1495: + x12 + x389 <= 1
C1496: + x124 + x412 <= 1
C1497: + x161 + x400 <= 1
C1498: + x6 + x12 <= 1
C1499: + x237 + x360 <= 1
C1500: + x5 + x17 <= 1
C1501: + x90 + x366 <= 1
C1502: + x167 + x476 <= 1
C1503: + x496 + x500 <= 1
C1504: + x83 + x108 <= 1
C1505: + x11 + x42 <= 1
C1506: + x2 + x85 <= 1
C1507: + x30 + x263 <= 1
C1508: + x141 + x195 <= 1
C1509: + x41 + x410 <= 1
C1510: + x143 + x401 <= 1
C1511: + x11 + x139 <= 1
C1512: + x34 + x380 <= 1
C1513: + x1 + x109 <= 1
C1514: + x46 + x135 <= 1
C1515: + x123 + x166 <= 1
C1516: + x189 + x444 <= 1
C1517: + x228 + x241 <= 1
C1518: + x101 + x310 <= 1
C1519: + x11 + x30 <= 1
C1520: + x32 + x107 <= 1
C1521: + x82 + x179 <= 1
C1522: + x60 + x118 <= 1
C1523: + x35 + x233 <= 1
C1524: + x18 + x97 <= 1
C1525: + x84 + x453 <= 1
C1526: + x47 + x366 <= 1
C1527: + x97 + x274 + x386 <= 1
C1528: + x82 + x196 <= 1
C1529: + x63 + x128 <= 1
C1530: + x152 + x246 <= 1
C1531: + x9 + x297 <= 1
C1532: + x85 + x201 <= 1
C1533: + x173 + x338 <= 1
C1534: + x13 + x235 <= 1
C1535: + x361 + x391 <= 1
C1536: + x70 + x413 <= 1
C1537: + x431 + x437 <= 1
C1538: + x51 + x489 <= 1
C1539: + x143 + x489 <= 1
C1540: + x5 + x32 <= 1
C1541: + x171 + x292 <= 1
C1542: + x82 + x306 <= 1
C1543: + x67 + x392 <= 1
C1544: + x168 + x289 <= 1
C1545: + x57 + x146 <= 1
C1546: + x167 + x320 <= 1
C1547: + x362 + x426 <= 1
C1548: + x6 + x57 <= 1
C1549: + x65 + x263 <= 1
C1550: + x283 + x454 <= 1
C1551: + x5 + x68 <= 1
C1552: + x217 + x472 <= 1
C1553: + x6 + x279 <= 1
C1554: + x35 + x48 <= 1
C1555: + x16 + x116 <= 1
C1556: + x321 + x361 <= 1
C1557: + x3 + x412 <= 1
C1558: + x12 + x35 + x66 <= 1
C1559: + x42 + x451 <= 1
C1560: + x6 + x237 <= 1
C1561: + x18 + x364 <= 1
C1562: + x37 + x316 <= 1
C1563: + x40 + x148 <= 1
C1564: + x59 + x238 <= 1
C1565: + x6 + x126 <= 1
C1566: + x10 + x123 <= 1
C1567: + x11 + x73 <= 1
C1568: + x2 + x54 <= 1
C1569: + x107 + x197 <= 1
C1570: + x171 + x210 <= 1
C1571: + x27 + x56 <= 1
C1572: + x10 + x214 <= 1
C1573: + x193 + x212 <= 1
C1574: + x21 + x34 <= 1
C1575: + x213 + x354 <= 1
C1576: + x24 + x53 <= 1
C1577: + x7 + x21 <= 1
C1578: + x6 + x34 <= 1
C1579: + x261 + x483 <= 1
C1580: + x129 + x387 <= 1
C1581: + x47 + x414 <= 1
C1582: + x15 + x331 <= 1
C1583: + x91 + x444 <= 1
C1584: + x138 + x469 <= 1
C1585: + x52 + x242 <= 1
C1586: + x50 + x494 <= 1
C1587: + x26 + x103 <= 1
C1588: + x44 + x189 <= 1
C1589: + x6 + x435 <= 1
C1590: + x9 + x491 <= 1
C1591: + x275 + x305 <= 1
C1592: + x21 + x264 <= 1
C1593: + x4 + x202 <= 1
C1594: + x11 + x16 <= 1
C1595: + x47 + x269 <= 1
C1596: + x14 + x51 <= 1
C1597: + x210 + x443 <= 1
C1598: + x265 + x359 <= 1
C1599: + x49 + x52 <= 1
C1600: + x229 + x483 <= 1
C1601: + x286 + x315 <= 1
C1602: + x89 + x107 <= 1
C1603: + x168 + x483 <= 1
C1604: + x164 + x400 <= 1
C1605: + x49 + x145 <= 1
C1606: + x3 + x20 <= 1
C1607: + x266 + x367 <= 1
C1608: + x157 + x485 <= 1
C1609: + x87 + x279 <= 1
C1610: + x21 + x332 <= 1
C1611: + x13 + x153 <= 1
C1612: + x5 + x14 <= 1
C1613: + x109 + x165 <= 1
C1614: + x28 + x165 <= 1
C1615: + x377 + x440 <= 1
C1616: + x22 + x167 <= 1
C1617: + x40 + x253 <= 1
C1618: + x94 + x103 <= 1
C1619: + x21 + x315 <= 1
C1620: + x57 + x434 <= 1
C1621: + x38 + x370 <= 1
C1622: + x102 + x231 <= 1
C1623: + x211 + x272 <= 1
C1624: + x43 + x141 <= 1
C1625: + x7 + x415 <= 1
C1626: + x18 + x32 <= 1
C1627: + x46 + x242 <= 1
C1628: + x251 + x421 <= 1
C1629: + x342 + x401 <= 1
C1630: + x169 + x467 <= 1
C1631: + x16 + x485 <= 1
C1632: + x263 + x397 <= 1
C1633: + x44 + x465 <= 1
C1634: + x15 + x140 <= 1
C1635: + x181 + x379 <= 1
C1636: + x28 + x98 <= 1
C1637: + x157 + x351 <= 1
C1638: + x39 + x62 <= 1
C1639: + x52 + x433 <= 1
C1640: + x43 + x177 <= 1
C1641: + x6 + x461 <= 1
C1642: + x16 + x22 <= 1
C1643: + x11 + x333 <= 1
C1644: + x42 + x94 <= 1
C1645: + x28 + x31 <= 1
C1646: + x2 + x8 <= 1
C1647: + x34 + x460 <= 1
C1648: + x46 + x311 <= 1
C1649: + x58 + x446 <= 1
C1650: + x222 + x349 <= 1
C1651: + x5 + x487 <= 1
C1652: + x16 + x474 <= 1
C1653: + x63 + x228 <= 1
C1654: + x46 + x90 <= 1
C1655: + x327 + x396 <= 1
C1656: + x67 + x255 <= 1
C1657: + x30 + x491 <= 1
C1658: + x37 + x115 <= 1
C1659: + x23 + x38 <= 1
C1660: + x268 + x399 <= 1
C1661: + x35 + x57 <= 1
C1662: + x72 + x350 <= 1
C1663: + x49 + x83 <= 1
C1664: + x21 + x124 <= 1
C1665: + x32 + x428 <= 1
C1666: + x244 + x371 <= 1
C1667: + x37 + x39 <= 1
C1668: + x11 + x485 <= 1
C1669: + x168 + x231 <= 1
C1670: + x418 + x495 <= 1
C1671: + x65 + x296 <= 1
C1672: + x152 + x443 <= 1
C1673: + x7 + x462 <= 1
C1674: + x67 + x377 <= 1
C1675: + x30 + x101 <= 1
C1676: + x68 + x178 <= 1
C1677: + x50 + x273 <= 1
C1678: + x15 + x62 <= 1
C1679: + x199 + x303 <= 1
C1680: + x18 + x222 <= 1
C1681: + x273 + x356 <= 1
C1682: + x146 + x417 <= 1
C1683: + x106 + x408 <= 1
C1684: + x243 + x392 <= 1
C1685: + x35 + x193 <= 1
C1686: + x119 + x275 <= 1
C1687: + x20 + x36 <= 1
C1688: + x212 + x279 <= 1
C1689: + x68 + x254 <= 1
C1690: + x114 + x472 <= 1
C1691: + x78 + x159 <= 1
C1692: + x88 + x231 <= 1
C1693: + x9 + x305 <= 1
C1694: + x126 + x328 <= 1
C1695: + x88 + x497 <= 1
C1696: + x111 + x287 <= 1
C1697: + x2 + x376 <= 1
C1698: + x67 + x142 <= 1
C1699: + x21 + x285 <= 1
C1700: + x47 + x290 <= 1
C1701: + x162 + x189 <= 1
C1702: + x7 + x215 <= 1
C1703: + x109 + x222 <= 1
C1704: + x272 + x367 <= 1
C1705: + x248 + x304 + x330 <= 1
C1706: + x51 + x309 <= 1
C1707: + x4 + x92 <= 1
C1708: + x49 + x134 <= 1
C1709: + x30 + x126 <= 1
C1710: + x59 + x130 <= 1
C1711: + x2 + x18 <= 1
C1712: + x209 + x444 <= 1
C1713: + x298 + x460 <= 1
C1714: + x207 + x482 <= 1
C1715: + x11 + x194 <= 1
C1716: + x21 + x198 <= 1
C1717: + x231 + x476 <= 1
C1718: + x24 + x89 <= 1
C1719: + x17 + x110 <= 1
C1720: + x76 + x369 <= 1
C1721: + x3 + x49 <= 1
C1722: + x175 + x402 <= 1
C1723: + x13 + x277 <= 1
C1724: + x251 + x335 <= 1
C1725: + x78 + x152 <= 1
C1726: + x73 + x248 <= 1
C1727: + x29 + x280 <= 1
C1728: + x5 + x47 <= 1
C1729: + x6 + x185 <= 1
C1730: + x25 + x379 <= 1
C1731: + x30 + x35 <= 1
C1732: + x225 + x459 <= 1
C1733: + x31 + x262 <= 1
C1734: + x78 + x105 <= 1
C1735: + x78 + x478 <= 1
C1736: + x164 + x475 <= 1
C1737: + x129 + x169 <= 1
C1738: + x106 + x360 <= 1
C1739: + x6 + x202 <= 1
C1740: + x363 + x457 <= 1
C1741: + x118 + x144 <= 1
C1742: + x165 + x199 <= 1
C1743: + x143 + x296 <= 1
C1744: + x39 + x132 <= 1
C1745: + x59 + x137 <= 1
C1746: + x59 + x352 <= 1
C1747: + x403 + x497 <= 1
C1748: + x107 + x399 <= 1
C1749: + x57 + x205 <= 1
C1750: + x121 + x450 <= 1
C1751: + x78 + x320 <= 1
C1752: + x44 + x71 <= 1
C1753: + x146 + x403 <= 1
C1754: + x26 + x64 <= 1
C1755: + x24 + x82 <= 1
C1756: + x44 + x230 <= 1
C1757: + x6 + x492 <= 1
C1758: + x3 + x12 <= 1
C1759: + x42 + x125 <= 1
C1760: + x43 + x115 <= 1
C1761: + x6 + x15 <= 1
C1762: + x18 + x278 <= 1
C1763: + x292 + x349 <= 1
C1764: + x170 + x211 <= 1
C1765: + x25 + x322 <= 1
C1766: + x172 + x186 <= 1
C1767: + x140 + x462 <= 1
C1768: + x44 + x146 <= 1
C1769: + x45 + x290 <= 1
C1770: + x318 + x414 <= 1
C1771: + x11 + x43 <= 1
C1772: + x103 + x108 <= 1
C1773: + x13 + x328 <= 1
C1774: + x23 + x27 <= 1
C1775: + x14 + x80 <= 1
C1776: + x9 + x363 <= 1
C1777: + x37 + x334 <= 1
C1778: + x21 + x136 <= 1
C1779: + x287 + x416 <= 1
C1780: + x109 + x113 <= 1
C1781: + x9 + x29 <= 1
C1782: + x7 + x439 <= 1
C1783: + x3 + x390 <= 1
C1784: + x97 + x451 <= 1
C1785: + x415 + x455 <= 1
C1786: + x138 + x257 <= 1
C1787: + x37 + x477 <= 1
C1788: + x18 + x382 <= 1
C1789: + x76 + x388 <= 1
C1790: + x33 + x333 <= 1
C1791: + x67 + x282 <= 1
C1792: + x112 + x421 <= 1
C1793: + x61 + x200 <= 1
C1794: + x6 + x120 <= 1
C1795: + x283 + x307 <= 1
C1796: + x203 + x480 <= 1
C1797: + x29 + x358 <= 1
C1798: + x6 + x358 <= 1
C1799: + x34 + x50 <= 1
C1800: + x87 + x369 <= 1
C1801: + x226 + x293 <= 1
C1802: + x54 + x191 <= 1
C1803: + x72 + x229 <= 1
C1804: + x166 + x469 <= 1
C1805: + x273 + x404 <= 1
C1806: + x229 + x437 <= 1
C1807: + x85 + x146 <= 1
C1808: + x2 + x204 <= 1
C1809: + x148 + x149 <= 1
C1810: + x5 + x65 <= 1
C1811: + x53 + x123 <= 1
C1812: + x46 + x131 <= 1
C1813: + x148 + x500 <= 1
C1814: + x396 + x480 <= 1
C1815: + x15 + x26 <= 1
C1816: + x119 + x464 <= 1
C1817: + x11 + x26 <= 1
C1818: + x175 + x316 <= 1
C1819: + x109 + x255 <= 1
C1820: + x223 + x314 <= 1
C1821: + x5 + x117 <= 1
C1822: + x61 + x122 <= 1
C1823: + x13 + x24 <= 1
C1824: + x14 + x160 <= 1
C1825: + x106 + x303 <= 1
C1826: + x170 + x418 <= 1
C1827: + x91 + x155 <= 1
C1828: + x144 + x149 <= 1
C1829: + x155 + x280 <= 1
C1830: + x2 + x49 <= 1
C1831: + x338 + x395 <= 1
C1832: + x46 + x421 <= 1
C1833: + x193 + x436 <= 1
C1834: + x5 + x28 <= 1
C1835: + x6 + x148 <= 1
C1836: + x48 + x449 <= 1
C1837: + x266 + x452 <= 1
C1838: + x210 + x478 <= 1
C1839: + x35 + x88 <= 1
C1840: + x128 + x151 <= 1
C1841: + x31 + x383 <= 1
C1842: + x104 + x466 <= 1
C1843: + x24 + x60 <= 1
C1844: + x74 + x116 <= 1
C1845: + x217 + x319 <= 1
C1846: + x164 + x228 <= 1
C1847: + x46 + x345 <= 1
C1848: + x21 + x150 <= 1
C1849: + x9 + x11 <= 1
C1850: + x48 + x236 <= 1
C1851: + x258 + x329 <= 1
C1852: + x116 + x429 <= 1
C1853: + x7 + x78 <= 1
C1854: + x278 + x302 <= 1
C1855: + x16 + x306 <= 1
C1856: + x18 + x179 <= 1
C1857: + x46 + x269 <= 1
C1858: + x21 + x218 <= 1
C1859: + x13 + x15 <= 1
C1860: + x25 + x157 <= 1
C1861: + x168 + x482 <= 1
C1862: + x141 + x399 <= 1
C1863: + x34 + x248 <= 1
C1864: + x236 + x352 <= 1
C1865: + x47 + x200 <= 1
C1866: + x139 + x276 <= 1
C1867: + x54 + x253 <= 1
C1868: + x37 + x133 <= 1
C1869: + x128 + x271 <= 1
C1870: + x150 + x287 <= 1
C1871: + x22 + x71 <= 1
C1872: + x32 + x132 <= 1
C1873: + x12 + x113 <= 1
C1874: + x35 + x180 <= 1
C1875: + x181 + x407 <= 1
C1876: + x6 + x395 <= 1
C1877: + x83 + x90 <= 1
C1878: + x3 + x41 <= 1
C1879: + x185 + x391 <= 1
C1880: + x243 + x252 <= 1
C1881: + x13 + x210 <= 1
C1882: + x40 + x81 <= 1
C1883: + x14 + x361 <= 1
C1884: + x132 + x317 <= 1
C1885: + x18 + x27 <= 1
C1886: + x222 + x283 <= 1
C1887: + x21 + x431 <= 1
C1888: + x252 + x286 <= 1
C1889: + x151 + x324 <= 1
C1890: + x10 + x481 <= 1
C1891: + x66 + x196 <= 1
C1892: + x268 + x486 <= 1
C1893: + x49 + x56 <= 1
C1894: + x233 + x277 <= 1
C1895: + x4 + x105 <= 1
C1896: + x171 + x399 <= 1
C1897: + x9 + x126 <= 1
C1898: + x15 + x411 <= 1
C1899: + x230 + x348 <= 1
C1900: + x303 + x388 <= 1
C1901: + x107 + x407 <= 1
C1902: + x6 + x99 <= 1
C1903: + x191 + x494 <= 1
C1904: + x19 + x75 <= 1
C1905: + x146 + x272 <= 1
C1906: + x47 + x477 <= 1
C1907: + x21 + x344 <= 1
C1908: + x5 + x10 <= 1
C1909: + x26 + x338 <= 1
C1910: + x137 + x386 <= 1
C1911: + x201 + x322 <= 1
C1912: + x30 + x32 <= 1
C1913: + x57 + x164 <= 1
C1914: + x267 + x341 <= 1
C1915: + x6 + x23 <= 1
C1916: + x73 + x108 + x294 <= 1
C1917: + x383 + x488 <= 1
C1918: + x94 + x134 <= 1
C1919: + x78 + x332 <= 1
C1920: + x171 + x326 <= 1
C1921: + x18 + x20 <= 1
C1922: + x241 + x288 <= 1
C1923: + x21 + x121 <= 1
C1924: + x39 + x167 <= 1
C1925: + x30 + x84 <= 1
C1926: + x32 + x431 <= 1
C1927: + x7 + x64 <= 1
C1928: + x273 + x475 <= 1
C1929: + x37 + x60 <= 1
C1930: + x183 + x454 <= 1
C1931: + x168 + x230 <= 1
C1932: + x15 + x144 <= 1
C1933: + x18 + x346 <= 1
C1934: + x73 + x328 <= 1
C1935: + x35 + x484 <= 1
C1936: + x44 + x469 <= 1
C1937: + x28 + x102 <= 1
C1938: + x21 + x240 <= 1
C1939: + x32 + x225 <= 1
C1940: + x3 + x446 <= 1
C1941: + x131 + x359 <= 1
C1942: + x176 + x312 <= 1
C1943: + x208 + x373 <= 1
C1944: + x9 + x450 <= 1
C1945: + x8 + x199 <= 1
C1946: + x63 + x426 <= 1
C1947: + x180 + x281 <= 1
C1948: + x126 + x162 <= 1
C1949: + x56 + x112 <= 1
C1950: + x148 + x324 <= 1
C1951: + x67 + x306 <= 1

binary
x1 x2 x3 x4 x5 x6 x7 x8 x9 x10 x11 x12 x13 x14 x15 x16 x17 x18 x19 x20 x21 x22 x23 x24 x25 x26 x27 x28 x29 x30 x31 x32 x33 x34 x35 x36 x37 x38 x39 x40 x41 x42 x43 x44 x45 x46 x47 x48 x49 x50 x51 x52 x53 x54 x55 x56 x57 x58 x59 x60 x61 x62 x63 x64 x65 x66 x67 x68 x69 x70 x71 x72 x73 x74 x75 x76 x77 x78 x79 x80 x81 x82 x83 x84 x85 x86 x87 x88 x89 x90 x91 x92 x93 x94 x95 x96 x97 x98 x99 x100 x101 x102 x103 x104 x105 x106 x107 x108 x109 x110 x111 x112 x113 x114 x115 x116 x117 x118 x119 x120 x121 x122 x123 x124 x125 x126 x127 x128 x129 x130 x131 x132 x133 x134 x135 x136 x137 x138 x139 x140 x141 x142 x143 x144 x145 x146 x147 x148 x149 x150 x151 x152 x153 x154 x155 x156 x157 x158 x159 x160 x161 x162 x163 x164 x165 x166 x167 x168 x169 x170 x171 x172 x173 x174 x175 x176 x177 x178 x179 x180 x181 x182 x183 x184 x185 x186 x187 x188 x189 x190 x191 x192 x193 x194 x195 x196 x197 x198 x199 x200 x201 x202 x203 x204 x205 x206 x207 x208 x209 x210 x211 x212 x213 x214 x215 x216 x217 x218 x219 x220 x221 x222 x223 x224 x225 x226 x227 x228 x229 x230 x231 x232 x233 x234 x235 x236 x237 x238 x239 x240 x241 x242 x243 x244 x245 x246 x247 x248 x249 x250 x251 x252 x253 x254 x255 x256 x257 x258 x259 x260 x261 x262 x263 x264 x265 x266 x267 x268 x269 x270 x271 x272 x273 x274 x275 x276 x277 x278 x279 x280 x281 x282 x283 x284 x285 x286 x287 x288 x289 x290 x291 x292 x293 x294 x295 x296 x297 x298 x299 x300 x301 x302 x303 x304 x305 x306 x307 x308 x309 x310 x311 x312 x313 x314 x315 x316 x317 x318 x319 x320 x321 x322 x323 x324 x325 x326 x327 x328 x329 x330 x331 x332 x333 x334 x335 x336 x337 x338 x339 x340 x341 x342 x343 x344 x345 x346 x347 x348 x349 x350 x351 x352 x353 x354 x355 x356 x357 x358 x359 x360 x361 x362 x363 x364 x365 x366 x367 x368 x369 x370 x371 x372 x373 x374 x375 x376 x377 x378 x379 x380 x381 x382 x383 x384 x385 x386 x387 x388 x389 x390 x391 x392 x393 x394 x395 x396 x397 x398 x399 x400 x401 x402 x403 x404 x405 x406 x407 x408 x409 x410 x411 x412 x413 x414 x415 x416 x417 x418 x419 x420 x421 x422 x423 x424 x425 x426 x427 x428 x429 x430 x431 x432 x433 x434 x435 x436 x437 x438 x439 x440 x441 x442 x443 x444 x445 x446 x447 x448 x449 x450 x451 x452 x453 x454 x455 x456 x457 x458 x459 x460 x461 x462 x463 x464 x465 x466 x467 x468 x469 x470 x471 x472 x473 x474 x475 x476 x477 x478 x479 x480 x481 x482 x483 x484 x485 x486 x487 x488 x489 x490 x491 x492 x493 x494 x495 x496 x497 x498 x499 x500
