maximize
OBJ: + 1 x1 + 1 x2 + 1 x3 + 1 x4 + 1 x5 + 1 x6 + 1 x7 + 1 x8 + 1 x9 + 1 x10 + 1 x11 + 1 x12 + 1 x13 + 1 x14 + 1 x15 + 1 x16 + 1 x17 + 1 x18 + 1 x19 + 1 x20 + 1 x21 + 1 x22 + 1 x23 + 1 x24 + 1 x25 + 1 x26 + 1 x27 + 1 x28 + 1 x29 + 1 x30 + 1 x31 + 1 x32 + 1 x33 + 1 x34 + 1 x35 + 1 x36 + 1 x37 + 1 x38 + 1 x39 + 1 x40 + 1 x41 + 1 x42 + 1 x43 + 1 x44 + 1 x45 + 1 x46 + 1 x47 + 1 x48 + 1 x49 + 1 x50 + 1 x51 + 1 x52 + 1 x53 + 1 x54 + 1 x55 + 1 x56 + 1 x57 + 1 x58 + 1 x59 + 1 x60 + 1 x61 + 1 x62 + 1 x63 + 1 x64 + 1 x65 + 1 x66 + 1 x67 + 1 x68 + 1 x69 + 1 x70 + 1 x71 + 1 x72 + 1 x73 + 1 x74 + 1 x75 + 1 x76 + 1 x77 + 1 x78 + 1 x79 + 1 x80 + 1 x81 + 1 x82 + 1 x83 + 1 x84 + 1 x85 + 1 x86 + 1 x87 + 1 x88 + 1 x89 + 1 x90 + 1 x91 + 1 x92 + 1 x93 + 1 x94 + 1 x95 + 1 x96 + 1 x97 + 1 x98 + 1 x99 + 1 x100 + 1 x101 + 1 x102 + 1 x103 + 1 x104 + 1 x105 + 1 x106 + 1 x107 + 1 x108 + 1 x109 + 1 x110 + 1 x111 + 1 x112 + 1 x113 + 1 x114 + 1 x115 + 1 x116 + 1 x117 + 1 x118 + 1 x119 + 1 x120 + 1 x121 + 1 x122 + 1 x123 + 1 x124 + 1 x125 + 1 x126 + 1 x127 + 1 x128 + 1 x129 + 1 x130 + 1 x131 + 1 x132 + 1 x133 + 1 x134 + 1 x135 + 1 x136 + 1 x137 + 1 x138 + 1 x139 + 1 x140 + 1 x141 + 1 x142 + 1 x143 + 1 x144 + 1 x145 + 1 x146 + 1 x147 + 1 x148 + 1 x149 + 1 x150 + 1 x151 + 1 x152 + 1 x153 + 1 x154 + 1 x155 + 1 x156 + 1 x157 + 1 x158 + 1 x159 + 1 x160 + 1 x161 + 1 x162 + 1 x163 + 1 x164 + 1 x165 + 1 x166 + 1 x167 + 1 x168 + 1 x169 + 1 x170 + 1 x171 + 1 x172 + 1 x173 + 1 x174 + 1 x175 + 1 x176 + 1 x177 + 1 x178 + 1 x179 + 1 x180 + 1 x181 + 1 x182 + 1 x183 + 1 x184 + 1 x185 + 1 x186 + 1 x187 + 1 x188 + 1 x189 + 1 x190 + 1 x191 + 1 x192 + 1 x193 + 1 x194 + 1 x195 + 1 x196 + 1 x197 + 1 x198 + 1 x199 + 1 x200 + 1 x201 + 1 x202 + 1 x203 + 1 x204 + 1 x205 + 1 x206 + 1 x207 + 1 x208 + 1 x209 + 1 x210 + 1 x211 + 1 x212 + 1 x213 + 1 x214 + 1 x215 + 1 x216 + 1 x217 + 1 x218 + 1 x219 + 1 x220 + 1 x221 + 1 x222 + 1 x223 + 1 x224 + 1 x225 + 1 x226 + 1 x227 + 1 x228 + 1 x229 + 1 x230 + 1 x231 + 1 x232 + 1 x233 + 1 x234 + 1 x235 + 1 x236 + 1 x237 + 1 x238 + 1 x239 + 1 x240 + 1 x241 + 1 x242 + 1 x243 + 1 x244 + 1 x245 + 1 x246 + 1 x247 + 1 x248 + 1 x249 + 1 x250 + 1 x251 + 1 x252 + 1 x253 + 1 x254 + 1 x255 + 1 x256 + 1 x257 + 1 x258 + 1 x259 + 1 x260 + 1 x261 + 1 x262 + 1 x263 + 1 x264 + 1 x265 + 1 x266 + 1 x267 + 1 x268 + 1 x269 + 1 x270 + 1 x271 + 1 x272 + 1 x273 + 1 x274 + 1 x275 + 1 x276 + 1 x277 + 1 x278 + 1 x279 + 1 x280 + 1 x281 + 1 x282 + 1 x283 + 1 x284 + 1 x285 + 1 x286 + 1 x287 + 1 x288 + 1 x289 + 1 x290 + 1 x291 + 1 x292 + 1 x293 + 1 x294 + 1 x295 + 1 x296 + 1 x297 + 1 x298 + 1 x299 + 1 x300 + 1 x301 + 1 x302 + 1 x303 + 1 x304 + 1 x305 + 1 x306 + 1 x307 + 1 x308 + 1 x309 + 1 x310 + 1 x311 + 1 x312 + 1 x313 + 1 x314 + 1 x315 + 1 x316 + 1 x317 + 1 x318 + 1 x319 + 1 x320 + 1 x321 + 1 x322 + 1 x323 + 1 x324 + 1 x325 + 1 x326 + 1 x327 + 1 x328 + 1 x329 + 1 x330 + 1 x331 + 1 x332 + 1 x333 + 1 x334 + 1 x335 + 1 x336 + 1 x337 + 1 x338 + 1 x339 + 1 x340 + 1 x341 + 1 x342 + 1 x343 + 1 x344 + 1 x345 + 1 x346 + 1 x347 + 1 x348 + 1 x349 + 1 x350 + 1 x351 + 1 x352 + 1 x353 + 1 x354 + 1 x355 + 1 x356 + 1 x357 + 1 x358 + 1 x359 + 1 x360 + 1 x361 + 1 x362 + 1 x363 + 1 x364 + 1 x365 + 1 x366 + 1 x367 + 1 x368 + 1 x369 + 1 x370 + 1 x371 + 1 x372 + 1 x373 + 1 x374 + 1 x375 + 1 x376 + 1 x377 + 1 x378 + 1 x379 + 1 x380 + 1 x381 + 1 x382 + 1 x383 + 1 x384 + 1 x385 + 1 x386 + 1 x387 + 1 x388 + 1 x389 + 1 x390 + 1 x391 + 1 x392 + 1 x393 + 1 x394 + 1 x395 + 1 x396 + 1 x397 + 1 x398 + 1 x399 + 1 x400 + 1 x401 + 1 x402 + 1 x403 + 1 x404 + 1 x405 + 1 x406 + 1 x407 + 1 x408 + 1 x409 + 1 x410 + 1 x411 + 1 x412 + 1 x413 + 1 x414 + 1 x415 + 1 x416 + 1 x417 + 1 x418 + 1 x419 + 1 x420 + 1 x421 + 1 x422 + 1 x423 + 1 x424 + 1 x425 + 1 x426 + 1 x427 + 1 x428 + 1 x429 + 1 x430 + 1 x431 + 1 x432 + 1 x433 + 1 x434 + 1 x435 + 1 x436 + 1 x437 + 1 x438 + 1 x439 + 1 x440 + 1 x441 + 1 x442 + 1 x443 + 1 x444 + 1 x445 + 1 x446 + 1 x447 + 1 x448 + 1 x449 + 1 x450 + 1 x451 + 1 x452 + 1 x453 + 1 x454 + 1 x455 + 1 x456 + 1 x457 + 1 x458 + 1 x459 + 1 x460 + 1 x461 + 1 x462 + 1 x463 + 1 x464 + 1 x465 + 1 x466 + 1 x467 + 1 x468 + 1 x469 + 1 x470 + 1 x471 + 1 x472 + 1 x473 + 1 x474 + 1 x475 + 1 x476 + 1 x477 + 1 x478 + 1 x479 + 1 x480 + 1 x481 + 1 x482 + 1 x483 + 1 x484 + 1 x485 + 1 x486 + 1 x487 + 1 x488 + 1 x489 + 1 x490 + 1 x491 + 1 x492 + 1 x493 + 1 x494 + 1 x495 + 1 x496 + 1 x497 + 1 x498 + 1 x499 + 1 x500

subject to
C1: + x39 + x276 <= 1
C2: + x6 + x32 <= 1
C3: + x63 + x65 <= 1
C4: + x11 + x171 <= 1
C5: + x297 + x364 <= 1
C6: + x15 + x232 <= 1
C7: + x26 + x117 <= 1
C8: + x350 + x422 <= 1
C9: + x216 + x442 <= 1
C10: + x229 + x413 <= 1
C11: + x69 + x468 <= 1
C12: + x117 + x163 <= 1
C13: + x16 + x31 <= 1
C14: + x329 + x353 <= 1
C15: + x147 + x412 <= 1
C16: + x116 + x464 <= 1
C17: + x111 + x118 <= 1
C18: + x288 + x438 <= 1
C19: + x17 + x206 <= 1
C20: + x45 + x87 <= 1
C21: + x92 + x119 <= 1
C22: + x148 + x329 <= 1
C23: + x176 + x430 <= 1
C24: + x57 + x178 <= 1
C25: + x49 + x260 <= 1
C26: + x12 + x394 <= 1
C27: + x23 + x49 <= 1
C28: + x8 + x23 <= 1
C29: + x251 + x435 <= 1
C30: + x22 + x308 <= 1
C31: + x93 + x338 <= 1
C32: + x180 + x347 <= 1
C33: + x62 + x491 <= 1
C34: + x13 + x51 <= 1
C35: + x14 + x189 <= 1
C36: + x14 + x328 <= 1
C37: + x2 + x264 <= 1
C38: + x3 + x400 <= 1
C39: + x4 + x434 <= 1
C40: + x238 + x247 <= 1
C41: + x5 + x231 <= 1
C42: + x2 + x177 <= 1
C43: + x3 + x319 <= 1
C44: + x4 + x12 <= 1
C45: + x13 + x103 <= 1
C46: + x31 + x137 <= 1
C47: + x336 + x423 <= 1
C48: + x38 + x123 <= 1
C49: + x29 + x463 <= 1
C50: + x14 + x415 <= 1
C51: + x151 + x253 <= 1
C52: + x73 + x252 <= 1
C53: + x7 + x146 <= 1
C54: + x1 + x190 <= 1
C55: + x129 + x355 <= 1
C56: + x63 + x392 <= 1
C57: + x11 + x93 <= 1
C58: + x4 + x153 <= 1
C59: + x48 + x50 <= 1
C60: + x180 + x307 <= 1
C61: + x6 + x384 <= 1
C62: + x2 + x9 + x13 <= 1
C63: + x1 + x91 <= 1
C64: + x21 + x22 <= 1
C65: + x4 + x56 <= 1
C66: + x13 + x488 <= 1
C67: + x32 + x390 <= 1
C68: + x6 + x403 <= 1
C69: + x19 + x306 <= 1
C70: + x63 + x222 <= 1
C71: + x25 + x494 <= 1
C72: + x32 + x57 <= 1
C73: + x89 + x174 <= 1
C74: + x14 + x182 <= 1
C75: + x9 + x26 <= 1
C76: + x8 + x452 <= 1
C77: + x2 + x281 <= 1
C78: + x256 + x487 <= 1
C79: + x21 + x90 <= 1
C80: + x361 + x469 <= 1
C81: + x62 + x440 <= 1
C82: + x22 + x199 <= 1
C83: + x484 + x495 <= 1
C84: + x3 + x8 <= 1
C85: + x96 + x318 <= 1
C86: + x6 + x11 <= 1
C87: + x92 + x271 <= 1
C88: + x147 + x176 <= 1
C89: + x38 + x274 <= 1
C90: + x22 + x56 <= 1
C91: + x441 + x444 <= 1
C92: + x15 + x302 <= 1
C93: + x174 + x338 <= 1
C94: + x122 + x225 <= 1
C95: + x12 + x66 <= 1
C96: + x13 + x82 <= 1
C97: + x196 + x308 <= 1
C98: + x13 + x415 <= 1
C99: + x22 + x139 <= 1
C100: + x4 + x303 <= 1
C101: + x5 + x161 <= 1
C102: + x6 + x63 <= 1
C103: + x7 + x197 <= 1
C104: + x27 + x86 <= 1
C105: + x106 + x365 <= 1
C106: + x11 + x140 <= 1
C107: + x17 + x434 <= 1
C108: + x233 + x376 <= 1
C109: + x36 + x496 <= 1
C110: + x19 + x23 <= 1
C111: + x183 + x184 <= 1
C112: + x1 + x193 <= 1
C113: + x25 + x274 <= 1
C114: + x57 + x123 <= 1
C115: + x113 + x120 <= 1
C116: + x222 + x268 <= 1
C117: + x15 + x27 <= 1
C118: + x163 + x420 <= 1
C119: + x19 + x477 <= 1
C120: + x122 + x451 <= 1
C121: + x132 + x347 <= 1
C122: + x5 + x213 <= 1
C123: + x188 + x426 <= 1
C124: + x45 + x68 <= 1
C125: + x1 + x29 <= 1
C126: + x8 + x74 <= 1
C127: + x178 + x212 <= 1
C128: + x32 + x328 <= 1
C129: + x298 + x341 <= 1
C130: + x16 + x58 <= 1
C131: + x55 + x237 <= 1
C132: + x22 + x478 <= 1
C133: + x150 + x265 <= 1
C134: + x126 + x396 <= 1
C135: + x180 + x486 <= 1
C136: + x5 + x25 <= 1
C137: + x6 + x151 <= 1
C138: + x185 + x235 <= 1
C139: + x223 + x359 <= 1
C140: + x396 + x488 <= 1
C141: + x44 + x139 <= 1
C142: + x16 + x462 <= 1
C143: + x138 + x322 <= 1
C144: + x73 + x214 <= 1
C145: + x166 + x207 <= 1
C146: + x43 + x335 <= 1
C147: + x80 + x307 <= 1
C148: + x10 + x160 <= 1
C149: + x152 + x475 <= 1
C150: + x194 + x484 <= 1
C151: + x59 + x124 <= 1
C152: + x13 + x175 <= 1
C153: + x14 + x57 <= 1
C154: + x355 + x480 <= 1
C155: + x13 + x20 <= 1
C156: + x96 + x397 <= 1
C157: + x87 + x436 <= 1
C158: + x293 + x343 <= 1
C159: + x86 + x108 <= 1
C160: + x13 + x318 <= 1
C161: + x179 + x457 <= 1
C162: + x53 + x304 <= 1
C163: + x32 + x135 <= 1
C164: + x126 + x360 <= 1
C165: + x128 + x147 <= 1
C166: + x13 + x72 <= 1
C167: + x15 + x473 <= 1
C168: + x172 + x471 <= 1
C169: + x2 + x499 <= 1
C170: + x3 + x481 <= 1
C171: + x41 + x393 <= 1
C172: + x4 + x285 <= 1
C173: + x169 + x350 <= 1
C174: + x15 + x118 <= 1
C175: + x144 + x165 <= 1
C176: + x3 + x207 <= 1
C177: + x4 + x188 <= 1
C178: + x17 + x146 <= 1
C179: + x11 + x287 <= 1
C180: + x25 + x114 <= 1
C181: + x11 + x13 <= 1
C182: + x232 + x357 <= 1
C183: + x23 + x101 <= 1
C184: + x6 + x213 <= 1
C185: + x39 + x60 <= 1
C186: + x22 + x210 <= 1
C187: + x108 + x397 <= 1
C188: + x27 + x141 <= 1
C189: + x27 + x290 <= 1
C190: + x19 + x80 <= 1
C191: + x74 + x291 <= 1
C192: + x445 + x446 <= 1
C193: + x11 + x113 <= 1
C194: + x13 + x154 <= 1
C195: + x36 + x73 <= 1
C196: + x194 + x212 <= 1
C197: + x186 + x239 <= 1
C198: + x33 + x299 <= 1
C199: + x23 + x327 <= 1
C200: + x81 + x314 <= 1
C201: + x156 + x266 <= 1
C202: + x21 + x316 <= 1
C203: + x50 + x101 <= 1
C204: + x51 + x107 <= 1
C205: + x15 + x125 <= 1
C206: + x32 + x271 <= 1
C207: + x23 + x306 <= 1
C208: + x45 + x154 <= 1
C209: + x154 + x391 <= 1
C210: + x12 + x33 <= 1
C211: + x25 + x121 <= 1
C212: + x161 + x465 <= 1
C213: + x211 + x416 <= 1
C214: + x3 + x121 <= 1
C215: + x90 + x126 + x144 <= 1
C216: + x22 + x219 <= 1
C217: + x5 + x103 <= 1
C218: + x243 + x474 <= 1
C219: + x141 + x386 <= 1
C220: + x14 + x142 <= 1
C221: + x14 + x345 <= 1
C222: + x17 + x69 <= 1
C223: + x89 + x424 <= 1
C224: + x22 + x489 <= 1
C225: + x34 + x112 <= 1
C226: + x5 + x337 <= 1
C227: + x7 + x117 <= 1
C228: + x147 + x148 <= 1
C229: + x67 + x77 <= 1
C230: + x194 + x266 <= 1
C231: + x22 + x76 <= 1
C232: + x23 + x76 <= 1
C233: + x25 + x418 <= 1
C234: + x126 + x378 <= 1
C235: + x1 + x62 <= 1
C236: + x14 + x269 <= 1
C237: + x150 + x405 <= 1
C238: + x11 + x434 <= 1
C239: + x249 + x488 <= 1
C240: + x6 + x19 <= 1
C241: + x62 + x86 <= 1
C242: + x15 + x72 <= 1
C243: + x10 + x88 <= 1
C244: + x237 + x377 <= 1
C245: + x2 + x211 <= 1
C246: + x129 + x402 <= 1
C247: + x368 + x414 <= 1
C248: + x17 + x315 <= 1
C249: + x19 + x160 <= 1
C250: + x231 + x283 <= 1
C251: + x14 + x449 <= 1
C252: + x19 + x449 <= 1
C253: + x2 + x409 <= 1
C254: + x49 + x326 <= 1
C255: + x178 + x413 <= 1
C256: + x15 + x148 <= 1
C257: + x109 + x283 <= 1
C258: + x8 + x174 <= 1
C259: + x15 + x354 <= 1
C260: + x18 + x68 <= 1
C261: + x10 + x383 <= 1
C262: + x211 + x221 <= 1
C263: + x50 + x219 <= 1
C264: + x251 + x369 <= 1
C265: + x39 + x348 <= 1
C266: + x115 + x489 <= 1
C267: + x6 + x88 <= 1
C268: + x44 + x346 <= 1
C269: + x119 + x481 <= 1
C270: + x229 + x353 <= 1
C271: + x17 + x262 <= 1
C272: + x9 + x248 <= 1
C273: + x10 + x208 <= 1
C274: + x102 + x135 <= 1
C275: + x281 + x392 <= 1
C276: + x13 + x109 <= 1
C277: + x5 + x495 <= 1
C278: + x17 + x120 <= 1
C279: + x6 + x28 <= 1
C280: + x15 + x79 <= 1
C281: + x17 + x405 <= 1
C282: + x11 + x87 <= 1
C283: + x15 + x349 <= 1
C284: + x9 + x36 <= 1
C285: + x113 + x139 <= 1
C286: + x25 + x71 <= 1
C287: + x159 + x341 <= 1
C288: + x10 + x279 <= 1
C289: + x75 + x250 <= 1
C290: + x3 + x75 <= 1
C291: + x9 + x382 <= 1
C292: + x121 + x333 <= 1
C293: + x243 + x460 <= 1
C294: + x197 + x226 <= 1
C295: + x62 + x305 <= 1
C296: + x14 + x331 <= 1
C297: + x247 + x388 <= 1
C298: + x16 + x27 <= 1
C299: + x92 + x478 <= 1
C300: + x394 + x476 <= 1
C301: + x55 + x196 <= 1
C302: + x4 + x333 <= 1
C303: + x198 + x401 <= 1
C304: + x200 + x429 <= 1
C305: + x2 + x17 <= 1
C306: + x31 + x105 <= 1
C307: + x15 + x167 <= 1
C308: + x8 + x95 <= 1
C309: + x119 + x202 <= 1
C310: + x378 + x450 <= 1
C311: + x4 + x7 <= 1
C312: + x206 + x255 <= 1
C313: + x26 + x54 <= 1
C314: + x6 + x482 <= 1
C315: + x28 + x298 <= 1
C316: + x120 + x409 <= 1
C317: + x141 + x150 <= 1
C318: + x6 + x371 <= 1
C319: + x9 + x43 <= 1
C320: + x10 + x189 <= 1
C321: + x93 + x393 <= 1
C322: + x30 + x34 <= 1
C323: + x13 + x96 <= 1
C324: + x105 + x127 <= 1
C325: + x32 + x409 <= 1
C326: + x165 + x470 <= 1
C327: + x11 + x33 <= 1
C328: + x61 + x263 <= 1
C329: + x270 + x481 <= 1
C330: + x154 + x216 <= 1
C331: + x11 + x134 <= 1
C332: + x77 + x290 <= 1
C333: + x98 + x173 <= 1
C334: + x107 + x146 <= 1
C335: + x17 + x170 <= 1
C336: + x75 + x423 <= 1
C337: + x12 + x471 <= 1
C338: + x5 + x334 <= 1
C339: + x30 + x43 + x263 <= 1
C340: + x208 + x327 <= 1
C341: + x84 + x132 <= 1
C342: + x242 + x248 <= 1
C343: + x4 + x10 + x11 + x14 <= 1
C344: + x8 + x88 <= 1
C345: + x139 + x387 <= 1
C346: + x48 + x77 <= 1
C347: + x3 + x315 <= 1
C348: + x4 + x16 <= 1
C349: + x25 + x137 <= 1
C350: + x142 + x323 <= 1
C351: + x117 + x122 <= 1
C352: + x212 + x241 <= 1
C353: + x340 + x475 <= 1
C354: + x25 + x38 <= 1
C355: + x355 + x418 <= 1
C356: + x181 + x268 <= 1
C357: + x110 + x348 <= 1
C358: + x31 + x32 <= 1
C359: + x20 + x162 <= 1
C360: + x58 + x420 <= 1
C361: + x33 + x259 <= 1
C362: + x167 + x422 <= 1
C363: + x34 + x64 <= 1
C364: + x52 + x214 <= 1
C365: + x62 + x210 <= 1
C366: + x73 + x79 <= 1
C367: + x18 + x422 <= 1
C368: + x193 + x470 <= 1
C369: + x15 + x101 <= 1
C370: + x7 + x267 <= 1
C371: + x19 + x28 <= 1
C372: + x10 + x55 <= 1
C373: + x8 + x153 <= 1
C374: + x13 + x38 <= 1
C375: + x14 + x178 <= 1
C376: + x25 + x196 <= 1
C377: + x234 + x395 <= 1
C378: + x9 + x30 <= 1
C379: + x126 + x216 <= 1
C380: + x129 + x290 <= 1
C381: + x283 + x368 <= 1
C382: + x77 + x176 <= 1
C383: + x29 + x339 <= 1
C384: + x17 + x363 <= 1
C385: + x160 + x274 <= 1
C386: + x227 + x344 <= 1
C387: + x10 + x350 <= 1
C388: + x19 + x95 <= 1
C389: + x147 + x172 <= 1
C390: + x6 + x357 <= 1
C391: + x24 + x62 <= 1
C392: + x134 + x211 <= 1
C393: + x1 + x499 <= 1
C394: + x250 + x456 <= 1
C395: + x20 + x441 <= 1
C396: + x104 + x319 <= 1
C397: + x36 + x39 <= 1
C398: + x10 + x64 <= 1
C399: + x111 + x164 <= 1
C400: + x38 + x322 <= 1
C401: + x37 + x374 <= 1
C402: + x4 + x178 <= 1
C403: + x12 + x211 <= 1
C404: + x108 + x359 <= 1
C405: + x273 + x306 <= 1
C406: + x2 + x278 <= 1
C407: + x230 + x357 <= 1
C408: + x25 + x104 <= 1
C409: + x17 + x453 <= 1
C410: + x202 + x388 <= 1
C411: + x15 + x188 <= 1
C412: + x141 + x401 <= 1
C413: + x80 + x326 <= 1
C414: + x322 + x469 <= 1
C415: + x348 + x478 <= 1
C416: + x133 + x232 <= 1
C417: + x6 + x128 <= 1
C418: + x179 + x462 <= 1
C419: + x8 + x272 <= 1
C420: + x10 + x117 <= 1
C421: + x33 + x436 <= 1
C422: + x22 + x61 <= 1
C423: + x40 + x103 <= 1
C424: + x126 + x150 <= 1
C425: + x367 + x453 <= 1
C426: + x74 + x408 <= 1
C427: + x64 + x109 <= 1
C428: + x4 + x42 <= 1
C429: + x64 + x196 <= 1
C430: + x12 + x19 + x22 <= 1
C431: + x244 + x246 <= 1
C432: + x372 + x374 <= 1
C433: + x92 + x155 <= 1
C434: + x233 + x355 <= 1
C435: + x14 + x367 <= 1
C436: + x200 + x238 <= 1
C437: + x103 + x417 <= 1
C438: + x59 + x163 <= 1
C439: + x25 + x111 <= 1
C440: + x128 + x441 <= 1
C441: + x15 + x131 <= 1
C442: + x45 + x490 <= 1
C443: + x135 + x262 <= 1
C444: + x49 + x50 <= 1
C445: + x29 + x198 <= 1
C446: + x178 + x201 <= 1
C447: + x114 + x198 <= 1
C448: + x70 + x75 <= 1
C449: + x10 + x336 <= 1
C450: + x25 + x59 <= 1
C451: + x15 + x46 <= 1
C452: + x36 + x342 <= 1
C453: + x65 + x146 <= 1
C454: + x28 + x465 <= 1
C455: + x57 + x356 <= 1
C456: + x123 + x396 <= 1
C457: + x141 + x287 <= 1
C458: + x358 + x411 <= 1
C459: + x162 + x232 <= 1
C460: + x33 + x459 <= 1
C461: + x349 + x354 <= 1
C462: + x367 + x464 <= 1
C463: + x334 + x482 <= 1
C464: + x80 + x151 <= 1
C465: + x8 + x406 <= 1
C466: + x120 + x433 <= 1
C467: + x55 + x56 <= 1
C468: + x67 + x234 <= 1
C469: + x177 + x293 <= 1
C470: + x330 + x399 <= 1
C471: + x21 + x313 <= 1
C472: + x74 + x215 <= 1
C473: + x10 + x42 <= 1
C474: + x120 + x131 <= 1
C475: + x8 + x136 <= 1
C476: + x116 + x437 <= 1
C477: + x138 + x206 <= 1
C478: + x4 + x205 <= 1
C479: + x16 + x314 <= 1
C480: + x238 + x453 <= 1
C481: + x39 + x64 <= 1
C482: + x205 + x327 <= 1
C483: + x52 + x102 <= 1
C484: + x15 + x412 <= 1
C485: + x162 + x435 <= 1
C486: + x6 + x98 <= 1
C487: + x237 + x330 <= 1
C488: + x5 + x11 <= 1
C489: + x108 + x203 <= 1
C490: + x145 + x294 <= 1
C491: + x10 + x194 <= 1
C492: + x63 + x257 <= 1
C493: + x306 + x396 <= 1
C494: + x118 + x414 <= 1
C495: + x16 + x480 <= 1
C496: + x49 + x194 <= 1
C497: + x270 + x318 <= 1
C498: + x8 + x253 <= 1
C499: + x2 + x222 <= 1
C500: + x65 + x362 <= 1
C501: + x63 + x404 <= 1
C502: + x5 + x63 <= 1
C503: + x70 + x446 <= 1
C504: + x125 + x244 <= 1
C505: + x134 + x351 <= 1
C506: + x2 + x377 <= 1
C507: + x12 + x37 <= 1
C508: + x39 + x168 <= 1
C509: + x42 + x149 <= 1
C510: + x98 + x472 <= 1
C511: + x17 + x42 <= 1
C512: + x9 + x407 <= 1
C513: + x13 + x345 <= 1
C514: + x32 + x77 <= 1
C515: + x8 + x177 <= 1
C516: + x74 + x351 <= 1
C517: + x3 + x282 <= 1
C518: + x214 + x295 <= 1
C519: + x14 + x341 <= 1
C520: + x36 + x229 <= 1
C521: + x72 + x152 <= 1
C522: + x9 + x102 <= 1
C523: + x5 + x349 <= 1
C524: + x6 + x107 <= 1
C525: + x129 + x346 <= 1
C526: + x153 + x336 <= 1
C527: + x6 + x345 <= 1
C528: + x238 + x498 <= 1
C529: + x15 + x25 + x74 <= 1
C530: + x25 + x184 <= 1
C531: + x142 + x340 <= 1
C532: + x151 + x228 <= 1
C533: + x109 + x355 <= 1
C534: + x280 + x454 <= 1
C535: + x75 + x108 <= 1
C536: + x238 + x387 <= 1
C537: + x192 + x296 <= 1
C538: + x117 + x291 <= 1
C539: + x6 + x269 <= 1
C540: + x372 + x488 <= 1
C541: + x91 + x407 <= 1
C542: + x147 + x485 <= 1
C543: + x123 + x384 <= 1
C544: + x340 + x441 <= 1
C545: + x169 + x479 <= 1
C546: + x5 + x280 <= 1
C547: + x127 + x352 <= 1
C548: + x74 + x82 <= 1
C549: + x55 + x94 <= 1
C550: + x6 + x432 <= 1
C551: + x181 + x335 <= 1
C552: + x13 + x53 <= 1
C553: + x25 + x318 <= 1
C554: + x34 + x154 <= 1
C555: + x189 + x204 <= 1
C556: + x77 + x397 <= 1
C557: + x6 + x84 <= 1
C558: + x7 + x100 <= 1
C559: + x9 + x458 <= 1
C560: + x10 + x478 <= 1
C561: + x121 + x441 <= 1
C562: + x2 + x20 <= 1
C563: + x50 + x58 <= 1
C564: + x431 + x470 <= 1
C565: + x52 + x302 <= 1
C566: + x3 + x132 <= 1
C567: + x45 + x88 <= 1
C568: + x8 + x94 <= 1
C569: + x4 + x6 <= 1
C570: + x13 + x105 <= 1
C571: + x218 + x300 <= 1
C572: + x190 + x491 <= 1
C573: + x10 + x93 <= 1
C574: + x81 + x118 <= 1
C575: + x8 + x18 <= 1
C576: + x11 + x312 <= 1
C577: + x51 + x351 <= 1
C578: + x232 + x414 <= 1
C579: + x4 + x389 <= 1
C580: + x18 + x432 <= 1
C581: + x7 + x47 <= 1
C582: + x129 + x215 <= 1
C583: + x64 + x172 <= 1
C584: + x11 + x489 <= 1
C585: + x195 + x500 <= 1
C586: + x117 + x345 <= 1
C587: + x15 + x159 <= 1
C588: + x2 + x252 <= 1
C589: + x38 + x339 <= 1
C590: + x22 + x233 <= 1
C591: + x142 + x402 <= 1
C592: + x11 + x380 <= 1
C593: + x51 + x224 <= 1
C594: + x347 + x436 <= 1
C595: + x156 + x356 <= 1
C596: + x157 + x217 <= 1
C597: + x3 + x155 <= 1
C598: + x15 + x288 <= 1
C599: + x28 + x143 <= 1
C600: + x55 + x375 <= 1
C601: + x135 + x286 <= 1
C602: + x63 + x310 <= 1
C603: + x42 + x265 <= 1
C604: + x223 + x330 <= 1
C605: + x207 + x249 <= 1
C606: + x9 + x96 <= 1
C607: + x30 + x234 <= 1
C608: + x51 + x358 <= 1
C609: + x36 + x223 <= 1
C610: + x195 + x311 <= 1
C611: + x21 + x477 <= 1
C612: + x3 + x175 <= 1
C613: + x240 + x369 <= 1
C614: + x15 + x247 <= 1
C615: + x17 + x301 <= 1
C616: + x10 + x161 <= 1
C617: + x239 + x480 <= 1
C618: + x21 + x23 <= 1
C619: + x106 + x117 <= 1
C620: + x25 + x82 <= 1
C621: + x316 + x432 <= 1
C622: + x80 + x191 <= 1
C623: + x11 + x45 <= 1
C624: + x130 + x133 <= 1
C625: + x50 + x128 <= 1
C626: + x42 + x43 <= 1
C627: + x9 + x361 <= 1
C628: + x10 + x50 <= 1
C629: + x103 + x215 <= 1
C630: + x13 + x43 <= 1
C631: + x287 + x410 <= 1
C632: + x4 + x72 <= 1
C633: + x188 + x234 <= 1
C634: + x127 + x217 <= 1
C635: + x326 + x446 <= 1
C636: + x12 + x459 <= 1
C637: + x42 + x188 <= 1
C638: + x84 + x136 <= 1
C639: + x49 + x420 <= 1
C640: + x1 + x5 + x6 + x8 <= 1
C641: + x174 + x187 + x272 <= 1
C642: + x1 + x7 <= 1
C643: + x4 + x116 <= 1
C644: + x25 + x141 <= 1
C645: + x3 + x5 <= 1
C646: + x12 + x391 <= 1
C647: + x348 + x452 <= 1
C648: + x410 + x460 <= 1
C649: + x106 + x195 <= 1
C650: + x61 + x427 <= 1
C651: + x1 + x83 <= 1
C652: + x391 + x406 <= 1
C653: + x106 + x433 <= 1
C654: + x25 + x89 <= 1
C655: + x142 + x307 <= 1
C656: + x148 + x385 <= 1
C657: + x12 + x371 <= 1
C658: + x23 + x32 <= 1
C659: + x117 + x431 <= 1
C660: + x73 + x176 <= 1
C661: + x28 + x65 <= 1
C662: + x5 + x71 <= 1
C663: + x1 + x111 <= 1
C664: + x11 + x366 <= 1
C665: + x203 + x231 <= 1
C666: + x21 + x98 <= 1
C667: + x59 + x356 <= 1
C668: + x97 + x456 <= 1
C669: + x151 + x180 <= 1
C670: + x17 + x450 <= 1
C671: + x93 + x373 <= 1
C672: + x11 + x28 <= 1
C673: + x272 + x489 <= 1
C674: + x38 + x470 <= 1
C675: + x34 + x491 <= 1
C676: + x9 + x348 <= 1
C677: + x8 + x73 <= 1
C678: + x47 + x94 <= 1
C679: + x205 + x342 <= 1
C680: + x24 + x102 <= 1
C681: + x44 + x210 <= 1
C682: + x80 + x377 <= 1
C683: + x236 + x357 <= 1
C684: + x42 + x105 <= 1
C685: + x14 + x400 <= 1
C686: + x35 + x332 <= 1
C687: + x37 + x398 <= 1
C688: + x15 + x310 <= 1
C689: + x80 + x490 <= 1
C690: + x381 + x385 <= 1
C691: + x11 + x289 <= 1
C692: + x248 + x455 <= 1
C693: + x178 + x338 <= 1
C694: + x104 + x472 <= 1
C695: + x81 + x333 <= 1
C696: + x72 + x228 <= 1
C697: + x13 + x380 <= 1
C698: + x6 + x39 <= 1
C699: + x36 + x408 <= 1
C700: + x10 + x36 <= 1
C701: + x282 + x468 <= 1
C702: + x31 + x55 <= 1
C703: + x161 + x359 <= 1
C704: + x17 + x156 <= 1
C705: + x90 + x257 <= 1
C706: + x117 + x136 <= 1
C707: + x103 + x430 <= 1
C708: + x39 + x183 <= 1
C709: + x12 + x54 <= 1
C710: + x6 + x440 <= 1
C711: + x45 + x330 <= 1
C712: + x57 + x277 <= 1
C713: + x3 + x104 <= 1
C714: + x18 + x362 <= 1
C715: + x1 + x21 <= 1
C716: + x36 + x246 <= 1
C717: + x65 + x114 <= 1
C718: + x63 + x140 <= 1
C719: + x247 + x421 <= 1
C720: + x4 + x340 <= 1
C721: + x15 + x47 <= 1
C722: + x181 + x486 <= 1
C723: + x11 + x119 <= 1
C724: + x84 + x226 <= 1
C725: + x30 + x358 <= 1
C726: + x6 + x159 <= 1
C727: + x108 + x209 <= 1
C728: + x180 + x265 <= 1
C729: + x1 + x33 <= 1
C730: + x187 + x280 <= 1
C731: + x24 + x55 <= 1
C732: + x73 + x97 <= 1
C733: + x335 + x467 <= 1
C734: + x5 + x152 <= 1
C735: + x43 + x406 <= 1
C736: + x191 + x465 <= 1
C737: + x14 + x125 <= 1
C738: + x15 + x123 <= 1
C739: + x35 + x279 <= 1
C740: + x61 + x397 <= 1
C741: + x18 + x37 <= 1
C742: + x4 + x429 <= 1
C743: + x15 + x486 <= 1
C744: + x128 + x421 <= 1
C745: + x411 + x439 <= 1
C746: + x20 + x402 <= 1
C747: + x33 + x499 <= 1
C748: + x261 + x273 <= 1
C749: + x273 + x444 <= 1
C750: + x10 + x17 <= 1
C751: + x228 + x275 <= 1
C752: + x12 + x188 <= 1
C753: + x214 + x273 <= 1
C754: + x197 + x313 <= 1
C755: + x6 + x450 <= 1
C756: + x173 + x413 <= 1
C757: + x201 + x241 <= 1
C758: + x411 + x474 <= 1
C759: + x204 + x366 <= 1
C760: + x22 + x495 <= 1
C761: + x71 + x179 <= 1
C762: + x7 + x115 <= 1
C763: + x45 + x373 <= 1
C764: + x88 + x159 <= 1
C765: + x177 + x330 <= 1
C766: + x1 + x40 <= 1
C767: + x19 + x242 <= 1
C768: + x4 + x19 <= 1
C769: + x97 + x108 <= 1
C770: + x22 + x165 <= 1
C771: + x153 + x483 <= 1
C772: + x36 + x295 <= 1
C773: + x80 + x147 <= 1
C774: + x106 + x327 <= 1
C775: + x6 + x41 <= 1
C776: + x15 + x126 <= 1
C777: + x8 + x309 <= 1
C778: + x8 + x132 <= 1
C779: + x229 + x424 <= 1
C780: + x63 + x493 <= 1
C781: + x2 + x380 <= 1
C782: + x76 + x477 <= 1
C783: + x22 + x292 <= 1
C784: + x62 + x205 <= 1
C785: + x190 + x333 <= 1
C786: + x229 + x250 <= 1
C787: + x10 + x492 <= 1
C788: + x2 + x391 <= 1
C789: + x176 + x325 <= 1
C790: + x187 + x456 <= 1
C791: + x18 + x175 <= 1
C792: + x73 + x326 <= 1
C793: + x2 + x149 <= 1
C794: + x9 + x134 <= 1
C795: + x10 + x26 <= 1
C796: + x8 + x184 <= 1
C797: + x43 + x358 <= 1
C798: + x89 + x116 <= 1
C799: + x6 + x459 <= 1
C800: + x149 + x451 <= 1
C801: + x45 + x372 <= 1
C802: + x146 + x192 <= 1
C803: + x146 + x259 <= 1
C804: + x2 + x6 <= 1
C805: + x57 + x367 <= 1
C806: + x65 + x338 <= 1
C807: + x5 + x247 <= 1
C808: + x24 + x226 <= 1
C809: + x9 + x242 <= 1
C810: + x28 + x192 <= 1
C811: + x6 + x348 <= 1
C812: + x236 + x473 <= 1
C813: + x8 + x399 <= 1
C814: + x11 + x447 <= 1
C815: + x50 + x157 <= 1
C816: + x14 + x111 <= 1
C817: + x65 + x366 <= 1
C818: + x272 + x352 <= 1
C819: + x375 + x390 <= 1
C820: + x35 + x398 <= 1
C821: + x17 + x129 <= 1
C822: + x273 + x283 <= 1
C823: + x8 + x32 <= 1
C824: + x458 + x480 <= 1
C825: + x25 + x65 <= 1
C826: + x44 + x173 <= 1
C827: + x45 + x311 <= 1
C828: + x8 + x323 <= 1
C829: + x64 + x381 <= 1
C830: + x215 + x312 <= 1
C831: + x25 + x414 <= 1
C832: + x9 + x376 <= 1
C833: + x18 + x168 <= 1
C834: + x12 + x170 <= 1
C835: + x86 + x376 <= 1
C836: + x57 + x100 <= 1
C837: + x165 + x312 <= 1
C838: + x48 + x201 <= 1
C839: + x394 + x466 <= 1
C840: + x13 + x300 <= 1
C841: + x199 + x301 <= 1
C842: + x9 + x455 <= 1
C843: + x263 + x434 <= 1
C844: + x113 + x371 <= 1
C845: + x349 + x372 <= 1
C846: + x13 + x137 <= 1
C847: + x121 + x275 <= 1
C848: + x113 + x224 <= 1
C849: + x21 + x57 <= 1
C850: + x112 + x122 <= 1
C851: + x342 + x349 <= 1
C852: + x38 + x399 <= 1
C853: + x106 + x305 <= 1
C854: + x43 + x399 <= 1
C855: + x6 + x27 <= 1
C856: + x159 + x203 <= 1
C857: + x146 + x237 <= 1
C858: + x136 + x317 <= 1
C859: + x158 + x261 <= 1
C860: + x15 + x233 <= 1
C861: + x270 + x406 <= 1
C862: + x1 + x66 <= 1
C863: + x8 + x21 <= 1
C864: + x4 + x388 <= 1
C865: + x17 + x37 <= 1
C866: + x18 + x427 <= 1
C867: + x54 + x162 <= 1
C868: + x103 + x128 <= 1
C869: + x22 + x393 <= 1
C870: + x14 + x92 <= 1
C871: + x36 + x51 <= 1
C872: + x16 + x199 <= 1
C873: + x75 + x92 <= 1
C874: + x10 + x12 <= 1
C875: + x276 + x439 <= 1
C876: + x28 + x114 <= 1
C877: + x8 + x166 <= 1
C878: + x13 + x49 <= 1
C879: + x14 + x191 <= 1
C880: + x21 + x81 <= 1
C881: + x12 + x465 <= 1
C882: + x62 + x147 <= 1
C883: + x2 + x24 <= 1
C884: + x277 + x416 <= 1
C885: + x31 + x106 <= 1
C886: + x45 + x84 <= 1
C887: + x36 + x127 <= 1
C888: + x181 + x204 <= 1
C889: + x2 + x179 <= 1
C890: + x183 + x244 <= 1
C891: + x77 + x288 <= 1
C892: + x17 + x112 <= 1
C893: + x154 + x496 <= 1
C894: + x49 + x244 <= 1
C895: + x13 + x279 <= 1
C896: + x23 + x54 <= 1
C897: + x52 + x351 <= 1
C898: + x216 + x378 <= 1
C899: + x19 + x110 <= 1
C900: + x47 + x448 <= 1
C901: + x22 + x33 <= 1
C902: + x170 + x240 <= 1
C903: + x368 + x419 <= 1
C904: + x73 + x492 <= 1
C905: + x1 + x89 <= 1
C906: + x19 + x143 <= 1
C907: + x8 + x14 <= 1
C908: + x131 + x290 <= 1
C909: + x64 + x113 <= 1
C910: + x268 + x286 <= 1
C911: + x80 + x190 <= 1
C912: + x10 + x287 <= 1
C913: + x220 + x236 <= 1
C914: + x11 + x34 <= 1
C915: + x32 + x63 <= 1
C916: + x15 + x99 <= 1
C917: + x180 + x418 <= 1
C918: + x236 + x404 <= 1
C919: + x36 + x485 <= 1
C920: + x6 + x56 <= 1
C921: + x11 + x131 <= 1
C922: + x22 + x245 <= 1
C923: + x32 + x297 <= 1
C924: + x6 + x294 <= 1
C925: + x9 + x24 <= 1
C926: + x65 + x85 <= 1
C927: + x16 + x99 <= 1
C928: + x73 + x472 <= 1
C929: + x86 + x477 <= 1
C930: + x21 + x405 <= 1
C931: + x33 + x142 <= 1
C932: + x319 + x349 <= 1
C933: + x11 + x22 <= 1
C934: + x12 + x309 <= 1
C935: + x69 + x343 <= 1
C936: + x171 + x187 <= 1
C937: + x444 + x448 <= 1
C938: + x18 + x206 <= 1
C939: + x268 + x295 <= 1
C940: + x25 + x138 <= 1
C941: + x1 + x417 <= 1
C942: + x37 + x106 <= 1
C943: + x148 + x436 <= 1
C944: + x3 + x10 <= 1
C945: + x2 + x471 <= 1
C946: + x5 + x371 <= 1
C947: + x15 + x90 <= 1
C948: + x8 + x281 <= 1
C949: + x8 + x232 <= 1
C950: + x1 + x334 <= 1
C951: + x269 + x320 <= 1
C952: + x1 + x96 <= 1
C953: + x291 + x442 <= 1
C954: + x84 + x430 <= 1
C955: + x4 + x59 <= 1
C956: + x22 + x141 <= 1
C957: + x54 + x180 <= 1
C958: + x220 + x225 <= 1
C959: + x2 + x86 <= 1
C960: + x29 + x416 <= 1
C961: + x6 + x49 <= 1
C962: + x7 + x199 <= 1
C963: + x9 + x162 <= 1
C964: + x1 + x207 <= 1
C965: + x8 + x156 <= 1
C966: + x166 + x200 <= 1
C967: + x282 + x454 <= 1
C968: + x13 + x39 <= 1
C969: + x28 + x235 <= 1
C970: + x239 + x304 <= 1
C971: + x151 + x189 <= 1
C972: + x143 + x202 <= 1
C973: + x66 + x255 <= 1
C974: + x2 + x98 <= 1
C975: + x95 + x199 <= 1
C976: + x4 + x217 <= 1
C977: + x31 + x92 <= 1
C978: + x261 + x296 <= 1
C979: + x13 + x182 <= 1
C980: + x90 + x241 <= 1
C981: + x8 + x80 <= 1
C982: + x48 + x85 <= 1
C983: + x53 + x130 <= 1
C984: + x9 + x75 <= 1
C985: + x65 + x104 <= 1
C986: + x138 + x408 <= 1
C987: + x139 + x185 <= 1
C988: + x8 + x221 <= 1
C989: + x349 + x365 <= 1
C990: + x41 + x497 <= 1
C991: + x5 + x31 <= 1
C992: + x24 + x275 <= 1
C993: + x20 + x170 <= 1
C994: + x311 + x451 <= 1
C995: + x322 + x324 <= 1
C996: + x187 + x258 <= 1
C997: + x36 + x312 <= 1
C998: + x10 + x265 <= 1
C999: + x148 + x389 <= 1
C1000: + x14 + x71 <= 1
C1001: + x207 + x301 <= 1
C1002: + x181 + x296 <= 1
C1003: + x335 + x354 <= 1
C1004: + x154 + x284 <= 1
C1005: + x8 + x145 <= 1
C1006: + x197 + x259 <= 1
C1007: + x90 + x260 <= 1
C1008: + x135 + x369 <= 1
C1009: + x93 + x468 <= 1
C1010: + x29 + x89 <= 1
C1011: + x48 + x237 <= 1
C1012: + x48 + x284 <= 1
C1013: + x4 + x419 <= 1
C1014: + x6 + x238 <= 1
C1015: + x28 + x145 <= 1
C1016: + x120 + x196 <= 1
C1017: + x2 + x289 <= 1
C1018: + x42 + x109 <= 1
C1019: + x45 + x387 <= 1
C1020: + x10 + x417 <= 1
C1021: + x10 + x124 <= 1
C1022: + x75 + x140 <= 1
C1023: + x15 + x197 <= 1
C1024: + x180 + x251 <= 1
C1025: + x113 + x184 <= 1
C1026: + x22 + x159 <= 1
C1027: + x13 + x70 <= 1
C1028: + x13 + x403 <= 1
C1029: + x32 + x375 <= 1
C1030: + x90 + x412 <= 1
C1031: + x9 + x283 <= 1
C1032: + x146 + x336 <= 1
C1033: + x2 + x195 <= 1
C1034: + x23 + x248 <= 1
C1035: + x6 + x273 <= 1
C1036: + x2 + x366 <= 1
C1037: + x36 + x361 <= 1
C1038: + x11 + x15 <= 1
C1039: + x21 + x263 <= 1
C1040: + x50 + x90 <= 1
C1041: + x73 + x135 <= 1
C1042: + x58 + x490 <= 1
C1043: + x14 + x151 <= 1
C1044: + x5 + x126 <= 1
C1045: + x134 + x288 <= 1
C1046: + x49 + x293 <= 1
C1047: + x25 + x60 <= 1
C1048: + x19 + x82 <= 1
C1049: + x86 + x202 <= 1
C1050: + x48 + x460 <= 1
C1051: + x188 + x370 <= 1
C1052: + x15 + x208 <= 1
C1053: + x270 + x435 <= 1
C1054: + x47 + x53 <= 1
C1055: + x21 + x48 <= 1
C1056: + x25 + x171 <= 1
C1057: + x7 + x15 <= 1
C1058: + x6 + x44 <= 1
C1059: + x1 + x212 <= 1
C1060: + x174 + x208 <= 1
C1061: + x277 + x460 <= 1
C1062: + x116 + x166 <= 1
C1063: + x8 + x38 <= 1
C1064: + x1 + x113 <= 1
C1065: + x139 + x469 <= 1
C1066: + x215 + x221 <= 1
C1067: + x1 + x286 <= 1
C1068: + x318 + x379 <= 1
C1069: + x167 + x229 <= 1
C1070: + x5 + x200 <= 1
C1071: + x6 + x224 <= 1
C1072: + x106 + x142 <= 1
C1073: + x10 + x21 <= 1
C1074: + x84 + x126 <= 1
C1075: + x2 + x152 <= 1
C1076: + x378 + x486 <= 1
C1077: + x56 + x93 <= 1
C1078: + x197 + x293 <= 1
C1079: + x5 + x101 <= 1
C1080: + x27 + x138 <= 1
C1081: + x12 + x27 <= 1
C1082: + x68 + x202 <= 1
C1083: + x33 + x102 <= 1
C1084: + x142 + x201 <= 1
C1085: + x8 + x381 <= 1
C1086: + x10 + x467 <= 1
C1087: + x84 + x235 <= 1
C1088: + x234 + x314 <= 1
C1089: + x237 + x496 <= 1
C1090: + x463 + x498 <= 1
C1091: + x124 + x278 <= 1
C1092: + x61 + x94 <= 1
C1093: + x15 + x421 <= 1
C1094: + x28 + x346 <= 1
C1095: + x174 + x475 <= 1
C1096: + x157 + x439 <= 1
C1097: + x3 + x34 <= 1
C1098: + x258 + x304 <= 1
C1099: + x106 + x331 <= 1
C1100: + x23 + x37 <= 1
C1101: + x19 + x125 <= 1
C1102: + x11 + x162 <= 1
C1103: + x30 + x143 <= 1
C1104: + x69 + x291 <= 1
C1105: + x378 + x382 <= 1
C1106: + x35 + x157 <= 1
C1107: + x2 + x78 <= 1
C1108: + x238 + x282 <= 1
C1109: + x283 + x321 <= 1
C1110: + x60 + x141 <= 1
C1111: + x9 + x138 <= 1
C1112: + x173 + x243 <= 1
C1113: + x174 + x253 <= 1
C1114: + x103 + x291 <= 1
C1115: + x12 + x181 <= 1
C1116: + x76 + x418 <= 1
C1117: + x32 + x227 <= 1
C1118: + x205 + x383 <= 1
C1119: + x16 + x20 <= 1
C1120: + x84 + x482 <= 1
C1121: + x312 + x424 <= 1
C1122: + x104 + x362 <= 1
C1123: + x79 + x253 <= 1
C1124: + x8 + x193 <= 1
C1125: + x2 + x26 <= 1
C1126: + x68 + x110 <= 1
C1127: + x167 + x204 <= 1
C1128: + x4 + x225 <= 1
C1129: + x353 + x463 <= 1
C1130: + x44 + x74 <= 1
C1131: + x45 + x90 <= 1
C1132: + x201 + x331 <= 1
C1133: + x43 + x497 <= 1
C1134: + x187 + x233 <= 1
C1135: + x33 + x236 <= 1
C1136: + x13 + x448 <= 1
C1137: + x26 + x47 <= 1
C1138: + x15 + x432 <= 1
C1139: + x8 + x395 <= 1
C1140: + x39 + x274 <= 1
C1141: + x158 + x264 <= 1
C1142: + x4 + x173 <= 1
C1143: + x117 + x292 <= 1
C1144: + x29 + x189 <= 1
C1145: + x25 + x69 <= 1
C1146: + x74 + x81 <= 1
C1147: + x8 + x447 <= 1
C1148: + x202 + x447 <= 1
C1149: + x12 + x335 <= 1
C1150: + x133 + x310 <= 1
C1151: + x36 + x50 <= 1
C1152: + x19 + x44 <= 1
C1153: + x11 + x157 <= 1
C1154: + x121 + x331 <= 1
C1155: + x38 + x169 <= 1
C1156: + x334 + x344 <= 1
C1157: + x16 + x25 <= 1
C1158: + x1 + x411 <= 1
C1159: + x6 + x83 <= 1
C1160: + x198 + x403 <= 1
C1161: + x47 + x493 <= 1
C1162: + x97 + x145 <= 1
C1163: + x63 + x308 <= 1
C1164: + x4 + x5 <= 1
C1165: + x308 + x425 <= 1
C1166: + x28 + x344 <= 1
C1167: + x11 + x422 <= 1
C1168: + x314 + x325 <= 1
C1169: + x6 + x7 <= 1
C1170: + x65 + x180 <= 1
C1171: + x1 + x185 <= 1
C1172: + x101 + x336 <= 1
C1173: + x103 + x225 <= 1
C1174: + x22 + x36 <= 1
C1175: + x297 + x341 <= 1
C1176: + x198 + x378 <= 1
C1177: + x11 + x309 <= 1
C1178: + x148 + x279 <= 1
C1179: + x277 + x326 <= 1
C1180: + x187 + x369 <= 1
C1181: + x52 + x203 <= 1
C1182: + x6 + x408 <= 1
C1183: + x75 + x227 <= 1
C1184: + x10 + x16 <= 1
C1185: + x297 + x385 <= 1
C1186: + x32 + x304 <= 1
C1187: + x267 + x284 <= 1
C1188: + x34 + x125 <= 1
C1189: + x159 + x262 <= 1
C1190: + x9 + x498 <= 1
C1191: + x103 + x176 <= 1
C1192: + x122 + x311 <= 1
C1193: + x22 + x89 <= 1
C1194: + x89 + x245 <= 1
C1195: + x45 + x80 <= 1
C1196: + x5 + x467 <= 1
C1197: + x32 + x340 <= 1
C1198: + x63 + x152 <= 1
C1199: + x28 + x301 <= 1
C1200: + x323 + x353 <= 1
C1201: + x6 + x16 <= 1
C1202: + x91 + x140 <= 1
C1203: + x16 + x329 <= 1
C1204: + x10 + x69 <= 1
C1205: + x2 + x40 <= 1
C1206: + x55 + x487 <= 1
C1207: + x12 + x240 <= 1
C1208: + x22 + x45 <= 1
C1209: + x4 + x155 <= 1
C1210: + x25 + x321 <= 1
C1211: + x207 + x440 <= 1
C1212: + x17 + x302 <= 1
C1213: + x8 + x10 <= 1
C1214: + x17 + x243 <= 1
C1215: + x16 + x91 <= 1
C1216: + x130 + x438 <= 1
C1217: + x13 + x85 <= 1
C1218: + x124 + x194 <= 1
C1219: + x34 + x58 <= 1
C1220: + x31 + x272 <= 1
C1221: + x124 + x373 <= 1
C1222: + x78 + x99 <= 1
C1223: + x25 + x83 <= 1
C1224: + x80 + x186 <= 1
C1225: + x135 + x236 <= 1
C1226: + x4 + x300 <= 1
C1227: + x206 + x401 <= 1
C1228: + x71 + x469 <= 1
C1229: + x101 + x248 <= 1
C1230: + x75 + x79 <= 1
C1231: + x197 + x281 <= 1
C1232: + x119 + x171 <= 1
C1233: + x22 + x271 <= 1
C1234: + x176 + x461 <= 1
C1235: + x15 + x18 <= 1
C1236: + x144 + x249 <= 1
C1237: + x138 + x258 <= 1
C1238: + x2 + x109 <= 1
C1239: + x13 + x187 <= 1
C1240: + x25 + x444 <= 1
C1241: + x15 + x179 <= 1
C1242: + x17 + x361 <= 1
C1243: + x80 + x97 <= 1
C1244: + x19 + x210 <= 1
C1245: + x9 + x342 <= 1
C1246: + x242 + x342 <= 1
C1247: + x97 + x433 <= 1
C1248: + x10 + x352 <= 1
C1249: + x200 + x306 <= 1
C1250: + x3 + x473 <= 1
C1251: + x70 + x254 <= 1
C1252: + x96 + x320 <= 1
C1253: + x1 + x322 <= 1
C1254: + x19 + x97 <= 1
C1255: + x1 + x183 <= 1
C1256: + x11 + x70 <= 1
C1257: + x46 + x429 <= 1
C1258: + x285 + x466 <= 1
C1259: + x5 + x20 <= 1
C1260: + x61 + x428 <= 1
C1261: + x117 + x246 <= 1
C1262: + x13 + x239 <= 1
C1263: + x141 + x367 <= 1
C1264: + x237 + x392 <= 1
C1265: + x30 + x54 <= 1
C1266: + x12 + x68 <= 1
C1267: + x21 + x31 <= 1
C1268: + x459 + x461 <= 1
C1269: + x74 + x76 <= 1
C1270: + x247 + x360 <= 1
C1271: + x29 + x412 <= 1
C1272: + x184 + x322 <= 1
C1273: + x376 + x386 <= 1
C1274: + x415 + x442 <= 1
C1275: + x45 + x445 <= 1
C1276: + x9 + x166 <= 1
C1277: + x36 + x402 <= 1
C1278: + x91 + x276 <= 1
C1279: + x19 + x21 <= 1
C1280: + x20 + x278 <= 1
C1281: + x277 + x315 <= 1
C1282: + x7 + x425 <= 1
C1283: + x8 + x59 <= 1
C1284: + x249 + x317 <= 1
C1285: + x148 + x497 <= 1
C1286: + x123 + x161 <= 1
C1287: + x6 + x78 <= 1
C1288: + x142 + x230 <= 1
C1289: + x36 + x383 <= 1
C1290: + x84 + x144 <= 1
C1291: + x67 + x174 <= 1
C1292: + x76 + x219 <= 1
C1293: + x10 + x230 <= 1
C1294: + x2 + x129 <= 1
C1295: + x183 + x194 <= 1
C1296: + x57 + x492 <= 1
C1297: + x4 + x124 <= 1
C1298: + x31 + x249 <= 1
C1299: + x55 + x227 <= 1
C1300: + x23 + x476 <= 1
C1301: + x72 + x78 <= 1
C1302: + x48 + x450 <= 1
C1303: + x53 + x61 <= 1
C1304: + x48 + x165 <= 1
C1305: + x4 + x40 <= 1
C1306: + x66 + x192 <= 1
C1307: + x113 + x423 <= 1
C1308: + x404 + x426 <= 1
C1309: + x124 + x482 <= 1
C1310: + x80 + x410 <= 1
C1311: + x10 + x35 <= 1
C1312: + x174 + x218 <= 1
C1313: + x212 + x475 <= 1
C1314: + x272 + x324 <= 1
C1315: + x4 + x181 <= 1
C1316: + x8 + x52 <= 1
C1317: + x10 + x158 <= 1
C1318: + x321 + x364 <= 1
C1319: + x167 + x398 <= 1
C1320: + x62 + x186 <= 1
C1321: + x1 + x260 <= 1
C1322: + x57 + x278 <= 1
C1323: + x49 + x339 <= 1
C1324: + x31 + x71 <= 1
C1325: + x13 + x169 <= 1
C1326: + x6 + x234 <= 1
C1327: + x352 + x364 <= 1
C1328: + x46 + x270 <= 1
C1329: + x115 + x208 <= 1
C1330: + x22 + x215 <= 1
C1331: + x5 + x464 <= 1
C1332: + x63 + x137 <= 1
C1333: + x263 + x289 <= 1
C1334: + x186 + x302 <= 1
C1335: + x271 + x353 <= 1
C1336: + x382 + x420 <= 1
C1337: + x58 + x86 <= 1
C1338: + x104 + x222 <= 1
C1339: + x188 + x381 <= 1
C1340: + x154 + x376 <= 1
C1341: + x299 + x483 <= 1
C1342: + x51 + x324 <= 1
C1343: + x4 + x45 <= 1
C1344: + x63 + x245 <= 1
C1345: + x47 + x147 <= 1
C1346: + x411 + x484 <= 1
C1347: + x12 + x356 <= 1
C1348: + x332 + x375 <= 1
C1349: + x65 + x172 <= 1
C1350: + x74 + x209 <= 1
C1351: + x238 + x403 <= 1
C1352: + x13 + x209 <= 1
C1353: + x14 + x223 <= 1
C1354: + x14 + x362 <= 1
C1355: + x198 + x221 <= 1
C1356: + x43 + x129 <= 1
C1357: + x8 + x41 <= 1
C1358: + x11 + x285 <= 1
C1359: + x102 + x350 <= 1
C1360: + x161 + x476 <= 1
C1361: + x283 + x379 <= 1
C1362: + x14 + x48 <= 1
C1363: + x32 + x70 <= 1
C1364: + x45 + x52 <= 1
C1365: + x7 + x310 <= 1
C1366: + x283 + x416 <= 1
C1367: + x114 + x495 <= 1
C1368: + x413 + x455 <= 1
C1369: + x182 + x410 <= 1
C1370: + x329 + x431 <= 1
C1371: + x55 + x451 <= 1
C1372: + x11 + x127 <= 1
C1373: + x22 + x65 <= 1
C1374: + x5 + x9 <= 1
C1375: + x8 + x110 <= 1
C1376: + x1 + x57 <= 1
C1377: + x148 + x316 <= 1
C1378: + x187 + x227 <= 1
C1379: + x31 + x364 <= 1
C1380: + x159 + x445 <= 1
C1381: + x116 + x368 <= 1
C1382: + x73 + x105 <= 1
C1383: + x50 + x155 <= 1
C1384: + x6 + x24 <= 1
C1385: + x28 + x484 <= 1
C1386: + x137 + x368 <= 1
C1387: + x39 + x69 <= 1
C1388: + x104 + x143 <= 1
C1389: + x125 + x325 <= 1
C1390: + x16 + x67 <= 1
C1391: + x36 + x183 <= 1
C1392: + x204 + x405 <= 1
C1393: + x4 + x308 <= 1
C1394: + x9 + x370 <= 1
C1395: + x118 + x178 <= 1
C1396: + x28 + x99 <= 1
C1397: + x20 + x84 <= 1
C1398: + x33 + x122 <= 1
C1399: + x91 + x119 <= 1
C1400: + x100 + x386 <= 1
C1401: + x2 + x5 <= 1
C1402: + x14 + x29 <= 1
C1403: + x34 + x457 <= 1
C1404: + x126 + x163 <= 1
C1405: + x45 + x95 <= 1
C1406: + x36 + x116 <= 1
C1407: + x52 + x53 <= 1
C1408: + x36 + x303 <= 1
C1409: + x45 + x260 <= 1
C1410: + x6 + x17 <= 1
C1411: + x81 + x224 <= 1
C1412: + x28 + x48 <= 1
C1413: + x2 + x209 <= 1
C1414: + x5 + x60 <= 1
C1415: + x15 + x231 <= 1
C1416: + x17 + x317 <= 1
C1417: + x108 + x321 <= 1
C1418: + x471 + x485 <= 1
C1419: + x153 + x165 <= 1
C1420: + x239 + x464 <= 1
C1421: + x43 + x314 <= 1
C1422: + x62 + x354 <= 1
C1423: + x259 + x323 <= 1
C1424: + x8 + x31 <= 1
C1425: + x11 + x271 <= 1
C1426: + x50 + x237 <= 1
C1427: + x412 + x415 <= 1
C1428: + x229 + x319 <= 1
C1429: + x198 + x261 <= 1
C1430: + x12 + x169 <= 1
C1431: + x5 + x112 <= 1
C1432: + x14 + x133 <= 1
C1433: + x15 + x360 <= 1
C1434: + x218 + x282 <= 1
C1435: + x63 + x190 <= 1
C1436: + x78 + x168 <= 1
C1437: + x236 + x239 <= 1
C1438: + x119 + x487 <= 1
C1439: + x120 + x493 <= 1
C1440: + x2 + x30 <= 1
C1441: + x4 + x229 <= 1
C1442: + x15 + x222 <= 1
C1443: + x17 + x205 <= 1
C1444: + x11 + x198 <= 1
C1445: + x3 + x295 <= 1
C1446: + x340 + x463 <= 1
C1447: + x33 + x77 <= 1
C1448: + x10 + x396 <= 1
C1449: + x8 + x241 <= 1
C1450: + x160 + x438 <= 1
C1451: + x39 + x212 <= 1
C1452: + x59 + x185 <= 1
C1453: + x17 + x38 <= 1
C1454: + x27 + x373 <= 1
C1455: + x376 + x439 <= 1
C1456: + x32 + x49 <= 1
C1457: + x14 + x91 <= 1
C1458: + x6 + x206 <= 1
C1459: + x2 + x230 <= 1
C1460: + x20 + x259 <= 1
C1461: + x5 + x87 <= 1
C1462: + x15 + x367 <= 1
C1463: + x329 + x359 <= 1
C1464: + x13 + x292 <= 1
C1465: + x148 + x244 <= 1
C1466: + x42 + x496 <= 1
C1467: + x14 + x15 <= 1
C1468: + x126 + x266 <= 1
C1469: + x111 + x217 <= 1
C1470: + x4 + x9 <= 1
C1471: + x4 + x379 <= 1
C1472: + x10 + x72 <= 1
C1473: + x95 + x258 <= 1
C1474: + x15 + x294 <= 1
C1475: + x8 + x13 <= 1
C1476: + x11 + x305 <= 1
C1477: + x271 + x316 <= 1
C1478: + x1 + x487 <= 1
C1479: + x284 + x325 <= 1
C1480: + x287 + x383 <= 1
C1481: + x6 + x55 <= 1
C1482: + x10 + x52 <= 1
C1483: + x193 + x382 <= 1
C1484: + x12 + x167 <= 1
C1485: + x141 + x425 <= 1
C1486: + x36 + x62 + x67 <= 1
C1487: + x239 + x294 <= 1
C1488: + x30 + x116 <= 1
C1489: + x48 + x277 <= 1
C1490: + x177 + x394 <= 1
C1491: + x22 + x258 <= 1
C1492: + x352 + x454 <= 1
C1493: + x62 + x171 <= 1
C1494: + x84 + x335 <= 1
C1495: + x11 + x19 <= 1
C1496: + x38 + x303 <= 1
C1497: + x376 + x452 <= 1
C1498: + x100 + x276 <= 1
C1499: + x238 + x479 <= 1
C1500: + x13 + x29 <= 1
C1501: + x125 + x167 <= 1
C1502: + x117 + x124 <= 1
C1503: + x18 + x112 <= 1
C1504: + x399 + x428 <= 1
C1505: + x11 + x425 <= 1
C1506: + x322 + x473 <= 1
C1507: + x58 + x236 <= 1
C1508: + x6 + x12 <= 1
C1509: + x88 + x242 <= 1
C1510: + x10 + x73 <= 1
C1511: + x8 + x231 <= 1
C1512: + x265 + x449 <= 1
C1513: + x232 + x307 <= 1
C1514: + x5 + x17 <= 1
C1515: + x15 + x252 <= 1
C1516: + x180 + x240 <= 1
C1517: + x36 + x83 <= 1
C1518: + x23 + x175 <= 1
C1519: + x99 + x216 <= 1
C1520: + x6 + x378 <= 1
C1521: + x63 + x363 <= 1
C1522: + x35 + x166 <= 1
C1523: + x15 + x458 <= 1
C1524: + x3 + x91 <= 1
C1525: + x239 + x247 <= 1
C1526: + x88 + x198 <= 1
C1527: + x17 + x433 <= 1
C1528: + x56 + x445 <= 1
C1529: + x33 + x372 <= 1
C1530: + x141 + x424 <= 1
C1531: + x126 + x214 <= 1
C1532: + x8 + x58 <= 1
C1533: + x11 + x368 <= 1
C1534: + x273 + x317 <= 1
C1535: + x75 + x257 <= 1
C1536: + x238 + x309 <= 1
C1537: + x11 + x30 <= 1
C1538: + x4 + x220 <= 1
C1539: + x70 + x361 <= 1
C1540: + x211 + x343 <= 1
C1541: + x302 + x483 <= 1
C1542: + x30 + x254 <= 1
C1543: + x22 + x380 <= 1
C1544: + x15 + x389 <= 1
C1545: + x36 + x203 <= 1
C1546: + x6 + x466 <= 1
C1547: + x25 + x47 <= 1
C1548: + x160 + x183 <= 1
C1549: + x335 + x347 <= 1
C1550: + x8 + x273 <= 1
C1551: + x27 + x479 <= 1
C1552: + x74 + x255 <= 1
C1553: + x20 + x334 <= 1
C1554: + x4 + x136 <= 1
C1555: + x42 + x390 <= 1
C1556: + x210 + x261 <= 1
C1557: + x310 + x468 <= 1
C1558: + x3 + x328 <= 1
C1559: + x105 + x111 <= 1
C1560: + x4 + x35 <= 1
C1561: + x51 + x93 + x254 <= 1
C1562: + x47 + x133 <= 1
C1563: + x78 + x251 <= 1
C1564: + x22 + x419 <= 1
C1565: + x142 + x145 <= 1
C1566: + x7 + x191 <= 1
C1567: + x36 + x41 <= 1
C1568: + x82 + x256 <= 1
C1569: + x11 + x182 <= 1
C1570: + x192 + x270 <= 1
C1571: + x12 + x213 <= 1
C1572: + x7 + x429 <= 1
C1573: + x1 + x100 <= 1
C1574: + x181 + x472 <= 1
C1575: + x19 + x471 <= 1
C1576: + x25 + x391 <= 1
C1577: + x49 + x61 <= 1
C1578: + x12 + x129 <= 1
C1579: + x14 + x296 <= 1
C1580: + x9 + x115 <= 1
C1581: + x8 + x491 <= 1
C1582: + x3 + x25 <= 1
C1583: + x284 + x288 <= 1
C1584: + x51 + x63 <= 1
C1585: + x52 + x181 <= 1
C1586: + x135 + x404 <= 1
C1587: + x11 + x73 <= 1
C1588: + x5 + x7 <= 1
C1589: + x2 + x337 <= 1
C1590: + x157 + x285 <= 1
C1591: + x68 + x277 <= 1
C1592: + x31 + x382 <= 1
C1593: + x43 + x243 <= 1
C1594: + x39 + x494 <= 1
C1595: + x332 + x374 <= 1
C1596: + x89 + x130 <= 1
C1597: + x5 + x150 <= 1
C1598: + x6 + x34 <= 1
C1599: + x92 + x298 <= 1
C1600: + x96 + x213 <= 1
C1601: + x31 + x60 <= 1
C1602: + x5 + x75 <= 1
C1603: + x30 + x95 <= 1
C1604: + x57 + x282 <= 1
C1605: + x38 + x474 <= 1
C1606: + x11 + x16 <= 1
C1607: + x23 + x104 <= 1
C1608: + x9 + x328 <= 1
C1609: + x22 + x211 <= 1
C1610: + x10 + x334 <= 1
C1611: + x2 + x313 <= 1
C1612: + x8 + x484 <= 1
C1613: + x6 + x103 <= 1
C1614: + x22 + x68 <= 1
C1615: + x153 + x324 <= 1
C1616: + x9 + x201 <= 1
C1617: + x74 + x415 <= 1
C1618: + x2 + x170 <= 1
C1619: + x10 + x223 <= 1
C1620: + x31 + x148 <= 1
C1621: + x3 + x40 <= 1
C1622: + x12 + x360 <= 1
C1623: + x51 + x110 <= 1
C1624: + x22 + x437 <= 1
C1625: + x21 + x160 <= 1
C1626: + x22 + x24 <= 1
C1627: + x45 + x153 <= 1
C1628: + x36 + x182 <= 1
C1629: + x21 + x426 <= 1
C1630: + x84 + x363 <= 1
C1631: + x57 + x289 <= 1
C1632: + x16 + x316 <= 1
C1633: + x445 + x453 <= 1
C1634: + x223 + x303 <= 1
C1635: + x89 + x423 <= 1
C1636: + x133 + x216 <= 1
C1637: + x333 + x448 <= 1
C1638: + x172 + x437 <= 1
C1639: + x65 + x235 <= 1
C1640: + x14 + x445 <= 1
C1641: + x301 + x337 <= 1
C1642: + x15 + x59 <= 1
C1643: + x237 + x332 <= 1
C1644: + x6 + x131 <= 1
C1645: + x16 + x187 <= 1
C1646: + x1 + x61 <= 1
C1647: + x8 + x106 <= 1
C1648: + x10 + x200 <= 1
C1649: + x66 + x483 <= 1
C1650: + x4 + x26 <= 1
C1651: + x12 + x107 <= 1
C1652: + x100 + x494 <= 1
C1653: + x313 + x476 <= 1
C1654: + x12 + x413 <= 1
C1655: + x60 + x180 <= 1
C1656: + x4 + x268 <= 1
C1657: + x22 + x446 <= 1
C1658: + x145 + x226 <= 1
C1659: + x1 + x172 <= 1
C1660: + x37 + x365 <= 1
C1661: + x10 + x81 <= 1
C1662: + x51 + x458 <= 1
C1663: + x35 + x400 <= 1
C1664: + x83 + x479 <= 1
C1665: + x30 + x81 <= 1
C1666: + x332 + x497 <= 1
C1667: + x52 + x256 <= 1
C1668: + x159 + x365 <= 1
C1669: + x16 + x494 <= 1
C1670: + x37 + x500 <= 1
C1671: + x357 + x457 <= 1
C1672: + x95 + x164 <= 1
C1673: + x12 + x329 <= 1
C1674: + x16 + x256 <= 1
C1675: + x13 + x64 <= 1
C1676: + x1 + x389 <= 1
C1677: + x2 + x267 <= 1
C1678: + x10 + x384 <= 1
C1679: + x138 + x435 <= 1
C1680: + x23 + x481 <= 1
C1681: + x103 + x179 <= 1
C1682: + x349 + x370 <= 1
C1683: + x268 + x311 <= 1
C1684: + x141 + x500 <= 1
C1685: + x129 + x134 <= 1
C1686: + x22 + x455 <= 1
C1687: + x17 + x404 <= 1
C1688: + x8 + x297 <= 1
C1689: + x174 + x193 <= 1
C1690: + x94 + x156 <= 1
C1691: + x49 + x493 <= 1
C1692: + x31 + x45 <= 1
C1693: + x161 + x220 <= 1
C1694: + x207 + x427 <= 1
C1695: + x7 + x18 + x299 <= 1
C1696: + x25 + x70 <= 1
C1697: + x22 + x395 <= 1
C1698: + x16 + x266 <= 1
C1699: + x28 + x128 <= 1
C1700: + x142 + x407 <= 1
C1701: + x45 + x195 <= 1
C1702: + x8 + x463 <= 1
C1703: + x422 + x428 <= 1
C1704: + x7 + x98 <= 1
C1705: + x10 + x452 <= 1
C1706: + x327 + x363 <= 1
C1707: + x4 + x233 <= 1
C1708: + x281 + x398 <= 1
C1709: + x62 + x419 <= 1
C1710: + x106 + x409 <= 1
C1711: + x16 + x48 <= 1
C1712: + x89 + x158 <= 1
C1713: + x197 + x458 <= 1
C1714: + x246 + x252 <= 1
C1715: + x88 + x394 <= 1
C1716: + x9 + x42 <= 1
C1717: + x28 + x200 <= 1
C1718: + x7 + x388 <= 1
C1719: + x12 + x85 <= 1
C1720: + x22 + x134 <= 1
C1721: + x142 + x319 <= 1
C1722: + x2 + x492 <= 1
C1723: + x84 + x181 <= 1
C1724: + x27 + x79 <= 1
C1725: + x10 + x15 <= 1
C1726: + x8 + x161 <= 1
C1727: + x120 + x192 <= 1
C1728: + x193 + x379 <= 1
C1729: + x18 + x148 <= 1
C1730: + x14 + x186 <= 1
C1731: + x112 + x186 <= 1
C1732: + x36 + x149 <= 1
C1733: + x200 + x264 <= 1
C1734: + x48 + x268 <= 1
C1735: + x134 + x150 <= 1
C1736: + x16 + x392 <= 1
C1737: + x1 + x320 <= 1
C1738: + x126 + x262 <= 1
C1739: + x325 + x332 <= 1
C1740: + x232 + x417 <= 1
C1741: + x33 + x251 <= 1
C1742: + x206 + x249 <= 1
C1743: + x9 + x66 <= 1
C1744: + x62 + x287 <= 1
C1745: + x3 + x12 <= 1
C1746: + x131 + x245 <= 1
C1747: + x1 + x177 <= 1
C1748: + x11 + x92 <= 1
C1749: + x266 + x466 <= 1
C1750: + x4 + x158 <= 1
C1751: + x6 + x381 <= 1
C1752: + x15 + x298 <= 1
C1753: + x8 + x9 <= 1
C1754: + x215 + x250 <= 1
C1755: + x252 + x315 <= 1
C1756: + x25 + x84 <= 1
C1757: + x72 + x240 <= 1
C1758: + x79 + x267 <= 1
C1759: + x102 + x108 <= 1
C1760: + x184 + x332 <= 1
C1761: + x6 + x51 <= 1
C1762: + x154 + x218 <= 1
C1763: + x154 + x269 <= 1
C1764: + x198 + x499 <= 1
C1765: + x11 + x144 <= 1
C1766: + x2 + x243 <= 1
C1767: + x59 + x390 <= 1
C1768: + x25 + x270 <= 1
C1769: + x32 + x280 <= 1
C1770: + x260 + x285 <= 1
C1771: + x23 + x297 <= 1
C1772: + x5 + x407 <= 1
C1773: + x48 + x230 <= 1
C1774: + x30 + x443 <= 1
C1775: + x22 + x270 <= 1
C1776: + x15 + x23 <= 1
C1777: + x36 + x377 <= 1
C1778: + x17 + x461 <= 1
C1779: + x11 + x454 <= 1
C1780: + x2 + x100 <= 1
C1781: + x87 + x151 <= 1
C1782: + x288 + x421 <= 1
C1783: + x145 + x191 <= 1
C1784: + x36 + x107 <= 1
C1785: + x73 + x300 <= 1
C1786: + x91 + x350 <= 1
C1787: + x20 + x220 <= 1
C1788: + x418 + x462 <= 1
C1789: + x61 + x337 <= 1
C1790: + x187 + x320 <= 1
C1791: + x9 + x343 <= 1
C1792: + x190 + x394 <= 1
C1793: + x8 + x78 <= 1
C1794: + x38 + x97 <= 1
C1795: + x13 + x267 <= 1
C1796: + x25 + x44 <= 1
C1797: + x15 + x35 <= 1
C1798: + x74 + x250 <= 1
C1799: + x120 + x122 <= 1
C1800: + x22 + x53 <= 1
C1801: + x5 + x29 <= 1
C1802: + x25 + x329 <= 1
C1803: + x6 + x358 <= 1
C1804: + x234 + x321 <= 1
C1805: + x32 + x400 <= 1
C1806: + x181 + x385 <= 1
C1807: + x3 + x87 <= 1
C1808: + x4 + x276 <= 1
C1809: + x28 + x39 + x46 <= 1
C1810: + x7 + x269 <= 1
C1811: + x245 + x339 <= 1
C1812: + x2 + x204 <= 1
C1813: + x275 + x428 <= 1
C1814: + x13 + x36 <= 1
C1815: + x10 + x156 <= 1
C1816: + x63 + x347 <= 1
C1817: + x81 + x132 <= 1
C1818: + x147 + x242 <= 1
C1819: + x128 + x163 <= 1
C1820: + x10 + x229 <= 1
C1821: + x286 + x293 <= 1
C1822: + x23 + x384 <= 1
C1823: + x14 + x299 <= 1
C1824: + x9 + x80 <= 1
C1825: + x45 + x228 <= 1
C1826: + x127 + x142 <= 1
C1827: + x230 + x298 <= 1
C1828: + x59 + x239 <= 1
C1829: + x341 + x474 <= 1
C1830: + x6 + x113 <= 1
C1831: + x8 + x220 <= 1
C1832: + x300 + x352 <= 1
C1833: + x67 + x127 <= 1
C1834: + x371 + x498 <= 1
C1835: + x198 + x340 <= 1
C1836: + x1 + x44 <= 1
C1837: + x96 + x437 <= 1
C1838: + x6 + x386 <= 1
C1839: + x45 + x280 <= 1
C1840: + x9 + x444 <= 1
C1841: + x14 + x66 <= 1
C1842: + x198 + x485 <= 1
C1843: + x172 + x370 <= 1
C1844: + x190 + x456 <= 1
C1845: + x36 + x410 <= 1
C1846: + x113 + x261 <= 1
C1847: + x95 + x292 <= 1
C1848: + x6 + x275 <= 1
C1849: + x8 + x51 <= 1
C1850: + x20 + x121 <= 1
C1851: + x19 + x467 <= 1
C1852: + x55 + x76 <= 1
C1853: + x4 + x197 <= 1
C1854: + x80 + x114 <= 1
C1855: + x9 + x154 <= 1
C1856: + x182 + x218 <= 1
C1857: + x165 + x168 <= 1
C1858: + x55 + x346 <= 1
C1859: + x21 + x218 <= 1
C1860: + x239 + x427 <= 1
C1861: + x10 + x238 <= 1
C1862: + x5 + x457 <= 1
C1863: + x14 + x153 <= 1
C1864: + x9 + x119 <= 1
C1865: + x45 + x219 <= 1
C1866: + x13 + x313 <= 1
C1867: + x92 + x197 <= 1
C1868: + x2 + x10 <= 1
C1869: + x122 + x277 <= 1
C1870: + x13 + x158 <= 1
C1871: + x69 + x374 <= 1
C1872: + x6 + x157 <= 1
C1873: + x27 + x52 <= 1
C1874: + x28 + x164 <= 1
C1875: + x135 + x305 <= 1
C1876: + x157 + x281 <= 1
C1877: + x62 + x411 <= 1
C1878: + x1 + x35 <= 1
C1879: + x21 + x46 <= 1
C1880: + x63 + x246 <= 1
C1881: + x84 + x286 <= 1
C1882: + x3 + x41 <= 1
C1883: + x59 + x62 <= 1
C1884: + x130 + x238 <= 1
C1885: + x14 + x123 <= 1
C1886: + x19 + x169 <= 1
C1887: + x280 + x284 <= 1
C1888: + x20 + x130 <= 1
C1889: + x131 + x133 <= 1
C1890: + x4 + x431 <= 1
C1891: + x44 + x177 <= 1
C1892: + x6 + x447 <= 1
C1893: + x19 + x462 <= 1
C1894: + x248 + x256 <= 1
C1895: + x48 + x387 <= 1
C1896: + x117 + x323 <= 1
C1897: + x36 + x459 <= 1
C1898: + x8 + x185 <= 1
C1899: + x56 + x67 <= 1
C1900: + x178 + x195 <= 1
C1901: + x188 + x264 <= 1
C1902: + x5 + x440 <= 1
C1903: + x1 + x395 <= 1
C1904: + x134 + x190 <= 1
C1905: + x45 + x375 <= 1
C1906: + x21 + x344 <= 1
C1907: + x13 + x149 <= 1
C1908: + x87 + x120 <= 1
C1909: + x92 + x121 <= 1
C1910: + x2 + x174 <= 1
C1911: + x130 + x401 <= 1
C1912: + x12 + x106 <= 1
C1913: + x214 + x355 <= 1
C1914: + x223 + x251 + x443 <= 1
C1915: + x6 + x500 <= 1
C1916: + x36 + x297 <= 1
C1917: + x136 + x223 <= 1
C1918: + x49 + x193 <= 1
C1919: + x68 + x431 <= 1
C1920: + x205 + x393 <= 1
C1921: + x159 + x461 <= 1
C1922: + x19 + x164 <= 1
C1923: + x113 + x160 <= 1
C1924: + x240 + x442 <= 1
C1925: + x21 + x438 <= 1
C1926: + x116 + x443 <= 1
C1927: + x108 + x490 <= 1
C1928: + x211 + x411 <= 1
C1929: + x3 + x120 <= 1
C1930: + x86 + x138 <= 1
C1931: + x60 + x139 <= 1
C1932: + x5 + x205 <= 1
C1933: + x90 + x207 <= 1
C1934: + x190 + x430 <= 1
C1935: + x18 + x173 <= 1
C1936: + x445 + x449 <= 1
C1937: + x165 + x214 <= 1
C1938: + x129 + x426 <= 1
C1939: + x24 + x115 <= 1
C1940: + x127 + x167 <= 1
C1941: + x28 + x257 <= 1
C1942: + x66 + x118 <= 1
C1943: + x12 + x18 <= 1
C1944: + x271 + x372 <= 1
C1945: + x144 + x228 <= 1
C1946: + x2 + x28 <= 1
C1947: + x4 + x255 <= 1
C1948: + x45 + x96 <= 1
C1949: + x36 + x115 <= 1
C1950: + x16 + x135 <= 1
C1951: + x122 + x130 <= 1
C1952: + x4 + x30 <= 1

binary
x1 x2 x3 x4 x5 x6 x7 x8 x9 x10 x11 x12 x13 x14 x15 x16 x17 x18 x19 x20 x21 x22 x23 x24 x25 x26 x27 x28 x29 x30 x31 x32 x33 x34 x35 x36 x37 x38 x39 x40 x41 x42 x43 x44 x45 x46 x47 x48 x49 x50 x51 x52 x53 x54 x55 x56 x57 x58 x59 x60 x61 x62 x63 x64 x65 x66 x67 x68 x69 x70 x71 x72 x73 x74 x75 x76 x77 x78 x79 x80 x81 x82 x83 x84 x85 x86 x87 x88 x89 x90 x91 x92 x93 x94 x95 x96 x97 x98 x99 x100 x101 x102 x103 x104 x105 x106 x107 x108 x109 x110 x111 x112 x113 x114 x115 x116 x117 x118 x119 x120 x121 x122 x123 x124 x125 x126 x127 x128 x129 x130 x131 x132 x133 x134 x135 x136 x137 x138 x139 x140 x141 x142 x143 x144 x145 x146 x147 x148 x149 x150 x151 x152 x153 x154 x155 x156 x157 x158 x159 x160 x161 x162 x163 x164 x165 x166 x167 x168 x169 x170 x171 x172 x173 x174 x175 x176 x177 x178 x179 x180 x181 x182 x183 x184 x185 x186 x187 x188 x189 x190 x191 x192 x193 x194 x195 x196 x197 x198 x199 x200 x201 x202 x203 x204 x205 x206 x207 x208 x209 x210 x211 x212 x213 x214 x215 x216 x217 x218 x219 x220 x221 x222 x223 x224 x225 x226 x227 x228 x229 x230 x231 x232 x233 x234 x235 x236 x237 x238 x239 x240 x241 x242 x243 x244 x245 x246 x247 x248 x249 x250 x251 x252 x253 x254 x255 x256 x257 x258 x259 x260 x261 x262 x263 x264 x265 x266 x267 x268 x269 x270 x271 x272 x273 x274 x275 x276 x277 x278 x279 x280 x281 x282 x283 x284 x285 x286 x287 x288 x289 x290 x291 x292 x293 x294 x295 x296 x297 x298 x299 x300 x301 x302 x303 x304 x305 x306 x307 x308 x309 x310 x311 x312 x313 x314 x315 x316 x317 x318 x319 x320 x321 x322 x323 x324 x325 x326 x327 x328 x329 x330 x331 x332 x333 x334 x335 x336 x337 x338 x339 x340 x341 x342 x343 x344 x345 x346 x347 x348 x349 x350 x351 x352 x353 x354 x355 x356 x357 x358 x359 x360 x361 x362 x363 x364 x365 x366 x367 x368 x369 x370 x371 x372 x373 x374 x375 x376 x377 x378 x379 x380 x381 x382 x383 x384 x385 x386 x387 x388 x389 x390 x391 x392 x393 x394 x395 x396 x397 x398 x399 x400 x401 x402 x403 x404 x405 x406 x407 x408 x409 x410 x411 x412 x413 x414 x415 x416 x417 x418 x419 x420 x421 x422 x423 x424 x425 x426 x427 x428 x429 x430 x431 x432 x433 x434 x435 x436 x437 x438 x439 x440 x441 x442 x443 x444 x445 x446 x447 x448 x449 x450 x451 x452 x453 x454 x455 x456 x457 x458 x459 x460 x461 x462 x463 x464 x465 x466 x467 x468 x469 x470 x471 x472 x473 x474 x475 x476 x477 x478 x479 x480 x481 x482 x483 x484 x485 x486 x487 x488 x489 x490 x491 x492 x493 x494 x495 x496 x497 x498 x499 x500
