maximize
OBJ: + 1 x1 + 1 x2 + 1 x3 + 1 x4 + 1 x5 + 1 x6 + 1 x7 + 1 x8 + 1 x9 + 1 x10 + 1 x11 + 1 x12 + 1 x13 + 1 x14 + 1 x15 + 1 x16 + 1 x17 + 1 x18 + 1 x19 + 1 x20 + 1 x21 + 1 x22 + 1 x23 + 1 x24 + 1 x25 + 1 x26 + 1 x27 + 1 x28 + 1 x29 + 1 x30 + 1 x31 + 1 x32 + 1 x33 + 1 x34 + 1 x35 + 1 x36 + 1 x37 + 1 x38 + 1 x39 + 1 x40 + 1 x41 + 1 x42 + 1 x43 + 1 x44 + 1 x45 + 1 x46 + 1 x47 + 1 x48 + 1 x49 + 1 x50 + 1 x51 + 1 x52 + 1 x53 + 1 x54 + 1 x55 + 1 x56 + 1 x57 + 1 x58 + 1 x59 + 1 x60 + 1 x61 + 1 x62 + 1 x63 + 1 x64 + 1 x65 + 1 x66 + 1 x67 + 1 x68 + 1 x69 + 1 x70 + 1 x71 + 1 x72 + 1 x73 + 1 x74 + 1 x75 + 1 x76 + 1 x77 + 1 x78 + 1 x79 + 1 x80 + 1 x81 + 1 x82 + 1 x83 + 1 x84 + 1 x85 + 1 x86 + 1 x87 + 1 x88 + 1 x89 + 1 x90 + 1 x91 + 1 x92 + 1 x93 + 1 x94 + 1 x95 + 1 x96 + 1 x97 + 1 x98 + 1 x99 + 1 x100 + 1 x101 + 1 x102 + 1 x103 + 1 x104 + 1 x105 + 1 x106 + 1 x107 + 1 x108 + 1 x109 + 1 x110 + 1 x111 + 1 x112 + 1 x113 + 1 x114 + 1 x115 + 1 x116 + 1 x117 + 1 x118 + 1 x119 + 1 x120 + 1 x121 + 1 x122 + 1 x123 + 1 x124 + 1 x125 + 1 x126 + 1 x127 + 1 x128 + 1 x129 + 1 x130 + 1 x131 + 1 x132 + 1 x133 + 1 x134 + 1 x135 + 1 x136 + 1 x137 + 1 x138 + 1 x139 + 1 x140 + 1 x141 + 1 x142 + 1 x143 + 1 x144 + 1 x145 + 1 x146 + 1 x147 + 1 x148 + 1 x149 + 1 x150 + 1 x151 + 1 x152 + 1 x153 + 1 x154 + 1 x155 + 1 x156 + 1 x157 + 1 x158 + 1 x159 + 1 x160 + 1 x161 + 1 x162 + 1 x163 + 1 x164 + 1 x165 + 1 x166 + 1 x167 + 1 x168 + 1 x169 + 1 x170 + 1 x171 + 1 x172 + 1 x173 + 1 x174 + 1 x175 + 1 x176 + 1 x177 + 1 x178 + 1 x179 + 1 x180 + 1 x181 + 1 x182 + 1 x183 + 1 x184 + 1 x185 + 1 x186 + 1 x187 + 1 x188 + 1 x189 + 1 x190 + 1 x191 + 1 x192 + 1 x193 + 1 x194 + 1 x195 + 1 x196 + 1 x197 + 1 x198 + 1 x199 + 1 x200 + 1 x201 + 1 x202 + 1 x203 + 1 x204 + 1 x205 + 1 x206 + 1 x207 + 1 x208 + 1 x209 + 1 x210 + 1 x211 + 1 x212 + 1 x213 + 1 x214 + 1 x215 + 1 x216 + 1 x217 + 1 x218 + 1 x219 + 1 x220 + 1 x221 + 1 x222 + 1 x223 + 1 x224 + 1 x225 + 1 x226 + 1 x227 + 1 x228 + 1 x229 + 1 x230 + 1 x231 + 1 x232 + 1 x233 + 1 x234 + 1 x235 + 1 x236 + 1 x237 + 1 x238 + 1 x239 + 1 x240 + 1 x241 + 1 x242 + 1 x243 + 1 x244 + 1 x245 + 1 x246 + 1 x247 + 1 x248 + 1 x249 + 1 x250 + 1 x251 + 1 x252 + 1 x253 + 1 x254 + 1 x255 + 1 x256 + 1 x257 + 1 x258 + 1 x259 + 1 x260 + 1 x261 + 1 x262 + 1 x263 + 1 x264 + 1 x265 + 1 x266 + 1 x267 + 1 x268 + 1 x269 + 1 x270 + 1 x271 + 1 x272 + 1 x273 + 1 x274 + 1 x275 + 1 x276 + 1 x277 + 1 x278 + 1 x279 + 1 x280 + 1 x281 + 1 x282 + 1 x283 + 1 x284 + 1 x285 + 1 x286 + 1 x287 + 1 x288 + 1 x289 + 1 x290 + 1 x291 + 1 x292 + 1 x293 + 1 x294 + 1 x295 + 1 x296 + 1 x297 + 1 x298 + 1 x299 + 1 x300 + 1 x301 + 1 x302 + 1 x303 + 1 x304 + 1 x305 + 1 x306 + 1 x307 + 1 x308 + 1 x309 + 1 x310 + 1 x311 + 1 x312 + 1 x313 + 1 x314 + 1 x315 + 1 x316 + 1 x317 + 1 x318 + 1 x319 + 1 x320 + 1 x321 + 1 x322 + 1 x323 + 1 x324 + 1 x325 + 1 x326 + 1 x327 + 1 x328 + 1 x329 + 1 x330 + 1 x331 + 1 x332 + 1 x333 + 1 x334 + 1 x335 + 1 x336 + 1 x337 + 1 x338 + 1 x339 + 1 x340 + 1 x341 + 1 x342 + 1 x343 + 1 x344 + 1 x345 + 1 x346 + 1 x347 + 1 x348 + 1 x349 + 1 x350 + 1 x351 + 1 x352 + 1 x353 + 1 x354 + 1 x355 + 1 x356 + 1 x357 + 1 x358 + 1 x359 + 1 x360 + 1 x361 + 1 x362 + 1 x363 + 1 x364 + 1 x365 + 1 x366 + 1 x367 + 1 x368 + 1 x369 + 1 x370 + 1 x371 + 1 x372 + 1 x373 + 1 x374 + 1 x375 + 1 x376 + 1 x377 + 1 x378 + 1 x379 + 1 x380 + 1 x381 + 1 x382 + 1 x383 + 1 x384 + 1 x385 + 1 x386 + 1 x387 + 1 x388 + 1 x389 + 1 x390 + 1 x391 + 1 x392 + 1 x393 + 1 x394 + 1 x395 + 1 x396 + 1 x397 + 1 x398 + 1 x399 + 1 x400 + 1 x401 + 1 x402 + 1 x403 + 1 x404 + 1 x405 + 1 x406 + 1 x407 + 1 x408 + 1 x409 + 1 x410 + 1 x411 + 1 x412 + 1 x413 + 1 x414 + 1 x415 + 1 x416 + 1 x417 + 1 x418 + 1 x419 + 1 x420 + 1 x421 + 1 x422 + 1 x423 + 1 x424 + 1 x425 + 1 x426 + 1 x427 + 1 x428 + 1 x429 + 1 x430 + 1 x431 + 1 x432 + 1 x433 + 1 x434 + 1 x435 + 1 x436 + 1 x437 + 1 x438 + 1 x439 + 1 x440 + 1 x441 + 1 x442 + 1 x443 + 1 x444 + 1 x445 + 1 x446 + 1 x447 + 1 x448 + 1 x449 + 1 x450 + 1 x451 + 1 x452 + 1 x453 + 1 x454 + 1 x455 + 1 x456 + 1 x457 + 1 x458 + 1 x459 + 1 x460 + 1 x461 + 1 x462 + 1 x463 + 1 x464 + 1 x465 + 1 x466 + 1 x467 + 1 x468 + 1 x469 + 1 x470 + 1 x471 + 1 x472 + 1 x473 + 1 x474 + 1 x475 + 1 x476 + 1 x477 + 1 x478 + 1 x479 + 1 x480 + 1 x481 + 1 x482 + 1 x483 + 1 x484 + 1 x485 + 1 x486 + 1 x487 + 1 x488 + 1 x489 + 1 x490 + 1 x491 + 1 x492 + 1 x493 + 1 x494 + 1 x495 + 1 x496 + 1 x497 + 1 x498 + 1 x499 + 1 x500

subject to
C1: + x296 + x303 <= 1
C2: + x270 + x312 <= 1
C3: + x6 + x32 <= 1
C4: + x8 + x251 <= 1
C5: + x157 + x158 <= 1
C6: + x97 + x212 <= 1
C7: + x32 + x166 <= 1
C8: + x226 + x434 <= 1
C9: + x18 + x21 <= 1
C10: + x8 + x26 <= 1
C11: + x1 + x77 <= 1
C12: + x12 + x91 <= 1
C13: + x149 + x392 <= 1
C14: + x62 + x196 <= 1
C15: + x10 + x275 <= 1
C16: + x47 + x291 <= 1
C17: + x91 + x208 <= 1
C18: + x83 + x366 <= 1
C19: + x19 + x46 <= 1
C20: + x214 + x289 <= 1
C21: + x379 + x482 <= 1
C22: + x32 + x293 <= 1
C23: + x23 + x284 <= 1
C24: + x3 + x437 <= 1
C25: + x476 + x500 <= 1
C26: + x267 + x275 <= 1
C27: + x8 + x369 <= 1
C28: + x1 + x294 <= 1
C29: + x11 + x98 <= 1
C30: + x55 + x105 <= 1
C31: + x183 + x489 <= 1
C32: + x6 + x323 <= 1
C33: + x22 + x181 <= 1
C34: + x24 + x96 <= 1
C35: + x473 + x488 <= 1
C36: + x92 + x406 <= 1
C37: + x102 + x487 <= 1
C38: + x258 + x316 <= 1
C39: + x6 + x25 <= 1
C40: + x36 + x438 <= 1
C41: + x136 + x319 <= 1
C42: + x29 + x277 <= 1
C43: + x106 + x210 <= 1
C44: + x13 + x255 <= 1
C45: + x9 + x39 <= 1
C46: + x8 + x23 <= 1
C47: + x135 + x338 <= 1
C48: + x21 + x444 <= 1
C49: + x60 + x62 <= 1
C50: + x6 + x426 <= 1
C51: + x36 + x259 <= 1
C52: + x204 + x390 <= 1
C53: + x41 + x429 <= 1
C54: + x158 + x180 <= 1
C55: + x6 + x205 <= 1
C56: + x176 + x341 <= 1
C57: + x159 + x245 <= 1
C58: + x308 + x325 <= 1
C59: + x3 + x235 <= 1
C60: + x95 + x332 <= 1
C61: + x52 + x387 <= 1
C62: + x5 + x88 <= 1
C63: + x55 + x199 <= 1
C64: + x39 + x141 <= 1
C65: + x240 + x404 <= 1
C66: + x12 + x16 <= 1
C67: + x48 + x212 <= 1
C68: + x54 + x116 <= 1
C69: + x138 + x283 <= 1
C70: + x117 + x356 <= 1
C71: + x35 + x115 <= 1
C72: + x36 + x97 <= 1
C73: + x19 + x217 <= 1
C74: + x8 + x92 <= 1
C75: + x136 + x423 <= 1
C76: + x105 + x182 <= 1
C77: + x158 + x363 <= 1
C78: + x51 + x178 <= 1
C79: + x171 + x432 <= 1
C80: + x253 + x470 <= 1
C81: + x85 + x103 <= 1
C82: + x13 + x273 <= 1
C83: + x97 + x261 <= 1
C84: + x8 + x286 <= 1
C85: + x201 + x454 <= 1
C86: + x2 + x34 <= 1
C87: + x7 + x33 <= 1
C88: + x111 + x391 <= 1
C89: + x3 + x65 <= 1
C90: + x257 + x455 <= 1
C91: + x106 + x364 <= 1
C92: + x100 + x254 <= 1
C93: + x135 + x476 <= 1
C94: + x86 + x264 <= 1
C95: + x124 + x189 <= 1
C96: + x127 + x220 <= 1
C97: + x281 + x362 <= 1
C98: + x134 + x383 <= 1
C99: + x11 + x358 <= 1
C100: + x8 + x452 <= 1
C101: + x395 + x466 <= 1
C102: + x32 + x458 <= 1
C103: + x6 + x71 <= 1
C104: + x134 + x146 <= 1
C105: + x15 + x20 <= 1
C106: + x167 + x255 <= 1
C107: + x418 + x457 <= 1
C108: + x1 + x6 <= 1
C109: + x183 + x201 <= 1
C110: + x219 + x268 <= 1
C111: + x59 + x459 <= 1
C112: + x8 + x81 <= 1
C113: + x10 + x255 <= 1
C114: + x46 + x286 <= 1
C115: + x141 + x414 <= 1
C116: + x10 + x346 <= 1
C117: + x203 + x384 <= 1
C118: + x5 + x381 <= 1
C119: + x6 + x11 <= 1
C120: + x19 + x99 <= 1
C121: + x2 + x59 <= 1
C122: + x10 + x80 <= 1
C123: + x14 + x251 <= 1
C124: + x81 + x99 <= 1
C125: + x6 + x377 <= 1
C126: + x36 + x86 <= 1
C127: + x16 + x162 <= 1
C128: + x49 + x124 <= 1
C129: + x51 + x157 <= 1
C130: + x135 + x237 <= 1
C131: + x2 + x481 <= 1
C132: + x29 + x45 <= 1
C133: + x132 + x175 <= 1
C134: + x23 + x31 <= 1
C135: + x5 + x161 <= 1
C136: + x154 + x222 <= 1
C137: + x80 + x407 <= 1
C138: + x10 + x60 <= 1
C139: + x82 + x492 <= 1
C140: + x8 + x57 <= 1
C141: + x10 + x151 <= 1
C142: + x7 + x88 <= 1
C143: + x8 + x352 <= 1
C144: + x127 + x320 <= 1
C145: + x2 + x104 <= 1
C146: + x5 + x213 <= 1
C147: + x8 + x74 <= 1
C148: + x2 + x131 <= 1
C149: + x37 + x318 <= 1
C150: + x135 + x271 <= 1
C151: + x107 + x261 <= 1
C152: + x217 + x240 <= 1
C153: + x185 + x270 <= 1
C154: + x270 + x447 <= 1
C155: + x26 + x182 <= 1
C156: + x1 + x41 <= 1
C157: + x111 + x312 <= 1
C158: + x2 + x351 <= 1
C159: + x233 + x496 <= 1
C160: + x77 + x452 <= 1
C161: + x7 + x19 <= 1
C162: + x165 + x455 <= 1
C163: + x130 + x301 <= 1
C164: + x3 + x83 <= 1
C165: + x32 + x47 <= 1
C166: + x6 + x40 <= 1
C167: + x208 + x417 <= 1
C168: + x36 + x44 <= 1
C169: + x10 + x61 <= 1
C170: + x211 + x283 <= 1
C171: + x18 + x130 <= 1
C172: + x75 + x115 <= 1
C173: + x5 + x410 <= 1
C174: + x162 + x362 <= 1
C175: + x19 + x179 <= 1
C176: + x93 + x430 <= 1
C177: + x4 + x421 <= 1
C178: + x25 + x107 <= 1
C179: + x243 + x341 <= 1
C180: + x7 + x79 <= 1
C181: + x16 + x402 <= 1
C182: + x106 + x130 <= 1
C183: + x6 + x236 <= 1
C184: + x3 + x268 <= 1
C185: + x362 + x376 <= 1
C186: + x34 + x243 <= 1
C187: + x35 + x326 <= 1
C188: + x6 + x125 <= 1
C189: + x280 + x488 <= 1
C190: + x193 + x440 <= 1
C191: + x148 + x214 <= 1
C192: + x35 + x81 + x327 <= 1
C193: + x32 + x135 <= 1
C194: + x1 + x48 <= 1
C195: + x206 + x219 <= 1
C196: + x23 + x336 <= 1
C197: + x398 + x497 <= 1
C198: + x7 + x22 <= 1
C199: + x5 + x498 <= 1
C200: + x47 + x141 <= 1
C201: + x94 + x109 <= 1
C202: + x1 + x23 + x64 <= 1
C203: + x172 + x374 <= 1
C204: + x8 + x140 <= 1
C205: + x137 + x359 <= 1
C206: + x136 + x471 <= 1
C207: + x448 + x449 <= 1
C208: + x5 + x76 <= 1
C209: + x36 + x144 <= 1
C210: + x8 + x47 <= 1
C211: + x94 + x467 <= 1
C212: + x377 + x382 <= 1
C213: + x176 + x474 <= 1
C214: + x23 + x412 <= 1
C215: + x7 + x66 <= 1
C216: + x147 + x229 <= 1
C217: + x7 + x227 <= 1
C218: + x7 + x312 <= 1
C219: + x10 + x18 <= 1
C220: + x11 + x226 <= 1
C221: + x27 + x447 <= 1
C222: + x39 + x60 <= 1
C223: + x127 + x185 <= 1
C224: + x36 + x252 <= 1
C225: + x19 + x387 <= 1
C226: + x14 + x36 + x94 <= 1
C227: + x5 + x15 <= 1
C228: + x44 + x407 <= 1
C229: + x3 + x343 <= 1
C230: + x42 + x274 <= 1
C231: + x32 + x378 <= 1
C232: + x15 + x420 <= 1
C233: + x7 + x13 <= 1
C234: + x20 + x460 <= 1
C235: + x352 + x428 <= 1
C236: + x15 + x125 <= 1
C237: + x101 + x349 <= 1
C238: + x110 + x195 <= 1
C239: + x233 + x365 <= 1
C240: + x14 + x218 <= 1
C241: + x90 + x276 <= 1
C242: + x281 + x326 <= 1
C243: + x300 + x420 <= 1
C244: + x55 + x166 <= 1
C245: + x123 + x192 <= 1
C246: + x68 + x329 <= 1
C247: + x100 + x468 <= 1
C248: + x64 + x186 <= 1
C249: + x93 + x321 <= 1
C250: + x3 + x286 <= 1
C251: + x25 + x232 <= 1
C252: + x26 + x32 <= 1
C253: + x32 + x307 <= 1
C254: + x76 + x266 <= 1
C255: + x59 + x324 <= 1
C256: + x385 + x441 <= 1
C257: + x43 + x83 <= 1
C258: + x91 + x105 <= 1
C259: + x80 + x236 <= 1
C260: + x19 + x71 <= 1
C261: + x2 + x7 <= 1
C262: + x137 + x148 <= 1
C263: + x85 + x231 <= 1
C264: + x12 + x271 <= 1
C265: + x63 + x427 <= 1
C266: + x117 + x208 <= 1
C267: + x123 + x243 <= 1
C268: + x5 + x488 <= 1
C269: + x147 + x346 <= 1
C270: + x111 + x422 <= 1
C271: + x3 + x64 <= 1
C272: + x6 + x19 <= 1
C273: + x151 + x240 <= 1
C274: + x10 + x88 <= 1
C275: + x8 + x250 <= 1
C276: + x22 + x32 <= 1
C277: + x14 + x211 <= 1
C278: + x217 + x430 <= 1
C279: + x235 + x386 <= 1
C280: + x127 + x255 <= 1
C281: + x471 + x487 <= 1
C282: + x43 + x316 <= 1
C283: + x45 + x145 <= 1
C284: + x41 + x262 <= 1
C285: + x98 + x469 <= 1
C286: + x6 + x420 <= 1
C287: + x62 + x199 <= 1
C288: + x318 + x370 <= 1
C289: + x158 + x190 <= 1
C290: + x215 + x311 <= 1
C291: + x82 + x158 <= 1
C292: + x154 + x198 <= 1
C293: + x19 + x47 <= 1
C294: + x68 + x479 <= 1
C295: + x154 + x476 <= 1
C296: + x290 + x372 <= 1
C297: + x53 + x261 <= 1
C298: + x54 + x110 <= 1
C299: + x1 + x152 <= 1
C300: + x158 + x242 <= 1
C301: + x15 + x224 <= 1
C302: + x8 + x98 <= 1
C303: + x20 + x200 <= 1
C304: + x161 + x275 <= 1
C305: + x107 + x301 <= 1
C306: + x71 + x319 <= 1
C307: + x19 + x264 <= 1
C308: + x87 + x401 <= 1
C309: + x73 + x405 <= 1
C310: + x43 + x237 <= 1
C311: + x261 + x473 <= 1
C312: + x62 + x111 <= 1
C313: + x101 + x160 <= 1
C314: + x86 + x302 <= 1
C315: + x240 + x368 <= 1
C316: + x5 + x33 <= 1
C317: + x108 + x241 <= 1
C318: + x35 + x392 <= 1
C319: + x81 + x114 <= 1
C320: + x10 + x188 <= 1
C321: + x55 + x184 <= 1
C322: + x185 + x211 <= 1
C323: + x12 + x95 <= 1
C324: + x5 + x275 <= 1
C325: + x243 + x377 <= 1
C326: + x10 + x279 <= 1
C327: + x8 + x441 <= 1
C328: + x2 + x69 <= 1
C329: + x95 + x172 <= 1
C330: + x359 + x469 <= 1
C331: + x216 + x438 <= 1
C332: + x163 + x292 <= 1
C333: + x65 + x320 <= 1
C334: + x5 + x85 <= 1
C335: + x170 + x359 <= 1
C336: + x154 + x477 <= 1
C337: + x161 + x350 <= 1
C338: + x54 + x212 <= 1
C339: + x48 + x215 <= 1
C340: + x12 + x466 <= 1
C341: + x149 + x472 <= 1
C342: + x133 + x199 <= 1
C343: + x15 + x284 <= 1
C344: + x1 + x12 <= 1
C345: + x4 + x7 <= 1
C346: + x31 + x351 <= 1
C347: + x111 + x440 <= 1
C348: + x2 + x479 <= 1
C349: + x192 + x459 <= 1
C350: + x12 + x398 <= 1
C351: + x91 + x143 <= 1
C352: + x10 + x66 <= 1
C353: + x11 + x82 <= 1
C354: + x119 + x121 <= 1
C355: + x2 + x45 <= 1
C356: + x240 + x373 <= 1
C357: + x131 + x416 <= 1
C358: + x8 + x19 <= 1
C359: + x121 + x229 <= 1
C360: + x20 + x153 <= 1
C361: + x5 + x282 <= 1
C362: + x23 + x424 <= 1
C363: + x7 + x46 <= 1
C364: + x220 + x233 <= 1
C365: + x37 + x483 <= 1
C366: + x184 + x334 <= 1
C367: + x41 + x401 <= 1
C368: + x5 + x191 <= 1
C369: + x107 + x146 <= 1
C370: + x276 + x284 <= 1
C371: + x129 + x230 <= 1
C372: + x138 + x287 <= 1
C373: + x67 + x90 <= 1
C374: + x59 + x107 <= 1
C375: + x358 + x444 <= 1
C376: + x91 + x340 <= 1
C377: + x41 + x122 <= 1
C378: + x22 + x186 <= 1
C379: + x487 + x499 <= 1
C380: + x25 + x137 <= 1
C381: + x18 + x106 <= 1
C382: + x6 + x491 <= 1
C383: + x10 + x341 <= 1
C384: + x46 + x68 <= 1
C385: + x3 + x9 <= 1
C386: + x29 + x30 <= 1
C387: + x222 + x382 <= 1
C388: + x25 + x38 <= 1
C389: + x6 + x14 <= 1
C390: + x173 + x345 <= 1
C391: + x8 + x229 <= 1
C392: + x66 + x358 <= 1
C393: + x67 + x110 <= 1
C394: + x48 + x62 <= 1
C395: + x104 + x177 <= 1
C396: + x158 + x280 <= 1
C397: + x180 + x311 <= 1
C398: + x22 + x43 <= 1
C399: + x6 + x161 <= 1
C400: + x1 + x95 <= 1
C401: + x187 + x205 <= 1
C402: + x13 + x484 <= 1
C403: + x3 + x93 <= 1
C404: + x348 + x412 <= 1
C405: + x23 + x28 <= 1
C406: + x6 + x50 <= 1
C407: + x5 + x166 <= 1
C408: + x7 + x194 <= 1
C409: + x10 + x55 <= 1
C410: + x133 + x294 <= 1
C411: + x3 + x226 <= 1
C412: + x21 + x129 <= 1
C413: + x224 + x357 <= 1
C414: + x6 + x304 <= 1
C415: + x37 + x164 <= 1
C416: + x113 + x117 <= 1
C417: + x5 + x309 <= 1
C418: + x271 + x329 <= 1
C419: + x92 + x375 <= 1
C420: + x33 + x481 <= 1
C421: + x96 + x169 <= 1
C422: + x25 + x446 <= 1
C423: + x43 + x492 <= 1
C424: + x16 + x291 <= 1
C425: + x77 + x180 + x186 <= 1
C426: + x94 + x373 <= 1
C427: + x40 + x296 <= 1
C428: + x263 + x309 <= 1
C429: + x21 + x487 <= 1
C430: + x60 + x223 <= 1
C431: + x133 + x249 <= 1
C432: + x24 + x461 <= 1
C433: + x110 + x160 <= 1
C434: + x237 + x349 <= 1
C435: + x205 + x425 <= 1
C436: + x5 + x30 <= 1
C437: + x162 + x214 <= 1
C438: + x254 + x328 <= 1
C439: + x2 + x346 <= 1
C440: + x21 + x25 <= 1
C441: + x42 + x291 <= 1
C442: + x24 + x62 <= 1
C443: + x253 + x445 <= 1
C444: + x10 + x266 <= 1
C445: + x8 + x424 <= 1
C446: + x38 + x84 <= 1
C447: + x6 + x59 <= 1
C448: + x92 + x134 <= 1
C449: + x234 + x372 <= 1
C450: + x15 + x382 <= 1
C451: + x261 + x393 <= 1
C452: + x2 + x124 <= 1
C453: + x275 + x316 <= 1
C454: + x13 + x180 <= 1
C455: + x1 + x17 <= 1
C456: + x38 + x182 <= 1
C457: + x78 + x404 <= 1
C458: + x45 + x221 <= 1
C459: + x25 + x52 <= 1
C460: + x43 + x102 <= 1
C461: + x6 + x128 <= 1
C462: + x7 + x136 <= 1
C463: + x133 + x232 <= 1
C464: + x53 + x301 <= 1
C465: + x36 + x429 <= 1
C466: + x232 + x295 <= 1
C467: + x197 + x325 <= 1
C468: + x417 + x430 <= 1
C469: + x108 + x292 <= 1
C470: + x36 + x95 <= 1
C471: + x2 + x56 <= 1
C472: + x59 + x65 <= 1
C473: + x6 + x366 <= 1
C474: + x13 + x69 <= 1
C475: + x70 + x118 <= 1
C476: + x46 + x106 <= 1
C477: + x3 + x486 <= 1
C478: + x139 + x151 <= 1
C479: + x78 + x246 <= 1
C480: + x201 + x420 <= 1
C481: + x274 + x276 <= 1
C482: + x10 + x33 <= 1
C483: + x8 + x143 <= 1
C484: + x23 + x247 <= 1
C485: + x64 + x81 <= 1
C486: + x38 + x46 <= 1
C487: + x21 + x108 <= 1
C488: + x3 + x405 <= 1
C489: + x43 + x57 <= 1
C490: + x134 + x144 <= 1
C491: + x1 + x262 <= 1
C492: + x62 + x184 <= 1
C493: + x45 + x325 <= 1
C494: + x9 + x489 <= 1
C495: + x86 + x135 <= 1
C496: + x11 + x22 + x56 <= 1
C497: + x8 + x67 <= 1
C498: + x20 + x233 <= 1
C499: + x3 + x264 <= 1
C500: + x442 + x465 <= 1
C501: + x76 + x163 <= 1
C502: + x12 + x426 <= 1
C503: + x88 + x131 <= 1
C504: + x2 + x9 <= 1
C505: + x15 + x260 <= 1
C506: + x54 + x365 <= 1
C507: + x39 + x241 <= 1
C508: + x67 + x317 <= 1
C509: + x139 + x146 <= 1
C510: + x12 + x358 <= 1
C511: + x278 + x354 <= 1
C512: + x15 + x122 <= 1
C513: + x1 + x211 <= 1
C514: + x91 + x389 <= 1
C515: + x8 + x43 <= 1
C516: + x128 + x418 <= 1
C517: + x3 + x126 <= 1
C518: + x348 + x443 <= 1
C519: + x186 + x460 <= 1
C520: + x52 + x276 <= 1
C521: + x154 + x256 <= 1
C522: + x45 + x46 <= 1
C523: + x10 + x22 <= 1
C524: + x157 + x349 <= 1
C525: + x105 + x150 <= 1
C526: + x51 + x261 <= 1
C527: + x304 + x416 <= 1
C528: + x179 + x283 <= 1
C529: + x389 + x475 <= 1
C530: + x20 + x77 <= 1
C531: + x152 + x199 + x288 <= 1
C532: + x331 + x418 <= 1
C533: + x98 + x427 <= 1
C534: + x90 + x118 <= 1
C535: + x263 + x443 <= 1
C536: + x185 + x288 <= 1
C537: + x77 + x137 <= 1
C538: + x21 + x337 <= 1
C539: + x5 + x11 <= 1
C540: + x17 + x268 <= 1
C541: + x93 + x108 <= 1
C542: + x58 + x448 <= 1
C543: + x265 + x344 <= 1
C544: + x97 + x111 <= 1
C545: + x306 + x396 <= 1
C546: + x324 + x482 <= 1
C547: + x113 + x471 <= 1
C548: + x68 + x243 <= 1
C549: + x422 + x496 <= 1
C550: + x17 + x411 <= 1
C551: + x62 + x89 <= 1
C552: + x3 + x198 <= 1
C553: + x39 + x123 <= 1
C554: + x20 + x299 <= 1
C555: + x25 + x224 <= 1
C556: + x10 + x142 <= 1
C557: + x11 + x262 <= 1
C558: + x54 + x314 <= 1
C559: + x41 + x259 <= 1
C560: + x396 + x454 <= 1
C561: + x5 + x297 <= 1
C562: + x208 + x292 <= 1
C563: + x26 + x270 <= 1
C564: + x199 + x410 <= 1
C565: + x245 + x381 <= 1
C566: + x10 + x31 <= 1
C567: + x18 + x164 <= 1
C568: + x181 + x189 <= 1
C569: + x38 + x161 <= 1
C570: + x114 + x248 <= 1
C571: + x16 + x17 <= 1
C572: + x236 + x333 <= 1
C573: + x59 + x336 <= 1
C574: + x12 + x17 <= 1
C575: + x119 + x494 <= 1
C576: + x8 + x194 <= 1
C577: + x2 + x27 <= 1
C578: + x47 + x485 <= 1
C579: + x114 + x321 <= 1
C580: + x286 + x448 <= 1
C581: + x14 + x27 <= 1
C582: + x1 + x50 <= 1
C583: + x1 + x479 <= 1
C584: + x267 + x349 <= 1
C585: + x69 + x140 <= 1
C586: + x168 + x170 <= 1
C587: + x44 + x273 <= 1
C588: + x19 + x430 <= 1
C589: + x8 + x303 <= 1
C590: + x203 + x421 <= 1
C591: + x22 + x28 <= 1
C592: + x132 + x302 <= 1
C593: + x25 + x370 <= 1
C594: + x127 + x227 <= 1
C595: + x10 + x183 <= 1
C596: + x1 + x78 <= 1
C597: + x55 + x177 <= 1
C598: + x12 + x94 <= 1
C599: + x93 + x439 <= 1
C600: + x82 + x119 <= 1
C601: + x193 + x453 <= 1
C602: + x3 + x80 <= 1
C603: + x130 + x139 <= 1
C604: + x61 + x269 <= 1
C605: + x6 + x195 <= 1
C606: + x180 + x341 <= 1
C607: + x293 + x491 <= 1
C608: + x86 + x373 <= 1
C609: + x77 + x304 <= 1
C610: + x107 + x357 <= 1
C611: + x162 + x333 <= 1
C612: + x18 + x72 <= 1
C613: + x66 + x78 <= 1
C614: + x132 + x204 <= 1
C615: + x359 + x417 <= 1
C616: + x8 + x372 <= 1
C617: + x38 + x315 <= 1
C618: + x158 + x206 <= 1
C619: + x177 + x379 <= 1
C620: + x6 + x322 <= 1
C621: + x1 + x9 <= 1
C622: + x4 + x6 <= 1
C623: + x51 + x184 <= 1
C624: + x33 + x226 <= 1
C625: + x119 + x280 <= 1
C626: + x10 + x93 <= 1
C627: + x121 + x389 <= 1
C628: + x94 + x151 <= 1
C629: + x20 + x313 <= 1
C630: + x4 + x147 <= 1
C631: + x35 + x388 <= 1
C632: + x44 + x124 <= 1
C633: + x45 + x140 <= 1
C634: + x91 + x402 <= 1
C635: + x41 + x188 <= 1
C636: + x184 + x369 <= 1
C637: + x350 + x446 <= 1
C638: + x50 + x71 <= 1
C639: + x14 + x89 <= 1
C640: + x343 + x375 <= 1
C641: + x18 + x158 <= 1
C642: + x192 + x273 <= 1
C643: + x51 + x306 <= 1
C644: + x96 + x493 <= 1
C645: + x62 + x333 <= 1
C646: + x12 + x15 <= 1
C647: + x10 + x455 <= 1
C648: + x384 + x418 <= 1
C649: + x15 + x171 <= 1
C650: + x1 + x16 <= 1
C651: + x22 + x376 <= 1
C652: + x13 + x429 <= 1
C653: + x16 + x43 <= 1
C654: + x66 + x147 <= 1
C655: + x53 + x340 <= 1
C656: + x1 + x191 <= 1
C657: + x237 + x363 <= 1
C658: + x137 + x263 <= 1
C659: + x39 + x112 <= 1
C660: + x229 + x352 <= 1
C661: + x5 + x44 <= 1
C662: + x99 + x219 <= 1
C663: + x12 + x76 <= 1
C664: + x196 + x247 <= 1
C665: + x33 + x181 <= 1
C666: + x21 + x23 <= 1
C667: + x53 + x195 <= 1
C668: + x127 + x330 <= 1
C669: + x200 + x366 <= 1
C670: + x93 + x298 <= 1
C671: + x4 + x55 <= 1
C672: + x348 + x391 <= 1
C673: + x115 + x154 <= 1
C674: + x26 + x70 <= 1
C675: + x5 + x187 <= 1
C676: + x79 + x162 <= 1
C677: + x254 + x291 <= 1
C678: + x19 + x29 <= 1
C679: + x41 + x50 <= 1
C680: + x5 + x96 <= 1
C681: + x57 + x117 <= 1
C682: + x21 + x91 <= 1
C683: + x217 + x222 <= 1
C684: + x10 + x464 <= 1
C685: + x432 + x480 <= 1
C686: + x9 + x234 <= 1
C687: + x132 + x500 <= 1
C688: + x96 + x410 <= 1
C689: + x79 + x324 <= 1
C690: + x7 + x493 <= 1
C691: + x10 + x345 <= 1
C692: + x3 + x5 <= 1
C693: + x59 + x218 <= 1
C694: + x60 + x222 <= 1
C695: + x6 + x10 <= 1
C696: + x99 + x113 <= 1
C697: + x83 + x215 <= 1
C698: + x273 + x486 <= 1
C699: + x10 + x79 <= 1
C700: + x10 + x444 <= 1
C701: + x52 + x456 <= 1
C702: + x6 + x173 <= 1
C703: + x121 + x240 <= 1
C704: + x157 + x265 <= 1
C705: + x81 + x342 <= 1
C706: + x7 + x25 <= 1
C707: + x2 + x488 <= 1
C708: + x148 + x385 <= 1
C709: + x3 + x89 <= 1
C710: + x12 + x371 <= 1
C711: + x151 + x193 <= 1
C712: + x53 + x367 <= 1
C713: + x165 + x203 <= 1
C714: + x36 + x129 <= 1
C715: + x72 + x380 <= 1
C716: + x8 + x60 <= 1
C717: + x10 + x150 <= 1
C718: + x7 + x85 <= 1
C719: + x36 + x384 <= 1
C720: + x41 + x456 <= 1
C721: + x205 + x497 <= 1
C722: + x217 + x322 <= 1
C723: + x8 + x73 <= 1
C724: + x10 + x231 <= 1
C725: + x124 + x312 <= 1
C726: + x9 + x78 <= 1
C727: + x123 + x289 <= 1
C728: + x74 + x253 <= 1
C729: + x263 + x470 <= 1
C730: + x2 + x51 <= 1
C731: + x133 + x410 <= 1
C732: + x34 + x295 <= 1
C733: + x45 + x113 <= 1
C734: + x172 + x182 <= 1
C735: + x64 + x100 <= 1
C736: + x48 + x166 <= 1
C737: + x13 + x74 <= 1
C738: + x196 + x316 <= 1
C739: + x51 + x332 <= 1
C740: + x1 + x42 <= 1
C741: + x71 + x439 <= 1
C742: + x276 + x354 <= 1
C743: + x194 + x471 <= 1
C744: + x95 + x129 <= 1
C745: + x186 + x498 <= 1
C746: + x133 + x297 <= 1
C747: + x8 + x142 <= 1
C748: + x1 + x217 <= 1
C749: + x2 + x207 <= 1
C750: + x3 + x245 <= 1
C751: + x21 + x140 <= 1
C752: + x185 + x347 <= 1
C753: + x78 + x348 <= 1
C754: + x18 + x36 <= 1
C755: + x8 + x49 <= 1
C756: + x39 + x183 <= 1
C757: + x39 + x380 <= 1
C758: + x68 + x350 <= 1
C759: + x6 + x440 <= 1
C760: + x128 + x448 <= 1
C761: + x3 + x104 <= 1
C762: + x6 + x235 <= 1
C763: + x381 + x460 <= 1
C764: + x157 + x331 <= 1
C765: + x41 + x108 <= 1
C766: + x5 + x114 <= 1
C767: + x5 + x463 <= 1
C768: + x8 + x485 <= 1
C769: + x61 + x220 <= 1
C770: + x65 + x159 <= 1
C771: + x1 + x132 <= 1
C772: + x53 + x462 <= 1
C773: + x26 + x190 <= 1
C774: + x1 + x33 <= 1
C775: + x19 + x247 <= 1
C776: + x219 + x303 <= 1
C777: + x158 + x393 <= 1
C778: + x96 + x436 <= 1
C779: + x1 + x462 <= 1
C780: + x3 + x482 <= 1
C781: + x113 + x477 <= 1
C782: + x21 + x318 <= 1
C783: + x85 + x396 <= 1
C784: + x5 + x152 <= 1
C785: + x12 + x353 <= 1
C786: + x19 + x445 <= 1
C787: + x10 + x37 <= 1
C788: + x12 + x208 <= 1
C789: + x35 + x37 <= 1
C790: + x6 + x286 <= 1
C791: + x5 + x295 <= 1
C792: + x244 + x359 <= 1
C793: + x6 + x433 <= 1
C794: + x342 + x406 <= 1
C795: + x142 + x281 <= 1
C796: + x93 + x331 <= 1
C797: + x2 + x113 <= 1
C798: + x21 + x258 <= 1
C799: + x22 + x126 <= 1
C800: + x260 + x415 <= 1
C801: + x109 + x294 <= 1
C802: + x16 + x317 <= 1
C803: + x237 + x320 <= 1
C804: + x46 + x264 <= 1
C805: + x283 + x415 <= 1
C806: + x305 + x379 <= 1
C807: + x66 + x468 <= 1
C808: + x5 + x438 <= 1
C809: + x53 + x147 <= 1
C810: + x60 + x225 <= 1
C811: + x147 + x154 <= 1
C812: + x60 + x336 <= 1
C813: + x5 + x16 <= 1
C814: + x25 + x348 <= 1
C815: + x32 + x143 <= 1
C816: + x107 + x206 <= 1
C817: + x28 + x167 <= 1
C818: + x29 + x150 <= 1
C819: + x113 + x162 <= 1
C820: + x60 + x427 <= 1
C821: + x42 + x236 <= 1
C822: + x66 + x139 <= 1
C823: + x21 + x453 <= 1
C824: + x150 + x238 <= 1
C825: + x279 + x342 <= 1
C826: + x24 + x403 <= 1
C827: + x261 + x492 <= 1
C828: + x368 + x408 <= 1
C829: + x53 + x86 <= 1
C830: + x16 + x68 <= 1
C831: + x54 + x317 <= 1
C832: + x300 + x419 <= 1
C833: + x20 + x133 <= 1
C834: + x186 + x365 <= 1
C835: + x314 + x424 <= 1
C836: + x23 + x404 <= 1
C837: + x93 + x322 <= 1
C838: + x96 + x132 <= 1
C839: + x134 + x483 <= 1
C840: + x10 + x26 <= 1
C841: + x157 + x345 <= 1
C842: + x60 + x472 <= 1
C843: + x150 + x464 <= 1
C844: + x79 + x352 <= 1
C845: + x154 + x466 <= 1
C846: + x8 + x475 <= 1
C847: + x35 + x244 <= 1
C848: + x43 + x84 <= 1
C849: + x101 + x174 <= 1
C850: + x215 + x265 <= 1
C851: + x48 + x177 <= 1
C852: + x41 + x134 <= 1
C853: + x17 + x114 <= 1
C854: + x84 + x298 <= 1
C855: + x51 + x99 <= 1
C856: + x34 + x443 <= 1
C857: + x79 + x133 <= 1
C858: + x291 + x332 <= 1
C859: + x11 + x173 <= 1
C860: + x382 + x395 <= 1
C861: + x94 + x129 <= 1
C862: + x206 + x274 <= 1
C863: + x5 + x7 + x8 + x10 <= 1
C864: + x91 + x396 <= 1
C865: + x3 + x12 + x18 <= 1
C866: + x20 + x142 <= 1
C867: + x113 + x149 <= 1
C868: + x403 + x457 <= 1
C869: + x143 + x169 <= 1
C870: + x20 + x416 <= 1
C871: + x359 + x467 <= 1
C872: + x78 + x216 <= 1
C873: + x425 + x462 <= 1
C874: + x40 + x470 <= 1
C875: + x46 + x378 <= 1
C876: + x148 + x379 <= 1
C877: + x151 + x170 + x256 <= 1
C878: + x34 + x133 <= 1
C879: + x9 + x106 <= 1
C880: + x81 + x154 <= 1
C881: + x128 + x415 <= 1
C882: + x165 + x405 <= 1
C883: + x10 + x473 <= 1
C884: + x56 + x456 <= 1
C885: + x321 + x425 <= 1
C886: + x47 + x489 <= 1
C887: + x6 + x138 <= 1
C888: + x17 + x263 <= 1
C889: + x28 + x181 <= 1
C890: + x74 + x399 <= 1
C891: + x3 + x298 <= 1
C892: + x214 + x375 <= 1
C893: + x60 + x112 <= 1
C894: + x81 + x297 <= 1
C895: + x36 + x213 <= 1
C896: + x138 + x381 <= 1
C897: + x20 + x38 <= 1
C898: + x23 + x51 <= 1
C899: + x5 + x141 <= 1
C900: + x10 + x96 <= 1
C901: + x45 + x137 <= 1
C902: + x8 + x21 <= 1
C903: + x38 + x197 <= 1
C904: + x403 + x452 <= 1
C905: + x10 + x278 <= 1
C906: + x28 + x368 <= 1
C907: + x2 + x92 <= 1
C908: + x39 + x449 <= 1
C909: + x22 + x393 <= 1
C910: + x5 + x86 <= 1
C911: + x141 + x163 <= 1
C912: + x70 + x197 <= 1
C913: + x196 + x400 <= 1
C914: + x126 + x424 <= 1
C915: + x60 + x248 <= 1
C916: + x170 + x385 <= 1
C917: + x2 + x24 <= 1
C918: + x58 + x115 <= 1
C919: + x6 + x96 <= 1
C920: + x136 + x258 <= 1
C921: + x106 + x169 <= 1
C922: + x32 + x102 <= 1
C923: + x6 + x334 <= 1
C924: + x12 + x155 <= 1
C925: + x59 + x454 <= 1
C926: + x18 + x120 <= 1
C927: + x201 + x210 <= 1
C928: + x130 + x257 <= 1
C929: + x119 + x122 <= 1
C930: + x167 + x190 <= 1
C931: + x261 + x358 <= 1
C932: + x19 + x143 <= 1
C933: + x11 + x308 <= 1
C934: + x157 + x311 <= 1
C935: + x4 + x54 <= 1
C936: + x10 + x287 <= 1
C937: + x173 + x498 <= 1
C938: + x11 + x34 <= 1
C939: + x29 + x385 <= 1
C940: + x154 + x215 <= 1
C941: + x19 + x34 <= 1
C942: + x3 + x232 <= 1
C943: + x113 + x274 <= 1
C944: + x12 + x168 <= 1
C945: + x13 + x48 <= 1
C946: + x23 + x280 <= 1
C947: + x5 + x426 <= 1
C948: + x9 + x24 <= 1
C949: + x45 + x188 <= 1
C950: + x478 + x499 <= 1
C951: + x214 + x309 <= 1
C952: + x41 + x478 <= 1
C953: + x13 + x191 <= 1
C954: + x270 + x468 <= 1
C955: + x18 + x206 <= 1
C956: + x8 + x87 <= 1
C957: + x183 + x408 <= 1
C958: + x85 + x100 <= 1
C959: + x5 + x371 <= 1
C960: + x6 + x13 <= 1
C961: + x352 + x399 <= 1
C962: + x83 + x220 <= 1
C963: + x26 + x473 <= 1
C964: + x342 + x450 <= 1
C965: + x73 + x225 <= 1
C966: + x1 + x179 <= 1
C967: + x13 + x243 <= 1
C968: + x2 + x37 <= 1
C969: + x23 + x170 <= 1
C970: + x5 + x24 <= 1
C971: + x16 + x168 <= 1
C972: + x181 + x231 <= 1
C973: + x44 + x117 <= 1
C974: + x209 + x481 <= 1
C975: + x41 + x167 <= 1
C976: + x8 + x11 <= 1
C977: + x106 + x121 <= 1
C978: + x327 + x431 <= 1
C979: + x260 + x484 <= 1
C980: + x36 + x494 <= 1
C981: + x299 + x392 <= 1
C982: + x10 + x54 <= 1
C983: + x8 + x156 <= 1
C984: + x280 + x428 <= 1
C985: + x64 + x463 <= 1
C986: + x15 + x380 <= 1
C987: + x10 + x145 <= 1
C988: + x78 + x84 <= 1
C989: + x89 + x290 <= 1
C990: + x3 + x146 <= 1
C991: + x94 + x209 <= 1
C992: + x42 + x201 <= 1
C993: + x54 + x233 <= 1
C994: + x167 + x323 <= 1
C995: + x26 + x418 <= 1
C996: + x90 + x98 <= 1
C997: + x263 + x471 <= 1
C998: + x163 + x378 <= 1
C999: + x343 + x457 <= 1
C1000: + x1 + x138 <= 1
C1001: + x105 + x305 <= 1
C1002: + x23 + x161 <= 1
C1003: + x126 + x156 <= 1
C1004: + x24 + x218 <= 1
C1005: + x242 + x391 <= 1
C1006: + x172 + x480 <= 1
C1007: + x66 + x188 <= 1
C1008: + x29 + x42 <= 1
C1009: + x248 + x361 <= 1
C1010: + x55 + x59 <= 1
C1011: + x150 + x223 <= 1
C1012: + x6 + x58 <= 1
C1013: + x18 + x132 <= 1
C1014: + x19 + x20 <= 1
C1015: + x172 + x194 <= 1
C1016: + x38 + x321 <= 1
C1017: + x5 + x67 <= 1
C1018: + x25 + x204 <= 1
C1019: + x24 + x174 <= 1
C1020: + x443 + x497 <= 1
C1021: + x70 + x450 <= 1
C1022: + x20 + x118 <= 1
C1023: + x184 + x500 <= 1
C1024: + x7 + x73 <= 1
C1025: + x66 + x248 <= 1
C1026: + x265 + x386 <= 1
C1027: + x20 + x392 <= 1
C1028: + x95 + x202 <= 1
C1029: + x185 + x455 <= 1
C1030: + x211 + x432 <= 1
C1031: + x158 + x213 <= 1
C1032: + x217 + x326 <= 1
C1033: + x15 + x185 <= 1
C1034: + x8 + x69 <= 1
C1035: + x68 + x490 <= 1
C1036: + x387 + x474 <= 1
C1037: + x89 + x373 <= 1
C1038: + x15 + x44 <= 1
C1039: + x2 + x55 <= 1
C1040: + x42 + x400 <= 1
C1041: + x5 + x6 <= 1
C1042: + x26 + x185 <= 1
C1043: + x2 + x338 <= 1
C1044: + x147 + x453 <= 1
C1045: + x12 + x126 <= 1
C1046: + x195 + x203 <= 1
C1047: + x6 + x400 <= 1
C1048: + x19 + x285 <= 1
C1049: + x3 + x483 <= 1
C1050: + x34 + x428 <= 1
C1051: + x108 + x109 <= 1
C1052: + x6 + x35 <= 1
C1053: + x62 + x70 <= 1
C1054: + x54 + x404 <= 1
C1055: + x62 + x497 <= 1
C1056: + x170 + x322 <= 1
C1057: + x151 + x494 <= 1
C1058: + x253 + x300 <= 1
C1059: + x8 + x45 <= 1
C1060: + x12 + x42 <= 1
C1061: + x48 + x289 <= 1
C1062: + x21 + x117 <= 1
C1063: + x186 + x359 <= 1
C1064: + x40 + x138 <= 1
C1065: + x132 + x486 <= 1
C1066: + x34 + x246 <= 1
C1067: + x397 + x432 <= 1
C1068: + x1 + x438 <= 1
C1069: + x399 + x448 <= 1
C1070: + x8 + x481 <= 1
C1071: + x15 + x51 <= 1
C1072: + x300 + x343 <= 1
C1073: + x1 + x136 <= 1
C1074: + x273 + x472 <= 1
C1075: + x203 + x464 <= 1
C1076: + x5 + x13 <= 1
C1077: + x260 + x330 <= 1
C1078: + x326 + x353 <= 1
C1079: + x1 + x37 <= 1
C1080: + x172 + x175 <= 1
C1081: + x250 + x374 <= 1
C1082: + x40 + x265 <= 1
C1083: + x196 + x293 <= 1
C1084: + x6 + x393 <= 1
C1085: + x62 + x252 <= 1
C1086: + x64 + x204 <= 1
C1087: + x37 + x75 <= 1
C1088: + x12 + x357 <= 1
C1089: + x5 + x148 <= 1
C1090: + x65 + x276 <= 1
C1091: + x66 + x412 <= 1
C1092: + x20 + x293 <= 1
C1093: + x276 + x476 <= 1
C1094: + x12 + x196 <= 1
C1095: + x14 + x220 <= 1
C1096: + x34 + x179 <= 1
C1097: + x8 + x38 <= 1
C1098: + x17 + x52 <= 1
C1099: + x26 + x105 <= 1
C1100: + x93 + x327 <= 1
C1101: + x186 + x459 <= 1
C1102: + x23 + x122 <= 1
C1103: + x261 + x285 <= 1
C1104: + x15 + x409 <= 1
C1105: + x33 + x102 <= 1
C1106: + x7 + x119 <= 1
C1107: + x10 + x102 <= 1
C1108: + x5 + x12 <= 1
C1109: + x181 + x251 <= 1
C1110: + x27 + x57 <= 1
C1111: + x93 + x101 <= 1
C1112: + x2 + x164 <= 1
C1113: + x54 + x152 <= 1
C1114: + x37 + x114 <= 1
C1115: + x5 + x155 <= 1
C1116: + x24 + x431 <= 1
C1117: + x148 + x174 <= 1
C1118: + x6 + x184 <= 1
C1119: + x45 + x151 <= 1
C1120: + x8 + x35 <= 1
C1121: + x102 + x324 <= 1
C1122: + x7 + x401 <= 1
C1123: + x54 + x313 <= 1
C1124: + x93 + x441 <= 1
C1125: + x3 + x360 <= 1
C1126: + x2 + x411 <= 1
C1127: + x12 + x330 <= 1
C1128: + x26 + x60 + x342 <= 1
C1129: + x74 + x350 <= 1
C1130: + x40 + x192 <= 1
C1131: + x22 + x230 <= 1
C1132: + x93 + x461 <= 1
C1133: + x21 + x79 <= 1
C1134: + x12 + x20 <= 1
C1135: + x251 + x371 <= 1
C1136: + x35 + x337 <= 1
C1137: + x134 + x165 <= 1
C1138: + x92 + x354 <= 1
C1139: + x290 + x495 <= 1
C1140: + x111 + x206 <= 1
C1141: + x148 + x326 <= 1
C1142: + x39 + x228 <= 1
C1143: + x120 + x386 <= 1
C1144: + x331 + x414 <= 1
C1145: + x26 + x458 <= 1
C1146: + x271 + x446 <= 1
C1147: + x92 + x225 <= 1
C1148: + x221 + x480 <= 1
C1149: + x378 + x428 <= 1
C1150: + x31 + x48 <= 1
C1151: + x260 + x356 <= 1
C1152: + x234 + x367 <= 1
C1153: + x24 + x178 <= 1
C1154: + x145 + x458 <= 1
C1155: + x166 + x328 <= 1
C1156: + x105 + x118 <= 1
C1157: + x256 + x366 <= 1
C1158: + x9 + x380 <= 1
C1159: + x112 + x178 <= 1
C1160: + x214 + x303 <= 1
C1161: + x25 + x319 <= 1
C1162: + x25 + x244 <= 1
C1163: + x15 + x363 <= 1
C1164: + x93 + x460 <= 1
C1165: + x68 + x353 <= 1
C1166: + x132 + x203 <= 1
C1167: + x15 + x48 + x107 <= 1
C1168: + x84 + x249 <= 1
C1169: + x56 + x452 <= 1
C1170: + x340 + x355 <= 1
C1171: + x39 + x442 <= 1
C1172: + x23 + x72 <= 1
C1173: + x270 + x478 <= 1
C1174: + x5 + x250 <= 1
C1175: + x181 + x201 <= 1
C1176: + x122 + x137 <= 1
C1177: + x4 + x5 <= 1
C1178: + x13 + x106 <= 1
C1179: + x84 + x307 <= 1
C1180: + x275 + x356 <= 1
C1181: + x79 + x148 <= 1
C1182: + x81 + x202 <= 1
C1183: + x3 + x213 <= 1
C1184: + x99 + x193 <= 1
C1185: + x253 + x336 <= 1
C1186: + x45 + x133 <= 1
C1187: + x8 + x17 <= 1
C1188: + x249 + x355 <= 1
C1189: + x7 + x387 <= 1
C1190: + x16 + x53 + x216 <= 1
C1191: + x150 + x365 <= 1
C1192: + x26 + x68 <= 1
C1193: + x64 + x171 <= 1
C1194: + x167 + x266 <= 1
C1195: + x36 + x484 <= 1
C1196: + x18 + x157 <= 1
C1197: + x10 + x16 <= 1
C1198: + x41 + x76 <= 1
C1199: + x112 + x191 <= 1
C1200: + x5 + x82 <= 1
C1201: + x42 + x324 <= 1
C1202: + x119 + x340 <= 1
C1203: + x385 + x396 <= 1
C1204: + x169 + x499 <= 1
C1205: + x7 + x92 <= 1
C1206: + x46 + x53 <= 1
C1207: + x93 + x360 <= 1
C1208: + x158 + x198 <= 1
C1209: + x48 + x496 <= 1
C1210: + x171 + x192 <= 1
C1211: + x21 + x196 <= 1
C1212: + x4 + x14 <= 1
C1213: + x12 + x159 <= 1
C1214: + x13 + x97 <= 1
C1215: + x21 + x478 <= 1
C1216: + x14 + x413 <= 1
C1217: + x110 + x169 <= 1
C1218: + x2 + x40 <= 1
C1219: + x144 + x371 <= 1
C1220: + x312 + x348 <= 1
C1221: + x40 + x119 <= 1
C1222: + x16 + x91 <= 1
C1223: + x59 + x278 <= 1
C1224: + x71 + x231 <= 1
C1225: + x55 + x402 <= 1
C1226: + x3 + x95 <= 1
C1227: + x67 + x159 <= 1
C1228: + x80 + x93 <= 1
C1229: + x154 + x270 <= 1
C1230: + x10 + x49 <= 1
C1231: + x19 + x30 <= 1
C1232: + x48 + x219 <= 1
C1233: + x412 + x446 <= 1
C1234: + x168 + x356 <= 1
C1235: + x53 + x280 <= 1
C1236: + x148 + x254 <= 1
C1237: + x141 + x315 <= 1
C1238: + x22 + x98 <= 1
C1239: + x91 + x228 <= 1
C1240: + x18 + x383 <= 1
C1241: + x1 + x8 <= 1
C1242: + x19 + x210 <= 1
C1243: + x311 + x436 <= 1
C1244: + x74 + x445 <= 1
C1245: + x100 + x172 <= 1
C1246: + x124 + x139 <= 1
C1247: + x53 + x135 <= 1
C1248: + x127 + x134 <= 1
C1249: + x211 + x256 <= 1
C1250: + x102 + x279 <= 1
C1251: + x35 + x306 <= 1
C1252: + x127 + x487 <= 1
C1253: + x120 + x127 <= 1
C1254: + x48 + x57 <= 1
C1255: + x6 + x172 <= 1
C1256: + x24 + x221 <= 1
C1257: + x144 + x415 <= 1
C1258: + x13 + x409 <= 1
C1259: + x24 + x36 <= 1
C1260: + x36 + x307 <= 1
C1261: + x7 + x26 <= 1
C1262: + x3 + x90 <= 1
C1263: + x6 + x61 <= 1
C1264: + x10 + x58 <= 1
C1265: + x12 + x209 <= 1
C1266: + x171 + x364 <= 1
C1267: + x109 + x111 <= 1
C1268: + x1 + x112 <= 1
C1269: + x57 + x125 <= 1
C1270: + x219 + x354 <= 1
C1271: + x95 + x469 <= 1
C1272: + x300 + x447 <= 1
C1273: + x167 + x395 <= 1
C1274: + x248 + x285 <= 1
C1275: + x6 + x78 <= 1
C1276: + x12 + x451 <= 1
C1277: + x139 + x214 <= 1
C1278: + x217 + x323 <= 1
C1279: + x273 + x335 <= 1
C1280: + x37 + x320 <= 1
C1281: + x119 + x221 <= 1
C1282: + x48 + x81 <= 1
C1283: + x5 + x449 <= 1
C1284: + x487 + x495 <= 1
C1285: + x10 + x321 <= 1
C1286: + x66 + x100 <= 1
C1287: + x58 + x319 <= 1
C1288: + x3 + x29 <= 1
C1289: + x16 + x351 <= 1
C1290: + x329 + x417 <= 1
C1291: + x93 + x247 <= 1
C1292: + x38 + x281 <= 1
C1293: + x6 + x149 <= 1
C1294: + x13 + x75 <= 1
C1295: + x255 + x398 <= 1
C1296: + x385 + x482 <= 1
C1297: + x14 + x67 <= 1
C1298: + x6 + x38 <= 1
C1299: + x53 + x375 <= 1
C1300: + x163 + x330 <= 1
C1301: + x10 + x35 <= 1
C1302: + x218 + x480 <= 1
C1303: + x92 + x153 <= 1
C1304: + x35 + x43 <= 1
C1305: + x219 + x361 <= 1
C1306: + x8 + x52 <= 1
C1307: + x59 + x165 <= 1
C1308: + x39 + x377 <= 1
C1309: + x106 + x485 <= 1
C1310: + x119 + x450 <= 1
C1311: + x220 + x381 <= 1
C1312: + x73 + x345 <= 1
C1313: + x7 + x307 <= 1
C1314: + x8 + x65 <= 1
C1315: + x150 + x445 <= 1
C1316: + x17 + x73 <= 1
C1317: + x173 + x423 <= 1
C1318: + x1 + x435 <= 1
C1319: + x144 + x147 <= 1
C1320: + x2 + x11 <= 1
C1321: + x11 + x120 <= 1
C1322: + x53 + x463 <= 1
C1323: + x10 + x219 <= 1
C1324: + x3 + x350 <= 1
C1325: + x76 + x157 <= 1
C1326: + x196 + x479 <= 1
C1327: + x7 + x181 <= 1
C1328: + x169 + x253 <= 1
C1329: + x434 + x475 <= 1
C1330: + x5 + x54 <= 1
C1331: + x53 + x80 <= 1
C1332: + x18 + x28 <= 1
C1333: + x8 + x41 <= 1
C1334: + x203 + x234 <= 1
C1335: + x67 + x338 <= 1
C1336: + x59 + x176 <= 1
C1337: + x112 + x493 <= 1
C1338: + x25 + x116 <= 1
C1339: + x319 + x374 <= 1
C1340: + x374 + x444 <= 1
C1341: + x75 + x306 <= 1
C1342: + x21 + x259 <= 1
C1343: + x132 + x331 <= 1
C1344: + x23 + x123 <= 1
C1345: + x237 + x313 <= 1
C1346: + x10 + x24 <= 1
C1347: + x12 + x187 <= 1
C1348: + x3 + x422 <= 1
C1349: + x1 + x343 <= 1
C1350: + x8 + x260 <= 1
C1351: + x101 + x168 <= 1
C1352: + x177 + x331 <= 1
C1353: + x66 + x138 <= 1
C1354: + x130 + x232 <= 1
C1355: + x104 + x300 <= 1
C1356: + x133 + x288 <= 1
C1357: + x31 + x389 <= 1
C1358: + x55 + x287 <= 1
C1359: + x76 + x113 <= 1
C1360: + x129 + x413 <= 1
C1361: + x96 + x126 <= 1
C1362: + x34 + x183 <= 1
C1363: + x23 + x131 <= 1
C1364: + x18 + x29 <= 1
C1365: + x36 + x183 <= 1
C1366: + x260 + x378 <= 1
C1367: + x152 + x491 <= 1
C1368: + x26 + x109 <= 1
C1369: + x2 + x390 <= 1
C1370: + x3 + x119 <= 1
C1371: + x127 + x436 <= 1
C1372: + x10 + x25 <= 1
C1373: + x74 + x298 <= 1
C1374: + x2 + x5 <= 1
C1375: + x23 + x74 <= 1
C1376: + x6 + x144 <= 1
C1377: + x72 + x299 <= 1
C1378: + x94 + x367 <= 1
C1379: + x276 + x376 <= 1
C1380: + x259 + x271 <= 1
C1381: + x125 + x154 <= 1
C1382: + x15 + x425 <= 1
C1383: + x22 + x360 <= 1
C1384: + x26 + x42 <= 1
C1385: + x2 + x451 <= 1
C1386: + x46 + x87 <= 1
C1387: + x130 + x249 <= 1
C1388: + x120 + x389 <= 1
C1389: + x48 + x334 <= 1
C1390: + x168 + x176 <= 1
C1391: + x335 + x383 <= 1
C1392: + x410 + x499 <= 1
C1393: + x173 + x187 <= 1
C1394: + x36 + x398 <= 1
C1395: + x255 + x260 <= 1
C1396: + x74 + x278 <= 1
C1397: + x2 + x209 <= 1
C1398: + x185 + x369 <= 1
C1399: + x271 + x447 <= 1
C1400: + x23 + x134 <= 1
C1401: + x21 + x436 <= 1
C1402: + x17 + x47 <= 1
C1403: + x66 + x258 <= 1
C1404: + x86 + x148 <= 1
C1405: + x73 + x185 <= 1
C1406: + x62 + x467 <= 1
C1407: + x110 + x238 <= 1
C1408: + x165 + x212 <= 1
C1409: + x2 + x237 <= 1
C1410: + x201 + x387 <= 1
C1411: + x22 + x226 <= 1
C1412: + x23 + x210 <= 1
C1413: + x8 + x176 <= 1
C1414: + x173 + x239 <= 1
C1415: + x13 + x59 <= 1
C1416: + x218 + x282 <= 1
C1417: + x39 + x149 <= 1
C1418: + x124 + x434 <= 1
C1419: + x8 + x370 <= 1
C1420: + x28 + x422 <= 1
C1421: + x55 + x477 <= 1
C1422: + x58 + x105 <= 1
C1423: + x11 + x97 <= 1
C1424: + x237 + x483 <= 1
C1425: + x93 + x128 <= 1
C1426: + x293 + x477 <= 1
C1427: + x268 + x300 <= 1
C1428: + x141 + x495 <= 1
C1429: + x73 + x407 <= 1
C1430: + x63 + x234 <= 1
C1431: + x339 + x399 <= 1
C1432: + x58 + x295 <= 1
C1433: + x14 + x103 <= 1
C1434: + x1 + x369 <= 1
C1435: + x201 + x478 <= 1
C1436: + x112 + x234 <= 1
C1437: + x6 + x189 <= 1
C1438: + x49 + x77 <= 1
C1439: + x386 + x409 <= 1
C1440: + x19 + x314 <= 1
C1441: + x202 + x419 <= 1
C1442: + x114 + x257 <= 1
C1443: + x5 + x178 <= 1
C1444: + x172 + x279 <= 1
C1445: + x12 + x162 <= 1
C1446: + x2 + x257 <= 1
C1447: + x21 + x399 <= 1
C1448: + x34 + x128 <= 1
C1449: + x17 + x466 <= 1
C1450: + x18 + x486 <= 1
C1451: + x80 + x252 <= 1
C1452: + x138 + x175 <= 1
C1453: + x136 + x257 <= 1
C1454: + x50 + x61 <= 1
C1455: + x169 + x173 <= 1
C1456: + x5 + x230 <= 1
C1457: + x6 + x242 <= 1
C1458: + x260 + x417 <= 1
C1459: + x8 + x89 <= 1
C1460: + x46 + x294 <= 1
C1461: + x85 + x332 <= 1
C1462: + x15 + x165 <= 1
C1463: + x1 + x14 <= 1
C1464: + x54 + x323 <= 1
C1465: + x125 + x176 <= 1
C1466: + x3 + x290 <= 1
C1467: + x255 + x465 <= 1
C1468: + x62 + x259 <= 1
C1469: + x3 + x451 <= 1
C1470: + x81 + x289 <= 1
C1471: + x177 + x463 <= 1
C1472: + x7 + x145 <= 1
C1473: + x91 + x141 <= 1
C1474: + x38 + x362 <= 1
C1475: + x184 + x223 <= 1
C1476: + x60 + x290 <= 1
C1477: + x16 + x90 <= 1
C1478: + x128 + x229 <= 1
C1479: + x2 + x334 <= 1
C1480: + x8 + x13 <= 1
C1481: + x95 + x419 <= 1
C1482: + x10 + x163 <= 1
C1483: + x11 + x305 <= 1
C1484: + x106 + x458 <= 1
C1485: + x11 + x406 <= 1
C1486: + x102 + x469 <= 1
C1487: + x122 + x495 <= 1
C1488: + x57 + x313 <= 1
C1489: + x132 + x167 <= 1
C1490: + x10 + x52 <= 1
C1491: + x157 + x167 <= 1
C1492: + x132 + x454 <= 1
C1493: + x260 + x281 <= 1
C1494: + x23 + x277 <= 1
C1495: + x5 + x427 <= 1
C1496: + x190 + x200 <= 1
C1497: + x322 + x397 <= 1
C1498: + x3 + x394 <= 1
C1499: + x92 + x372 <= 1
C1500: + x238 + x241 <= 1
C1501: + x16 + x385 <= 1
C1502: + x210 + x344 <= 1
C1503: + x1 + x5 <= 1
C1504: + x37 + x310 <= 1
C1505: + x54 + x239 <= 1
C1506: + x2 + x470 <= 1
C1507: + x3 + x7 <= 1
C1508: + x237 + x360 <= 1
C1509: + x34 + x304 <= 1
C1510: + x38 + x246 <= 1
C1511: + x240 + x467 <= 1
C1512: + x60 + x390 <= 1
C1513: + x60 + x73 <= 1
C1514: + x178 + x347 <= 1
C1515: + x32 + x388 <= 1
C1516: + x7 + x27 <= 1
C1517: + x14 + x77 <= 1
C1518: + x91 + x277 <= 1
C1519: + x454 + x465 <= 1
C1520: + x11 + x139 <= 1
C1521: + x39 + x93 <= 1
C1522: + x312 + x364 <= 1
C1523: + x31 + x202 <= 1
C1524: + x34 + x175 <= 1
C1525: + x26 + x250 <= 1
C1526: + x253 + x279 <= 1
C1527: + x28 + x238 <= 1
C1528: + x66 + x83 <= 1
C1529: + x38 + x58 <= 1
C1530: + x81 + x144 <= 1
C1531: + x134 + x156 <= 1
C1532: + x184 + x281 <= 1
C1533: + x40 + x56 <= 1
C1534: + x168 + x195 <= 1
C1535: + x5 + x236 <= 1
C1536: + x260 + x431 <= 1
C1537: + x10 + x225 <= 1
C1538: + x51 + x282 <= 1
C1539: + x16 + x63 <= 1
C1540: + x129 + x353 + x361 <= 1
C1541: + x136 + x299 <= 1
C1542: + x5 + x32 <= 1
C1543: + x6 + x152 <= 1
C1544: + x18 + x242 <= 1
C1545: + x302 + x407 <= 1
C1546: + x276 + x352 <= 1
C1547: + x25 + x94 <= 1
C1548: + x38 + x82 <= 1
C1549: + x3 + x489 <= 1
C1550: + x172 + x382 <= 1
C1551: + x109 + x198 <= 1
C1552: + x220 + x459 <= 1
C1553: + x31 + x49 <= 1
C1554: + x25 + x205 <= 1
C1555: + x96 + x474 <= 1
C1556: + x34 + x168 <= 1
C1557: + x8 + x55 <= 1
C1558: + x1 + x100 <= 1
C1559: + x48 + x283 <= 1
C1560: + x178 + x272 <= 1
C1561: + x13 + x457 <= 1
C1562: + x261 + x395 <= 1
C1563: + x80 + x215 <= 1
C1564: + x2 + x439 <= 1
C1565: + x39 + x423 <= 1
C1566: + x45 + x58 <= 1
C1567: + x8 + x72 <= 1
C1568: + x21 + x222 <= 1
C1569: + x23 + x202 <= 1
C1570: + x36 + x244 <= 1
C1571: + x73 + x435 <= 1
C1572: + x2 + x296 <= 1
C1573: + x66 + x104 <= 1
C1574: + x89 + x374 <= 1
C1575: + x300 + x337 <= 1
C1576: + x19 + x88 <= 1
C1577: + x78 + x355 <= 1
C1578: + x256 + x431 <= 1
C1579: + x23 + x335 <= 1
C1580: + x24 + x53 <= 1
C1581: + x407 + x421 <= 1
C1582: + x70 + x116 <= 1
C1583: + x161 + x269 <= 1
C1584: + x14 + x284 <= 1
C1585: + x57 + x153 <= 1
C1586: + x36 + x411 <= 1
C1587: + x54 + x403 <= 1
C1588: + x10 + x39 <= 1
C1589: + x3 + x242 <= 1
C1590: + x265 + x315 <= 1
C1591: + x13 + x214 <= 1
C1592: + x61 + x64 <= 1
C1593: + x12 + x41 <= 1
C1594: + x97 + x468 <= 1
C1595: + x6 + x435 <= 1
C1596: + x18 + x450 <= 1
C1597: + x171 + x500 <= 1
C1598: + x8 + x339 <= 1
C1599: + x3 + x97 <= 1
C1600: + x167 + x227 <= 1
C1601: + x5 + x218 <= 1
C1602: + x152 + x155 <= 1
C1603: + x163 + x282 <= 1
C1604: + x95 + x339 <= 1
C1605: + x247 + x442 <= 1
C1606: + x29 + x101 <= 1
C1607: + x127 + x277 <= 1
C1608: + x8 + x263 <= 1
C1609: + x95 + x254 <= 1
C1610: + x5 + x14 <= 1
C1611: + x15 + x205 <= 1
C1612: + x15 + x258 <= 1
C1613: + x2 + x170 <= 1
C1614: + x47 + x54 <= 1
C1615: + x334 + x416 <= 1
C1616: + x83 + x85 <= 1
C1617: + x146 + x253 <= 1
C1618: + x1 + x368 <= 1
C1619: + x46 + x335 <= 1
C1620: + x5 + x50 <= 1
C1621: + x188 + x244 <= 1
C1622: + x153 + x272 <= 1
C1623: + x32 + x272 <= 1
C1624: + x16 + x66 <= 1
C1625: + x219 + x384 <= 1
C1626: + x59 + x383 <= 1
C1627: + x62 + x207 <= 1
C1628: + x93 + x328 <= 1
C1629: + x150 + x180 <= 1
C1630: + x5 + x193 <= 1
C1631: + x26 + x267 <= 1
C1632: + x154 + x305 <= 1
C1633: + x273 + x433 <= 1
C1634: + x64 + x425 <= 1
C1635: + x53 + x160 <= 1
C1636: + x16 + x22 <= 1
C1637: + x201 + x246 <= 1
C1638: + x6 + x461 <= 1
C1639: + x12 + x30 <= 1
C1640: + x7 + x120 <= 1
C1641: + x28 + x31 <= 1
C1642: + x8 + x203 <= 1
C1643: + x2 + x8 <= 1
C1644: + x93 + x193 <= 1
C1645: + x51 + x406 <= 1
C1646: + x5 + x245 <= 1
C1647: + x61 + x333 <= 1
C1648: + x11 + x224 <= 1
C1649: + x25 + x179 <= 1
C1650: + x11 + x433 <= 1
C1651: + x256 + x308 <= 1
C1652: + x402 + x414 <= 1
C1653: + x3 + x63 <= 1
C1654: + x130 + x252 <= 1
C1655: + x17 + x413 <= 1
C1656: + x91 + x192 <= 1
C1657: + x8 + x308 <= 1
C1658: + x10 + x414 <= 1
C1659: + x75 + x111 <= 1
C1660: + x38 + x379 <= 1
C1661: + x39 + x121 <= 1
C1662: + x370 + x461 <= 1
C1663: + x53 + x83 <= 1
C1664: + x36 + x187 <= 1
C1665: + x144 + x390 <= 1
C1666: + x146 + x476 <= 1
C1667: + x3 + x357 <= 1
C1668: + x12 + x39 <= 1
C1669: + x240 + x443 <= 1
C1670: + x90 + x433 <= 1
C1671: + x7 + x51 <= 1
C1672: + x208 + x302 <= 1
C1673: + x66 + x269 <= 1
C1674: + x95 + x164 <= 1
C1675: + x25 + x412 <= 1
C1676: + x6 + x200 <= 1
C1677: + x91 + x196 <= 1
C1678: + x10 + x29 <= 1
C1679: + x192 + x237 <= 1
C1680: + x30 + x194 <= 1
C1681: + x313 + x314 <= 1
C1682: + x94 + x343 <= 1
C1683: + x222 + x386 <= 1
C1684: + x23 + x211 <= 1
C1685: + x16 + x19 <= 1
C1686: + x54 + x204 <= 1
C1687: + x98 + x327 <= 1
C1688: + x48 + x207 <= 1
C1689: + x42 + x71 <= 1
C1690: + x150 + x302 <= 1
C1691: + x62 + x156 <= 1
C1692: + x128 + x413 <= 1
C1693: + x101 + x171 <= 1
C1694: + x136 + x271 <= 1
C1695: + x32 + x115 <= 1
C1696: + x235 + x377 <= 1
C1697: + x62 + x269 <= 1
C1698: + x347 + x351 <= 1
C1699: + x95 + x127 <= 1
C1700: + x413 + x494 <= 1
C1701: + x160 + x223 <= 1
C1702: + x270 + x309 <= 1
C1703: + x65 + x190 <= 1
C1704: + x8 + x248 <= 1
C1705: + x10 + x391 <= 1
C1706: + x15 + x235 <= 1
C1707: + x6 + x267 <= 1
C1708: + x142 + x419 <= 1
C1709: + x8 + x27 <= 1
C1710: + x11 + x267 <= 1
C1711: + x49 + x74 <= 1
C1712: + x138 + x299 <= 1
C1713: + x13 + x338 <= 1
C1714: + x8 + x172 <= 1
C1715: + x292 + x411 <= 1
C1716: + x65 + x92 <= 1
C1717: + x323 + x339 <= 1
C1718: + x34 + x123 <= 1
C1719: + x74 + x132 <= 1
C1720: + x64 + x145 <= 1
C1721: + x111 + x121 <= 1
C1722: + x68 + x86 <= 1
C1723: + x232 + x325 <= 1
C1724: + x14 + x18 <= 1
C1725: + x6 + x245 <= 1
C1726: + x154 + x335 <= 1
C1727: + x7 + x344 <= 1
C1728: + x76 + x136 <= 1
C1729: + x38 + x394 <= 1
C1730: + x21 + x472 <= 1
C1731: + x14 + x99 <= 1
C1732: + x125 + x498 <= 1
C1733: + x36 + x439 <= 1
C1734: + x8 + x290 <= 1
C1735: + x19 + x112 <= 1
C1736: + x220 + x304 <= 1
C1737: + x20 + x315 <= 1
C1738: + x447 + x490 <= 1
C1739: + x22 + x35 <= 1
C1740: + x371 + x453 <= 1
C1741: + x8 + x20 <= 1
C1742: + x2 + x329 <= 1
C1743: + x185 + x217 <= 1
C1744: + x187 + x197 <= 1
C1745: + x251 + x434 <= 1
C1746: + x26 + x67 <= 1
C1747: + x263 + x370 <= 1
C1748: + x3 + x69 <= 1
C1749: + x10 + x15 <= 1
C1750: + x66 + x442 <= 1
C1751: + x20 + x263 <= 1
C1752: + x104 + x109 <= 1
C1753: + x1 + x403 <= 1
C1754: + x285 + x310 <= 1
C1755: + x48 + x268 <= 1
C1756: + x333 + x421 <= 1
C1757: + x71 + x153 <= 1
C1758: + x19 + x490 <= 1
C1759: + x419 + x464 <= 1
C1760: + x13 + x189 <= 1
C1761: + x17 + x200 <= 1
C1762: + x10 + x251 <= 1
C1763: + x220 + x440 <= 1
C1764: + x177 + x209 <= 1
C1765: + x60 + x437 <= 1
C1766: + x386 + x474 <= 1
C1767: + x243 + x442 <= 1
C1768: + x2 + x465 <= 1
C1769: + x123 + x285 <= 1
C1770: + x50 + x130 <= 1
C1771: + x106 + x317 <= 1
C1772: + x41 + x363 <= 1
C1773: + x6 + x15 <= 1
C1774: + x7 + x149 <= 1
C1775: + x152 + x228 <= 1
C1776: + x2 + x39 <= 1
C1777: + x59 + x434 <= 1
C1778: + x13 + x241 <= 1
C1779: + x189 + x347 <= 1
C1780: + x171 + x318 <= 1
C1781: + x381 + x397 <= 1
C1782: + x119 + x160 <= 1
C1783: + x39 + x207 <= 1
C1784: + x42 + x142 <= 1
C1785: + x125 + x128 <= 1
C1786: + x7 + x40 <= 1
C1787: + x82 + x103 <= 1
C1788: + x2 + x493 <= 1
C1789: + x78 + x197 <= 1
C1790: + x5 + x165 <= 1
C1791: + x36 + x492 <= 1
C1792: + x54 + x388 <= 1
C1793: + x219 + x451 <= 1
C1794: + x52 + x397 <= 1
C1795: + x5 + x90 <= 1
C1796: + x53 + x116 <= 1
C1797: + x81 + x496 <= 1
C1798: + x21 + x402 <= 1
C1799: + x168 + x355 <= 1
C1800: + x6 + x68 <= 1
C1801: + x66 + x249 <= 1
C1802: + x11 + x31 <= 1
C1803: + x269 + x449 <= 1
C1804: + x54 + x344 <= 1
C1805: + x139 + x397 <= 1
C1806: + x196 + x265 <= 1
C1807: + x248 + x347 <= 1
C1808: + x56 + x155 <= 1
C1809: + x241 + x432 <= 1
C1810: + x70 + x253 <= 1
C1811: + x6 + x120 <= 1
C1812: + x59 + x441 <= 1
C1813: + x23 + x163 <= 1
C1814: + x6 + x171 <= 1
C1815: + x1 + x85 <= 1
C1816: + x11 + x296 <= 1
C1817: + x19 + x131 <= 1
C1818: + x201 + x301 <= 1
C1819: + x25 + x91 <= 1
C1820: + x79 + x270 <= 1
C1821: + x5 + x65 <= 1
C1822: + x66 + x87 <= 1
C1823: + x12 + x63 <= 1
C1824: + x51 + x208 <= 1
C1825: + x25 + x103 <= 1
C1826: + x31 + x292 <= 1
C1827: + x2 + x101 <= 1
C1828: + x258 + x403 <= 1
C1829: + x14 + x61 <= 1
C1830: + x45 + x63 <= 1
C1831: + x54 + x337 <= 1
C1832: + x2 + x136 <= 1
C1833: + x8 + x75 <= 1
C1834: + x18 + x101 <= 1
C1835: + x28 + x318 <= 1
C1836: + x10 + x328 <= 1
C1837: + x186 + x300 <= 1
C1838: + x19 + x400 <= 1
C1839: + x2 + x49 <= 1
C1840: + x170 + x221 <= 1
C1841: + x53 + x62 <= 1
C1842: + x181 + x235 <= 1
C1843: + x8 + x127 <= 1
C1844: + x12 + x124 <= 1
C1845: + x277 + x340 <= 1
C1846: + x14 + x287 <= 1
C1847: + x37 + x66 <= 1
C1848: + x95 + x135 <= 1
C1849: + x73 + x217 <= 1
C1850: + x10 + x34 <= 1
C1851: + x12 + x201 <= 1
C1852: + x51 + x473 <= 1
C1853: + x21 + x150 <= 1
C1854: + x14 + x368 <= 1
C1855: + x149 + x278 <= 1
C1856: + x77 + x435 <= 1
C1857: + x303 + x429 <= 1
C1858: + x25 + x110 <= 1
C1859: + x208 + x339 <= 1
C1860: + x54 + x76 <= 1
C1861: + x220 + x384 <= 1
C1862: + x420 + x475 <= 1
C1863: + x104 + x233 <= 1
C1864: + x7 + x239 <= 1
C1865: + x56 + x70 <= 1
C1866: + x89 + x104 <= 1
C1867: + x125 + x177 <= 1
C1868: + x85 + x127 <= 1
C1869: + x58 + x250 <= 1
C1870: + x13 + x158 <= 1
C1871: + x81 + x84 <= 1
C1872: + x6 + x157 <= 1
C1873: + x113 + x173 <= 1
C1874: + x271 + x273 <= 1
C1875: + x7 + x9 <= 1
C1876: + x390 + x401 <= 1
C1877: + x3 + x41 <= 1
C1878: + x133 + x274 <= 1
C1879: + x81 + x227 <= 1
C1880: + x10 + x408 <= 1
C1881: + x237 + x262 <= 1
C1882: + x375 + x394 <= 1
C1883: + x304 + x329 <= 1
C1884: + x8 + x44 <= 1
C1885: + x20 + x130 <= 1
C1886: + x3 + x367 <= 1
C1887: + x230 + x408 <= 1
C1888: + x12 + x45 <= 1
C1889: + x101 + x296 <= 1
C1890: + x19 + x462 <= 1
C1891: + x11 + x12 <= 1
C1892: + x2 + x388 <= 1
C1893: + x3 + x125 <= 1
C1894: + x1 + x238 <= 1
C1895: + x20 + x239 <= 1
C1896: + x361 + x362 <= 1
C1897: + x5 + x123 <= 1
C1898: + x299 + x348 <= 1
C1899: + x18 + x87 <= 1
C1900: + x1 + x395 <= 1
C1901: + x34 + x108 <= 1
C1902: + x23 + x491 <= 1
C1903: + x19 + x75 <= 1
C1904: + x121 + x426 <= 1
C1905: + x39 + x394 <= 1
C1906: + x41 + x484 <= 1
C1907: + x17 + x267 <= 1
C1908: + x17 + x224 <= 1
C1909: + x2 + x174 <= 1
C1910: + x21 + x53 <= 1
C1911: + x298 + x376 <= 1
C1912: + x127 + x364 <= 1
C1913: + x344 + x437 <= 1
C1914: + x20 + x26 <= 1
C1915: + x3 + x36 <= 1
C1916: + x38 + x80 <= 1
C1917: + x194 + x423 <= 1
C1918: + x6 + x23 <= 1
C1919: + x8 + x311 <= 1
C1920: + x8 + x254 <= 1
C1921: + x275 + x405 <= 1
C1922: + x268 + x398 <= 1
C1923: + x64 + x72 <= 1
C1924: + x77 + x110 <= 1
C1925: + x10 + x490 <= 1
C1926: + x55 + x70 <= 1
C1927: + x66 + x272 <= 1
C1928: + x121 + x485 <= 1
C1929: + x2 + x6 + x21 <= 1
C1930: + x14 + x40 <= 1
C1931: + x18 + x346 <= 1
C1932: + x100 + x308 <= 1
C1933: + x237 + x305 <= 1
C1934: + x300 + x310 <= 1
C1935: + x21 + x240 <= 1
C1936: + x4 + x82 <= 1
C1937: + x98 + x159 <= 1
C1938: + x36 + x230 <= 1
C1939: + x102 + x266 <= 1
C1940: + x2 + x310 <= 1
C1941: + x285 + x293 <= 1
C1942: + x110 + x314 <= 1
C1943: + x382 + x437 <= 1
C1944: + x12 + x260 <= 1
C1945: + x23 + x79 <= 1
C1946: + x14 + x28 <= 1
C1947: + x24 + x228 <= 1
C1948: + x272 + x297 <= 1
C1949: + x158 + x409 <= 1
C1950: + x60 + x422 <= 1
C1951: + x253 + x456 <= 1
C1952: + x136 + x216 <= 1
C1953: + x67 + x306 <= 1

binary
x1 x2 x3 x4 x5 x6 x7 x8 x9 x10 x11 x12 x13 x14 x15 x16 x17 x18 x19 x20 x21 x22 x23 x24 x25 x26 x27 x28 x29 x30 x31 x32 x33 x34 x35 x36 x37 x38 x39 x40 x41 x42 x43 x44 x45 x46 x47 x48 x49 x50 x51 x52 x53 x54 x55 x56 x57 x58 x59 x60 x61 x62 x63 x64 x65 x66 x67 x68 x69 x70 x71 x72 x73 x74 x75 x76 x77 x78 x79 x80 x81 x82 x83 x84 x85 x86 x87 x88 x89 x90 x91 x92 x93 x94 x95 x96 x97 x98 x99 x100 x101 x102 x103 x104 x105 x106 x107 x108 x109 x110 x111 x112 x113 x114 x115 x116 x117 x118 x119 x120 x121 x122 x123 x124 x125 x126 x127 x128 x129 x130 x131 x132 x133 x134 x135 x136 x137 x138 x139 x140 x141 x142 x143 x144 x145 x146 x147 x148 x149 x150 x151 x152 x153 x154 x155 x156 x157 x158 x159 x160 x161 x162 x163 x164 x165 x166 x167 x168 x169 x170 x171 x172 x173 x174 x175 x176 x177 x178 x179 x180 x181 x182 x183 x184 x185 x186 x187 x188 x189 x190 x191 x192 x193 x194 x195 x196 x197 x198 x199 x200 x201 x202 x203 x204 x205 x206 x207 x208 x209 x210 x211 x212 x213 x214 x215 x216 x217 x218 x219 x220 x221 x222 x223 x224 x225 x226 x227 x228 x229 x230 x231 x232 x233 x234 x235 x236 x237 x238 x239 x240 x241 x242 x243 x244 x245 x246 x247 x248 x249 x250 x251 x252 x253 x254 x255 x256 x257 x258 x259 x260 x261 x262 x263 x264 x265 x266 x267 x268 x269 x270 x271 x272 x273 x274 x275 x276 x277 x278 x279 x280 x281 x282 x283 x284 x285 x286 x287 x288 x289 x290 x291 x292 x293 x294 x295 x296 x297 x298 x299 x300 x301 x302 x303 x304 x305 x306 x307 x308 x309 x310 x311 x312 x313 x314 x315 x316 x317 x318 x319 x320 x321 x322 x323 x324 x325 x326 x327 x328 x329 x330 x331 x332 x333 x334 x335 x336 x337 x338 x339 x340 x341 x342 x343 x344 x345 x346 x347 x348 x349 x350 x351 x352 x353 x354 x355 x356 x357 x358 x359 x360 x361 x362 x363 x364 x365 x366 x367 x368 x369 x370 x371 x372 x373 x374 x375 x376 x377 x378 x379 x380 x381 x382 x383 x384 x385 x386 x387 x388 x389 x390 x391 x392 x393 x394 x395 x396 x397 x398 x399 x400 x401 x402 x403 x404 x405 x406 x407 x408 x409 x410 x411 x412 x413 x414 x415 x416 x417 x418 x419 x420 x421 x422 x423 x424 x425 x426 x427 x428 x429 x430 x431 x432 x433 x434 x435 x436 x437 x438 x439 x440 x441 x442 x443 x444 x445 x446 x447 x448 x449 x450 x451 x452 x453 x454 x455 x456 x457 x458 x459 x460 x461 x462 x463 x464 x465 x466 x467 x468 x469 x470 x471 x472 x473 x474 x475 x476 x477 x478 x479 x480 x481 x482 x483 x484 x485 x486 x487 x488 x489 x490 x491 x492 x493 x494 x495 x496 x497 x498 x499 x500
