maximize
OBJ: + 1 x1 + 1 x2 + 1 x3 + 1 x4 + 1 x5 + 1 x6 + 1 x7 + 1 x8 + 1 x9 + 1 x10 + 1 x11 + 1 x12 + 1 x13 + 1 x14 + 1 x15 + 1 x16 + 1 x17 + 1 x18 + 1 x19 + 1 x20 + 1 x21 + 1 x22 + 1 x23 + 1 x24 + 1 x25 + 1 x26 + 1 x27 + 1 x28 + 1 x29 + 1 x30 + 1 x31 + 1 x32 + 1 x33 + 1 x34 + 1 x35 + 1 x36 + 1 x37 + 1 x38 + 1 x39 + 1 x40 + 1 x41 + 1 x42 + 1 x43 + 1 x44 + 1 x45 + 1 x46 + 1 x47 + 1 x48 + 1 x49 + 1 x50 + 1 x51 + 1 x52 + 1 x53 + 1 x54 + 1 x55 + 1 x56 + 1 x57 + 1 x58 + 1 x59 + 1 x60 + 1 x61 + 1 x62 + 1 x63 + 1 x64 + 1 x65 + 1 x66 + 1 x67 + 1 x68 + 1 x69 + 1 x70 + 1 x71 + 1 x72 + 1 x73 + 1 x74 + 1 x75 + 1 x76 + 1 x77 + 1 x78 + 1 x79 + 1 x80 + 1 x81 + 1 x82 + 1 x83 + 1 x84 + 1 x85 + 1 x86 + 1 x87 + 1 x88 + 1 x89 + 1 x90 + 1 x91 + 1 x92 + 1 x93 + 1 x94 + 1 x95 + 1 x96 + 1 x97 + 1 x98 + 1 x99 + 1 x100 + 1 x101 + 1 x102 + 1 x103 + 1 x104 + 1 x105 + 1 x106 + 1 x107 + 1 x108 + 1 x109 + 1 x110 + 1 x111 + 1 x112 + 1 x113 + 1 x114 + 1 x115 + 1 x116 + 1 x117 + 1 x118 + 1 x119 + 1 x120 + 1 x121 + 1 x122 + 1 x123 + 1 x124 + 1 x125 + 1 x126 + 1 x127 + 1 x128 + 1 x129 + 1 x130 + 1 x131 + 1 x132 + 1 x133 + 1 x134 + 1 x135 + 1 x136 + 1 x137 + 1 x138 + 1 x139 + 1 x140 + 1 x141 + 1 x142 + 1 x143 + 1 x144 + 1 x145 + 1 x146 + 1 x147 + 1 x148 + 1 x149 + 1 x150 + 1 x151 + 1 x152 + 1 x153 + 1 x154 + 1 x155 + 1 x156 + 1 x157 + 1 x158 + 1 x159 + 1 x160 + 1 x161 + 1 x162 + 1 x163 + 1 x164 + 1 x165 + 1 x166 + 1 x167 + 1 x168 + 1 x169 + 1 x170 + 1 x171 + 1 x172 + 1 x173 + 1 x174 + 1 x175 + 1 x176 + 1 x177 + 1 x178 + 1 x179 + 1 x180 + 1 x181 + 1 x182 + 1 x183 + 1 x184 + 1 x185 + 1 x186 + 1 x187 + 1 x188 + 1 x189 + 1 x190 + 1 x191 + 1 x192 + 1 x193 + 1 x194 + 1 x195 + 1 x196 + 1 x197 + 1 x198 + 1 x199 + 1 x200 + 1 x201 + 1 x202 + 1 x203 + 1 x204 + 1 x205 + 1 x206 + 1 x207 + 1 x208 + 1 x209 + 1 x210 + 1 x211 + 1 x212 + 1 x213 + 1 x214 + 1 x215 + 1 x216 + 1 x217 + 1 x218 + 1 x219 + 1 x220 + 1 x221 + 1 x222 + 1 x223 + 1 x224 + 1 x225 + 1 x226 + 1 x227 + 1 x228 + 1 x229 + 1 x230 + 1 x231 + 1 x232 + 1 x233 + 1 x234 + 1 x235 + 1 x236 + 1 x237 + 1 x238 + 1 x239 + 1 x240 + 1 x241 + 1 x242 + 1 x243 + 1 x244 + 1 x245 + 1 x246 + 1 x247 + 1 x248 + 1 x249 + 1 x250 + 1 x251 + 1 x252 + 1 x253 + 1 x254 + 1 x255 + 1 x256 + 1 x257 + 1 x258 + 1 x259 + 1 x260 + 1 x261 + 1 x262 + 1 x263 + 1 x264 + 1 x265 + 1 x266 + 1 x267 + 1 x268 + 1 x269 + 1 x270 + 1 x271 + 1 x272 + 1 x273 + 1 x274 + 1 x275 + 1 x276 + 1 x277 + 1 x278 + 1 x279 + 1 x280 + 1 x281 + 1 x282 + 1 x283 + 1 x284 + 1 x285 + 1 x286 + 1 x287 + 1 x288 + 1 x289 + 1 x290 + 1 x291 + 1 x292 + 1 x293 + 1 x294 + 1 x295 + 1 x296 + 1 x297 + 1 x298 + 1 x299 + 1 x300 + 1 x301 + 1 x302 + 1 x303 + 1 x304 + 1 x305 + 1 x306 + 1 x307 + 1 x308 + 1 x309 + 1 x310 + 1 x311 + 1 x312 + 1 x313 + 1 x314 + 1 x315 + 1 x316 + 1 x317 + 1 x318 + 1 x319 + 1 x320 + 1 x321 + 1 x322 + 1 x323 + 1 x324 + 1 x325 + 1 x326 + 1 x327 + 1 x328 + 1 x329 + 1 x330 + 1 x331 + 1 x332 + 1 x333 + 1 x334 + 1 x335 + 1 x336 + 1 x337 + 1 x338 + 1 x339 + 1 x340 + 1 x341 + 1 x342 + 1 x343 + 1 x344 + 1 x345 + 1 x346 + 1 x347 + 1 x348 + 1 x349 + 1 x350 + 1 x351 + 1 x352 + 1 x353 + 1 x354 + 1 x355 + 1 x356 + 1 x357 + 1 x358 + 1 x359 + 1 x360 + 1 x361 + 1 x362 + 1 x363 + 1 x364 + 1 x365 + 1 x366 + 1 x367 + 1 x368 + 1 x369 + 1 x370 + 1 x371 + 1 x372 + 1 x373 + 1 x374 + 1 x375 + 1 x376 + 1 x377 + 1 x378 + 1 x379 + 1 x380 + 1 x381 + 1 x382 + 1 x383 + 1 x384 + 1 x385 + 1 x386 + 1 x387 + 1 x388 + 1 x389 + 1 x390 + 1 x391 + 1 x392 + 1 x393 + 1 x394 + 1 x395 + 1 x396 + 1 x397 + 1 x398 + 1 x399 + 1 x400 + 1 x401 + 1 x402 + 1 x403 + 1 x404 + 1 x405 + 1 x406 + 1 x407 + 1 x408 + 1 x409 + 1 x410 + 1 x411 + 1 x412 + 1 x413 + 1 x414 + 1 x415 + 1 x416 + 1 x417 + 1 x418 + 1 x419 + 1 x420 + 1 x421 + 1 x422 + 1 x423 + 1 x424 + 1 x425 + 1 x426 + 1 x427 + 1 x428 + 1 x429 + 1 x430 + 1 x431 + 1 x432 + 1 x433 + 1 x434 + 1 x435 + 1 x436 + 1 x437 + 1 x438 + 1 x439 + 1 x440 + 1 x441 + 1 x442 + 1 x443 + 1 x444 + 1 x445 + 1 x446 + 1 x447 + 1 x448 + 1 x449 + 1 x450 + 1 x451 + 1 x452 + 1 x453 + 1 x454 + 1 x455 + 1 x456 + 1 x457 + 1 x458 + 1 x459 + 1 x460 + 1 x461 + 1 x462 + 1 x463 + 1 x464 + 1 x465 + 1 x466 + 1 x467 + 1 x468 + 1 x469 + 1 x470 + 1 x471 + 1 x472 + 1 x473 + 1 x474 + 1 x475 + 1 x476 + 1 x477 + 1 x478 + 1 x479 + 1 x480 + 1 x481 + 1 x482 + 1 x483 + 1 x484 + 1 x485 + 1 x486 + 1 x487 + 1 x488 + 1 x489 + 1 x490 + 1 x491 + 1 x492 + 1 x493 + 1 x494 + 1 x495 + 1 x496 + 1 x497 + 1 x498 + 1 x499 + 1 x500

subject to
C1: + x60 + x184 <= 1
C2: + x34 + x441 <= 1
C3: + x15 + x75 <= 1
C4: + x206 + x429 <= 1
C5: + x144 + x184 <= 1
C6: + x7 + x168 <= 1
C7: + x82 + x231 <= 1
C8: + x20 + x305 <= 1
C9: + x155 + x226 <= 1
C10: + x49 + x490 <= 1
C11: + x23 + x155 <= 1
C12: + x378 + x422 <= 1
C13: + x9 + x64 <= 1
C14: + x45 + x148 <= 1
C15: + x28 + x206 <= 1
C16: + x62 + x353 <= 1
C17: + x7 + x406 <= 1
C18: + x1 + x77 <= 1
C19: + x89 + x259 <= 1
C20: + x179 + x445 <= 1
C21: + x62 + x196 <= 1
C22: + x208 + x298 <= 1
C23: + x55 + x93 <= 1
C24: + x2 + x65 <= 1
C25: + x400 + x404 <= 1
C26: + x318 + x399 <= 1
C27: + x6 + x196 <= 1
C28: + x82 + x147 <= 1
C29: + x152 + x340 <= 1
C30: + x44 + x462 <= 1
C31: + x282 + x497 <= 1
C32: + x363 + x451 <= 1
C33: + x38 + x171 <= 1
C34: + x13 + x60 <= 1
C35: + x12 + x23 <= 1
C36: + x68 + x182 <= 1
C37: + x175 + x455 <= 1
C38: + x100 + x188 <= 1
C39: + x8 + x99 <= 1
C40: + x26 + x50 <= 1
C41: + x44 + x236 <= 1
C42: + x8 + x386 <= 1
C43: + x72 + x194 <= 1
C44: + x38 + x114 <= 1
C45: + x39 + x267 <= 1
C46: + x45 + x409 <= 1
C47: + x1 + x370 <= 1
C48: + x1 + x167 <= 1
C49: + x304 + x360 <= 1
C50: + x5 + x36 <= 1
C51: + x189 + x321 <= 1
C52: + x434 + x461 <= 1
C53: + x15 + x239 <= 1
C54: + x184 + x467 <= 1
C55: + x17 + x365 <= 1
C56: + x52 + x201 <= 1
C57: + x6 + x426 <= 1
C58: + x82 + x140 <= 1
C59: + x110 + x230 <= 1
C60: + x1 + x243 <= 1
C61: + x113 + x285 <= 1
C62: + x294 + x495 <= 1
C63: + x42 + x350 <= 1
C64: + x236 + x316 <= 1
C65: + x72 + x139 <= 1
C66: + x10 + x357 <= 1
C67: + x68 + x360 <= 1
C68: + x2 + x22 <= 1
C69: + x180 + x359 <= 1
C70: + x143 + x468 <= 1
C71: + x1 + x15 <= 1
C72: + x8 + x92 <= 1
C73: + x28 + x144 <= 1
C74: + x12 + x157 <= 1
C75: + x151 + x276 <= 1
C76: + x45 + x243 <= 1
C77: + x36 + x224 <= 1
C78: + x49 + x315 <= 1
C79: + x191 + x499 <= 1
C80: + x15 + x299 <= 1
C81: + x64 + x115 <= 1
C82: + x3 + x371 <= 1
C83: + x7 + x33 <= 1
C84: + x37 + x81 <= 1
C85: + x102 + x111 <= 1
C86: + x3 + x65 <= 1
C87: + x46 + x455 <= 1
C88: + x5 + x186 <= 1
C89: + x9 + x360 <= 1
C90: + x91 + x210 <= 1
C91: + x18 + x152 <= 1
C92: + x72 + x477 <= 1
C93: + x122 + x329 <= 1
C94: + x5 + x95 <= 1
C95: + x108 + x366 <= 1
C96: + x324 + x334 <= 1
C97: + x6 + x71 <= 1
C98: + x335 + x389 <= 1
C99: + x100 + x440 <= 1
C100: + x15 + x20 <= 1
C101: + x35 + x384 <= 1
C102: + x103 + x161 <= 1
C103: + x39 + x438 <= 1
C104: + x5 + x238 <= 1
C105: + x15 + x173 <= 1
C106: + x46 + x286 <= 1
C107: + x77 + x273 <= 1
C108: + x4 + x113 <= 1
C109: + x6 + x472 <= 1
C110: + x235 + x343 <= 1
C111: + x308 + x437 <= 1
C112: + x20 + x54 <= 1
C113: + x58 + x235 <= 1
C114: + x123 + x281 <= 1
C115: + x119 + x398 <= 1
C116: + x206 + x315 <= 1
C117: + x6 + x174 <= 1
C118: + x101 + x110 <= 1
C119: + x185 + x228 <= 1
C120: + x58 + x417 <= 1
C121: + x332 + x412 <= 1
C122: + x167 + x473 <= 1
C123: + x17 + x21 <= 1
C124: + x151 + x359 <= 1
C125: + x38 + x73 + x211 <= 1
C126: + x248 + x366 <= 1
C127: + x38 + x483 <= 1
C128: + x10 + x60 <= 1
C129: + x39 + x94 <= 1
C130: + x69 + x457 <= 1
C131: + x107 + x337 <= 1
C132: + x253 + x280 <= 1
C133: + x326 + x424 <= 1
C134: + x387 + x393 <= 1
C135: + x28 + x237 <= 1
C136: + x15 + x27 <= 1
C137: + x35 + x375 <= 1
C138: + x75 + x219 <= 1
C139: + x29 + x430 <= 1
C140: + x128 + x162 <= 1
C141: + x8 + x74 <= 1
C142: + x102 + x191 <= 1
C143: + x159 + x385 <= 1
C144: + x281 + x317 <= 1
C145: + x166 + x493 <= 1
C146: + x3 + x31 <= 1
C147: + x315 + x330 <= 1
C148: + x26 + x424 <= 1
C149: + x145 + x194 <= 1
C150: + x86 + x198 <= 1
C151: + x5 + x25 <= 1
C152: + x81 + x90 <= 1
C153: + x26 + x323 <= 1
C154: + x154 + x361 <= 1
C155: + x36 + x314 <= 1
C156: + x163 + x487 <= 1
C157: + x63 + x208 <= 1
C158: + x119 + x312 <= 1
C159: + x13 + x379 <= 1
C160: + x79 + x179 <= 1
C161: + x373 + x396 <= 1
C162: + x143 + x310 <= 1
C163: + x68 + x347 <= 1
C164: + x161 + x451 <= 1
C165: + x35 + x370 <= 1
C166: + x137 + x186 <= 1
C167: + x8 + x341 <= 1
C168: + x73 + x130 <= 1
C169: + x7 + x236 <= 1
C170: + x1 + x20 <= 1
C171: + x299 + x433 <= 1
C172: + x3 + x268 <= 1
C173: + x5 + x113 <= 1
C174: + x23 + x207 <= 1
C175: + x5 + x462 <= 1
C176: + x9 + x116 <= 1
C177: + x1 + x433 <= 1
C178: + x3 + x26 <= 1
C179: + x1 + x131 <= 1
C180: + x72 + x408 <= 1
C181: + x85 + x209 <= 1
C182: + x29 + x377 <= 1
C183: + x133 + x392 <= 1
C184: + x363 + x415 <= 1
C185: + x316 + x341 <= 1
C186: + x73 + x259 <= 1
C187: + x1 + x48 <= 1
C188: + x71 + x425 <= 1
C189: + x27 + x330 <= 1
C190: + x29 + x35 <= 1
C191: + x33 + x38 <= 1
C192: + x296 + x320 <= 1
C193: + x6 + x33 <= 1
C194: + x160 + x227 <= 1
C195: + x137 + x359 <= 1
C196: + x229 + x448 <= 1
C197: + x164 + x337 <= 1
C198: + x1 + x223 <= 1
C199: + x165 + x256 <= 1
C200: + x54 + x402 <= 1
C201: + x159 + x455 <= 1
C202: + x329 + x402 <= 1
C203: + x9 + x15 <= 1
C204: + x144 + x214 <= 1
C205: + x5 + x128 <= 1
C206: + x19 + x354 <= 1
C207: + x1 + x440 <= 1
C208: + x3 + x17 <= 1
C209: + x106 + x284 <= 1
C210: + x15 + x49 <= 1
C211: + x88 + x160 <= 1
C212: + x71 + x190 <= 1
C213: + x6 + x102 <= 1
C214: + x81 + x171 <= 1
C215: + x22 + x67 <= 1
C216: + x5 + x15 <= 1
C217: + x90 + x141 <= 1
C218: + x15 + x263 <= 1
C219: + x108 + x286 <= 1
C220: + x369 + x374 <= 1
C221: + x31 + x358 <= 1
C222: + x23 + x327 <= 1
C223: + x3 + x37 <= 1
C224: + x115 + x427 <= 1
C225: + x15 + x125 <= 1
C226: + x10 + x47 <= 1
C227: + x8 + x129 <= 1
C228: + x144 + x281 <= 1
C229: + x20 + x295 <= 1
C230: + x222 + x500 <= 1
C231: + x62 + x363 <= 1
C232: + x104 + x447 <= 1
C233: + x306 + x324 <= 1
C234: + x9 + x403 <= 1
C235: + x73 + x83 <= 1
C236: + x55 + x71 <= 1
C237: + x75 + x315 <= 1
C238: + x60 + x138 <= 1
C239: + x290 + x416 <= 1
C240: + x9 + x133 <= 1
C241: + x12 + x178 <= 1
C242: + x6 + x460 <= 1
C243: + x111 + x346 <= 1
C244: + x31 + x478 <= 1
C245: + x116 + x454 <= 1
C246: + x15 + x60 <= 1
C247: + x88 + x149 <= 1
C248: + x6 + x111 <= 1
C249: + x207 + x380 <= 1
C250: + x2 + x7 <= 1
C251: + x8 + x198 <= 1
C252: + x246 + x288 <= 1
C253: + x103 + x185 <= 1
C254: + x340 + x343 <= 1
C255: + x87 + x140 <= 1
C256: + x6 + x349 <= 1
C257: + x290 + x492 <= 1
C258: + x128 + x129 <= 1
C259: + x241 + x296 <= 1
C260: + x7 + x8 <= 1
C261: + x102 + x497 <= 1
C262: + x3 + x64 <= 1
C263: + x23 + x59 <= 1
C264: + x62 + x86 <= 1
C265: + x182 + x425 <= 1
C266: + x1 + x173 <= 1
C267: + x3 + x193 <= 1
C268: + x203 + x441 <= 1
C269: + x180 + x292 <= 1
C270: + x41 + x262 <= 1
C271: + x73 + x90 <= 1
C272: + x10 + x494 <= 1
C273: + x71 + x244 <= 1
C274: + x83 + x367 <= 1
C275: + x95 + x350 <= 1
C276: + x22 + x228 <= 1
C277: + x42 + x344 <= 1
C278: + x291 + x370 <= 1
C279: + x72 + x387 <= 1
C280: + x23 + x67 <= 1
C281: + x14 + x24 <= 1
C282: + x10 + x208 <= 1
C283: + x46 + x82 <= 1
C284: + x41 + x382 <= 1
C285: + x40 + x416 <= 1
C286: + x12 + x405 <= 1
C287: + x6 + x28 <= 1
C288: + x285 + x455 <= 1
C289: + x40 + x67 <= 1
C290: + x5 + x33 <= 1
C291: + x8 + x22 <= 1
C292: + x28 + x194 <= 1
C293: + x12 + x95 <= 1
C294: + x7 + x43 <= 1
C295: + x86 + x159 <= 1
C296: + x31 + x445 <= 1
C297: + x112 + x349 <= 1
C298: + x346 + x399 <= 1
C299: + x27 + x396 <= 1
C300: + x7 + x281 <= 1
C301: + x111 + x143 <= 1
C302: + x82 + x346 <= 1
C303: + x5 + x418 <= 1
C304: + x80 + x347 <= 1
C305: + x259 + x404 <= 1
C306: + x5 + x327 <= 1
C307: + x79 + x103 <= 1
C308: + x117 + x222 <= 1
C309: + x48 + x72 <= 1
C310: + x58 + x221 <= 1
C311: + x105 + x421 <= 1
C312: + x206 + x418 <= 1
C313: + x8 + x289 <= 1
C314: + x140 + x361 <= 1
C315: + x35 + x415 <= 1
C316: + x121 + x229 <= 1
C317: + x302 + x423 <= 1
C318: + x124 + x203 <= 1
C319: + x34 + x39 <= 1
C320: + x7 + x46 <= 1
C321: + x7 + x207 <= 1
C322: + x10 + x14 <= 1
C323: + x165 + x200 <= 1
C324: + x3 + x231 <= 1
C325: + x29 + x293 <= 1
C326: + x368 + x376 <= 1
C327: + x122 + x332 <= 1
C328: + x479 + x484 <= 1
C329: + x109 + x123 <= 1
C330: + x10 + x361 <= 1
C331: + x38 + x51 <= 1
C332: + x140 + x388 <= 1
C333: + x21 + x396 <= 1
C334: + x23 + x500 <= 1
C335: + x80 + x199 <= 1
C336: + x200 + x422 <= 1
C337: + x15 + x23 + x53 <= 1
C338: + x23 + x93 <= 1
C339: + x117 + x368 <= 1
C340: + x119 + x193 <= 1
C341: + x74 + x442 <= 1
C342: + x6 + x14 <= 1
C343: + x173 + x345 <= 1
C344: + x268 + x437 <= 1
C345: + x17 + x245 <= 1
C346: + x181 + x230 <= 1
C347: + x19 + x137 <= 1
C348: + x321 + x324 <= 1
C349: + x58 + x420 <= 1
C350: + x82 + x332 <= 1
C351: + x10 + x55 <= 1
C352: + x29 + x292 <= 1
C353: + x294 + x404 <= 1
C354: + x14 + x381 <= 1
C355: + x253 + x277 <= 1
C356: + x109 + x114 <= 1
C357: + x104 + x407 <= 1
C358: + x14 + x480 <= 1
C359: + x15 + x24 <= 1
C360: + x16 + x400 <= 1
C361: + x105 + x260 <= 1
C362: + x106 + x215 + x244 <= 1
C363: + x5 + x234 <= 1
C364: + x70 + x363 <= 1
C365: + x8 + x77 <= 1
C366: + x28 + x153 <= 1
C367: + x4 + x117 <= 1
C368: + x169 + x395 <= 1
C369: + x25 + x144 <= 1
C370: + x60 + x461 <= 1
C371: + x7 + x484 <= 1
C372: + x57 + x68 <= 1
C373: + x59 + x229 <= 1
C374: + x68 + x212 <= 1
C375: + x88 + x141 <= 1
C376: + x167 + x175 <= 1
C377: + x5 + x30 <= 1
C378: + x17 + x236 <= 1
C379: + x1 + x86 <= 1
C380: + x10 + x175 <= 1
C381: + x21 + x25 <= 1
C382: + x39 + x199 <= 1
C383: + x71 + x462 <= 1
C384: + x62 + x78 <= 1
C385: + x9 + x275 <= 1
C386: + x34 + x383 <= 1
C387: + x3 + x414 <= 1
C388: + x223 + x225 <= 1
C389: + x6 + x76 <= 1
C390: + x203 + x276 <= 1
C391: + x257 + x494 <= 1
C392: + x22 + x105 <= 1
C393: + x14 + x60 <= 1
C394: + x121 + x302 <= 1
C395: + x136 + x401 <= 1
C396: + x34 + x331 <= 1
C397: + x107 + x257 <= 1
C398: + x206 + x351 <= 1
C399: + x6 + x128 <= 1
C400: + x10 + x418 <= 1
C401: + x93 + x241 <= 1
C402: + x177 + x351 <= 1
C403: + x14 + x240 <= 1
C404: + x354 + x431 <= 1
C405: + x1 + x45 <= 1
C406: + x86 + x421 <= 1
C407: + x23 + x329 <= 1
C408: + x88 + x379 <= 1
C409: + x157 + x424 <= 1
C410: + x221 + x232 <= 1
C411: + x53 + x369 <= 1
C412: + x7 + x180 <= 1
C413: + x254 + x306 <= 1
C414: + x5 + x73 <= 1
C415: + x23 + x247 <= 1
C416: + x52 + x81 <= 1
C417: + x73 + x460 <= 1
C418: + x10 + x132 <= 1
C419: + x41 + x224 <= 1
C420: + x386 + x435 <= 1
C421: + x43 + x57 <= 1
C422: + x80 + x222 <= 1
C423: + x1 + x262 <= 1
C424: + x284 + x358 <= 1
C425: + x376 + x429 <= 1
C426: + x97 + x191 <= 1
C427: + x36 + x247 <= 1
C428: + x20 + x72 <= 1
C429: + x180 + x495 <= 1
C430: + x83 + x273 <= 1
C431: + x282 + x398 <= 1
C432: + x86 + x203 <= 1
C433: + x78 + x286 <= 1
C434: + x32 + x131 <= 1
C435: + x88 + x98 <= 1
C436: + x217 + x408 <= 1
C437: + x25 + x344 <= 1
C438: + x44 + x89 <= 1
C439: + x281 + x439 <= 1
C440: + x294 + x318 <= 1
C441: + x51 + x139 <= 1
C442: + x44 + x136 <= 1
C443: + x191 + x379 <= 1
C444: + x6 + x394 <= 1
C445: + x3 + x42 <= 1
C446: + x114 + x296 <= 1
C447: + x81 + x228 <= 1
C448: + x10 + x42 <= 1
C449: + x75 + x122 <= 1
C450: + x45 + x159 <= 1
C451: + x249 + x333 <= 1
C452: + x240 + x436 <= 1
C453: + x143 + x222 <= 1
C454: + x134 + x137 <= 1
C455: + x80 + x219 <= 1
C456: + x64 + x189 <= 1
C457: + x6 + x209 <= 1
C458: + x126 + x297 <= 1
C459: + x27 + x120 <= 1
C460: + x10 + x22 <= 1
C461: + x28 + x112 <= 1
C462: + x172 + x233 <= 1
C463: + x53 + x388 <= 1
C464: + x89 + x112 <= 1
C465: + x217 + x496 <= 1
C466: + x25 + x304 <= 1
C467: + x151 + x308 <= 1
C468: + x72 + x159 <= 1
C469: + x227 + x353 <= 1
C470: + x6 + x463 <= 1
C471: + x21 + x71 <= 1
C472: + x49 + x150 <= 1
C473: + x49 + x58 + x274 <= 1
C474: + x22 + x79 <= 1
C475: + x125 + x371 <= 1
C476: + x70 + x394 <= 1
C477: + x107 + x201 <= 1
C478: + x6 + x133 <= 1
C479: + x60 + x119 + x121 <= 1
C480: + x190 + x374 <= 1
C481: + x15 + x65 <= 1
C482: + x109 + x364 <= 1
C483: + x19 + x128 <= 1
C484: + x220 + x480 <= 1
C485: + x282 + x419 <= 1
C486: + x32 + x267 <= 1
C487: + x298 + x392 <= 1
C488: + x191 + x205 <= 1
C489: + x213 + x247 <= 1
C490: + x33 + x176 <= 1
C491: + x394 + x482 <= 1
C492: + x17 + x42 <= 1
C493: + x41 + x259 <= 1
C494: + x5 + x297 <= 1
C495: + x137 + x172 <= 1
C496: + x38 + x462 <= 1
C497: + x209 + x407 <= 1
C498: + x129 + x427 <= 1
C499: + x315 + x398 <= 1
C500: + x334 + x352 <= 1
C501: + x72 + x152 <= 1
C502: + x201 + x251 <= 1
C503: + x110 + x406 <= 1
C504: + x49 + x141 <= 1
C505: + x156 + x217 <= 1
C506: + x46 + x399 <= 1
C507: + x3 + x137 <= 1
C508: + x16 + x130 <= 1
C509: + x8 + x101 <= 1
C510: + x192 + x215 <= 1
C511: + x69 + x410 <= 1
C512: + x244 + x302 <= 1
C513: + x253 + x449 <= 1
C514: + x236 + x377 <= 1
C515: + x111 + x426 <= 1
C516: + x76 + x378 <= 1
C517: + x58 + x215 <= 1
C518: + x48 + x336 <= 1
C519: + x258 + x290 <= 1
C520: + x15 + x76 <= 1
C521: + x6 + x31 <= 1
C522: + x10 + x92 <= 1
C523: + x30 + x137 <= 1
C524: + x232 + x258 <= 1
C525: + x215 + x476 <= 1
C526: + x90 + x281 <= 1
C527: + x102 + x334 <= 1
C528: + x29 + x164 <= 1
C529: + x2 + x370 <= 1
C530: + x5 + x280 <= 1
C531: + x23 + x426 <= 1
C532: + x102 + x124 <= 1
C533: + x8 + x170 <= 1
C534: + x139 + x425 <= 1
C535: + x242 + x361 <= 1
C536: + x170 + x354 <= 1
C537: + x235 + x434 <= 1
C538: + x5 + x423 <= 1
C539: + x138 + x438 <= 1
C540: + x49 + x132 <= 1
C541: + x21 + x85 <= 1
C542: + x46 + x61 <= 1
C543: + x2 + x20 <= 1
C544: + x102 + x131 <= 1
C545: + x4 + x6 <= 1
C546: + x22 + x180 <= 1
C547: + x26 + x49 <= 1
C548: + x134 + x320 <= 1
C549: + x316 + x475 <= 1
C550: + x397 + x400 <= 1
C551: + x18 + x116 <= 1
C552: + x366 + x420 <= 1
C553: + x71 + x96 <= 1
C554: + x45 + x410 <= 1
C555: + x155 + x317 <= 1
C556: + x24 + x446 <= 1
C557: + x180 + x301 <= 1
C558: + x363 + x444 <= 1
C559: + x8 + x18 <= 1
C560: + x379 + x391 <= 1
C561: + x4 + x50 <= 1
C562: + x115 + x300 <= 1
C563: + x5 + x287 <= 1
C564: + x11 + x38 <= 1
C565: + x114 + x263 <= 1
C566: + x25 + x261 <= 1
C567: + x152 + x463 <= 1
C568: + x3 + x397 <= 1
C569: + x12 + x470 <= 1
C570: + x107 + x385 <= 1
C571: + x238 + x246 <= 1
C572: + x68 + x89 <= 1
C573: + x32 + x103 <= 1
C574: + x108 + x178 <= 1
C575: + x96 + x167 <= 1
C576: + x6 + x331 <= 1
C577: + x74 + x437 <= 1
C578: + x7 + x329 <= 1
C579: + x299 + x453 <= 1
C580: + x21 + x195 <= 1
C581: + x187 + x254 <= 1
C582: + x105 + x183 <= 1
C583: + x99 + x405 <= 1
C584: + x316 + x468 <= 1
C585: + x247 + x340 <= 1
C586: + x123 + x287 <= 1
C587: + x34 + x74 <= 1
C588: + x25 + x35 <= 1
C589: + x43 + x117 <= 1
C590: + x10 + x435 <= 1
C591: + x92 + x256 <= 1
C592: + x104 + x184 <= 1
C593: + x107 + x234 <= 1
C594: + x126 + x348 <= 1
C595: + x117 + x238 <= 1
C596: + x7 + x389 <= 1
C597: + x8 + x15 <= 1
C598: + x72 + x335 <= 1
C599: + x55 + x131 <= 1
C600: + x379 + x386 <= 1
C601: + x214 + x252 <= 1
C602: + x7 + x34 <= 1
C603: + x80 + x191 <= 1
C604: + x28 + x378 <= 1
C605: + x14 + x82 <= 1
C606: + x364 + x450 <= 1
C607: + x110 + x222 <= 1
C608: + x222 + x495 <= 1
C609: + x232 + x492 <= 1
C610: + x32 + x223 <= 1
C611: + x179 + x319 <= 1
C612: + x180 + x181 <= 1
C613: + x62 + x326 <= 1
C614: + x128 + x299 <= 1
C615: + x119 + x342 <= 1
C616: + x64 + x133 <= 1
C617: + x174 + x431 <= 1
C618: + x49 + x420 <= 1
C619: + x111 + x468 <= 1
C620: + x51 + x444 <= 1
C621: + x3 + x150 <= 1
C622: + x126 + x257 <= 1
C623: + x73 + x149 <= 1
C624: + x145 + x189 <= 1
C625: + x1 + x7 <= 1
C626: + x257 + x276 <= 1
C627: + x368 + x481 <= 1
C628: + x171 + x186 <= 1
C629: + x103 + x259 <= 1
C630: + x125 + x161 <= 1
C631: + x14 + x308 <= 1
C632: + x16 + x52 <= 1
C633: + x72 + x183 <= 1
C634: + x254 + x474 <= 1
C635: + x95 + x110 <= 1
C636: + x76 + x180 <= 1
C637: + x217 + x234 <= 1
C638: + x26 + x478 <= 1
C639: + x1 + x182 <= 1
C640: + x97 + x250 <= 1
C641: + x5 + x19 <= 1
C642: + x17 + x292 <= 1
C643: + x108 + x298 <= 1
C644: + x65 + x403 <= 1
C645: + x30 + x55 <= 1
C646: + x60 + x75 <= 1
C647: + x302 + x319 <= 1
C648: + x139 + x225 <= 1
C649: + x16 + x210 <= 1
C650: + x41 + x57 <= 1
C651: + x32 + x200 <= 1
C652: + x25 + x275 <= 1
C653: + x282 + x358 <= 1
C654: + x240 + x417 <= 1
C655: + x70 + x180 <= 1
C656: + x14 + x476 <= 1
C657: + x87 + x172 <= 1
C658: + x180 + x376 <= 1
C659: + x216 + x412 <= 1
C660: + x3 + x306 <= 1
C661: + x41 + x101 <= 1
C662: + x86 + x340 <= 1
C663: + x8 + x496 <= 1
C664: + x56 + x146 <= 1
C665: + x3 + x32 <= 1
C666: + x68 + x216 <= 1
C667: + x5 + x357 <= 1
C668: + x145 + x195 <= 1
C669: + x57 + x346 <= 1
C670: + x49 + x407 <= 1
C671: + x6 + x150 <= 1
C672: + x27 + x43 <= 1
C673: + x134 + x223 <= 1
C674: + x208 + x269 <= 1
C675: + x9 + x442 <= 1
C676: + x48 + x440 <= 1
C677: + x211 + x284 <= 1
C678: + x52 + x80 <= 1
C679: + x24 + x175 <= 1
C680: + x6 + x277 <= 1
C681: + x119 + x168 <= 1
C682: + x130 + x349 <= 1
C683: + x68 + x145 <= 1
C684: + x5 + x320 <= 1
C685: + x14 + x469 <= 1
C686: + x7 + x80 <= 1
C687: + x40 + x47 <= 1
C688: + x5 + x221 <= 1
C689: + x354 + x471 <= 1
C690: + x254 + x265 <= 1
C691: + x8 + x66 <= 1
C692: + x56 + x76 <= 1
C693: + x41 + x108 <= 1
C694: + x4 + x98 <= 1
C695: + x40 + x142 <= 1
C696: + x112 + x159 <= 1
C697: + x58 + x486 <= 1
C698: + x125 + x266 <= 1
C699: + x336 + x445 <= 1
C700: + x308 + x390 <= 1
C701: + x192 + x494 <= 1
C702: + x204 + x373 <= 1
C703: + x51 + x61 <= 1
C704: + x25 + x56 <= 1
C705: + x88 + x130 <= 1
C706: + x2 + x12 <= 1
C707: + x88 + x214 <= 1
C708: + x211 + x275 <= 1
C709: + x5 + x53 <= 1
C710: + x98 + x204 <= 1
C711: + x12 + x43 <= 1
C712: + x40 + x321 <= 1
C713: + x25 + x115 <= 1
C714: + x15 + x486 <= 1
C715: + x8 + x333 <= 1
C716: + x136 + x156 <= 1
C717: + x10 + x483 <= 1
C718: + x5 + x220 <= 1
C719: + x15 + x135 <= 1
C720: + x354 + x496 <= 1
C721: + x63 + x466 <= 1
C722: + x326 + x477 <= 1
C723: + x3 + x18 <= 1
C724: + x112 + x434 <= 1
C725: + x91 + x111 <= 1
C726: + x10 + x98 <= 1
C727: + x229 + x372 <= 1
C728: + x254 + x342 <= 1
C729: + x4 + x19 <= 1
C730: + x43 + x252 <= 1
C731: + x61 + x66 <= 1
C732: + x73 + x104 <= 1
C733: + x7 + x14 <= 1
C734: + x25 + x174 <= 1
C735: + x38 + x66 <= 1
C736: + x63 + x255 <= 1
C737: + x103 + x461 <= 1
C738: + x168 + x465 <= 1
C739: + x23 + x33 <= 1
C740: + x224 + x352 <= 1
C741: + x335 + x375 <= 1
C742: + x137 + x218 <= 1
C743: + x10 + x46 <= 1
C744: + x28 + x481 <= 1
C745: + x15 + x126 <= 1
C746: + x1 + x354 <= 1
C747: + x149 + x282 <= 1
C748: + x23 + x142 <= 1
C749: + x243 + x483 <= 1
C750: + x103 + x352 <= 1
C751: + x6 + x442 <= 1
C752: + x16 + x487 <= 1
C753: + x55 + x393 <= 1
C754: + x50 + x88 <= 1
C755: + x15 + x138 <= 1
C756: + x355 + x495 <= 1
C757: + x10 + x26 <= 1
C758: + x28 + x100 <= 1
C759: + x51 + x257 <= 1
C760: + x70 + x485 <= 1
C761: + x151 + x312 <= 1
C762: + x16 + x24 <= 1
C763: + x10 + x373 <= 1
C764: + x1 + x400 <= 1
C765: + x12 + x32 <= 1
C766: + x41 + x332 <= 1
C767: + x7 + x118 <= 1
C768: + x164 + x278 <= 1
C769: + x19 + x72 <= 1
C770: + x10 + x107 <= 1
C771: + x49 + x444 <= 1
C772: + x108 + x207 <= 1
C773: + x15 + x271 <= 1
C774: + x46 + x309 <= 1
C775: + x166 + x280 <= 1
C776: + x51 + x373 <= 1
C777: + x208 + x284 <= 1
C778: + x173 + x464 <= 1
C779: + x249 + x489 <= 1
C780: + x106 + x336 <= 1
C781: + x133 + x262 <= 1
C782: + x62 + x85 <= 1
C783: + x82 + x225 <= 1
C784: + x10 + x87 <= 1
C785: + x291 + x332 <= 1
C786: + x21 + x161 <= 1
C787: + x32 + x188 <= 1
C788: + x253 + x309 <= 1
C789: + x17 + x129 <= 1
C790: + x154 + x399 <= 1
C791: + x8 + x32 <= 1
C792: + x10 + x178 <= 1
C793: + x85 + x265 <= 1
C794: + x12 + x89 <= 1
C795: + x68 + x136 <= 1
C796: + x65 + x395 <= 1
C797: + x10 + x493 <= 1
C798: + x122 + x478 <= 1
C799: + x158 + x189 <= 1
C800: + x38 + x458 <= 1
C801: + x197 + x394 <= 1
C802: + x449 + x468 <= 1
C803: + x177 + x233 <= 1
C804: + x60 + x493 <= 1
C805: + x206 + x326 <= 1
C806: + x234 + x407 <= 1
C807: + x24 + x138 <= 1
C808: + x7 + x452 <= 1
C809: + x32 + x240 <= 1
C810: + x71 + x260 <= 1
C811: + x3 + x439 <= 1
C812: + x68 + x381 <= 1
C813: + x5 + x345 <= 1
C814: + x27 + x305 <= 1
C815: + x190 + x282 <= 1
C816: + x46 + x64 <= 1
C817: + x64 + x289 <= 1
C818: + x177 + x328 <= 1
C819: + x5 + x254 <= 1
C820: + x14 + x23 <= 1
C821: + x298 + x449 <= 1
C822: + x18 + x212 <= 1
C823: + x1 + x54 <= 1
C824: + x231 + x295 <= 1
C825: + x106 + x406 <= 1
C826: + x52 + x59 <= 1
C827: + x17 + x105 <= 1
C828: + x212 + x230 <= 1
C829: + x3 + x56 <= 1
C830: + x58 + x219 <= 1
C831: + x29 + x51 + x96 <= 1
C832: + x6 + x27 <= 1
C833: + x82 + x218 <= 1
C834: + x83 + x234 <= 1
C835: + x72 + x107 <= 1
C836: + x122 + x374 <= 1
C837: + x50 + x497 <= 1
C838: + x36 + x166 <= 1
C839: + x128 + x253 <= 1
C840: + x457 + x463 <= 1
C841: + x20 + x147 <= 1
C842: + x102 + x330 <= 1
C843: + x51 + x237 <= 1
C844: + x35 + x147 <= 1
C845: + x7 + x44 <= 1
C846: + x28 + x368 <= 1
C847: + x36 + x257 <= 1
C848: + x182 + x290 <= 1
C849: + x49 + x382 <= 1
C850: + x106 + x381 <= 1
C851: + x206 + x412 <= 1
C852: + x9 + x17 <= 1
C853: + x78 + x162 <= 1
C854: + x43 + x70 <= 1
C855: + x71 + x168 <= 1
C856: + x7 + x104 <= 1
C857: + x247 + x302 <= 1
C858: + x75 + x171 <= 1
C859: + x23 + x91 <= 1
C860: + x296 + x334 <= 1
C861: + x45 + x84 <= 1
C862: + x128 + x178 <= 1
C863: + x20 + x208 <= 1
C864: + x3 + x289 <= 1
C865: + x369 + x412 <= 1
C866: + x107 + x277 <= 1
C867: + x35 + x218 <= 1
C868: + x183 + x413 <= 1
C869: + x136 + x204 <= 1
C870: + x103 + x498 <= 1
C871: + x35 + x315 <= 1
C872: + x137 + x207 <= 1
C873: + x103 + x232 <= 1
C874: + x312 + x352 <= 1
C875: + x5 + x41 <= 1
C876: + x88 + x93 <= 1
C877: + x108 + x233 <= 1
C878: + x134 + x333 <= 1
C879: + x137 + x481 <= 1
C880: + x286 + x364 <= 1
C881: + x214 + x255 <= 1
C882: + x23 + x421 <= 1
C883: + x255 + x416 <= 1
C884: + x3 + x67 <= 1
C885: + x79 + x163 <= 1
C886: + x10 + x13 <= 1
C887: + x5 + x93 <= 1
C888: + x159 + x496 <= 1
C889: + x26 + x242 <= 1
C890: + x102 + x295 <= 1
C891: + x25 + x27 <= 1
C892: + x92 + x369 <= 1
C893: + x2 + x105 <= 1
C894: + x109 + x139 <= 1
C895: + x12 + x148 <= 1
C896: + x332 + x430 <= 1
C897: + x5 + x478 <= 1
C898: + x1 + x417 <= 1
C899: + x12 + x390 <= 1
C900: + x13 + x270 <= 1
C901: + x315 + x321 <= 1
C902: + x6 + x13 <= 1
C903: + x168 + x348 <= 1
C904: + x70 + x242 <= 1
C905: + x88 + x247 <= 1
C906: + x182 + x387 <= 1
C907: + x131 + x408 <= 1
C908: + x111 + x303 <= 1
C909: + x166 + x375 <= 1
C910: + x103 + x380 <= 1
C911: + x42 + x244 <= 1
C912: + x7 + x38 <= 1
C913: + x247 + x356 <= 1
C914: + x60 + x149 <= 1
C915: + x22 + x411 <= 1
C916: + x73 + x173 <= 1
C917: + x190 + x436 <= 1
C918: + x7 + x268 <= 1
C919: + x28 + x80 <= 1
C920: + x8 + x156 <= 1
C921: + x51 + x293 <= 1
C922: + x25 + x197 <= 1
C923: + x23 + x303 <= 1
C924: + x9 + x31 <= 1
C925: + x119 + x170 <= 1
C926: + x180 + x185 <= 1
C927: + x236 + x312 <= 1
C928: + x77 + x447 <= 1
C929: + x30 + x441 <= 1
C930: + x33 + x133 <= 1
C931: + x15 + x21 <= 1
C932: + x35 + x377 <= 1
C933: + x137 + x177 <= 1
C934: + x75 + x221 <= 1
C935: + x40 + x53 <= 1
C936: + x180 + x371 <= 1
C937: + x18 + x372 <= 1
C938: + x1 + x27 <= 1
C939: + x102 + x177 <= 1
C940: + x3 + x307 <= 1
C941: + x87 + x443 <= 1
C942: + x37 + x145 <= 1
C943: + x68 + x211 <= 1
C944: + x4 + x362 <= 1
C945: + x217 + x238 <= 1
C946: + x338 + x408 <= 1
C947: + x10 + x448 <= 1
C948: + x284 + x419 <= 1
C949: + x78 + x363 <= 1
C950: + x5 + x31 <= 1
C951: + x188 + x356 <= 1
C952: + x55 + x154 <= 1
C953: + x3 + x327 <= 1
C954: + x48 + x153 <= 1
C955: + x40 + x283 <= 1
C956: + x7 + x29 <= 1
C957: + x32 + x45 <= 1
C958: + x6 + x58 <= 1
C959: + x62 + x77 <= 1
C960: + x10 + x63 <= 1
C961: + x161 + x191 <= 1
C962: + x24 + x174 <= 1
C963: + x17 + x153 <= 1
C964: + x326 + x419 <= 1
C965: + x102 + x297 <= 1
C966: + x3 + x411 <= 1
C967: + x25 + x105 <= 1
C968: + x67 + x169 <= 1
C969: + x95 + x202 <= 1
C970: + x22 + x120 <= 1
C971: + x7 + x319 <= 1
C972: + x281 + x485 <= 1
C973: + x72 + x261 <= 1
C974: + x183 + x197 <= 1
C975: + x30 + x248 <= 1
C976: + x20 + x227 <= 1
C977: + x125 + x271 <= 1
C978: + x125 + x188 <= 1
C979: + x89 + x472 <= 1
C980: + x71 + x284 <= 1
C981: + x369 + x385 <= 1
C982: + x5 + x119 <= 1
C983: + x23 + x382 <= 1
C984: + x9 + x114 <= 1
C985: + x46 + x181 <= 1
C986: + x231 + x241 <= 1
C987: + x19 + x87 <= 1
C988: + x14 + x239 <= 1
C989: + x197 + x326 <= 1
C990: + x126 + x362 <= 1
C991: + x5 + x6 <= 1
C992: + x1 + x46 <= 1
C993: + x6 + x365 <= 1
C994: + x13 + x70 <= 1
C995: + x69 + x123 <= 1
C996: + x24 + x54 <= 1
C997: + x134 + x219 <= 1
C998: + x49 + x213 <= 1
C999: + x3 + x48 <= 1
C1000: + x206 + x355 <= 1
C1001: + x82 + x488 <= 1
C1002: + x236 + x294 <= 1
C1003: + x111 + x261 <= 1
C1004: + x39 + x384 <= 1
C1005: + x89 + x304 <= 1
C1006: + x7 + x68 <= 1
C1007: + x182 + x458 <= 1
C1008: + x58 + x143 <= 1
C1009: + x50 + x90 <= 1
C1010: + x87 + x167 <= 1
C1011: + x149 + x348 <= 1
C1012: + x87 + x437 <= 1
C1013: + x211 + x237 <= 1
C1014: + x203 + x210 <= 1
C1015: + x3 + x19 <= 1
C1016: + x29 + x465 <= 1
C1017: + x10 + x125 <= 1
C1018: + x38 + x271 <= 1
C1019: + x14 + x232 <= 1
C1020: + x161 + x241 <= 1
C1021: + x5 + x13 <= 1
C1022: + x92 + x102 <= 1
C1023: + x53 + x220 <= 1
C1024: + x67 + x318 <= 1
C1025: + x70 + x273 <= 1
C1026: + x288 + x362 <= 1
C1027: + x5 + x148 <= 1
C1028: + x6 + x44 <= 1
C1029: + x43 + x402 <= 1
C1030: + x55 + x283 <= 1
C1031: + x192 + x305 <= 1
C1032: + x378 + x410 <= 1
C1033: + x31 + x62 <= 1
C1034: + x5 + x49 <= 1
C1035: + x23 + x143 <= 1
C1036: + x134 + x341 <= 1
C1037: + x10 + x140 <= 1
C1038: + x64 + x89 <= 1
C1039: + x128 + x206 <= 1
C1040: + x77 + x428 <= 1
C1041: + x51 + x256 <= 1
C1042: + x3 + x123 <= 1
C1043: + x144 + x291 <= 1
C1044: + x315 + x388 <= 1
C1045: + x7 + x470 <= 1
C1046: + x5 + x343 <= 1
C1047: + x142 + x201 <= 1
C1048: + x83 + x192 <= 1
C1049: + x5 + x12 <= 1
C1050: + x82 + x294 <= 1
C1051: + x28 + x187 <= 1
C1052: + x6 + x498 <= 1
C1053: + x57 + x166 <= 1
C1054: + x51 + x104 <= 1
C1055: + x141 + x230 <= 1
C1056: + x4 + x265 <= 1
C1057: + x23 + x37 <= 1
C1058: + x1 + x171 <= 1
C1059: + x275 + x403 <= 1
C1060: + x17 + x313 <= 1
C1061: + x8 + x35 <= 1
C1062: + x12 + x40 <= 1
C1063: + x394 + x481 <= 1
C1064: + x12 + x491 <= 1
C1065: + x52 + x253 <= 1
C1066: + x59 + x182 <= 1
C1067: + x73 + x88 <= 1
C1068: + x144 + x218 <= 1
C1069: + x5 + x298 <= 1
C1070: + x3 + x118 <= 1
C1071: + x42 + x55 <= 1
C1072: + x7 + x223 <= 1
C1073: + x82 + x355 <= 1
C1074: + x254 + x279 <= 1
C1075: + x144 + x300 <= 1
C1076: + x125 + x193 <= 1
C1077: + x18 + x78 <= 1
C1078: + x165 + x309 <= 1
C1079: + x116 + x457 <= 1
C1080: + x6 + x106 <= 1
C1081: + x7 + x106 <= 1
C1082: + x23 + x484 <= 1
C1083: + x14 + x25 + x36 <= 1
C1084: + x33 + x474 <= 1
C1085: + x14 + x26 <= 1
C1086: + x73 + x310 <= 1
C1087: + x20 + x198 <= 1
C1088: + x39 + x228 <= 1
C1089: + x97 + x103 <= 1
C1090: + x294 + x303 <= 1
C1091: + x213 + x382 <= 1
C1092: + x16 + x40 <= 1
C1093: + x19 + x266 <= 1
C1094: + x57 + x173 <= 1
C1095: + x92 + x415 <= 1
C1096: + x68 + x251 <= 1
C1097: + x13 + x285 <= 1
C1098: + x14 + x107 <= 1
C1099: + x6 + x30 <= 1
C1100: + x7 + x166 <= 1
C1101: + x92 + x318 <= 1
C1102: + x9 + x272 <= 1
C1103: + x62 + x68 + x195 <= 1
C1104: + x5 + x39 <= 1
C1105: + x32 + x168 <= 1
C1106: + x1 + x79 <= 1
C1107: + x51 + x242 <= 1
C1108: + x25 + x69 <= 1
C1109: + x9 + x415 <= 1
C1110: + x10 + x273 <= 1
C1111: + x292 + x317 <= 1
C1112: + x421 + x452 <= 1
C1113: + x22 + x396 <= 1
C1114: + x96 + x245 <= 1
C1115: + x426 + x454 <= 1
C1116: + x124 + x454 <= 1
C1117: + x217 + x290 <= 1
C1118: + x53 + x109 <= 1
C1119: + x7 + x456 <= 1
C1120: + x41 + x226 <= 1
C1121: + x133 + x197 <= 1
C1122: + x33 + x39 + x99 <= 1
C1123: + x261 + x311 <= 1
C1124: + x36 + x126 <= 1
C1125: + x55 + x381 <= 1
C1126: + x4 + x5 <= 1
C1127: + x125 + x148 <= 1
C1128: + x7 + x500 <= 1
C1129: + x85 + x429 <= 1
C1130: + x1 + x185 <= 1
C1131: + x95 + x286 <= 1
C1132: + x22 + x36 <= 1
C1133: + x6 + x186 <= 1
C1134: + x189 + x323 <= 1
C1135: + x135 + x344 <= 1
C1136: + x193 + x203 <= 1
C1137: + x305 + x405 <= 1
C1138: + x22 + x306 <= 1
C1139: + x23 + x418 <= 1
C1140: + x90 + x388 <= 1
C1141: + x10 + x282 <= 1
C1142: + x37 + x44 <= 1
C1143: + x86 + x154 <= 1
C1144: + x13 + x336 <= 1
C1145: + x188 + x450 <= 1
C1146: + x6 + x203 <= 1
C1147: + x14 + x88 <= 1
C1148: + x181 + x343 <= 1
C1149: + x83 + x355 <= 1
C1150: + x64 + x453 <= 1
C1151: + x201 + x397 <= 1
C1152: + x5 + x431 <= 1
C1153: + x198 + x249 <= 1
C1154: + x7 + x447 <= 1
C1155: + x7 + x92 <= 1
C1156: + x3 + x156 <= 1
C1157: + x115 + x163 <= 1
C1158: + x4 + x449 <= 1
C1159: + x5 + x467 <= 1
C1160: + x152 + x414 <= 1
C1161: + x17 + x100 <= 1
C1162: + x239 + x366 <= 1
C1163: + x177 + x450 <= 1
C1164: + x58 + x232 <= 1
C1165: + x6 + x16 <= 1
C1166: + x1 + x331 <= 1
C1167: + x242 + x302 <= 1
C1168: + x232 + x311 <= 1
C1169: + x107 + x215 <= 1
C1170: + x166 + x330 <= 1
C1171: + x21 + x24 <= 1
C1172: + x39 + x202 <= 1
C1173: + x235 + x274 <= 1
C1174: + x54 + x183 <= 1
C1175: + x64 + x212 <= 1
C1176: + x11 + x401 <= 1
C1177: + x130 + x156 <= 1
C1178: + x192 + x422 <= 1
C1179: + x180 + x422 <= 1
C1180: + x82 + x342 <= 1
C1181: + x299 + x409 <= 1
C1182: + x16 + x204 <= 1
C1183: + x96 + x469 <= 1
C1184: + x253 + x283 <= 1
C1185: + x7 + x434 <= 1
C1186: + x248 + x264 <= 1
C1187: + x78 + x87 <= 1
C1188: + x332 + x465 <= 1
C1189: + x33 + x130 <= 1
C1190: + x1 + x6 + x8 + x9 <= 1
C1191: + x84 + x340 <= 1
C1192: + x102 + x390 <= 1
C1193: + x58 + x128 <= 1
C1194: + x60 + x368 <= 1
C1195: + x32 + x111 <= 1
C1196: + x281 + x411 <= 1
C1197: + x10 + x253 <= 1
C1198: + x145 + x432 <= 1
C1199: + x101 + x409 <= 1
C1200: + x183 + x364 <= 1
C1201: + x3 + x6 <= 1
C1202: + x88 + x243 <= 1
C1203: + x152 + x250 <= 1
C1204: + x291 + x337 <= 1
C1205: + x9 + x293 <= 1
C1206: + x28 + x56 <= 1
C1207: + x11 + x70 <= 1
C1208: + x60 + x316 <= 1
C1209: + x10 + x78 <= 1
C1210: + x175 + x256 <= 1
C1211: + x408 + x421 <= 1
C1212: + x134 + x434 <= 1
C1213: + x282 + x446 <= 1
C1214: + x88 + x413 <= 1
C1215: + x1 + x84 <= 1
C1216: + x17 + x23 <= 1
C1217: + x5 + x270 <= 1
C1218: + x385 + x491 <= 1
C1219: + x149 + x169 <= 1
C1220: + x30 + x260 <= 1
C1221: + x23 + x29 <= 1
C1222: + x79 + x170 <= 1
C1223: + x106 + x339 <= 1
C1224: + x7 + x272 <= 1
C1225: + x125 + x475 <= 1
C1226: + x36 + x37 <= 1
C1227: + x146 + x338 <= 1
C1228: + x12 + x209 <= 1
C1229: + x50 + x467 <= 1
C1230: + x70 + x453 <= 1
C1231: + x41 + x58 <= 1
C1232: + x77 + x342 <= 1
C1233: + x29 + x94 <= 1
C1234: + x176 + x470 <= 1
C1235: + x286 + x387 <= 1
C1236: + x14 + x62 <= 1
C1237: + x432 + x488 <= 1
C1238: + x55 + x322 <= 1
C1239: + x12 + x141 <= 1
C1240: + x33 + x323 <= 1
C1241: + x5 + x449 <= 1
C1242: + x6 + x479 <= 1
C1243: + x9 + x79 <= 1
C1244: + x181 + x288 <= 1
C1245: + x1 + x345 <= 1
C1246: + x23 + x165 <= 1
C1247: + x269 + x307 <= 1
C1248: + x80 + x489 <= 1
C1249: + x20 + x174 <= 1
C1250: + x7 + x17 <= 1
C1251: + x92 + x439 <= 1
C1252: + x37 + x65 <= 1
C1253: + x58 + x267 <= 1
C1254: + x3 + x81 <= 1
C1255: + x421 + x488 <= 1
C1256: + x16 + x355 <= 1
C1257: + x154 + x288 <= 1
C1258: + x43 + x333 <= 1
C1259: + x14 + x369 <= 1
C1260: + x17 + x157 <= 1
C1261: + x8 + x52 <= 1
C1262: + x10 + x158 <= 1
C1263: + x49 + x161 <= 1
C1264: + x191 + x221 <= 1
C1265: + x77 + x127 <= 1
C1266: + x249 + x324 <= 1
C1267: + x80 + x212 <= 1
C1268: + x137 + x188 <= 1
C1269: + x101 + x320 <= 1
C1270: + x100 + x424 <= 1
C1271: + x67 + x165 <= 1
C1272: + x2 + x127 <= 1
C1273: + x75 + x196 <= 1
C1274: + x87 + x164 <= 1
C1275: + x21 + x380 <= 1
C1276: + x78 + x300 <= 1
C1277: + x202 + x391 <= 1
C1278: + x144 + x473 <= 1
C1279: + x425 + x474 <= 1
C1280: + x12 + x134 <= 1
C1281: + x5 + x464 <= 1
C1282: + x32 + x335 <= 1
C1283: + x18 + x95 <= 1
C1284: + x119 + x369 <= 1
C1285: + x47 + x199 <= 1
C1286: + x157 + x489 <= 1
C1287: + x203 + x211 <= 1
C1288: + x61 + x213 <= 1
C1289: + x113 + x335 <= 1
C1290: + x197 + x322 <= 1
C1291: + x249 + x383 <= 1
C1292: + x3 + x350 <= 1
C1293: + x59 + x303 <= 1
C1294: + x108 + x454 <= 1
C1295: + x7 + x12 <= 1
C1296: + x62 + x255 <= 1
C1297: + x75 + x334 <= 1
C1298: + x130 + x316 <= 1
C1299: + x13 + x372 <= 1
C1300: + x5 + x145 <= 1
C1301: + x14 + x124 <= 1
C1302: + x7 + x181 <= 1
C1303: + x140 + x335 <= 1
C1304: + x51 + x467 <= 1
C1305: + x42 + x448 <= 1
C1306: + x16 + x70 <= 1
C1307: + x313 + x448 <= 1
C1308: + x233 + x389 <= 1
C1309: + x27 + x445 <= 1
C1310: + x7 + x310 <= 1
C1311: + x5 + x122 <= 1
C1312: + x32 + x312 <= 1
C1313: + x320 + x479 <= 1
C1314: + x94 + x485 <= 1
C1315: + x25 + x64 <= 1
C1316: + x35 + x347 <= 1
C1317: + x45 + x374 <= 1
C1318: + x10 + x97 <= 1
C1319: + x83 + x270 <= 1
C1320: + x58 + x95 <= 1
C1321: + x122 + x250 <= 1
C1322: + x196 + x297 <= 1
C1323: + x167 + x452 <= 1
C1324: + x43 + x249 <= 1
C1325: + x3 + x35 <= 1
C1326: + x275 + x371 <= 1
C1327: + x60 + x192 <= 1
C1328: + x5 + x160 <= 1
C1329: + x217 + x268 <= 1
C1330: + x92 + x151 <= 1
C1331: + x68 + x432 <= 1
C1332: + x39 + x69 <= 1
C1333: + x40 + x79 <= 1
C1334: + x21 + x155 <= 1
C1335: + x171 + x325 <= 1
C1336: + x290 + x301 <= 1
C1337: + x201 + x269 <= 1
C1338: + x91 + x386 <= 1
C1339: + x8 + x34 <= 1
C1340: + x83 + x483 <= 1
C1341: + x6 + x441 <= 1
C1342: + x30 + x291 <= 1
C1343: + x215 + x318 <= 1
C1344: + x55 + x299 <= 1
C1345: + x11 + x151 <= 1
C1346: + x66 + x428 <= 1
C1347: + x23 + x260 <= 1
C1348: + x256 + x457 <= 1
C1349: + x114 + x488 <= 1
C1350: + x34 + x110 <= 1
C1351: + x6 + x109 <= 1
C1352: + x91 + x119 <= 1
C1353: + x8 + x200 <= 1
C1354: + x2 + x5 <= 1
C1355: + x58 + x104 <= 1
C1356: + x77 + x134 <= 1
C1357: + x167 + x213 <= 1
C1358: + x60 + x328 <= 1
C1359: + x180 + x205 <= 1
C1360: + x245 + x263 <= 1
C1361: + x290 + x490 <= 1
C1362: + x41 + x135 <= 1
C1363: + x32 + x107 <= 1
C1364: + x3 + x497 <= 1
C1365: + x296 + x304 <= 1
C1366: + x6 + x17 <= 1
C1367: + x128 + x453 <= 1
C1368: + x192 + x294 <= 1
C1369: + x32 + x187 <= 1
C1370: + x36 + x192 <= 1
C1371: + x144 + x391 <= 1
C1372: + x37 + x205 <= 1
C1373: + x9 + x63 <= 1
C1374: + x10 + x177 <= 1
C1375: + x41 + x264 <= 1
C1376: + x68 + x135 <= 1
C1377: + x17 + x47 <= 1
C1378: + x8 + x446 <= 1
C1379: + x3 + x5 + x7 + x10 + x11 <= 1
C1380: + x49 + x328 <= 1
C1381: + x42 + x59 <= 1
C1382: + x19 + x45 <= 1
C1383: + x8 + x176 <= 1
C1384: + x282 + x498 <= 1
C1385: + x103 + x295 <= 1
C1386: + x231 + x492 <= 1
C1387: + x378 + x499 <= 1
C1388: + x6 + x307 <= 1
C1389: + x1 + x392 <= 1
C1390: + x68 + x179 <= 1
C1391: + x91 + x114 <= 1
C1392: + x77 + x189 <= 1
C1393: + x60 + x349 <= 1
C1394: + x217 + x363 <= 1
C1395: + x88 + x115 <= 1
C1396: + x35 + x123 <= 1
C1397: + x10 + x206 <= 1
C1398: + x29 + x229 <= 1
C1399: + x124 + x252 <= 1
C1400: + x9 + x87 <= 1
C1401: + x37 + x101 <= 1
C1402: + x76 + x132 <= 1
C1403: + x216 + x356 <= 1
C1404: + x72 + x102 <= 1
C1405: + x2 + x42 <= 1
C1406: + x69 + x278 <= 1
C1407: + x234 + x339 <= 1
C1408: + x116 + x184 <= 1
C1409: + x321 + x376 <= 1
C1410: + x105 + x122 <= 1
C1411: + x51 + x238 <= 1
C1412: + x61 + x165 <= 1
C1413: + x7 + x41 <= 1
C1414: + x64 + x170 <= 1
C1415: + x11 + x40 <= 1
C1416: + x159 + x248 <= 1
C1417: + x118 + x329 <= 1
C1418: + x22 + x235 <= 1
C1419: + x189 + x193 <= 1
C1420: + x9 + x18 <= 1
C1421: + x8 + x460 <= 1
C1422: + x109 + x126 <= 1
C1423: + x250 + x420 <= 1
C1424: + x26 + x395 <= 1
C1425: + x71 + x165 <= 1
C1426: + x62 + x146 <= 1
C1427: + x28 + x443 <= 1
C1428: + x275 + x461 <= 1
C1429: + x23 + x92 <= 1
C1430: + x32 + x101 <= 1
C1431: + x137 + x438 <= 1
C1432: + x48 + x66 <= 1
C1433: + x60 + x433 <= 1
C1434: + x20 + x46 <= 1
C1435: + x3 + x16 <= 1
C1436: + x141 + x152 <= 1
C1437: + x14 + x416 <= 1
C1438: + x364 + x404 <= 1
C1439: + x146 + x304 <= 1
C1440: + x437 + x494 <= 1
C1441: + x250 + x254 <= 1
C1442: + x3 + x209 <= 1
C1443: + x60 + x290 <= 1
C1444: + x180 + x308 <= 1
C1445: + x35 + x74 <= 1
C1446: + x8 + x13 <= 1
C1447: + x124 + x205 <= 1
C1448: + x214 + x323 <= 1
C1449: + x51 + x348 <= 1
C1450: + x390 + x442 <= 1
C1451: + x247 + x362 <= 1
C1452: + x102 + x469 <= 1
C1453: + x103 + x120 <= 1
C1454: + x67 + x132 <= 1
C1455: + x251 + x274 <= 1
C1456: + x32 + x58 <= 1
C1457: + x3 + x68 <= 1
C1458: + x40 + x459 <= 1
C1459: + x6 + x55 <= 1
C1460: + x268 + x366 <= 1
C1461: + x107 + x160 <= 1
C1462: + x14 + x322 <= 1
C1463: + x171 + x358 <= 1
C1464: + x109 + x117 <= 1
C1465: + x155 + x476 <= 1
C1466: + x66 + x90 <= 1
C1467: + x222 + x255 <= 1
C1468: + x51 + x217 <= 1
C1469: + x15 + x19 <= 1
C1470: + x46 + x49 <= 1
C1471: + x67 + x88 <= 1
C1472: + x78 + x317 <= 1
C1473: + x16 + x296 <= 1
C1474: + x1 + x5 <= 1
C1475: + x383 + x436 <= 1
C1476: + x85 + x339 <= 1
C1477: + x124 + x138 <= 1
C1478: + x178 + x367 <= 1
C1479: + x40 + x158 <= 1
C1480: + x225 + x393 <= 1
C1481: + x308 + x438 <= 1
C1482: + x5 + x479 <= 1
C1483: + x101 + x414 <= 1
C1484: + x411 + x463 <= 1
C1485: + x5 + x372 <= 1
C1486: + x6 + x12 <= 1
C1487: + x142 + x164 <= 1
C1488: + x72 + x423 <= 1
C1489: + x103 + x160 <= 1
C1490: + x58 + x71 <= 1
C1491: + x167 + x182 <= 1
C1492: + x32 + x146 <= 1
C1493: + x36 + x83 <= 1
C1494: + x29 + x143 <= 1
C1495: + x123 + x210 <= 1
C1496: + x4 + x62 <= 1
C1497: + x251 + x456 <= 1
C1498: + x31 + x142 + x240 <= 1
C1499: + x90 + x393 <= 1
C1500: + x134 + x216 <= 1
C1501: + x29 + x409 <= 1
C1502: + x30 + x263 <= 1
C1503: + x112 + x365 <= 1
C1504: + x60 + x152 <= 1
C1505: + x109 + x258 <= 1
C1506: + x163 + x308 <= 1
C1507: + x218 + x466 <= 1
C1508: + x7 + x200 <= 1
C1509: + x7 + x265 <= 1
C1510: + x32 + x198 <= 1
C1511: + x324 + x405 <= 1
C1512: + x50 + x313 <= 1
C1513: + x32 + x440 <= 1
C1514: + x40 + x56 <= 1
C1515: + x23 + x86 <= 1
C1516: + x5 + x236 <= 1
C1517: + x225 + x291 <= 1
C1518: + x80 + x476 <= 1
C1519: + x354 + x480 <= 1
C1520: + x265 + x377 <= 1
C1521: + x232 + x376 <= 1
C1522: + x12 + x140 <= 1
C1523: + x33 + x336 <= 1
C1524: + x104 + x482 <= 1
C1525: + x125 + x190 <= 1
C1526: + x1 + x28 <= 1
C1527: + x40 + x155 <= 1
C1528: + x167 + x487 <= 1
C1529: + x168 + x493 <= 1
C1530: + x244 + x264 <= 1
C1531: + x211 + x252 <= 1
C1532: + x86 + x100 <= 1
C1533: + x5 + x379 <= 1
C1534: + x119 + x392 <= 1
C1535: + x105 + x306 <= 1
C1536: + x22 + x50 <= 1
C1537: + x52 + x459 <= 1
C1538: + x134 + x446 <= 1
C1539: + x122 + x235 <= 1
C1540: + x176 + x398 <= 1
C1541: + x25 + x94 <= 1
C1542: + x315 + x316 <= 1
C1543: + x16 + x451 <= 1
C1544: + x157 + x427 <= 1
C1545: + x41 + x385 <= 1
C1546: + x108 + x119 <= 1
C1547: + x1 + x199 <= 1
C1548: + x144 + x477 <= 1
C1549: + x10 + x62 <= 1
C1550: + x50 + x471 <= 1
C1551: + x99 + x368 <= 1
C1552: + x126 + x239 <= 1
C1553: + x119 + x162 <= 1
C1554: + x391 + x443 <= 1
C1555: + x12 + x52 <= 1
C1556: + x14 + x471 <= 1
C1557: + x164 + x314 <= 1
C1558: + x40 + x45 <= 1
C1559: + x3 + x267 <= 1
C1560: + x378 + x475 <= 1
C1561: + x141 + x403 <= 1
C1562: + x68 + x489 <= 1
C1563: + x28 + x319 <= 1
C1564: + x10 + x325 <= 1
C1565: + x3 + x25 <= 1
C1566: + x58 + x246 <= 1
C1567: + x62 + x113 <= 1
C1568: + x58 + x81 <= 1
C1569: + x40 + x97 <= 1
C1570: + x6 + x145 <= 1
C1571: + x253 + x337 <= 1
C1572: + x98 + x250 <= 1
C1573: + x46 + x197 <= 1
C1574: + x21 + x34 <= 1
C1575: + x7 + x21 <= 1
C1576: + x183 + x435 <= 1
C1577: + x38 + x406 <= 1
C1578: + x10 + x39 <= 1
C1579: + x312 + x378 <= 1
C1580: + x97 + x194 <= 1
C1581: + x353 + x375 <= 1
C1582: + x34 + x185 <= 1
C1583: + x108 + x338 <= 1
C1584: + x249 + x328 <= 1
C1585: + x104 + x391 <= 1
C1586: + x22 + x285 <= 1
C1587: + x75 + x307 <= 1
C1588: + x3 + x97 <= 1
C1589: + x268 + x482 <= 1
C1590: + x180 + x324 <= 1
C1591: + x427 + x482 <= 1
C1592: + x19 + x353 <= 1
C1593: + x2 + x313 <= 1
C1594: + x3 + x20 <= 1
C1595: + x9 + x471 <= 1
C1596: + x91 + x97 <= 1
C1597: + x8 + x206 <= 1
C1598: + x1 + x153 <= 1
C1599: + x86 + x201 <= 1
C1600: + x12 + x279 <= 1
C1601: + x5 + x14 <= 1
C1602: + x1 + x38 <= 1
C1603: + x7 + x16 <= 1
C1604: + x156 + x311 <= 1
C1605: + x5 + x157 <= 1
C1606: + x6 + x43 <= 1
C1607: + x90 + x269 <= 1
C1608: + x39 + x163 <= 1
C1609: + x88 + x322 <= 1
C1610: + x101 + x291 <= 1
C1611: + x428 + x474 <= 1
C1612: + x58 + x151 <= 1
C1613: + x14 + x44 <= 1
C1614: + x145 + x167 <= 1
C1615: + x62 + x477 <= 1
C1616: + x10 + x28 <= 1
C1617: + x229 + x490 <= 1
C1618: + x36 + x464 <= 1
C1619: + x316 + x499 <= 1
C1620: + x249 + x283 <= 1
C1621: + x67 + x354 <= 1
C1622: + x22 + x490 <= 1
C1623: + x10 + x466 <= 1
C1624: + x212 + x417 <= 1
C1625: + x12 + x272 <= 1
C1626: + x358 + x386 <= 1
C1627: + x32 + x118 <= 1
C1628: + x22 + x77 <= 1
C1629: + x5 + x245 <= 1
C1630: + x73 + x272 <= 1
C1631: + x44 + x84 <= 1
C1632: + x9 + x208 <= 1
C1633: + x28 + x190 <= 1
C1634: + x33 + x214 <= 1
C1635: + x5 + x487 <= 1
C1636: + x24 + x75 <= 1
C1637: + x56 + x183 <= 1
C1638: + x3 + x63 <= 1
C1639: + x332 + x356 <= 1
C1640: + x25 + x464 <= 1
C1641: + x35 + x299 <= 1
C1642: + x19 + x126 <= 1
C1643: + x3 + x196 <= 1
C1644: + x40 + x75 <= 1
C1645: + x36 + x187 <= 1
C1646: + x8 + x30 <= 1
C1647: + x135 + x347 <= 1
C1648: + x1 + x73 <= 1
C1649: + x58 + x394 <= 1
C1650: + x25 + x127 <= 1
C1651: + x7 + x51 <= 1
C1652: + x75 + x242 <= 1
C1653: + x167 + x285 <= 1
C1654: + x245 + x383 <= 1
C1655: + x10 + x29 <= 1
C1656: + x28 + x103 <= 1
C1657: + x8 + x179 <= 1
C1658: + x229 + x401 <= 1
C1659: + x69 + x472 <= 1
C1660: + x75 + x83 <= 1
C1661: + x113 + x226 <= 1
C1662: + x17 + x187 <= 1
C1663: + x15 + x353 <= 1
C1664: + x4 + x83 <= 1
C1665: + x318 + x484 <= 1
C1666: + x319 + x500 <= 1
C1667: + x231 + x338 <= 1
C1668: + x60 + x253 <= 1
C1669: + x5 + x351 <= 1
C1670: + x34 + x98 <= 1
C1671: + x146 + x179 <= 1
C1672: + x68 + x109 <= 1
C1673: + x114 + x327 <= 1
C1674: + x47 + x491 <= 1
C1675: + x32 + x365 <= 1
C1676: + x316 + x456 <= 1
C1677: + x18 + x121 <= 1
C1678: + x49 + x251 <= 1
C1679: + x131 + x227 <= 1
C1680: + x15 + x74 <= 1
C1681: + x288 + x351 <= 1
C1682: + x118 + x264 <= 1
C1683: + x1 + x163 <= 1
C1684: + x155 + x237 <= 1
C1685: + x456 + x458 <= 1
C1686: + x193 + x344 <= 1
C1687: + x282 + x426 <= 1
C1688: + x15 + x235 <= 1
C1689: + x126 + x243 <= 1
C1690: + x10 + x181 <= 1
C1691: + x3 + x384 <= 1
C1692: + x12 + x96 <= 1
C1693: + x41 + x268 <= 1
C1694: + x51 + x239 <= 1
C1695: + x78 + x112 <= 1
C1696: + x23 + x432 <= 1
C1697: + x6 + x430 <= 1
C1698: + x75 + x94 <= 1
C1699: + x272 + x367 <= 1
C1700: + x25 + x245 <= 1
C1701: + x16 + x28 <= 1
C1702: + x49 + x134 <= 1
C1703: + x305 + x459 <= 1
C1704: + x186 + x325 <= 1
C1705: + x6 + x82 <= 1
C1706: + x62 + x149 <= 1
C1707: + x9 + x460 <= 1
C1708: + x216 + x300 <= 1
C1709: + x16 + x447 <= 1
C1710: + x144 + x246 <= 1
C1711: + x223 + x428 <= 1
C1712: + x70 + x378 <= 1
C1713: + x4 + x8 <= 1
C1714: + x17 + x110 <= 1
C1715: + x16 + x48 <= 1
C1716: + x10 + x301 <= 1
C1717: + x108 + x429 <= 1
C1718: + x85 + x430 <= 1
C1719: + x67 + x241 <= 1
C1720: + x20 + x41 <= 1
C1721: + x131 + x254 <= 1
C1722: + x133 + x266 <= 1
C1723: + x26 + x466 <= 1
C1724: + x7 + x158 <= 1
C1725: + x155 + x248 <= 1
C1726: + x3 + x214 <= 1
C1727: + x29 + x280 <= 1
C1728: + x53 + x492 <= 1
C1729: + x36 + x169 <= 1
C1730: + x293 + x397 <= 1
C1731: + x158 + x419 <= 1
C1732: + x96 + x346 <= 1
C1733: + x17 + x26 <= 1
C1734: + x405 + x425 <= 1
C1735: + x83 + x118 <= 1
C1736: + x8 + x439 <= 1
C1737: + x365 + x458 <= 1
C1738: + x257 + x451 <= 1
C1739: + x35 + x37 + x57 <= 1
C1740: + x106 + x360 <= 1
C1741: + x5 + x190 <= 1
C1742: + x7 + x275 <= 1
C1743: + x17 + x169 <= 1
C1744: + x8 + x456 <= 1
C1745: + x38 + x52 <= 1
C1746: + x29 + x73 <= 1
C1747: + x52 + x154 <= 1
C1748: + x6 + x91 <= 1
C1749: + x15 + x16 <= 1
C1750: + x188 + x413 <= 1
C1751: + x19 + x216 <= 1
C1752: + x72 + x277 <= 1
C1753: + x210 + x339 <= 1
C1754: + x47 + x82 <= 1
C1755: + x40 + x225 <= 1
C1756: + x60 + x124 <= 1
C1757: + x25 + x136 <= 1
C1758: + x151 + x279 <= 1
C1759: + x125 + x172 <= 1
C1760: + x37 + x112 <= 1
C1761: + x67 + x287 <= 1
C1762: + x67 + x204 <= 1
C1763: + x33 + x72 <= 1
C1764: + x87 + x271 <= 1
C1765: + x13 + x276 <= 1
C1766: + x71 + x85 <= 1
C1767: + x161 + x397 <= 1
C1768: + x28 + x50 <= 1
C1769: + x10 + x76 <= 1
C1770: + x5 + x22 <= 1
C1771: + x87 + x108 <= 1
C1772: + x201 + x294 <= 1
C1773: + x22 + x314 <= 1
C1774: + x18 + x423 <= 1
C1775: + x10 + x258 <= 1
C1776: + x28 + x380 <= 1
C1777: + x103 + x108 <= 1
C1778: + x6 + x51 <= 1
C1779: + x108 + x125 <= 1
C1780: + x9 + x192 <= 1
C1781: + x8 + x154 <= 1
C1782: + x11 + x144 <= 1
C1783: + x68 + x435 <= 1
C1784: + x170 + x338 <= 1
C1785: + x126 + x217 <= 1
C1786: + x16 + x106 <= 1
C1787: + x25 + x32 <= 1
C1788: + x216 + x314 <= 1
C1789: + x271 + x485 <= 1
C1790: + x154 + x345 <= 1
C1791: + x57 + x486 <= 1
C1792: + x166 + x270 <= 1
C1793: + x177 + x216 <= 1
C1794: + x124 + x142 <= 1
C1795: + x36 + x202 <= 1
C1796: + x28 + x293 <= 1
C1797: + x11 + x341 <= 1
C1798: + x165 + x279 <= 1
C1799: + x2 + x298 <= 1
C1800: + x38 + x444 <= 1
C1801: + x60 + x224 <= 1
C1802: + x7 + x144 <= 1
C1803: + x338 + x402 <= 1
C1804: + x8 + x227 <= 1
C1805: + x185 + x266 <= 1
C1806: + x114 + x166 <= 1
C1807: + x38 + x287 <= 1
C1808: + x5 + x29 <= 1
C1809: + x133 + x413 <= 1
C1810: + x24 + x224 <= 1
C1811: + x154 + x357 <= 1
C1812: + x119 + x151 <= 1
C1813: + x14 + x248 <= 1
C1814: + x15 + x305 <= 1
C1815: + x25 + x91 <= 1
C1816: + x1 + x498 <= 1
C1817: + x38 + x85 <= 1
C1818: + x29 + x48 <= 1
C1819: + x49 + x220 <= 1
C1820: + x23 + x30 <= 1
C1821: + x7 + x269 <= 1
C1822: + x163 + x249 <= 1
C1823: + x115 + x226 <= 1
C1824: + x123 + x162 <= 1
C1825: + x48 + x282 <= 1
C1826: + x270 + x357 <= 1
C1827: + x118 + x472 <= 1
C1828: + x17 + x452 <= 1
C1829: + x180 + x475 <= 1
C1830: + x14 + x61 <= 1
C1831: + x45 + x63 <= 1
C1832: + x59 + x465 <= 1
C1833: + x442 + x457 <= 1
C1834: + x51 + x278 <= 1
C1835: + x25 + x150 <= 1
C1836: + x451 + x486 <= 1
C1837: + x35 + x229 <= 1
C1838: + x119 + x383 <= 1
C1839: + x128 + x258 <= 1
C1840: + x38 + x106 <= 1
C1841: + x23 + x473 <= 1
C1842: + x9 + x301 <= 1
C1843: + x28 + x473 <= 1
C1844: + x58 + x84 <= 1
C1845: + x68 + x117 <= 1
C1846: + x297 + x331 <= 1
C1847: + x188 + x359 <= 1
C1848: + x6 + x367 <= 1
C1849: + x7 + x373 <= 1
C1850: + x18 + x246 <= 1
C1851: + x12 + x124 <= 1
C1852: + x124 + x262 <= 1
C1853: + x7 + x18 <= 1
C1854: + x69 + x158 <= 1
C1855: + x197 + x491 <= 1
C1856: + x62 + x499 <= 1
C1857: + x10 + x34 <= 1
C1858: + x283 + x450 <= 1
C1859: + x50 + x459 <= 1
C1860: + x142 + x443 <= 1
C1861: + x144 + x427 <= 1
C1862: + x10 + x157 <= 1
C1863: + x29 + x86 <= 1
C1864: + x50 + x249 <= 1
C1865: + x159 + x384 <= 1
C1866: + x53 + x231 <= 1
C1867: + x7 + x78 <= 1
C1868: + x3 + x102 <= 1
C1869: + x40 + x41 <= 1
C1870: + x132 + x325 <= 1
C1871: + x128 + x172 <= 1
C1872: + x135 + x261 <= 1
C1873: + x119 + x213 <= 1
C1874: + x4 + x100 <= 1
C1875: + x5 + x116 <= 1
C1876: + x61 + x113 <= 1
C1877: + x25 + x296 <= 1
C1878: + x1 + x436 <= 1
C1879: + x67 + x364 <= 1
C1880: + x3 + x21 <= 1
C1881: + x7 + x122 <= 1
C1882: + x80 + x231 <= 1
C1883: + x137 + x233 <= 1
C1884: + x2 + x10 <= 1
C1885: + x65 + x326 <= 1
C1886: + x46 + x414 <= 1
C1887: + x15 + x202 <= 1
C1888: + x36 + x69 <= 1
C1889: + x8 + x120 <= 1
C1890: + x28 + x164 <= 1
C1891: + x247 + x470 <= 1
C1892: + x290 + x479 <= 1
C1893: + x15 + x480 <= 1
C1894: + x36 + x292 <= 1
C1895: + x7 + x9 <= 1
C1896: + x10 + x309 <= 1
C1897: + x15 + x121 <= 1
C1898: + x119 + x431 <= 1
C1899: + x253 + x289 <= 1
C1900: + x16 + x69 <= 1
C1901: + x1 + x127 <= 1
C1902: + x10 + x134 <= 1
C1903: + x39 + x176 <= 1
C1904: + x44 + x177 <= 1
C1905: + x109 + x387 <= 1
C1906: + x3 + x125 <= 1
C1907: + x14 + x47 <= 1
C1908: + x216 + x428 <= 1
C1909: + x9 + x129 <= 1
C1910: + x14 + x146 <= 1
C1911: + x52 + x99 <= 1
C1912: + x52 + x432 <= 1
C1913: + x240 + x389 <= 1
C1914: + x51 + x54 <= 1
C1915: + x89 + x321 <= 1
C1916: + x96 + x278 <= 1
C1917: + x189 + x410 <= 1
C1918: + x144 + x155 <= 1
C1919: + x70 + x395 <= 1
C1920: + x27 + x59 <= 1
C1921: + x22 + x350 <= 1
C1922: + x38 + x80 <= 1
C1923: + x43 + x411 <= 1
C1924: + x71 + x109 <= 1
C1925: + x8 + x311 <= 1
C1926: + x55 + x288 <= 1
C1927: + x85 + x175 <= 1
C1928: + x115 + x313 <= 1
C1929: + x133 + x176 <= 1
C1930: + x52 + x251 <= 1
C1931: + x179 + x390 <= 1
C1932: + x60 + x139 <= 1
C1933: + x14 + x40 <= 1
C1934: + x7 + x217 <= 1
C1935: + x300 + x310 <= 1
C1936: + x13 + x61 <= 1
C1937: + x52 + x108 <= 1
C1938: + x27 + x147 <= 1
C1939: + x8 + x469 <= 1
C1940: + x189 + x401 <= 1
C1941: + x97 + x136 <= 1
C1942: + x307 + x433 <= 1
C1943: + x16 + x135 <= 1
C1944: + x11 + x220 <= 1
C1945: + x112 + x115 <= 1
C1946: + x61 + x91 <= 1
C1947: + x17 + x116 <= 1
C1948: + x327 + x400 <= 1

binary
x1 x2 x3 x4 x5 x6 x7 x8 x9 x10 x11 x12 x13 x14 x15 x16 x17 x18 x19 x20 x21 x22 x23 x24 x25 x26 x27 x28 x29 x30 x31 x32 x33 x34 x35 x36 x37 x38 x39 x40 x41 x42 x43 x44 x45 x46 x47 x48 x49 x50 x51 x52 x53 x54 x55 x56 x57 x58 x59 x60 x61 x62 x63 x64 x65 x66 x67 x68 x69 x70 x71 x72 x73 x74 x75 x76 x77 x78 x79 x80 x81 x82 x83 x84 x85 x86 x87 x88 x89 x90 x91 x92 x93 x94 x95 x96 x97 x98 x99 x100 x101 x102 x103 x104 x105 x106 x107 x108 x109 x110 x111 x112 x113 x114 x115 x116 x117 x118 x119 x120 x121 x122 x123 x124 x125 x126 x127 x128 x129 x130 x131 x132 x133 x134 x135 x136 x137 x138 x139 x140 x141 x142 x143 x144 x145 x146 x147 x148 x149 x150 x151 x152 x153 x154 x155 x156 x157 x158 x159 x160 x161 x162 x163 x164 x165 x166 x167 x168 x169 x170 x171 x172 x173 x174 x175 x176 x177 x178 x179 x180 x181 x182 x183 x184 x185 x186 x187 x188 x189 x190 x191 x192 x193 x194 x195 x196 x197 x198 x199 x200 x201 x202 x203 x204 x205 x206 x207 x208 x209 x210 x211 x212 x213 x214 x215 x216 x217 x218 x219 x220 x221 x222 x223 x224 x225 x226 x227 x228 x229 x230 x231 x232 x233 x234 x235 x236 x237 x238 x239 x240 x241 x242 x243 x244 x245 x246 x247 x248 x249 x250 x251 x252 x253 x254 x255 x256 x257 x258 x259 x260 x261 x262 x263 x264 x265 x266 x267 x268 x269 x270 x271 x272 x273 x274 x275 x276 x277 x278 x279 x280 x281 x282 x283 x284 x285 x286 x287 x288 x289 x290 x291 x292 x293 x294 x295 x296 x297 x298 x299 x300 x301 x302 x303 x304 x305 x306 x307 x308 x309 x310 x311 x312 x313 x314 x315 x316 x317 x318 x319 x320 x321 x322 x323 x324 x325 x326 x327 x328 x329 x330 x331 x332 x333 x334 x335 x336 x337 x338 x339 x340 x341 x342 x343 x344 x345 x346 x347 x348 x349 x350 x351 x352 x353 x354 x355 x356 x357 x358 x359 x360 x361 x362 x363 x364 x365 x366 x367 x368 x369 x370 x371 x372 x373 x374 x375 x376 x377 x378 x379 x380 x381 x382 x383 x384 x385 x386 x387 x388 x389 x390 x391 x392 x393 x394 x395 x396 x397 x398 x399 x400 x401 x402 x403 x404 x405 x406 x407 x408 x409 x410 x411 x412 x413 x414 x415 x416 x417 x418 x419 x420 x421 x422 x423 x424 x425 x426 x427 x428 x429 x430 x431 x432 x433 x434 x435 x436 x437 x438 x439 x440 x441 x442 x443 x444 x445 x446 x447 x448 x449 x450 x451 x452 x453 x454 x455 x456 x457 x458 x459 x460 x461 x462 x463 x464 x465 x466 x467 x468 x469 x470 x471 x472 x473 x474 x475 x476 x477 x478 x479 x480 x481 x482 x483 x484 x485 x486 x487 x488 x489 x490 x491 x492 x493 x494 x495 x496 x497 x498 x499 x500
