maximize
OBJ: + 1 x1 + 1 x2 + 1 x3 + 1 x4 + 1 x5 + 1 x6 + 1 x7 + 1 x8 + 1 x9 + 1 x10 + 1 x11 + 1 x12 + 1 x13 + 1 x14 + 1 x15 + 1 x16 + 1 x17 + 1 x18 + 1 x19 + 1 x20 + 1 x21 + 1 x22 + 1 x23 + 1 x24 + 1 x25 + 1 x26 + 1 x27 + 1 x28 + 1 x29 + 1 x30 + 1 x31 + 1 x32 + 1 x33 + 1 x34 + 1 x35 + 1 x36 + 1 x37 + 1 x38 + 1 x39 + 1 x40 + 1 x41 + 1 x42 + 1 x43 + 1 x44 + 1 x45 + 1 x46 + 1 x47 + 1 x48 + 1 x49 + 1 x50 + 1 x51 + 1 x52 + 1 x53 + 1 x54 + 1 x55 + 1 x56 + 1 x57 + 1 x58 + 1 x59 + 1 x60 + 1 x61 + 1 x62 + 1 x63 + 1 x64 + 1 x65 + 1 x66 + 1 x67 + 1 x68 + 1 x69 + 1 x70 + 1 x71 + 1 x72 + 1 x73 + 1 x74 + 1 x75 + 1 x76 + 1 x77 + 1 x78 + 1 x79 + 1 x80 + 1 x81 + 1 x82 + 1 x83 + 1 x84 + 1 x85 + 1 x86 + 1 x87 + 1 x88 + 1 x89 + 1 x90 + 1 x91 + 1 x92 + 1 x93 + 1 x94 + 1 x95 + 1 x96 + 1 x97 + 1 x98 + 1 x99 + 1 x100 + 1 x101 + 1 x102 + 1 x103 + 1 x104 + 1 x105 + 1 x106 + 1 x107 + 1 x108 + 1 x109 + 1 x110 + 1 x111 + 1 x112 + 1 x113 + 1 x114 + 1 x115 + 1 x116 + 1 x117 + 1 x118 + 1 x119 + 1 x120 + 1 x121 + 1 x122 + 1 x123 + 1 x124 + 1 x125 + 1 x126 + 1 x127 + 1 x128 + 1 x129 + 1 x130 + 1 x131 + 1 x132 + 1 x133 + 1 x134 + 1 x135 + 1 x136 + 1 x137 + 1 x138 + 1 x139 + 1 x140 + 1 x141 + 1 x142 + 1 x143 + 1 x144 + 1 x145 + 1 x146 + 1 x147 + 1 x148 + 1 x149 + 1 x150 + 1 x151 + 1 x152 + 1 x153 + 1 x154 + 1 x155 + 1 x156 + 1 x157 + 1 x158 + 1 x159 + 1 x160 + 1 x161 + 1 x162 + 1 x163 + 1 x164 + 1 x165 + 1 x166 + 1 x167 + 1 x168 + 1 x169 + 1 x170 + 1 x171 + 1 x172 + 1 x173 + 1 x174 + 1 x175 + 1 x176 + 1 x177 + 1 x178 + 1 x179 + 1 x180 + 1 x181 + 1 x182 + 1 x183 + 1 x184 + 1 x185 + 1 x186 + 1 x187 + 1 x188 + 1 x189 + 1 x190 + 1 x191 + 1 x192 + 1 x193 + 1 x194 + 1 x195 + 1 x196 + 1 x197 + 1 x198 + 1 x199 + 1 x200 + 1 x201 + 1 x202 + 1 x203 + 1 x204 + 1 x205 + 1 x206 + 1 x207 + 1 x208 + 1 x209 + 1 x210 + 1 x211 + 1 x212 + 1 x213 + 1 x214 + 1 x215 + 1 x216 + 1 x217 + 1 x218 + 1 x219 + 1 x220 + 1 x221 + 1 x222 + 1 x223 + 1 x224 + 1 x225 + 1 x226 + 1 x227 + 1 x228 + 1 x229 + 1 x230 + 1 x231 + 1 x232 + 1 x233 + 1 x234 + 1 x235 + 1 x236 + 1 x237 + 1 x238 + 1 x239 + 1 x240 + 1 x241 + 1 x242 + 1 x243 + 1 x244 + 1 x245 + 1 x246 + 1 x247 + 1 x248 + 1 x249 + 1 x250 + 1 x251 + 1 x252 + 1 x253 + 1 x254 + 1 x255 + 1 x256 + 1 x257 + 1 x258 + 1 x259 + 1 x260 + 1 x261 + 1 x262 + 1 x263 + 1 x264 + 1 x265 + 1 x266 + 1 x267 + 1 x268 + 1 x269 + 1 x270 + 1 x271 + 1 x272 + 1 x273 + 1 x274 + 1 x275 + 1 x276 + 1 x277 + 1 x278 + 1 x279 + 1 x280 + 1 x281 + 1 x282 + 1 x283 + 1 x284 + 1 x285 + 1 x286 + 1 x287 + 1 x288 + 1 x289 + 1 x290 + 1 x291 + 1 x292 + 1 x293 + 1 x294 + 1 x295 + 1 x296 + 1 x297 + 1 x298 + 1 x299 + 1 x300 + 1 x301 + 1 x302 + 1 x303 + 1 x304 + 1 x305 + 1 x306 + 1 x307 + 1 x308 + 1 x309 + 1 x310 + 1 x311 + 1 x312 + 1 x313 + 1 x314 + 1 x315 + 1 x316 + 1 x317 + 1 x318 + 1 x319 + 1 x320 + 1 x321 + 1 x322 + 1 x323 + 1 x324 + 1 x325 + 1 x326 + 1 x327 + 1 x328 + 1 x329 + 1 x330 + 1 x331 + 1 x332 + 1 x333 + 1 x334 + 1 x335 + 1 x336 + 1 x337 + 1 x338 + 1 x339 + 1 x340 + 1 x341 + 1 x342 + 1 x343 + 1 x344 + 1 x345 + 1 x346 + 1 x347 + 1 x348 + 1 x349 + 1 x350 + 1 x351 + 1 x352 + 1 x353 + 1 x354 + 1 x355 + 1 x356 + 1 x357 + 1 x358 + 1 x359 + 1 x360 + 1 x361 + 1 x362 + 1 x363 + 1 x364 + 1 x365 + 1 x366 + 1 x367 + 1 x368 + 1 x369 + 1 x370 + 1 x371 + 1 x372 + 1 x373 + 1 x374 + 1 x375 + 1 x376 + 1 x377 + 1 x378 + 1 x379 + 1 x380 + 1 x381 + 1 x382 + 1 x383 + 1 x384 + 1 x385 + 1 x386 + 1 x387 + 1 x388 + 1 x389 + 1 x390 + 1 x391 + 1 x392 + 1 x393 + 1 x394 + 1 x395 + 1 x396 + 1 x397 + 1 x398 + 1 x399 + 1 x400 + 1 x401 + 1 x402 + 1 x403 + 1 x404 + 1 x405 + 1 x406 + 1 x407 + 1 x408 + 1 x409 + 1 x410 + 1 x411 + 1 x412 + 1 x413 + 1 x414 + 1 x415 + 1 x416 + 1 x417 + 1 x418 + 1 x419 + 1 x420 + 1 x421 + 1 x422 + 1 x423 + 1 x424 + 1 x425 + 1 x426 + 1 x427 + 1 x428 + 1 x429 + 1 x430 + 1 x431 + 1 x432 + 1 x433 + 1 x434 + 1 x435 + 1 x436 + 1 x437 + 1 x438 + 1 x439 + 1 x440 + 1 x441 + 1 x442 + 1 x443 + 1 x444 + 1 x445 + 1 x446 + 1 x447 + 1 x448 + 1 x449 + 1 x450 + 1 x451 + 1 x452 + 1 x453 + 1 x454 + 1 x455 + 1 x456 + 1 x457 + 1 x458 + 1 x459 + 1 x460 + 1 x461 + 1 x462 + 1 x463 + 1 x464 + 1 x465 + 1 x466 + 1 x467 + 1 x468 + 1 x469 + 1 x470 + 1 x471 + 1 x472 + 1 x473 + 1 x474 + 1 x475 + 1 x476 + 1 x477 + 1 x478 + 1 x479 + 1 x480 + 1 x481 + 1 x482 + 1 x483 + 1 x484 + 1 x485 + 1 x486 + 1 x487 + 1 x488 + 1 x489 + 1 x490 + 1 x491 + 1 x492 + 1 x493 + 1 x494 + 1 x495 + 1 x496 + 1 x497 + 1 x498 + 1 x499 + 1 x500

subject to
C1: + x106 + x334 <= 1
C2: + x335 + x384 <= 1
C3: + x173 + x367 <= 1
C4: + x1 + x176 <= 1
C5: + x120 + x146 <= 1
C6: + x34 + x284 <= 1
C7: + x24 + x184 <= 1
C8: + x8 + x26 <= 1
C9: + x83 + x475 <= 1
C10: + x13 + x498 <= 1
C11: + x16 + x490 <= 1
C12: + x84 + x376 <= 1
C13: + x67 + x143 <= 1
C14: + x21 + x274 <= 1
C15: + x41 + x422 <= 1
C16: + x425 + x464 <= 1
C17: + x30 + x315 <= 1
C18: + x190 + x423 <= 1
C19: + x28 + x123 <= 1
C20: + x8 + x175 <= 1
C21: + x72 + x495 <= 1
C22: + x38 + x171 <= 1
C23: + x145 + x388 <= 1
C24: + x27 + x158 <= 1
C25: + x138 + x439 <= 1
C26: + x30 + x97 <= 1
C27: + x324 + x352 <= 1
C28: + x6 + x85 <= 1
C29: + x279 + x298 <= 1
C30: + x32 + x476 <= 1
C31: + x45 + x87 <= 1
C32: + x11 + x195 <= 1
C33: + x115 + x375 <= 1
C34: + x16 + x35 <= 1
C35: + x221 + x312 <= 1
C36: + x48 + x342 <= 1
C37: + x23 + x49 <= 1
C38: + x6 + x25 <= 1
C39: + x26 + x461 <= 1
C40: + x54 + x63 <= 1
C41: + x8 + x244 <= 1
C42: + x39 + x120 <= 1
C43: + x5 + x36 <= 1
C44: + x17 + x309 <= 1
C45: + x17 + x250 <= 1
C46: + x216 + x450 <= 1
C47: + x60 + x62 <= 1
C48: + x17 + x39 <= 1
C49: + x50 + x72 <= 1
C50: + x51 + x80 <= 1
C51: + x5 + x179 <= 1
C52: + x79 + x90 <= 1
C53: + x154 + x212 <= 1
C54: + x32 + x52 <= 1
C55: + x8 + x168 <= 1
C56: + x106 + x355 <= 1
C57: + x192 + x274 <= 1
C58: + x109 + x218 <= 1
C59: + x163 + x236 <= 1
C60: + x188 + x299 <= 1
C61: + x469 + x477 <= 1
C62: + x5 + x429 <= 1
C63: + x334 + x339 <= 1
C64: + x9 + x19 <= 1
C65: + x77 + x395 <= 1
C66: + x59 + x142 <= 1
C67: + x231 + x333 <= 1
C68: + x7 + x102 <= 1
C69: + x9 + x464 <= 1
C70: + x19 + x491 <= 1
C71: + x64 + x300 <= 1
C72: + x13 + x130 <= 1
C73: + x5 + x231 <= 1
C74: + x153 + x232 <= 1
C75: + x233 + x310 <= 1
C76: + x42 + x221 <= 1
C77: + x125 + x169 <= 1
C78: + x35 + x216 <= 1
C79: + x36 + x224 <= 1
C80: + x38 + x123 <= 1
C81: + x44 + x272 <= 1
C82: + x7 + x146 <= 1
C83: + x8 + x286 <= 1
C84: + x209 + x335 <= 1
C85: + x84 + x204 <= 1
C86: + x275 + x386 <= 1
C87: + x6 + x165 <= 1
C88: + x17 + x300 <= 1
C89: + x16 + x89 <= 1
C90: + x1 + x91 <= 1
C91: + x13 + x91 <= 1
C92: + x25 + x81 <= 1
C93: + x35 + x172 <= 1
C94: + x5 + x261 <= 1
C95: + x7 + x33 <= 1
C96: + x80 + x192 <= 1
C97: + x27 + x381 <= 1
C98: + x13 + x325 <= 1
C99: + x6 + x54 <= 1
C100: + x7 + x206 <= 1
C101: + x71 + x471 <= 1
C102: + x11 + x129 <= 1
C103: + x120 + x188 <= 1
C104: + x47 + x394 <= 1
C105: + x13 + x42 <= 1
C106: + x33 + x382 <= 1
C107: + x183 + x189 <= 1
C108: + x131 + x431 <= 1
C109: + x7 + x436 <= 1
C110: + x43 + x75 <= 1
C111: + x403 + x458 + x472 <= 1
C112: + x1 + x308 <= 1
C113: + x11 + x20 <= 1
C114: + x212 + x444 <= 1
C115: + x79 + x109 <= 1
C116: + x45 + x69 <= 1
C117: + x15 + x173 <= 1
C118: + x8 + x81 <= 1
C119: + x13 + x30 <= 1
C120: + x98 + x289 <= 1
C121: + x218 + x311 <= 1
C122: + x46 + x65 <= 1
C123: + x256 + x299 <= 1
C124: + x130 + x288 <= 1
C125: + x3 + x8 <= 1
C126: + x35 + x308 <= 1
C127: + x11 + x72 <= 1
C128: + x5 + x18 <= 1
C129: + x16 + x162 <= 1
C130: + x73 + x277 <= 1
C131: + x38 + x245 <= 1
C132: + x59 + x287 <= 1
C133: + x214 + x331 <= 1
C134: + x13 + x415 <= 1
C135: + x4 + x61 <= 1
C136: + x242 + x388 <= 1
C137: + x61 + x188 <= 1
C138: + x19 + x297 <= 1
C139: + x255 + x389 <= 1
C140: + x5 + x260 <= 1
C141: + x20 + x437 <= 1
C142: + x28 + x384 <= 1
C143: + x49 + x217 <= 1
C144: + x32 + x34 <= 1
C145: + x80 + x92 <= 1
C146: + x8 + x150 <= 1
C147: + x20 + x276 <= 1
C148: + x39 + x94 <= 1
C149: + x4 + x78 <= 1
C150: + x23 + x252 <= 1
C151: + x131 + x426 <= 1
C152: + x128 + x209 <= 1
C153: + x10 + x151 <= 1
C154: + x12 + x62 <= 1
C155: + x4 + x448 <= 1
C156: + x126 + x440 <= 1
C157: + x143 + x208 <= 1
C158: + x17 + x449 <= 1
C159: + x195 + x409 <= 1
C160: + x281 + x416 <= 1
C161: + x300 + x462 <= 1
C162: + x56 + x116 <= 1
C163: + x51 + x164 <= 1
C164: + x16 + x58 <= 1
C165: + x13 + x263 <= 1
C166: + x6 + x116 <= 1
C167: + x145 + x194 <= 1
C168: + x4 + x135 <= 1
C169: + x11 + x292 <= 1
C170: + x128 + x329 <= 1
C171: + x147 + x365 <= 1
C172: + x8 + x417 <= 1
C173: + x5 + x176 <= 1
C174: + x362 + x425 <= 1
C175: + x7 + x192 <= 1
C176: + x192 + x269 <= 1
C177: + x30 + x162 <= 1
C178: + x21 + x139 <= 1
C179: + x95 + x317 <= 1
C180: + x77 + x119 + x364 <= 1
C181: + x49 + x175 <= 1
C182: + x59 + x167 <= 1
C183: + x7 + x79 <= 1
C184: + x335 + x407 <= 1
C185: + x69 + x327 <= 1
C186: + x198 + x300 <= 1
C187: + x73 + x130 <= 1
C188: + x9 + x322 <= 1
C189: + x1 + x20 <= 1
C190: + x337 + x362 <= 1
C191: + x20 + x229 <= 1
C192: + x49 + x62 <= 1
C193: + x4 + x127 <= 1
C194: + x44 + x216 <= 1
C195: + x17 + x87 <= 1
C196: + x28 + x306 <= 1
C197: + x145 + x412 <= 1
C198: + x71 + x187 <= 1
C199: + x181 + x485 <= 1
C200: + x232 + x292 <= 1
C201: + x217 + x404 <= 1
C202: + x24 + x294 <= 1
C203: + x108 + x293 <= 1
C204: + x8 + x123 <= 1
C205: + x75 + x491 <= 1
C206: + x306 + x415 <= 1
C207: + x163 + x482 <= 1
C208: + x7 + x22 <= 1
C209: + x120 + x437 <= 1
C210: + x230 + x282 <= 1
C211: + x122 + x385 <= 1
C212: + x97 + x358 <= 1
C213: + x7 + x183 <= 1
C214: + x16 + x362 <= 1
C215: + x169 + x251 <= 1
C216: + x15 + x332 <= 1
C217: + x16 + x124 <= 1
C218: + x88 + x485 <= 1
C219: + x39 + x169 <= 1
C220: + x22 + x284 <= 1
C221: + x53 + x227 <= 1
C222: + x10 + x484 <= 1
C223: + x11 + x13 <= 1
C224: + x27 + x108 <= 1
C225: + x10 + x18 <= 1
C226: + x41 + x82 <= 1
C227: + x27 + x141 <= 1
C228: + x66 + x128 <= 1
C229: + x150 + x283 <= 1
C230: + x63 + x111 <= 1
C231: + x1 + x154 <= 1
C232: + x28 + x470 <= 1
C233: + x156 + x208 <= 1
C234: + x77 + x141 <= 1
C235: + x13 + x154 <= 1
C236: + x53 + x460 <= 1
C237: + x317 + x342 <= 1
C238: + x36 + x73 <= 1
C239: + x174 + x189 <= 1
C240: + x17 + x122 <= 1
C241: + x7 + x13 <= 1
C242: + x20 + x460 <= 1
C243: + x204 + x423 <= 1
C244: + x267 + x426 <= 1
C245: + x6 + x42 <= 1
C246: + x8 + x310 <= 1
C247: + x110 + x376 <= 1
C248: + x347 + x495 <= 1
C249: + x69 + x294 <= 1
C250: + x4 + x161 <= 1
C251: + x42 + x419 <= 1
C252: + x35 + x63 <= 1
C253: + x127 + x248 <= 1
C254: + x138 + x477 <= 1
C255: + x239 + x455 <= 1
C256: + x39 + x373 <= 1
C257: + x25 + x121 <= 1
C258: + x61 + x149 <= 1
C259: + x1 + x288 <= 1
C260: + x55 + x71 <= 1
C261: + x202 + x435 <= 1
C262: + x3 + x121 <= 1
C263: + x221 + x379 <= 1
C264: + x19 + x458 <= 1
C265: + x23 + x128 <= 1
C266: + x9 + x98 <= 1
C267: + x28 + x272 <= 1
C268: + x138 + x393 <= 1
C269: + x8 + x476 <= 1
C270: + x12 + x29 <= 1
C271: + x48 + x384 <= 1
C272: + x232 + x243 <= 1
C273: + x16 + x21 <= 1
C274: + x41 + x246 <= 1
C275: + x4 + x351 <= 1
C276: + x83 + x190 <= 1
C277: + x101 + x280 <= 1
C278: + x147 + x148 <= 1
C279: + x75 + x188 <= 1
C280: + x57 + x366 <= 1
C281: + x64 + x313 <= 1
C282: + x282 + x412 <= 1
C283: + x51 + x403 <= 1
C284: + x77 + x489 <= 1
C285: + x26 + x44 <= 1
C286: + x7 + x8 <= 1
C287: + x24 + x70 <= 1
C288: + x256 + x307 <= 1
C289: + x58 + x288 <= 1
C290: + x156 + x271 <= 1
C291: + x85 + x86 <= 1
C292: + x5 + x133 <= 1
C293: + x17 + x414 <= 1
C294: + x127 + x457 <= 1
C295: + x146 + x245 <= 1
C296: + x23 + x136 <= 1
C297: + x189 + x252 <= 1
C298: + x1 + x74 <= 1
C299: + x333 + x452 <= 1
C300: + x7 + x52 <= 1
C301: + x11 + x486 <= 1
C302: + x93 + x133 <= 1
C303: + x366 + x483 <= 1
C304: + x50 + x74 <= 1
C305: + x180 + x337 <= 1
C306: + x7 + x221 <= 1
C307: + x27 + x126 <= 1
C308: + x46 + x379 <= 1
C309: + x250 + x314 <= 1
C310: + x13 + x57 <= 1
C311: + x8 + x465 <= 1
C312: + x123 + x139 <= 1
C313: + x131 + x355 <= 1
C314: + x114 + x411 <= 1
C315: + x35 + x367 <= 1
C316: + x6 + x88 <= 1
C317: + x81 + x153 <= 1
C318: + x135 + x390 <= 1
C319: + x2 + x32 <= 1
C320: + x113 + x370 <= 1
C321: + x49 + x434 <= 1
C322: + x286 + x445 <= 1
C323: + x1 + x53 <= 1
C324: + x111 + x212 <= 1
C325: + x141 + x493 <= 1
C326: + x317 + x457 <= 1
C327: + x56 + x143 <= 1
C328: + x248 + x335 <= 1
C329: + x81 + x213 <= 1
C330: + x163 + x368 <= 1
C331: + x237 + x376 <= 1
C332: + x382 + x389 <= 1
C333: + x158 + x262 <= 1
C334: + x112 + x240 <= 1
C335: + x294 + x446 <= 1
C336: + x5 + x33 <= 1
C337: + x81 + x114 <= 1
C338: + x24 + x180 <= 1
C339: + x121 + x222 <= 1
C340: + x23 + x429 <= 1
C341: + x2 + x402 <= 1
C342: + x3 + x75 <= 1
C343: + x22 + x394 <= 1
C344: + x24 + x374 <= 1
C345: + x9 + x179 <= 1
C346: + x28 + x127 <= 1
C347: + x7 + x281 <= 1
C348: + x185 + x322 <= 1
C349: + x5 + x85 <= 1
C350: + x170 + x359 <= 1
C351: + x150 + x467 <= 1
C352: + x9 + x112 <= 1
C353: + x16 + x27 <= 1
C354: + x233 + x420 <= 1
C355: + x59 + x342 <= 1
C356: + x39 + x339 <= 1
C357: + x35 + x362 <= 1
C358: + x199 + x295 <= 1
C359: + x67 + x95 <= 1
C360: + x4 + x236 <= 1
C361: + x57 + x473 <= 1
C362: + x56 + x97 <= 1
C363: + x20 + x205 <= 1
C364: + x97 + x421 <= 1
C365: + x18 + x113 <= 1
C366: + x145 + x436 <= 1
C367: + x49 + x243 <= 1
C368: + x275 + x354 <= 1
C369: + x137 + x259 <= 1
C370: + x282 + x434 <= 1
C371: + x19 + x109 <= 1
C372: + x55 + x494 <= 1
C373: + x26 + x167 <= 1
C374: + x16 + x96 <= 1
C375: + x9 + x43 <= 1
C376: + x13 + x96 <= 1
C377: + x13 + x485 <= 1
C378: + x88 + x368 <= 1
C379: + x7 + x46 <= 1
C380: + x49 + x372 <= 1
C381: + x13 + x47 <= 1
C382: + x9 + x23 <= 1
C383: + x8 + x455 <= 1
C384: + x47 + x232 <= 1
C385: + x305 + x451 <= 1
C386: + x30 + x417 <= 1
C387: + x392 + x473 <= 1
C388: + x112 + x459 <= 1
C389: + x4 + x438 <= 1
C390: + x150 + x319 <= 1
C391: + x26 + x398 <= 1
C392: + x46 + x51 <= 1
C393: + x11 + x21 <= 1
C394: + x211 + x445 <= 1
C395: + x10 + x250 <= 1
C396: + x12 + x145 <= 1
C397: + x4 + x16 <= 1
C398: + x23 + x355 <= 1
C399: + x16 + x56 <= 1
C400: + x1 + x432 <= 1
C401: + x135 + x190 <= 1
C402: + x3 + x9 <= 1
C403: + x85 + x99 <= 1
C404: + x139 + x177 <= 1
C405: + x104 + x334 <= 1
C406: + x48 + x351 <= 1
C407: + x11 + x89 <= 1
C408: + x181 + x230 <= 1
C409: + x7 + x380 <= 1
C410: + x8 + x12 <= 1
C411: + x59 + x276 <= 1
C412: + x4 + x60 <= 1
C413: + x115 + x290 <= 1
C414: + x12 + x77 <= 1
C415: + x24 + x37 <= 1
C416: + x50 + x335 <= 1
C417: + x182 + x309 <= 1
C418: + x111 + x395 <= 1
C419: + x86 + x161 <= 1
C420: + x167 + x263 <= 1
C421: + x150 + x215 <= 1
C422: + x82 + x129 <= 1
C423: + x129 + x435 <= 1
C424: + x12 + x222 <= 1
C425: + x13 + x38 <= 1
C426: + x161 + x167 <= 1
C427: + x8 + x64 <= 1
C428: + x21 + x102 <= 1
C429: + x40 + x343 <= 1
C430: + x4 + x443 <= 1
C431: + x60 + x354 <= 1
C432: + x23 + x88 <= 1
C433: + x99 + x157 <= 1
C434: + x153 + x243 <= 1
C435: + x8 + x77 <= 1
C436: + x1 + x26 <= 1
C437: + x286 + x299 <= 1
C438: + x4 + x117 <= 1
C439: + x24 + x106 <= 1
C440: + x65 + x103 <= 1
C441: + x94 + x408 <= 1
C442: + x212 + x301 <= 1
C443: + x4 + x359 <= 1
C444: + x13 + x268 <= 1
C445: + x255 + x314 <= 1
C446: + x283 + x308 <= 1
C447: + x104 + x170 <= 1
C448: + x5 + x30 <= 1
C449: + x16 + x174 <= 1
C450: + x19 + x132 <= 1
C451: + x165 + x359 <= 1
C452: + x94 + x265 <= 1
C453: + x214 + x343 <= 1
C454: + x5 + x272 <= 1
C455: + x107 + x111 <= 1
C456: + x16 + x211 <= 1
C457: + x10 + x64 <= 1
C458: + x55 + x268 <= 1
C459: + x280 + x418 <= 1
C460: + x39 + x82 <= 1
C461: + x4 + x178 <= 1
C462: + x97 + x201 <= 1
C463: + x232 + x286 <= 1
C464: + x239 + x306 <= 1
C465: + x198 + x396 <= 1
C466: + x54 + x66 <= 1
C467: + x8 + x348 <= 1
C468: + x4 + x223 <= 1
C469: + x14 + x60 <= 1
C470: + x62 + x461 <= 1
C471: + x18 + x185 <= 1
C472: + x5 + x118 <= 1
C473: + x296 + x477 <= 1
C474: + x2 + x290 <= 1
C475: + x38 + x105 <= 1
C476: + x56 + x346 <= 1
C477: + x12 + x433 <= 1
C478: + x70 + x229 <= 1
C479: + x163 + x372 <= 1
C480: + x283 + x315 <= 1
C481: + x2 + x56 <= 1
C482: + x105 + x311 <= 1
C483: + x288 + x465 <= 1
C484: + x17 + x227 <= 1
C485: + x254 + x321 <= 1
C486: + x148 + x304 <= 1
C487: + x42 + x255 <= 1
C488: + x6 + x385 <= 1
C489: + x16 + x458 <= 1
C490: + x20 + x450 <= 1
C491: + x5 + x172 <= 1
C492: + x206 + x385 <= 1
C493: + x100 + x345 <= 1
C494: + x148 + x157 <= 1
C495: + x29 + x306 <= 1
C496: + x25 + x210 <= 1
C497: + x8 + x46 <= 1
C498: + x1 + x121 <= 1
C499: + x3 + x405 <= 1
C500: + x7 + x67 <= 1
C501: + x92 + x325 <= 1
C502: + x247 + x265 <= 1
C503: + x51 + x425 <= 1
C504: + x337 + x366 <= 1
C505: + x45 + x55 <= 1
C506: + x280 + x371 <= 1
C507: + x16 + x240 <= 1
C508: + x19 + x194 <= 1
C509: + x111 + x247 <= 1
C510: + x113 + x242 <= 1
C511: + x4 + x99 <= 1
C512: + x5 + x125 <= 1
C513: + x25 + x297 <= 1
C514: + x44 + x204 <= 1
C515: + x1 + x437 <= 1
C516: + x96 + x393 <= 1
C517: + x194 + x401 <= 1
C518: + x61 + x215 <= 1
C519: + x88 + x131 <= 1
C520: + x9 + x469 <= 1
C521: + x13 + x159 <= 1
C522: + x4 + x244 <= 1
C523: + x25 + x344 <= 1
C524: + x6 + x156 <= 1
C525: + x45 + x107 <= 1
C526: + x1 + x36 <= 1
C527: + x74 + x409 <= 1
C528: + x57 + x449 <= 1
C529: + x276 + x364 <= 1
C530: + x137 + x412 <= 1
C531: + x4 + x257 <= 1
C532: + x5 + x147 <= 1
C533: + x6 + x45 <= 1
C534: + x207 + x314 <= 1
C535: + x8 + x136 <= 1
C536: + x165 + x252 <= 1
C537: + x3 + x203 <= 1
C538: + x39 + x68 <= 1
C539: + x132 + x320 <= 1
C540: + x77 + x326 <= 1
C541: + x34 + x180 <= 1
C542: + x310 + x492 <= 1
C543: + x149 + x499 <= 1
C544: + x17 + x51 <= 1
C545: + x129 + x311 <= 1
C546: + x258 + x484 <= 1
C547: + x18 + x360 <= 1
C548: + x67 + x479 <= 1
C549: + x158 + x331 <= 1
C550: + x81 + x258 <= 1
C551: + x8 + x479 <= 1
C552: + x256 + x462 <= 1
C553: + x12 + x28 <= 1
C554: + x305 + x475 <= 1
C555: + x32 + x469 <= 1
C556: + x198 + x418 <= 1
C557: + x163 + x390 <= 1
C558: + x5 + x11 <= 1
C559: + x180 + x202 <= 1
C560: + x7 + x360 <= 1
C561: + x182 + x246 <= 1
C562: + x10 + x194 <= 1
C563: + x137 + x387 <= 1
C564: + x21 + x54 <= 1
C565: + x4 + x24 <= 1
C566: + x336 + x459 <= 1
C567: + x46 + x92 <= 1
C568: + x250 + x475 <= 1
C569: + x56 + x356 <= 1
C570: + x53 + x327 <= 1
C571: + x6 + x22 <= 1
C572: + x24 + x432 <= 1
C573: + x5 + x63 <= 1
C574: + x16 + x77 <= 1
C575: + x213 + x314 <= 1
C576: + x41 + x259 <= 1
C577: + x53 + x246 <= 1
C578: + x388 + x417 <= 1
C579: + x228 + x235 <= 1
C580: + x10 + x489 <= 1
C581: + x429 + x487 <= 1
C582: + x86 + x137 <= 1
C583: + x27 + x127 <= 1
C584: + x8 + x177 <= 1
C585: + x18 + x164 <= 1
C586: + x5 + x99 <= 1
C587: + x14 + x341 <= 1
C588: + x90 + x292 <= 1
C589: + x23 + x258 <= 1
C590: + x82 + x399 <= 1
C591: + x50 + x275 <= 1
C592: + x39 + x293 <= 1
C593: + x232 + x239 <= 1
C594: + x279 + x280 <= 1
C595: + x7 + x105 <= 1
C596: + x62 + x158 <= 1
C597: + x143 + x241 <= 1
C598: + x11 + x104 <= 1
C599: + x203 + x497 <= 1
C600: + x104 + x206 <= 1
C601: + x53 + x479 <= 1
C602: + x8 + x101 <= 1
C603: + x39 + x227 <= 1
C604: + x332 + x444 <= 1
C605: + x207 + x239 <= 1
C606: + x16 + x37 <= 1
C607: + x94 + x123 <= 1
C608: + x58 + x215 <= 1
C609: + x51 + x98 <= 1
C610: + x8 + x303 <= 1
C611: + x54 + x496 <= 1
C612: + x155 + x239 <= 1
C613: + x8 + x246 <= 1
C614: + x96 + x101 <= 1
C615: + x1 + x78 <= 1
C616: + x41 + x181 <= 1
C617: + x351 + x402 <= 1
C618: + x23 + x426 <= 1
C619: + x11 + x59 <= 1
C620: + x3 + x80 <= 1
C621: + x48 + x404 <= 1
C622: + x1 + x6 + x8 + x17 <= 1
C623: + x61 + x269 <= 1
C624: + x8 + x170 <= 1
C625: + x174 + x247 <= 1
C626: + x3 + x273 <= 1
C627: + x277 + x301 <= 1
C628: + x278 + x411 <= 1
C629: + x5 + x423 <= 1
C630: + x317 + x497 <= 1
C631: + x10 + x355 <= 1
C632: + x86 + x472 <= 1
C633: + x12 + x477 <= 1
C634: + x5 + x348 <= 1
C635: + x1 + x295 <= 1
C636: + x26 + x291 <= 1
C637: + x1 + x9 <= 1
C638: + x8 + x94 <= 1
C639: + x33 + x57 + x419 <= 1
C640: + x4 + x6 <= 1
C641: + x51 + x363 <= 1
C642: + x25 + x191 <= 1
C643: + x17 + x108 <= 1
C644: + x108 + x427 <= 1
C645: + x139 + x370 <= 1
C646: + x41 + x354 <= 1
C647: + x359 + x413 <= 1
C648: + x5 + x144 <= 1
C649: + x293 + x308 <= 1
C650: + x221 + x470 <= 1
C651: + x5 + x45 <= 1
C652: + x23 + x147 <= 1
C653: + x180 + x228 <= 1
C654: + x1 + x69 <= 1
C655: + x30 + x37 <= 1
C656: + x205 + x285 <= 1
C657: + x5 + x287 <= 1
C658: + x17 + x40 <= 1
C659: + x7 + x47 <= 1
C660: + x16 + x277 <= 1
C661: + x85 + x130 <= 1
C662: + x77 + x295 <= 1
C663: + x26 + x238 <= 1
C664: + x19 + x327 <= 1
C665: + x2 + x263 <= 1
C666: + x20 + x100 <= 1
C667: + x22 + x263 <= 1
C668: + x4 + x433 <= 1
C669: + x173 + x298 <= 1
C670: + x110 + x299 <= 1
C671: + x402 + x498 <= 1
C672: + x438 + x468 <= 1
C673: + x1 + x16 <= 1
C674: + x115 + x166 <= 1
C675: + x31 + x323 <= 1
C676: + x32 + x337 <= 1
C677: + x18 + x117 <= 1
C678: + x2 + x467 <= 1
C679: + x13 + x274 <= 1
C680: + x324 + x372 <= 1
C681: + x79 + x150 <= 1
C682: + x176 + x240 <= 1
C683: + x207 + x439 <= 1
C684: + x26 + x171 <= 1
C685: + x14 + x193 <= 1
C686: + x8 + x15 <= 1
C687: + x297 + x347 <= 1
C688: + x180 + x233 <= 1
C689: + x88 + x389 <= 1
C690: + x20 + x157 <= 1
C691: + x150 + x375 <= 1
C692: + x17 + x31 <= 1
C693: + x151 + x365 <= 1
C694: + x7 + x34 <= 1
C695: + x28 + x378 <= 1
C696: + x11 + x45 <= 1
C697: + x56 + x259 <= 1
C698: + x122 + x493 <= 1
C699: + x69 + x174 <= 1
C700: + x5 + x187 <= 1
C701: + x279 + x330 <= 1
C702: + x1 + x203 <= 1
C703: + x110 + x222 <= 1
C704: + x192 + x282 <= 1
C705: + x108 + x365 <= 1
C706: + x36 + x156 <= 1
C707: + x183 + x351 <= 1
C708: + x49 + x178 <= 1
C709: + x349 + x448 <= 1
C710: + x13 + x469 <= 1
C711: + x81 + x139 <= 1
C712: + x16 + x387 <= 1
C713: + x46 + x47 <= 1
C714: + x138 + x259 <= 1
C715: + x30 + x352 <= 1
C716: + x34 + x466 <= 1
C717: + x5 + x239 <= 1
C718: + x163 + x267 <= 1
C719: + x163 + x184 <= 1
C720: + x1 + x7 <= 1
C721: + x111 + x226 <= 1
C722: + x236 + x449 <= 1
C723: + x36 + x470 <= 1
C724: + x24 + x323 <= 1
C725: + x245 + x286 <= 1
C726: + x34 + x232 <= 1
C727: + x17 + x90 <= 1
C728: + x162 + x427 <= 1
C729: + x93 + x493 <= 1
C730: + x230 + x254 <= 1
C731: + x3 + x5 <= 1
C732: + x61 + x198 <= 1
C733: + x73 + x228 <= 1
C734: + x2 + x58 <= 1
C735: + x48 + x58 <= 1
C736: + x40 + x109 <= 1
C737: + x5 + x19 <= 1
C738: + x60 + x313 <= 1
C739: + x36 + x85 <= 1
C740: + x95 + x428 <= 1
C741: + x24 + x33 <= 1
C742: + x139 + x344 <= 1
C743: + x192 + x420 <= 1
C744: + x77 + x248 <= 1
C745: + x13 + x381 <= 1
C746: + x87 + x224 <= 1
C747: + x24 + x392 <= 1
C748: + x17 + x435 <= 1
C749: + x28 + x65 <= 1
C750: + x98 + x365 <= 1
C751: + x396 + x478 <= 1
C752: + x107 + x499 <= 1
C753: + x181 + x459 <= 1
C754: + x128 + x439 <= 1
C755: + x102 + x400 <= 1
C756: + x165 + x397 <= 1
C757: + x19 + x478 <= 1
C758: + x272 + x489 <= 1
C759: + x45 + x61 <= 1
C760: + x1 + x30 <= 1
C761: + x65 + x478 <= 1
C762: + x21 + x209 <= 1
C763: + x4 + x121 <= 1
C764: + x25 + x148 <= 1
C765: + x5 + x456 <= 1
C766: + x7 + x488 <= 1
C767: + x3 + x32 <= 1
C768: + x72 + x83 <= 1
C769: + x19 + x91 <= 1
C770: + x356 + x393 <= 1
C771: + x122 + x270 <= 1
C772: + x35 + x90 <= 1
C773: + x64 + x100 <= 1
C774: + x107 + x458 <= 1
C775: + x73 + x122 <= 1
C776: + x248 + x358 <= 1
C777: + x6 + x39 <= 1
C778: + x36 + x43 <= 1
C779: + x16 + x223 <= 1
C780: + x4 + x182 <= 1
C781: + x64 + x88 <= 1
C782: + x239 + x310 <= 1
C783: + x48 + x234 <= 1
C784: + x332 + x464 <= 1
C785: + x306 + x337 <= 1
C786: + x161 + x452 <= 1
C787: + x100 + x421 <= 1
C788: + x144 + x208 <= 1
C789: + x138 + x200 <= 1
C790: + x141 + x304 <= 1
C791: + x61 + x357 <= 1
C792: + x45 + x60 <= 1
C793: + x128 + x170 <= 1
C794: + x28 + x150 <= 1
C795: + x56 + x76 <= 1
C796: + x65 + x469 <= 1
C797: + x25 + x56 <= 1
C798: + x168 + x331 <= 1
C799: + x8 + x268 <= 1
C800: + x35 + x81 <= 1
C801: + x8 + x118 <= 1
C802: + x240 + x483 <= 1
C803: + x34 + x206 <= 1
C804: + x5 + x499 <= 1
C805: + x44 + x131 <= 1
C806: + x335 + x467 <= 1
C807: + x230 + x281 <= 1
C808: + x251 + x297 <= 1
C809: + x110 + x382 <= 1
C810: + x232 + x279 <= 1
C811: + x134 + x361 <= 1
C812: + x389 + x428 <= 1
C813: + x59 + x175 <= 1
C814: + x398 + x420 <= 1
C815: + x11 + x14 <= 1
C816: + x156 + x179 <= 1
C817: + x47 + x275 <= 1
C818: + x87 + x166 <= 1
C819: + x137 + x340 <= 1
C820: + x48 + x104 <= 1
C821: + x4 + x103 <= 1
C822: + x34 + x139 <= 1
C823: + x17 + x79 <= 1
C824: + x249 + x278 <= 1
C825: + x11 + x324 <= 1
C826: + x20 + x76 <= 1
C827: + x367 + x375 <= 1
C828: + x315 + x345 <= 1
C829: + x199 + x307 <= 1
C830: + x22 + x66 <= 1
C831: + x13 + x155 <= 1
C832: + x79 + x456 <= 1
C833: + x27 + x61 <= 1
C834: + x272 + x290 <= 1
C835: + x297 + x468 <= 1
C836: + x341 + x349 <= 1
C837: + x26 + x34 <= 1
C838: + x67 + x230 <= 1
C839: + x17 + x424 <= 1
C840: + x291 + x305 <= 1
C841: + x292 + x419 <= 1
C842: + x194 + x324 <= 1
C843: + x12 + x197 <= 1
C844: + x13 + x207 <= 1
C845: + x221 + x453 <= 1
C846: + x16 + x68 <= 1
C847: + x71 + x349 <= 1
C848: + x115 + x315 <= 1
C849: + x147 + x276 <= 1
C850: + x4 + x305 <= 1
C851: + x146 + x370 <= 1
C852: + x5 + x104 <= 1
C853: + x16 + x24 <= 1
C854: + x48 + x196 <= 1
C855: + x159 + x280 <= 1
C856: + x209 + x291 <= 1
C857: + x7 + x118 <= 1
C858: + x1 + x301 <= 1
C859: + x137 + x149 <= 1
C860: + x2 + x6 <= 1
C861: + x207 + x377 <= 1
C862: + x1 + x63 <= 1
C863: + x286 + x326 <= 1
C864: + x5 + x481 <= 1
C865: + x17 + x114 <= 1
C866: + x73 + x111 <= 1
C867: + x8 + x399 <= 1
C868: + x247 + x323 <= 1
C869: + x203 + x325 <= 1
C870: + x96 + x197 <= 1
C871: + x26 + x454 <= 1
C872: + x71 + x98 <= 1
C873: + x18 + x289 <= 1
C874: + x216 + x463 <= 1
C875: + x81 + x124 <= 1
C876: + x6 + x181 <= 1
C877: + x20 + x142 <= 1
C878: + x293 + x409 <= 1
C879: + x92 + x343 <= 1
C880: + x32 + x73 <= 1
C881: + x23 + x120 <= 1
C882: + x6 + x198 <= 1
C883: + x73 + x333 <= 1
C884: + x144 + x309 <= 1
C885: + x146 + x363 <= 1
C886: + x305 + x361 <= 1
C887: + x215 + x401 <= 1
C888: + x45 + x198 <= 1
C889: + x65 + x71 <= 1
C890: + x28 + x264 <= 1
C891: + x7 + x452 <= 1
C892: + x54 + x202 <= 1
C893: + x147 + x414 <= 1
C894: + x109 + x427 <= 1
C895: + x8 + x375 <= 1
C896: + x51 + x395 <= 1
C897: + x23 + x68 <= 1
C898: + x5 + x254 <= 1
C899: + x192 + x211 <= 1
C900: + x5 + x496 <= 1
C901: + x334 + x400 <= 1
C902: + x152 + x393 <= 1
C903: + x19 + x261 <= 1
C904: + x20 + x38 <= 1
C905: + x192 + x461 <= 1
C906: + x21 + x459 <= 1
C907: + x23 + x51 <= 1
C908: + x9 + x307 <= 1
C909: + x19 + x426 <= 1
C910: + x103 + x237 <= 1
C911: + x203 + x417 <= 1
C912: + x215 + x480 <= 1
C913: + x170 + x231 <= 1
C914: + x8 + x21 <= 1
C915: + x78 + x110 <= 1
C916: + x25 + x72 <= 1
C917: + x5 + x276 <= 1
C918: + x31 + x257 <= 1
C919: + x82 + x345 <= 1
C920: + x152 + x367 <= 1
C921: + x175 + x182 <= 1
C922: + x14 + x191 <= 1
C923: + x16 + x102 <= 1
C924: + x28 + x285 <= 1
C925: + x121 + x171 <= 1
C926: + x138 + x442 <= 1
C927: + x4 + x235 <= 1
C928: + x5 + x229 <= 1
C929: + x224 + x294 <= 1
C930: + x17 + x195 <= 1
C931: + x9 + x256 <= 1
C932: + x11 + x208 <= 1
C933: + x4 + x10 <= 1
C934: + x60 + x101 <= 1
C935: + x20 + x43 <= 1
C936: + x38 + x125 <= 1
C937: + x56 + x135 <= 1
C938: + x38 + x440 <= 1
C939: + x36 + x441 <= 1
C940: + x8 + x292 <= 1
C941: + x137 + x260 <= 1
C942: + x301 + x373 <= 1
C943: + x94 + x147 <= 1
C944: + x114 + x170 <= 1
C945: + x4 + x151 <= 1
C946: + x5 + x41 <= 1
C947: + x16 + x95 <= 1
C948: + x1 + x89 <= 1
C949: + x8 + x14 <= 1
C950: + x194 + x242 <= 1
C951: + x4 + x54 <= 1
C952: + x5 + x283 <= 1
C953: + x150 + x362 <= 1
C954: + x13 + x486 <= 1
C955: + x35 + x174 <= 1
C956: + x31 + x268 <= 1
C957: + x17 + x441 <= 1
C958: + x8 + x163 <= 1
C959: + x13 + x48 <= 1
C960: + x162 + x346 <= 1
C961: + x59 + x350 <= 1
C962: + x149 + x480 <= 1
C963: + x97 + x462 <= 1
C964: + x54 + x127 <= 1
C965: + x158 + x195 <= 1
C966: + x40 + x64 <= 1
C967: + x23 + x94 <= 1
C968: + x206 + x457 <= 1
C969: + x10 + x249 <= 1
C970: + x78 + x481 <= 1
C971: + x341 + x369 <= 1
C972: + x207 + x253 <= 1
C973: + x20 + x52 <= 1
C974: + x3 + x10 <= 1
C975: + x4 + x353 <= 1
C976: + x6 + x13 <= 1
C977: + x81 + x196 <= 1
C978: + x45 + x397 <= 1
C979: + x75 + x154 <= 1
C980: + x194 + x304 <= 1
C981: + x303 + x380 <= 1
C982: + x35 + x68 <= 1
C983: + x9 + x211 <= 1
C984: + x237 + x396 <= 1
C985: + x8 + x11 <= 1
C986: + x7 + x377 <= 1
C987: + x68 + x296 <= 1
C988: + x4 + x59 <= 1
C989: + x5 + x258 <= 1
C990: + x81 + x339 <= 1
C991: + x70 + x131 <= 1
C992: + x10 + x264 <= 1
C993: + x221 + x352 <= 1
C994: + x18 + x328 <= 1
C995: + x154 + x224 <= 1
C996: + x164 + x248 <= 1
C997: + x102 + x205 <= 1
C998: + x72 + x383 <= 1
C999: + x66 + x84 <= 1
C1000: + x75 + x431 <= 1
C1001: + x233 + x403 <= 1
C1002: + x61 + x142 <= 1
C1003: + x279 + x317 <= 1
C1004: + x189 + x443 <= 1
C1005: + x40 + x53 <= 1
C1006: + x33 + x482 <= 1
C1007: + x126 + x285 <= 1
C1008: + x9 + x345 <= 1
C1009: + x7 + x328 <= 1
C1010: + x21 + x214 <= 1
C1011: + x13 + x27 <= 1
C1012: + x60 + x115 <= 1
C1013: + x36 + x204 <= 1
C1014: + x138 + x408 <= 1
C1015: + x98 + x391 <= 1
C1016: + x65 + x330 <= 1
C1017: + x194 + x289 <= 1
C1018: + x106 + x199 <= 1
C1019: + x16 + x173 <= 1
C1020: + x1 + x87 <= 1
C1021: + x19 + x129 <= 1
C1022: + x290 + x451 <= 1
C1023: + x12 + x69 <= 1
C1024: + x25 + x93 <= 1
C1025: + x14 + x484 <= 1
C1026: + x7 + x29 <= 1
C1027: + x9 + x11 + x25 <= 1
C1028: + x49 + x222 <= 1
C1029: + x4 + x5 + x7 + x12 <= 1
C1030: + x36 + x42 <= 1
C1031: + x272 + x328 <= 1
C1032: + x122 + x341 <= 1
C1033: + x51 + x480 <= 1
C1034: + x188 + x320 <= 1
C1035: + x315 + x430 <= 1
C1036: + x90 + x260 <= 1
C1037: + x1 + x99 <= 1
C1038: + x42 + x161 <= 1
C1039: + x88 + x177 <= 1
C1040: + x138 + x272 <= 1
C1041: + x177 + x193 <= 1
C1042: + x13 + x18 <= 1
C1043: + x34 + x330 <= 1
C1044: + x452 + x500 <= 1
C1045: + x4 + x125 <= 1
C1046: + x42 + x383 <= 1
C1047: + x20 + x66 <= 1
C1048: + x130 + x223 <= 1
C1049: + x186 + x298 <= 1
C1050: + x359 + x390 <= 1
C1051: + x252 + x350 <= 1
C1052: + x63 + x98 <= 1
C1053: + x1 + x129 <= 1
C1054: + x273 + x465 <= 1
C1055: + x20 + x340 <= 1
C1056: + x5 + x6 <= 1
C1057: + x65 + x494 <= 1
C1058: + x13 + x70 <= 1
C1059: + x151 + x371 <= 1
C1060: + x71 + x216 <= 1
C1061: + x266 + x339 <= 1
C1062: + x3 + x48 <= 1
C1063: + x38 + x407 <= 1
C1064: + x109 + x196 <= 1
C1065: + x16 + x219 <= 1
C1066: + x174 + x215 <= 1
C1067: + x21 + x152 <= 1
C1068: + x286 + x488 <= 1
C1069: + x371 + x420 <= 1
C1070: + x7 + x423 <= 1
C1071: + x16 + x122 <= 1
C1072: + x84 + x392 <= 1
C1073: + x1 + x122 <= 1
C1074: + x143 + x220 <= 1
C1075: + x284 + x357 <= 1
C1076: + x108 + x153 <= 1
C1077: + x1 + x233 <= 1
C1078: + x240 + x283 <= 1
C1079: + x215 + x388 <= 1
C1080: + x170 + x270 <= 1
C1081: + x96 + x396 <= 1
C1082: + x71 + x275 <= 1
C1083: + x4 + x344 <= 1
C1084: + x5 + x368 <= 1
C1085: + x54 + x457 <= 1
C1086: + x66 + x336 <= 1
C1087: + x103 + x132 <= 1
C1088: + x70 + x400 <= 1
C1089: + x298 + x466 <= 1
C1090: + x13 + x125 <= 1
C1091: + x60 + x93 <= 1
C1092: + x14 + x278 <= 1
C1093: + x7 + x15 <= 1
C1094: + x56 + x191 <= 1
C1095: + x336 + x356 <= 1
C1096: + x110 + x197 <= 1
C1097: + x201 + x428 <= 1
C1098: + x5 + x49 <= 1
C1099: + x99 + x353 <= 1
C1100: + x251 + x424 <= 1
C1101: + x150 + x338 <= 1
C1102: + x344 + x398 <= 1
C1103: + x155 + x162 <= 1
C1104: + x12 + x192 <= 1
C1105: + x5 + x434 <= 1
C1106: + x71 + x278 <= 1
C1107: + x65 + x77 <= 1
C1108: + x50 + x164 <= 1
C1109: + x406 + x465 <= 1
C1110: + x7 + x119 <= 1
C1111: + x1 + x159 <= 1
C1112: + x9 + x207 <= 1
C1113: + x1 + x60 <= 1
C1114: + x161 + x282 <= 1
C1115: + x107 + x296 <= 1
C1116: + x134 + x205 <= 1
C1117: + x34 + x46 + x126 <= 1
C1118: + x67 + x226 <= 1
C1119: + x1 + x358 <= 1
C1120: + x2 + x221 <= 1
C1121: + x5 + x64 <= 1
C1122: + x9 + x59 <= 1
C1123: + x28 + x247 <= 1
C1124: + x38 + x223 <= 1
C1125: + x12 + x40 <= 1
C1126: + x65 + x213 <= 1
C1127: + x278 + x318 <= 1
C1128: + x269 + x487 <= 1
C1129: + x9 + x138 <= 1
C1130: + x8 + x180 <= 1
C1131: + x100 + x201 <= 1
C1132: + x18 + x163 <= 1
C1133: + x16 + x253 <= 1
C1134: + x4 + x84 <= 1
C1135: + x34 + x136 <= 1
C1136: + x202 + x244 <= 1
C1137: + x159 + x284 <= 1
C1138: + x90 + x126 <= 1
C1139: + x64 + x296 <= 1
C1140: + x148 + x231 <= 1
C1141: + x13 + x142 <= 1
C1142: + x38 + x148 <= 1
C1143: + x4 + x32 <= 1
C1144: + x97 + x103 <= 1
C1145: + x127 + x145 <= 1
C1146: + x157 + x398 <= 1
C1147: + x96 + x193 <= 1
C1148: + x7 + x166 <= 1
C1149: + x65 + x354 <= 1
C1150: + x22 + x27 <= 1
C1151: + x5 + x39 <= 1
C1152: + x246 + x450 <= 1
C1153: + x1 + x79 <= 1
C1154: + x19 + x20 + x107 <= 1
C1155: + x68 + x140 <= 1
C1156: + x34 + x48 <= 1
C1157: + x25 + x69 <= 1
C1158: + x16 + x492 <= 1
C1159: + x7 + x53 <= 1
C1160: + x367 + x406 <= 1
C1161: + x60 + x134 <= 1
C1162: + x24 + x380 <= 1
C1163: + x145 + x148 <= 1
C1164: + x19 + x44 <= 1
C1165: + x1 + x254 <= 1
C1166: + x57 + x395 <= 1
C1167: + x253 + x261 <= 1
C1168: + x117 + x173 <= 1
C1169: + x56 + x242 <= 1
C1170: + x41 + x226 <= 1
C1171: + x204 + x288 <= 1
C1172: + x4 + x331 <= 1
C1173: + x13 + x296 <= 1
C1174: + x88 + x169 <= 1
C1175: + x127 + x265 <= 1
C1176: + x84 + x326 <= 1
C1177: + x11 + x112 <= 1
C1178: + x140 + x187 <= 1
C1179: + x22 + x96 <= 1
C1180: + x109 + x145 <= 1
C1181: + x1 + x10 <= 1
C1182: + x28 + x137 <= 1
C1183: + x210 + x347 <= 1
C1184: + x306 + x389 <= 1
C1185: + x26 + x56 <= 1
C1186: + x10 + x302 <= 1
C1187: + x38 + x128 <= 1
C1188: + x47 + x352 <= 1
C1189: + x403 + x429 <= 1
C1190: + x8 + x238 <= 1
C1191: + x106 + x216 <= 1
C1192: + x5 + x46 <= 1
C1193: + x6 + x186 <= 1
C1194: + x161 + x210 <= 1
C1195: + x16 + x94 <= 1
C1196: + x319 + x366 <= 1
C1197: + x11 + x490 <= 1
C1198: + x13 + x336 <= 1
C1199: + x5 + x189 <= 1
C1200: + x108 + x133 <= 1
C1201: + x36 + x55 <= 1
C1202: + x121 + x338 <= 1
C1203: + x273 + x421 <= 1
C1204: + x183 + x188 <= 1
C1205: + x2 + x262 <= 1
C1206: + x52 + x151 <= 1
C1207: + x24 + x244 <= 1
C1208: + x100 + x163 <= 1
C1209: + x93 + x114 <= 1
C1210: + x276 + x391 <= 1
C1211: + x26 + x57 <= 1
C1212: + x3 + x11 <= 1
C1213: + x6 + x16 <= 1
C1214: + x16 + x329 <= 1
C1215: + x58 + x67 <= 1
C1216: + x113 + x346 <= 1
C1217: + x205 + x440 <= 1
C1218: + x285 + x475 <= 1
C1219: + x99 + x220 <= 1
C1220: + x17 + x302 <= 1
C1221: + x8 + x10 <= 1
C1222: + x106 + x124 <= 1
C1223: + x4 + x58 <= 1
C1224: + x4 + x397 <= 1
C1225: + x135 + x236 <= 1
C1226: + x183 + x429 <= 1
C1227: + x366 + x464 <= 1
C1228: + x163 + x312 <= 1
C1229: + x290 + x422 <= 1
C1230: + x8 + x159 <= 1
C1231: + x63 + x498 <= 1
C1232: + x45 + x184 <= 1
C1233: + x317 + x392 <= 1
C1234: + x21 + x401 <= 1
C1235: + x315 + x377 <= 1
C1236: + x14 + x418 <= 1
C1237: + x3 + x13 + x23 <= 1
C1238: + x53 + x437 <= 1
C1239: + x112 + x140 <= 1
C1240: + x4 + x115 <= 1
C1241: + x317 + x476 <= 1
C1242: + x135 + x183 <= 1
C1243: + x127 + x134 <= 1
C1244: + x147 + x448 <= 1
C1245: + x366 + x405 <= 1
C1246: + x34 + x66 <= 1
C1247: + x324 + x380 <= 1
C1248: + x72 + x85 <= 1
C1249: + x10 + x78 <= 1
C1250: + x292 + x323 <= 1
C1251: + x21 + x186 <= 1
C1252: + x5 + x20 <= 1
C1253: + x23 + x174 <= 1
C1254: + x16 + x164 <= 1
C1255: + x10 + x169 <= 1
C1256: + x1 + x84 <= 1
C1257: + x332 + x414 <= 1
C1258: + x25 + x90 <= 1
C1259: + x315 + x320 <= 1
C1260: + x46 + x115 <= 1
C1261: + x23 + x29 <= 1
C1262: + x39 + x84 <= 1
C1263: + x14 + x173 <= 1
C1264: + x281 + x371 <= 1
C1265: + x39 + x189 <= 1
C1266: + x143 + x206 <= 1
C1267: + x138 + x267 <= 1
C1268: + x190 + x289 <= 1
C1269: + x146 + x160 <= 1
C1270: + x340 + x378 <= 1
C1271: + x1 + x269 <= 1
C1272: + x7 + x316 <= 1
C1273: + x55 + x322 <= 1
C1274: + x4 + x463 <= 1
C1275: + x341 + x473 <= 1
C1276: + x25 + x50 <= 1
C1277: + x88 + x140 <= 1
C1278: + x192 + x347 <= 1
C1279: + x68 + x118 <= 1
C1280: + x13 + x230 <= 1
C1281: + x5 + x27 <= 1
C1282: + x279 + x490 <= 1
C1283: + x463 + x481 <= 1
C1284: + x1 + x43 <= 1
C1285: + x60 + x416 <= 1
C1286: + x104 + x471 <= 1
C1287: + x7 + x17 <= 1
C1288: + x6 + x38 <= 1
C1289: + x44 + x300 <= 1
C1290: + x15 + x113 <= 1
C1291: + x109 + x193 <= 1
C1292: + x292 + x440 <= 1
C1293: + x39 + x75 <= 1
C1294: + x112 + x214 <= 1
C1295: + x107 + x141 <= 1
C1296: + x121 + x196 <= 1
C1297: + x56 + x214 <= 1
C1298: + x3 + x407 <= 1
C1299: + x39 + x377 <= 1
C1300: + x50 + x250 <= 1
C1301: + x1 + x22 <= 1
C1302: + x120 + x224 <= 1
C1303: + x4 + x97 <= 1
C1304: + x40 + x141 <= 1
C1305: + x13 + x14 <= 1
C1306: + x36 + x245 <= 1
C1307: + x119 + x369 <= 1
C1308: + x48 + x364 <= 1
C1309: + x83 + x202 <= 1
C1310: + x72 + x402 <= 1
C1311: + x90 + x138 <= 1
C1312: + x17 + x232 <= 1
C1313: + x53 + x463 <= 1
C1314: + x46 + x194 <= 1
C1315: + x181 + x406 <= 1
C1316: + x3 + x44 <= 1
C1317: + x140 + x228 <= 1
C1318: + x22 + x425 <= 1
C1319: + x52 + x326 <= 1
C1320: + x5 + x387 <= 1
C1321: + x16 + x70 <= 1
C1322: + x465 + x494 <= 1
C1323: + x193 + x227 <= 1
C1324: + x49 + x168 <= 1
C1325: + x50 + x243 <= 1
C1326: + x17 + x49 <= 1
C1327: + x202 + x400 <= 1
C1328: + x379 + x382 <= 1
C1329: + x95 + x338 <= 1
C1330: + x79 + x342 <= 1
C1331: + x204 + x218 <= 1
C1332: + x86 + x115 <= 1
C1333: + x24 + x474 <= 1
C1334: + x62 + x135 <= 1
C1335: + x92 + x280 <= 1
C1336: + x83 + x270 <= 1
C1337: + x95 + x225 <= 1
C1338: + x5 + x9 <= 1
C1339: + x107 + x203 <= 1
C1340: + x417 + x442 <= 1
C1341: + x111 + x200 <= 1
C1342: + x40 + x250 <= 1
C1343: + x26 + x33 <= 1
C1344: + x143 + x155 <= 1
C1345: + x81 + x316 <= 1
C1346: + x402 + x410 <= 1
C1347: + x63 + x256 <= 1
C1348: + x5 + x160 <= 1
C1349: + x6 + x24 <= 1
C1350: + x7 + x176 <= 1
C1351: + x155 + x301 <= 1
C1352: + x8 + x312 <= 1
C1353: + x70 + x285 <= 1
C1354: + x264 + x277 <= 1
C1355: + x448 + x460 <= 1
C1356: + x294 + x394 <= 1
C1357: + x16 + x67 <= 1
C1358: + x10 + x144 <= 1
C1359: + x249 + x338 <= 1
C1360: + x458 + x470 <= 1
C1361: + x12 + x490 <= 1
C1362: + x81 + x376 <= 1
C1363: + x82 + x128 <= 1
C1364: + x204 + x405 <= 1
C1365: + x251 + x261 <= 1
C1366: + x100 + x200 <= 1
C1367: + x83 + x374 <= 1
C1368: + x85 + x370 <= 1
C1369: + x232 + x451 <= 1
C1370: + x5 + x97 <= 1
C1371: + x107 + x163 <= 1
C1372: + x17 + x71 <= 1
C1373: + x173 + x405 <= 1
C1374: + x132 + x176 + x185 <= 1
C1375: + x12 + x31 <= 1
C1376: + x30 + x105 <= 1
C1377: + x2 + x5 <= 1
C1378: + x59 + x96 <= 1
C1379: + x28 + x191 <= 1
C1380: + x19 + x234 <= 1
C1381: + x158 + x410 <= 1
C1382: + x13 + x120 <= 1
C1383: + x98 + x287 <= 1
C1384: + x162 + x386 <= 1
C1385: + x51 + x100 <= 1
C1386: + x152 + x210 <= 1
C1387: + x1 + x378 <= 1
C1388: + x85 + x181 <= 1
C1389: + x32 + x187 <= 1
C1390: + x16 + x76 <= 1
C1391: + x8 + x31 <= 1
C1392: + x12 + x495 <= 1
C1393: + x24 + x28 <= 1
C1394: + x336 + x486 <= 1
C1395: + x203 + x266 <= 1
C1396: + x215 + x309 <= 1
C1397: + x153 + x212 <= 1
C1398: + x172 + x274 <= 1
C1399: + x207 + x466 <= 1
C1400: + x112 + x181 <= 1
C1401: + x107 + x359 <= 1
C1402: + x9 + x107 <= 1
C1403: + x210 + x213 <= 1
C1404: + x66 + x80 <= 1
C1405: + x49 + x130 <= 1
C1406: + x10 + x381 <= 1
C1407: + x182 + x492 <= 1
C1408: + x55 + x108 <= 1
C1409: + x60 + x349 <= 1
C1410: + x108 + x199 <= 1
C1411: + x17 + x205 <= 1
C1412: + x282 + x318 <= 1
C1413: + x47 + x75 <= 1
C1414: + x13 + x111 <= 1
C1415: + x145 + x447 <= 1
C1416: + x22 + x452 <= 1
C1417: + x150 + x255 <= 1
C1418: + x6 + x26 <= 1
C1419: + x424 + x500 <= 1
C1420: + x356 + x404 <= 1
C1421: + x213 + x489 <= 1
C1422: + x294 + x444 <= 1
C1423: + x4 + x145 <= 1
C1424: + x5 + x35 <= 1
C1425: + x426 + x441 <= 1
C1426: + x8 + x24 <= 1
C1427: + x76 + x462 <= 1
C1428: + x41 + x186 <= 1
C1429: + x12 + x81 <= 1
C1430: + x25 + x73 <= 1
C1431: + x67 + x137 <= 1
C1432: + x34 + x399 <= 1
C1433: + x27 + x394 <= 1
C1434: + x134 + x468 <= 1
C1435: + x28 + x113 <= 1
C1436: + x103 + x218 <= 1
C1437: + x26 + x240 <= 1
C1438: + x9 + x18 <= 1
C1439: + x53 + x105 <= 1
C1440: + x11 + x382 <= 1
C1441: + x1 + x415 <= 1
C1442: + x240 + x401 <= 1
C1443: + x43 + x67 <= 1
C1444: + x6 + x95 <= 1
C1445: + x1 + x316 <= 1
C1446: + x93 + x357 <= 1
C1447: + x92 + x379 <= 1
C1448: + x5 + x230 <= 1
C1449: + x317 + x381 <= 1
C1450: + x111 + x217 <= 1
C1451: + x37 + x271 <= 1
C1452: + x4 + x9 <= 1
C1453: + x14 + x317 <= 1
C1454: + x36 + x221 <= 1
C1455: + x218 + x303 <= 1
C1456: + x43 + x119 <= 1
C1457: + x10 + x397 <= 1
C1458: + x2 + x35 <= 1
C1459: + x30 + x157 <= 1
C1460: + x4 + x154 <= 1
C1461: + x87 + x88 <= 1
C1462: + x5 + x42 <= 1
C1463: + x122 + x217 <= 1
C1464: + x12 + x74 <= 1
C1465: + x103 + x322 <= 1
C1466: + x196 + x332 <= 1
C1467: + x304 + x449 <= 1
C1468: + x7 + x36 <= 1
C1469: + x27 + x78 <= 1
C1470: + x132 + x454 <= 1
C1471: + x99 + x350 <= 1
C1472: + x80 + x302 <= 1
C1473: + x16 + x110 <= 1
C1474: + x131 + x371 <= 1
C1475: + x50 + x203 <= 1
C1476: + x5 + x336 <= 1
C1477: + x23 + x498 <= 1
C1478: + x147 + x306 <= 1
C1479: + x66 + x229 <= 1
C1480: + x45 + x49 + x333 <= 1
C1481: + x154 + x341 <= 1
C1482: + x16 + x147 <= 1
C1483: + x1 + x5 <= 1
C1484: + x3 + x313 <= 1
C1485: + x4 + x453 <= 1
C1486: + x26 + x61 <= 1
C1487: + x1 + x418 <= 1
C1488: + x47 + x178 <= 1
C1489: + x3 + x7 <= 1
C1490: + x106 + x290 <= 1
C1491: + x71 + x76 <= 1
C1492: + x10 + x438 <= 1
C1493: + x25 + x325 <= 1
C1494: + x289 + x455 <= 1
C1495: + x10 + x172 <= 1
C1496: + x225 + x453 <= 1
C1497: + x341 + x411 <= 1
C1498: + x23 + x26 <= 1
C1499: + x150 + x213 <= 1
C1500: + x7 + x265 <= 1
C1501: + x54 + x385 <= 1
C1502: + x3 + x256 <= 1
C1503: + x41 + x55 <= 1
C1504: + x23 + x251 <= 1
C1505: + x24 + x152 <= 1
C1506: + x46 + x135 <= 1
C1507: + x12 + x450 <= 1
C1508: + x6 + x65 <= 1
C1509: + x45 + x337 <= 1
C1510: + x144 + x197 <= 1
C1511: + x2 + x446 <= 1
C1512: + x283 + x366 <= 1
C1513: + x158 + x219 <= 1
C1514: + x188 + x407 <= 1
C1515: + x9 + x346 <= 1
C1516: + x36 + x112 <= 1
C1517: + x28 + x155 <= 1
C1518: + x10 + x225 <= 1
C1519: + x1 + x28 <= 1
C1520: + x56 + x113 <= 1
C1521: + x239 + x416 <= 1
C1522: + x334 + x442 <= 1
C1523: + x127 + x138 <= 1
C1524: + x73 + x396 <= 1
C1525: + x4 + x361 <= 1
C1526: + x69 + x238 <= 1
C1527: + x7 + x131 <= 1
C1528: + x9 + x297 <= 1
C1529: + x74 + x255 <= 1
C1530: + x100 + x156 <= 1
C1531: + x183 + x287 <= 1
C1532: + x30 + x50 <= 1
C1533: + x78 + x461 <= 1
C1534: + x225 + x476 <= 1
C1535: + x79 + x273 <= 1
C1536: + x493 + x494 <= 1
C1537: + x56 + x172 <= 1
C1538: + x18 + x320 <= 1
C1539: + x36 + x406 <= 1
C1540: + x142 + x447 <= 1
C1541: + x8 + x55 <= 1
C1542: + x11 + x279 <= 1
C1543: + x110 + x117 <= 1
C1544: + x12 + x52 <= 1
C1545: + x4 + x422 <= 1
C1546: + x1 + x257 <= 1
C1547: + x194 + x493 <= 1
C1548: + x140 + x166 <= 1
C1549: + x12 + x294 <= 1
C1550: + x417 + x468 <= 1
C1551: + x8 + x72 <= 1
C1552: + x1 + x19 <= 1
C1553: + x111 + x238 <= 1
C1554: + x86 + x351 <= 1
C1555: + x89 + x100 <= 1
C1556: + x170 + x177 <= 1
C1557: + x17 + x86 <= 1
C1558: + x206 + x349 <= 1
C1559: + x156 + x486 <= 1
C1560: + x56 + x237 <= 1
C1561: + x239 + x260 <= 1
C1562: + x60 + x234 <= 1
C1563: + x125 + x383 <= 1
C1564: + x70 + x390 <= 1
C1565: + x139 + x487 <= 1
C1566: + x13 + x71 <= 1
C1567: + x104 + x467 <= 1
C1568: + x1 + x460 <= 1
C1569: + x47 + x144 <= 1
C1570: + x50 + x109 <= 1
C1571: + x5 + x150 <= 1
C1572: + x6 + x34 <= 1
C1573: + x106 + x251 <= 1
C1574: + x162 + x356 <= 1
C1575: + x9 + x14 <= 1
C1576: + x80 + x313 <= 1
C1577: + x228 + x388 <= 1
C1578: + x5 + x293 <= 1
C1579: + x92 + x327 <= 1
C1580: + x318 + x353 <= 1
C1581: + x4 + x202 <= 1
C1582: + x17 + x347 <= 1
C1583: + x36 + x455 <= 1
C1584: + x143 + x431 <= 1
C1585: + x12 + x186 <= 1
C1586: + x32 + x256 <= 1
C1587: + x89 + x480 <= 1
C1588: + x278 + x398 <= 1
C1589: + x8 + x484 <= 1
C1590: + x275 + x324 <= 1
C1591: + x230 + x235 <= 1
C1592: + x212 + x317 <= 1
C1593: + x2 + x15 <= 1
C1594: + x264 + x360 <= 1
C1595: + x90 + x321 <= 1
C1596: + x45 + x266 <= 1
C1597: + x135 + x209 <= 1
C1598: + x247 + x374 <= 1
C1599: + x8 + x408 <= 1
C1600: + x182 + x270 <= 1
C1601: + x17 + x422 <= 1
C1602: + x129 + x410 <= 1
C1603: + x3 + x201 <= 1
C1604: + x12 + x195 <= 1
C1605: + x5 + x50 <= 1
C1606: + x116 + x165 <= 1
C1607: + x170 + x330 <= 1
C1608: + x9 + x53 <= 1
C1609: + x127 + x247 <= 1
C1610: + x240 + x446 <= 1
C1611: + x414 + x441 <= 1
C1612: + x101 + x291 <= 1
C1613: + x199 + x421 <= 1
C1614: + x10 + x28 <= 1
C1615: + x239 + x433 <= 1
C1616: + x23 + x269 <= 1
C1617: + x19 + x348 <= 1
C1618: + x32 + x471 <= 1
C1619: + x26 + x444 <= 1
C1620: + x7 + x120 <= 1
C1621: + x109 + x434 <= 1
C1622: + x94 + x207 <= 1
C1623: + x308 + x319 <= 1
C1624: + x8 + x106 <= 1
C1625: + x161 + x283 <= 1
C1626: + x107 + x293 <= 1
C1627: + x1 + x474 <= 1
C1628: + x57 + x167 <= 1
C1629: + x56 + x183 <= 1
C1630: + x51 + x101 <= 1
C1631: + x88 + x234 <= 1
C1632: + x83 + x318 <= 1
C1633: + x383 + x491 <= 1
C1634: + x77 + x383 <= 1
C1635: + x31 + x38 <= 1
C1636: + x108 + x249 <= 1
C1637: + x171 + x321 <= 1
C1638: + x45 + x152 <= 1
C1639: + x53 + x83 <= 1
C1640: + x270 + x415 <= 1
C1641: + x51 + x248 <= 1
C1642: + x22 + x303 <= 1
C1643: + x40 + x373 <= 1
C1644: + x24 + x31 <= 1
C1645: + x411 + x443 <= 1
C1646: + x114 + x267 <= 1
C1647: + x51 + x89 <= 1
C1648: + x23 + x114 <= 1
C1649: + x96 + x143 <= 1
C1650: + x94 + x343 <= 1
C1651: + x149 + x363 <= 1
C1652: + x443 + x479 <= 1
C1653: + x5 + x442 <= 1
C1654: + x28 + x262 <= 1
C1655: + x102 + x311 <= 1
C1656: + x12 + x19 <= 1
C1657: + x114 + x412 <= 1
C1658: + x167 + x368 <= 1
C1659: + x140 + x403 <= 1
C1660: + x59 + x92 <= 1
C1661: + x149 + x218 <= 1
C1662: + x35 + x435 <= 1
C1663: + x131 + x277 <= 1
C1664: + x110 + x456 <= 1
C1665: + x46 + x83 <= 1
C1666: + x341 + x454 <= 1
C1667: + x4 + x369 <= 1
C1668: + x150 + x242 <= 1
C1669: + x9 + x305 <= 1
C1670: + x65 + x190 <= 1
C1671: + x173 + x183 <= 1
C1672: + x3 + x219 <= 1
C1673: + x86 + x303 <= 1
C1674: + x5 + x40 <= 1
C1675: + x226 + x439 <= 1
C1676: + x9 + x35 <= 1
C1677: + x101 + x116 <= 1
C1678: + x78 + x112 <= 1
C1679: + x47 + x387 <= 1
C1680: + x6 + x319 <= 1
C1681: + x27 + x153 <= 1
C1682: + x390 + x453 <= 1
C1683: + x56 + x241 <= 1
C1684: + x6 + x82 <= 1
C1685: + x183 + x496 <= 1
C1686: + x13 + x134 <= 1
C1687: + x142 + x488 <= 1
C1688: + x122 + x144 <= 1
C1689: + x12 + x153 <= 1
C1690: + x20 + x41 <= 1
C1691: + x39 + x266 <= 1
C1692: + x98 + x119 <= 1
C1693: + x216 + x384 <= 1
C1694: + x109 + x348 <= 1
C1695: + x5 + x138 <= 1
C1696: + x188 + x340 <= 1
C1697: + x117 + x225 <= 1
C1698: + x171 + x307 <= 1
C1699: + x65 + x391 <= 1
C1700: + x193 + x204 <= 1
C1701: + x16 + x93 <= 1
C1702: + x128 + x252 <= 1
C1703: + x13 + x95 <= 1
C1704: + x22 + x134 <= 1
C1705: + x4 + x391 <= 1
C1706: + x5 + x281 <= 1
C1707: + x109 + x491 <= 1
C1708: + x167 + x430 <= 1
C1709: + x64 + x214 <= 1
C1710: + x11 + x36 <= 1
C1711: + x56 + x264 <= 1
C1712: + x20 + x428 <= 1
C1713: + x167 + x271 <= 1
C1714: + x5 + x190 <= 1
C1715: + x163 + x231 <= 1
C1716: + x91 + x271 <= 1
C1717: + x57 + x403 <= 1
C1718: + x21 + x249 <= 1
C1719: + x51 + x304 <= 1
C1720: + x69 + x454 <= 1
C1721: + x5 + x83 <= 1
C1722: + x315 + x414 <= 1
C1723: + x7 + x448 <= 1
C1724: + x480 + x497 <= 1
C1725: + x130 + x336 <= 1
C1726: + x59 + x137 <= 1
C1727: + x186 + x334 <= 1
C1728: + x6 + x91 <= 1
C1729: + x16 + x392 <= 1
C1730: + x122 + x310 <= 1
C1731: + x40 + x62 <= 1
C1732: + x47 + x82 <= 1
C1733: + x12 + x146 <= 1
C1734: + x13 + x431 <= 1
C1735: + x142 + x324 <= 1
C1736: + x127 + x132 <= 1
C1737: + x56 + x158 <= 1
C1738: + x34 + x80 <= 1
C1739: + x16 + x332 <= 1
C1740: + x1 + x332 <= 1
C1741: + x329 + x436 <= 1
C1742: + x69 + x281 <= 1
C1743: + x5 + x22 <= 1
C1744: + x6 + x162 <= 1
C1745: + x217 + x386 <= 1
C1746: + x27 + x39 <= 1
C1747: + x73 + x273 <= 1
C1748: + x71 + x443 <= 1
C1749: + x183 + x257 <= 1
C1750: + x13 + x86 <= 1
C1751: + x40 + x356 <= 1
C1752: + x34 + x57 <= 1
C1753: + x160 + x350 <= 1
C1754: + x7 + x40 <= 1
C1755: + x219 + x245 <= 1
C1756: + x103 + x108 <= 1
C1757: + x51 + x70 <= 1
C1758: + x6 + x51 <= 1
C1759: + x81 + x254 <= 1
C1760: + x7 + x278 <= 1
C1761: + x142 + x155 <= 1
C1762: + x17 + x446 <= 1
C1763: + x57 + x410 <= 1
C1764: + x185 + x335 <= 1
C1765: + x13 + x37 <= 1
C1766: + x197 + x282 <= 1
C1767: + x44 + x47 <= 1
C1768: + x16 + x106 <= 1
C1769: + x1 + x106 <= 1
C1770: + x36 + x158 <= 1
C1771: + x276 + x451 <= 1
C1772: + x27 + x235 <= 1
C1773: + x123 + x340 <= 1
C1774: + x190 + x295 <= 1
C1775: + x193 + x481 <= 1
C1776: + x238 + x312 <= 1
C1777: + x417 + x474 <= 1
C1778: + x218 + x409 <= 1
C1779: + x54 + x344 <= 1
C1780: + x228 + x482 <= 1
C1781: + x20 + x220 <= 1
C1782: + x13 + x25 <= 1
C1783: + x69 + x497 <= 1
C1784: + x25 + x143 <= 1
C1785: + x81 + x284 <= 1
C1786: + x17 + x92 <= 1
C1787: + x119 + x360 <= 1
C1788: + x25 + x44 <= 1
C1789: + x101 + x140 <= 1
C1790: + x193 + x445 <= 1
C1791: + x67 + x104 <= 1
C1792: + x441 + x447 <= 1
C1793: + x210 + x485 <= 1
C1794: + x5 + x29 <= 1
C1795: + x6 + x171 <= 1
C1796: + x81 + x427 <= 1
C1797: + x448 + x492 <= 1
C1798: + x165 + x358 <= 1
C1799: + x20 + x168 <= 1
C1800: + x51 + x156 <= 1
C1801: + x337 + x413 <= 1
C1802: + x115 + x445 <= 1
C1803: + x151 + x199 <= 1
C1804: + x16 + x357 <= 1
C1805: + x281 + x471 <= 1
C1806: + x8 + x151 <= 1
C1807: + x301 + x413 <= 1
C1808: + x55 + x267 <= 1
C1809: + x5 + x65 <= 1
C1810: + x150 + x495 <= 1
C1811: + x146 + x500 <= 1
C1812: + x137 + x473 <= 1
C1813: + x246 + x496 <= 1
C1814: + x16 + x406 <= 1
C1815: + x398 + x432 <= 1
C1816: + x122 + x456 <= 1
C1817: + x370 + x438 <= 1
C1818: + x32 + x87 <= 1
C1819: + x5 + x117 <= 1
C1820: + x315 + x500 <= 1
C1821: + x44 + x212 <= 1
C1822: + x16 + x59 <= 1
C1823: + x10 + x328 <= 1
C1824: + x122 + x433 <= 1
C1825: + x50 + x180 <= 1
C1826: + x13 + x258 <= 1
C1827: + x20 + x499 <= 1
C1828: + x173 + x334 <= 1
C1829: + x283 + x318 <= 1
C1830: + x15 + x199 <= 1
C1831: + x17 + x226 <= 1
C1832: + x15 + x316 <= 1
C1833: + x48 + x168 <= 1
C1834: + x230 + x286 <= 1
C1835: + x56 + x275 <= 1
C1836: + x113 + x424 <= 1
C1837: + x16 + x217 <= 1
C1838: + x268 + x416 <= 1
C1839: + x14 + x165 <= 1
C1840: + x294 + x378 <= 1
C1841: + x358 + x373 <= 1
C1842: + x209 + x251 <= 1
C1843: + x319 + x372 <= 1
C1844: + x37 + x54 <= 1
C1845: + x147 + x233 <= 1
C1846: + x3 + x102 <= 1
C1847: + x95 + x179 <= 1
C1848: + x40 + x41 <= 1
C1849: + x272 + x279 <= 1
C1850: + x13 + x15 <= 1
C1851: + x5 + x116 <= 1
C1852: + x17 + x74 <= 1
C1853: + x8 + x487 <= 1
C1854: + x54 + x253 <= 1
C1855: + x47 + x200 <= 1
C1856: + x194 + x402 <= 1
C1857: + x1 + x436 <= 1
C1858: + x130 + x367 <= 1
C1859: + x38 + x430 <= 1
C1860: + x8 + x262 <= 1
C1861: + x146 + x279 <= 1
C1862: + x8 + x209 <= 1
C1863: + x162 + x225 <= 1
C1864: + x153 + x321 <= 1
C1865: + x9 + x198 <= 1
C1866: + x88 + x430 <= 1
C1867: + x37 + x236 <= 1
C1868: + x4 + x48 <= 1
C1869: + x104 + x463 <= 1
C1870: + x92 + x399 <= 1
C1871: + x8 + x411 <= 1
C1872: + x212 + x264 <= 1
C1873: + x93 + x305 <= 1
C1874: + x149 + x192 <= 1
C1875: + x168 + x185 <= 1
C1876: + x7 + x182 <= 1
C1877: + x16 + x363 <= 1
C1878: + x8 + x133 <= 1
C1879: + x1 + x210 <= 1
C1880: + x10 + x16 + x241 <= 1
C1881: + x105 + x233 <= 1
C1882: + x232 + x273 <= 1
C1883: + x14 + x361 <= 1
C1884: + x53 + x73 <= 1
C1885: + x17 + x149 <= 1
C1886: + x210 + x302 <= 1
C1887: + x12 + x45 <= 1
C1888: + x39 + x369 <= 1
C1889: + x65 + x220 <= 1
C1890: + x138 + x207 <= 1
C1891: + x64 + x329 <= 1
C1892: + x58 + x146 <= 1
C1893: + x13 + x161 <= 1
C1894: + x23 + x124 <= 1
C1895: + x108 + x160 <= 1
C1896: + x16 + x319 <= 1
C1897: + x10 + x23 <= 1
C1898: + x23 + x266 <= 1
C1899: + x98 + x329 <= 1
C1900: + x7 + x472 <= 1
C1901: + x36 + x253 <= 1
C1902: + x322 + x424 <= 1
C1903: + x30 + x474 <= 1
C1904: + x132 + x219 <= 1
C1905: + x5 + x341 <= 1
C1906: + x151 + x160 <= 1
C1907: + x63 + x110 <= 1
C1908: + x367 + x466 <= 1
C1909: + x99 + x298 <= 1
C1910: + x373 + x374 <= 1
C1911: + x38 + x237 <= 1
C1912: + x148 + x315 <= 1
C1913: + x4 + x21 <= 1
C1914: + x97 + x110 <= 1
C1915: + x40 + x249 <= 1
C1916: + x76 + x483 <= 1
C1917: + x8 + x404 <= 1
C1918: + x84 + x291 <= 1
C1919: + x144 + x175 <= 1
C1920: + x13 + x201 <= 1
C1921: + x23 + x132 <= 1
C1922: + x34 + x182 <= 1
C1923: + x117 + x152 <= 1
C1924: + x45 + x149 <= 1
C1925: + x72 + x353 <= 1
C1926: + x194 + x237 <= 1
C1927: + x59 + x184 <= 1
C1928: + x4 + x408 <= 1
C1929: + x17 + x41 <= 1
C1930: + x65 + x211 <= 1
C1931: + x29 + x438 <= 1
C1932: + x41 + x447 <= 1
C1933: + x9 + x136 <= 1
C1934: + x201 + x413 <= 1
C1935: + x10 + x32 <= 1
C1936: + x8 + x178 <= 1
C1937: + x39 + x50 <= 1
C1938: + x283 + x488 <= 1
C1939: + x10 + x379 <= 1
C1940: + x1 + x386 <= 1
C1941: + x359 + x425 <= 1
C1942: + x81 + x165 <= 1
C1943: + x62 + x159 <= 1
C1944: + x182 + x482 <= 1
C1945: + x58 + x103 <= 1
C1946: + x59 + x93 <= 1
C1947: + x4 + x255 <= 1
C1948: + x23 + x79 <= 1
C1949: + x53 + x478 <= 1
C1950: + x24 + x228 <= 1
C1951: + x381 + x432 <= 1
C1952: + x4 + x30 <= 1
C1953: + x5 + x483 <= 1
C1954: + x46 + x86 <= 1

binary
x1 x2 x3 x4 x5 x6 x7 x8 x9 x10 x11 x12 x13 x14 x15 x16 x17 x18 x19 x20 x21 x22 x23 x24 x25 x26 x27 x28 x29 x30 x31 x32 x33 x34 x35 x36 x37 x38 x39 x40 x41 x42 x43 x44 x45 x46 x47 x48 x49 x50 x51 x52 x53 x54 x55 x56 x57 x58 x59 x60 x61 x62 x63 x64 x65 x66 x67 x68 x69 x70 x71 x72 x73 x74 x75 x76 x77 x78 x79 x80 x81 x82 x83 x84 x85 x86 x87 x88 x89 x90 x91 x92 x93 x94 x95 x96 x97 x98 x99 x100 x101 x102 x103 x104 x105 x106 x107 x108 x109 x110 x111 x112 x113 x114 x115 x116 x117 x118 x119 x120 x121 x122 x123 x124 x125 x126 x127 x128 x129 x130 x131 x132 x133 x134 x135 x136 x137 x138 x139 x140 x141 x142 x143 x144 x145 x146 x147 x148 x149 x150 x151 x152 x153 x154 x155 x156 x157 x158 x159 x160 x161 x162 x163 x164 x165 x166 x167 x168 x169 x170 x171 x172 x173 x174 x175 x176 x177 x178 x179 x180 x181 x182 x183 x184 x185 x186 x187 x188 x189 x190 x191 x192 x193 x194 x195 x196 x197 x198 x199 x200 x201 x202 x203 x204 x205 x206 x207 x208 x209 x210 x211 x212 x213 x214 x215 x216 x217 x218 x219 x220 x221 x222 x223 x224 x225 x226 x227 x228 x229 x230 x231 x232 x233 x234 x235 x236 x237 x238 x239 x240 x241 x242 x243 x244 x245 x246 x247 x248 x249 x250 x251 x252 x253 x254 x255 x256 x257 x258 x259 x260 x261 x262 x263 x264 x265 x266 x267 x268 x269 x270 x271 x272 x273 x274 x275 x276 x277 x278 x279 x280 x281 x282 x283 x284 x285 x286 x287 x288 x289 x290 x291 x292 x293 x294 x295 x296 x297 x298 x299 x300 x301 x302 x303 x304 x305 x306 x307 x308 x309 x310 x311 x312 x313 x314 x315 x316 x317 x318 x319 x320 x321 x322 x323 x324 x325 x326 x327 x328 x329 x330 x331 x332 x333 x334 x335 x336 x337 x338 x339 x340 x341 x342 x343 x344 x345 x346 x347 x348 x349 x350 x351 x352 x353 x354 x355 x356 x357 x358 x359 x360 x361 x362 x363 x364 x365 x366 x367 x368 x369 x370 x371 x372 x373 x374 x375 x376 x377 x378 x379 x380 x381 x382 x383 x384 x385 x386 x387 x388 x389 x390 x391 x392 x393 x394 x395 x396 x397 x398 x399 x400 x401 x402 x403 x404 x405 x406 x407 x408 x409 x410 x411 x412 x413 x414 x415 x416 x417 x418 x419 x420 x421 x422 x423 x424 x425 x426 x427 x428 x429 x430 x431 x432 x433 x434 x435 x436 x437 x438 x439 x440 x441 x442 x443 x444 x445 x446 x447 x448 x449 x450 x451 x452 x453 x454 x455 x456 x457 x458 x459 x460 x461 x462 x463 x464 x465 x466 x467 x468 x469 x470 x471 x472 x473 x474 x475 x476 x477 x478 x479 x480 x481 x482 x483 x484 x485 x486 x487 x488 x489 x490 x491 x492 x493 x494 x495 x496 x497 x498 x499 x500
