maximize
OBJ: + 1 x1 + 1 x2 + 1 x3 + 1 x4 + 1 x5 + 1 x6 + 1 x7 + 1 x8 + 1 x9 + 1 x10 + 1 x11 + 1 x12 + 1 x13 + 1 x14 + 1 x15 + 1 x16 + 1 x17 + 1 x18 + 1 x19 + 1 x20 + 1 x21 + 1 x22 + 1 x23 + 1 x24 + 1 x25 + 1 x26 + 1 x27 + 1 x28 + 1 x29 + 1 x30 + 1 x31 + 1 x32 + 1 x33 + 1 x34 + 1 x35 + 1 x36 + 1 x37 + 1 x38 + 1 x39 + 1 x40 + 1 x41 + 1 x42 + 1 x43 + 1 x44 + 1 x45 + 1 x46 + 1 x47 + 1 x48 + 1 x49 + 1 x50 + 1 x51 + 1 x52 + 1 x53 + 1 x54 + 1 x55 + 1 x56 + 1 x57 + 1 x58 + 1 x59 + 1 x60 + 1 x61 + 1 x62 + 1 x63 + 1 x64 + 1 x65 + 1 x66 + 1 x67 + 1 x68 + 1 x69 + 1 x70 + 1 x71 + 1 x72 + 1 x73 + 1 x74 + 1 x75 + 1 x76 + 1 x77 + 1 x78 + 1 x79 + 1 x80 + 1 x81 + 1 x82 + 1 x83 + 1 x84 + 1 x85 + 1 x86 + 1 x87 + 1 x88 + 1 x89 + 1 x90 + 1 x91 + 1 x92 + 1 x93 + 1 x94 + 1 x95 + 1 x96 + 1 x97 + 1 x98 + 1 x99 + 1 x100 + 1 x101 + 1 x102 + 1 x103 + 1 x104 + 1 x105 + 1 x106 + 1 x107 + 1 x108 + 1 x109 + 1 x110 + 1 x111 + 1 x112 + 1 x113 + 1 x114 + 1 x115 + 1 x116 + 1 x117 + 1 x118 + 1 x119 + 1 x120 + 1 x121 + 1 x122 + 1 x123 + 1 x124 + 1 x125 + 1 x126 + 1 x127 + 1 x128 + 1 x129 + 1 x130 + 1 x131 + 1 x132 + 1 x133 + 1 x134 + 1 x135 + 1 x136 + 1 x137 + 1 x138 + 1 x139 + 1 x140 + 1 x141 + 1 x142 + 1 x143 + 1 x144 + 1 x145 + 1 x146 + 1 x147 + 1 x148 + 1 x149 + 1 x150 + 1 x151 + 1 x152 + 1 x153 + 1 x154 + 1 x155 + 1 x156 + 1 x157 + 1 x158 + 1 x159 + 1 x160 + 1 x161 + 1 x162 + 1 x163 + 1 x164 + 1 x165 + 1 x166 + 1 x167 + 1 x168 + 1 x169 + 1 x170 + 1 x171 + 1 x172 + 1 x173 + 1 x174 + 1 x175 + 1 x176 + 1 x177 + 1 x178 + 1 x179 + 1 x180 + 1 x181 + 1 x182 + 1 x183 + 1 x184 + 1 x185 + 1 x186 + 1 x187 + 1 x188 + 1 x189 + 1 x190 + 1 x191 + 1 x192 + 1 x193 + 1 x194 + 1 x195 + 1 x196 + 1 x197 + 1 x198 + 1 x199 + 1 x200 + 1 x201 + 1 x202 + 1 x203 + 1 x204 + 1 x205 + 1 x206 + 1 x207 + 1 x208 + 1 x209 + 1 x210 + 1 x211 + 1 x212 + 1 x213 + 1 x214 + 1 x215 + 1 x216 + 1 x217 + 1 x218 + 1 x219 + 1 x220 + 1 x221 + 1 x222 + 1 x223 + 1 x224 + 1 x225 + 1 x226 + 1 x227 + 1 x228 + 1 x229 + 1 x230 + 1 x231 + 1 x232 + 1 x233 + 1 x234 + 1 x235 + 1 x236 + 1 x237 + 1 x238 + 1 x239 + 1 x240 + 1 x241 + 1 x242 + 1 x243 + 1 x244 + 1 x245 + 1 x246 + 1 x247 + 1 x248 + 1 x249 + 1 x250 + 1 x251 + 1 x252 + 1 x253 + 1 x254 + 1 x255 + 1 x256 + 1 x257 + 1 x258 + 1 x259 + 1 x260 + 1 x261 + 1 x262 + 1 x263 + 1 x264 + 1 x265 + 1 x266 + 1 x267 + 1 x268 + 1 x269 + 1 x270 + 1 x271 + 1 x272 + 1 x273 + 1 x274 + 1 x275 + 1 x276 + 1 x277 + 1 x278 + 1 x279 + 1 x280 + 1 x281 + 1 x282 + 1 x283 + 1 x284 + 1 x285 + 1 x286 + 1 x287 + 1 x288 + 1 x289 + 1 x290 + 1 x291 + 1 x292 + 1 x293 + 1 x294 + 1 x295 + 1 x296 + 1 x297 + 1 x298 + 1 x299 + 1 x300 + 1 x301 + 1 x302 + 1 x303 + 1 x304 + 1 x305 + 1 x306 + 1 x307 + 1 x308 + 1 x309 + 1 x310 + 1 x311 + 1 x312 + 1 x313 + 1 x314 + 1 x315 + 1 x316 + 1 x317 + 1 x318 + 1 x319 + 1 x320 + 1 x321 + 1 x322 + 1 x323 + 1 x324 + 1 x325 + 1 x326 + 1 x327 + 1 x328 + 1 x329 + 1 x330 + 1 x331 + 1 x332 + 1 x333 + 1 x334 + 1 x335 + 1 x336 + 1 x337 + 1 x338 + 1 x339 + 1 x340 + 1 x341 + 1 x342 + 1 x343 + 1 x344 + 1 x345 + 1 x346 + 1 x347 + 1 x348 + 1 x349 + 1 x350 + 1 x351 + 1 x352 + 1 x353 + 1 x354 + 1 x355 + 1 x356 + 1 x357 + 1 x358 + 1 x359 + 1 x360 + 1 x361 + 1 x362 + 1 x363 + 1 x364 + 1 x365 + 1 x366 + 1 x367 + 1 x368 + 1 x369 + 1 x370 + 1 x371 + 1 x372 + 1 x373 + 1 x374 + 1 x375 + 1 x376 + 1 x377 + 1 x378 + 1 x379 + 1 x380 + 1 x381 + 1 x382 + 1 x383 + 1 x384 + 1 x385 + 1 x386 + 1 x387 + 1 x388 + 1 x389 + 1 x390 + 1 x391 + 1 x392 + 1 x393 + 1 x394 + 1 x395 + 1 x396 + 1 x397 + 1 x398 + 1 x399 + 1 x400 + 1 x401 + 1 x402 + 1 x403 + 1 x404 + 1 x405 + 1 x406 + 1 x407 + 1 x408 + 1 x409 + 1 x410 + 1 x411 + 1 x412 + 1 x413 + 1 x414 + 1 x415 + 1 x416 + 1 x417 + 1 x418 + 1 x419 + 1 x420 + 1 x421 + 1 x422 + 1 x423 + 1 x424 + 1 x425 + 1 x426 + 1 x427 + 1 x428 + 1 x429 + 1 x430 + 1 x431 + 1 x432 + 1 x433 + 1 x434 + 1 x435 + 1 x436 + 1 x437 + 1 x438 + 1 x439 + 1 x440 + 1 x441 + 1 x442 + 1 x443 + 1 x444 + 1 x445 + 1 x446 + 1 x447 + 1 x448 + 1 x449 + 1 x450 + 1 x451 + 1 x452 + 1 x453 + 1 x454 + 1 x455 + 1 x456 + 1 x457 + 1 x458 + 1 x459 + 1 x460 + 1 x461 + 1 x462 + 1 x463 + 1 x464 + 1 x465 + 1 x466 + 1 x467 + 1 x468 + 1 x469 + 1 x470 + 1 x471 + 1 x472 + 1 x473 + 1 x474 + 1 x475 + 1 x476 + 1 x477 + 1 x478 + 1 x479 + 1 x480 + 1 x481 + 1 x482 + 1 x483 + 1 x484 + 1 x485 + 1 x486 + 1 x487 + 1 x488 + 1 x489 + 1 x490 + 1 x491 + 1 x492 + 1 x493 + 1 x494 + 1 x495 + 1 x496 + 1 x497 + 1 x498 + 1 x499 + 1 x500

subject to
C1: + x35 + x295 <= 1
C2: + x73 + x206 <= 1
C3: + x6 + x32 <= 1
C4: + x3 + x224 <= 1
C5: + x5 + x37 <= 1
C6: + x7 + x406 <= 1
C7: + x84 + x409 <= 1
C8: + x3 + x353 <= 1
C9: + x195 + x343 <= 1
C10: + x167 + x440 <= 1
C11: + x53 + x244 <= 1
C12: + x82 + x120 <= 1
C13: + x11 + x62 <= 1
C14: + x95 + x168 <= 1
C15: + x259 + x485 <= 1
C16: + x7 + x212 <= 1
C17: + x27 + x121 <= 1
C18: + x9 + x378 <= 1
C19: + x145 + x359 <= 1
C20: + x383 + x475 <= 1
C21: + x107 + x171 <= 1
C22: + x1 + x409 <= 1
C23: + x21 + x76 <= 1
C24: + x31 + x460 <= 1
C25: + x333 + x435 <= 1
C26: + x11 + x98 <= 1
C27: + x53 + x421 <= 1
C28: + x88 + x441 <= 1
C29: + x201 + x336 <= 1
C30: + x21 + x59 <= 1
C31: + x95 + x397 <= 1
C32: + x52 + x61 <= 1
C33: + x171 + x421 <= 1
C34: + x389 + x500 <= 1
C35: + x78 + x155 <= 1
C36: + x151 + x396 <= 1
C37: + x321 + x329 <= 1
C38: + x29 + x186 <= 1
C39: + x122 + x215 <= 1
C40: + x115 + x299 <= 1
C41: + x405 + x430 <= 1
C42: + x6 + x426 <= 1
C43: + x36 + x259 <= 1
C44: + x7 + x42 <= 1
C45: + x86 + x156 <= 1
C46: + x22 + x407 <= 1
C47: + x15 + x154 <= 1
C48: + x53 + x416 <= 1
C49: + x135 + x481 <= 1
C50: + x212 + x454 <= 1
C51: + x12 + x161 <= 1
C52: + x20 + x262 <= 1
C53: + x1 + x416 <= 1
C54: + x2 + x264 <= 1
C55: + x3 + x400 <= 1
C56: + x48 + x271 <= 1
C57: + x98 + x447 <= 1
C58: + x70 + x195 <= 1
C59: + x91 + x122 <= 1
C60: + x16 + x443 <= 1
C61: + x2 + x22 <= 1
C62: + x4 + x237 <= 1
C63: + x23 + x89 <= 1
C64: + x9 + x226 <= 1
C65: + x1 + x15 <= 1
C66: + x10 + x246 <= 1
C67: + x48 + x65 <= 1
C68: + x334 + x391 <= 1
C69: + x12 + x399 <= 1
C70: + x359 + x407 <= 1
C71: + x34 + x75 <= 1
C72: + x178 + x472 <= 1
C73: + x95 + x102 <= 1
C74: + x40 + x402 <= 1
C75: + x23 + x460 <= 1
C76: + x27 + x462 <= 1
C77: + x63 + x115 <= 1
C78: + x59 + x435 <= 1
C79: + x6 + x165 <= 1
C80: + x127 + x329 <= 1
C81: + x327 + x438 <= 1
C82: + x129 + x173 <= 1
C83: + x57 + x314 <= 1
C84: + x195 + x462 <= 1
C85: + x42 + x44 <= 1
C86: + x5 + x186 <= 1
C87: + x36 + x487 <= 1
C88: + x100 + x254 <= 1
C89: + x110 + x223 <= 1
C90: + x61 + x487 <= 1
C91: + x87 + x470 <= 1
C92: + x105 + x483 <= 1
C93: + x40 + x347 <= 1
C94: + x146 + x161 <= 1
C95: + x11 + x20 <= 1
C96: + x13 + x185 <= 1
C97: + x23 + x84 <= 1
C98: + x1 + x6 <= 1
C99: + x2 + x138 <= 1
C100: + x37 + x311 <= 1
C101: + x201 + x382 <= 1
C102: + x11 + x245 <= 1
C103: + x48 + x74 <= 1
C104: + x325 + x469 <= 1
C105: + x208 + x241 <= 1
C106: + x64 + x235 <= 1
C107: + x3 + x475 <= 1
C108: + x258 + x310 <= 1
C109: + x42 + x97 <= 1
C110: + x1 + x181 <= 1
C111: + x11 + x72 <= 1
C112: + x194 + x302 <= 1
C113: + x22 + x56 <= 1
C114: + x27 + x35 <= 1
C115: + x101 + x110 <= 1
C116: + x36 + x86 <= 1
C117: + x1 + x17 + x49 <= 1
C118: + x304 + x457 <= 1
C119: + x323 + x493 <= 1
C120: + x5 + x260 <= 1
C121: + x17 + x21 <= 1
C122: + x73 + x114 <= 1
C123: + x127 + x372 <= 1
C124: + x327 + x429 <= 1
C125: + x333 + x492 <= 1
C126: + x3 + x92 <= 1
C127: + x195 + x453 <= 1
C128: + x19 + x23 <= 1
C129: + x1 + x193 <= 1
C130: + x238 + x419 <= 1
C131: + x25 + x199 <= 1
C132: + x10 + x151 <= 1
C133: + x43 + x54 <= 1
C134: + x180 + x474 <= 1
C135: + x181 + x458 <= 1
C136: + x74 + x178 <= 1
C137: + x37 + x473 <= 1
C138: + x3 + x112 <= 1
C139: + x31 + x90 <= 1
C140: + x52 + x258 <= 1
C141: + x44 + x493 <= 1
C142: + x73 + x155 <= 1
C143: + x16 + x304 <= 1
C144: + x1 + x29 <= 1
C145: + x219 + x275 <= 1
C146: + x154 + x234 <= 1
C147: + x21 + x216 <= 1
C148: + x28 + x158 <= 1
C149: + x63 + x132 <= 1
C150: + x11 + x337 <= 1
C151: + x2 + x302 <= 1
C152: + x59 + x228 <= 1
C153: + x31 + x489 <= 1
C154: + x12 + x284 <= 1
C155: + x40 + x107 <= 1
C156: + x5 + x25 <= 1
C157: + x467 + x469 <= 1
C158: + x196 + x313 <= 1
C159: + x169 + x442 <= 1
C160: + x7 + x19 <= 1
C161: + x4 + x280 <= 1
C162: + x6 + x40 <= 1
C163: + x9 + x171 <= 1
C164: + x7 + x430 <= 1
C165: + x55 + x172 <= 1
C166: + x123 + x174 <= 1
C167: + x200 + x405 <= 1
C168: + x165 + x395 <= 1
C169: + x276 + x412 <= 1
C170: + x88 + x292 <= 1
C171: + x18 + x89 <= 1
C172: + x72 + x166 <= 1
C173: + x66 + x103 <= 1
C174: + x36 + x243 <= 1
C175: + x203 + x213 <= 1
C176: + x3 + x26 <= 1
C177: + x33 + x106 <= 1
C178: + x9 + x465 <= 1
C179: + x28 + x477 <= 1
C180: + x93 + x244 <= 1
C181: + x5 + x8 <= 1
C182: + x32 + x135 <= 1
C183: + x7 + x361 <= 1
C184: + x91 + x373 <= 1
C185: + x59 + x289 <= 1
C186: + x235 + x269 <= 1
C187: + x289 + x307 <= 1
C188: + x24 + x56 <= 1
C189: + x45 + x276 <= 1
C190: + x83 + x91 <= 1
C191: + x318 + x428 <= 1
C192: + x336 + x450 <= 1
C193: + x167 + x312 <= 1
C194: + x195 + x471 <= 1
C195: + x6 + x33 <= 1
C196: + x88 + x219 <= 1
C197: + x121 + x364 <= 1
C198: + x86 + x275 <= 1
C199: + x59 + x404 <= 1
C200: + x18 + x38 <= 1
C201: + x204 + x236 <= 1
C202: + x77 + x431 <= 1
C203: + x334 + x474 <= 1
C204: + x23 + x101 <= 1
C205: + x162 + x169 <= 1
C206: + x3 + x259 <= 1
C207: + x59 + x488 <= 1
C208: + x225 + x415 <= 1
C209: + x5 + x128 <= 1
C210: + x25 + x225 <= 1
C211: + x15 + x408 <= 1
C212: + x91 + x461 <= 1
C213: + x3 + x17 <= 1
C214: + x118 + x481 <= 1
C215: + x258 + x444 <= 1
C216: + x68 + x98 <= 1
C217: + x23 + x177 <= 1
C218: + x6 + x153 <= 1
C219: + x27 + x64 <= 1
C220: + x83 + x433 <= 1
C221: + x182 + x234 <= 1
C222: + x201 + x351 <= 1
C223: + x4 + x487 <= 1
C224: + x20 + x21 <= 1
C225: + x38 + x67 <= 1
C226: + x6 + x42 <= 1
C227: + x163 + x350 <= 1
C228: + x11 + x165 <= 1
C229: + x45 + x154 <= 1
C230: + x11 + x282 <= 1
C231: + x123 + x192 <= 1
C232: + x89 + x313 <= 1
C233: + x344 + x400 <= 1
C234: + x10 + x485 <= 1
C235: + x174 + x404 <= 1
C236: + x130 + x190 <= 1
C237: + x18 + x20 + x48 <= 1
C238: + x141 + x221 <= 1
C239: + x32 + x65 <= 1
C240: + x126 + x294 <= 1
C241: + x5 + x194 <= 1
C242: + x296 + x361 <= 1
C243: + x12 + x178 <= 1
C244: + x4 + x109 <= 1
C245: + x151 + x311 <= 1
C246: + x3 + x447 <= 1
C247: + x48 + x193 <= 1
C248: + x10 + x465 <= 1
C249: + x291 + x375 <= 1
C250: + x54 + x480 <= 1
C251: + x20 + x356 <= 1
C252: + x59 + x82 <= 1
C253: + x10 + x108 <= 1
C254: + x12 + x271 <= 1
C255: + x44 + x83 <= 1
C256: + x162 + x289 <= 1
C257: + x1 + x62 <= 1
C258: + x102 + x158 <= 1
C259: + x19 + x236 <= 1
C260: + x242 + x432 <= 1
C261: + x4 + x25 <= 1
C262: + x33 + x215 <= 1
C263: + x98 + x281 <= 1
C264: + x5 + x488 <= 1
C265: + x72 + x208 <= 1
C266: + x339 + x410 <= 1
C267: + x69 + x144 <= 1
C268: + x87 + x251 <= 1
C269: + x6 + x19 <= 1
C270: + x15 + x72 <= 1
C271: + x31 + x43 <= 1
C272: + x5 + x58 <= 1
C273: + x207 + x417 <= 1
C274: + x16 + x493 <= 1
C275: + x66 + x217 <= 1
C276: + x330 + x481 <= 1
C277: + x2 + x68 <= 1
C278: + x169 + x376 <= 1
C279: + x91 + x193 <= 1
C280: + x20 + x252 <= 1
C281: + x232 + x236 <= 1
C282: + x13 + x299 <= 1
C283: + x97 + x319 <= 1
C284: + x27 + x308 <= 1
C285: + x118 + x499 <= 1
C286: + x52 + x298 <= 1
C287: + x34 + x452 <= 1
C288: + x45 + x92 <= 1
C289: + x97 + x121 <= 1
C290: + x81 + x312 <= 1
C291: + x38 + x117 <= 1
C292: + x3 + x55 <= 1
C293: + x4 + x372 <= 1
C294: + x14 + x105 <= 1
C295: + x217 + x280 <= 1
C296: + x19 + x118 <= 1
C297: + x87 + x95 <= 1
C298: + x270 + x407 <= 1
C299: + x15 + x349 <= 1
C300: + x88 + x500 <= 1
C301: + x37 + x202 <= 1
C302: + x78 + x111 <= 1
C303: + x31 + x260 <= 1
C304: + x143 + x179 <= 1
C305: + x11 + x58 <= 1
C306: + x55 + x390 <= 1
C307: + x274 + x405 <= 1
C308: + x6 + x208 <= 1
C309: + x18 + x343 <= 1
C310: + x37 + x345 <= 1
C311: + x203 + x408 <= 1
C312: + x5 + x85 <= 1
C313: + x327 + x463 <= 1
C314: + x159 + x257 <= 1
C315: + x6 + x81 <= 1
C316: + x66 + x238 <= 1
C317: + x11 + x465 <= 1
C318: + x31 + x105 <= 1
C319: + x100 + x192 <= 1
C320: + x2 + x180 <= 1
C321: + x17 + x111 <= 1
C322: + x127 + x154 <= 1
C323: + x101 + x405 <= 1
C324: + x91 + x143 <= 1
C325: + x83 + x301 <= 1
C326: + x252 + x293 <= 1
C327: + x100 + x455 <= 1
C328: + x10 + x288 <= 1
C329: + x11 + x33 <= 1
C330: + x3 + x70 <= 1
C331: + x31 + x424 <= 1
C332: + x32 + x64 <= 1
C333: + x91 + x272 <= 1
C334: + x174 + x237 <= 1
C335: + x20 + x266 <= 1
C336: + x150 + x476 <= 1
C337: + x6 + x295 <= 1
C338: + x65 + x84 <= 1
C339: + x94 + x459 <= 1
C340: + x21 + x95 <= 1
C341: + x39 + x342 <= 1
C342: + x5 + x334 <= 1
C343: + x127 + x306 <= 1
C344: + x8 + x358 <= 1
C345: + x328 + x369 <= 1
C346: + x32 + x100 <= 1
C347: + x13 + x432 <= 1
C348: + x289 + x342 <= 1
C349: + x298 + x367 <= 1
C350: + x7 + x150 <= 1
C351: + x83 + x296 <= 1
C352: + x110 + x167 <= 1
C353: + x3 + x174 <= 1
C354: + x5 + x23 <= 1
C355: + x17 + x304 <= 1
C356: + x81 + x112 <= 1
C357: + x12 + x77 <= 1
C358: + x17 + x18 <= 1
C359: + x160 + x349 <= 1
C360: + x147 + x375 <= 1
C361: + x3 + x93 <= 1
C362: + x69 + x169 <= 1
C363: + x152 + x183 <= 1
C364: + x143 + x403 <= 1
C365: + x10 + x55 <= 1
C366: + x2 + x242 <= 1
C367: + x77 + x345 <= 1
C368: + x71 + x376 <= 1
C369: + x73 + x478 <= 1
C370: + x29 + x65 <= 1
C371: + x233 + x402 <= 1
C372: + x39 + x188 <= 1
C373: + x27 + x269 <= 1
C374: + x2 + x99 <= 1
C375: + x367 + x498 <= 1
C376: + x31 + x91 <= 1
C377: + x6 + x230 <= 1
C378: + x283 + x385 <= 1
C379: + x12 + x138 <= 1
C380: + x13 + x26 <= 1
C381: + x31 + x248 <= 1
C382: + x286 + x299 <= 1
C383: + x341 + x383 <= 1
C384: + x236 + x353 <= 1
C385: + x253 + x489 <= 1
C386: + x4 + x117 <= 1
C387: + x357 + x442 <= 1
C388: + x4 + x359 <= 1
C389: + x406 + x455 <= 1
C390: + x83 + x214 <= 1
C391: + x1 + x137 <= 1
C392: + x3 + x165 <= 1
C393: + x39 + x102 <= 1
C394: + x5 + x30 <= 1
C395: + x142 + x461 <= 1
C396: + x23 + x164 <= 1
C397: + x219 + x348 <= 1
C398: + x13 + x78 <= 1
C399: + x34 + x49 <= 1
C400: + x235 + x263 <= 1
C401: + x159 + x330 <= 1
C402: + x325 + x389 <= 1
C403: + x194 + x467 <= 1
C404: + x58 + x187 <= 1
C405: + x33 + x44 <= 1
C406: + x169 + x340 <= 1
C407: + x415 + x448 <= 1
C408: + x6 + x59 <= 1
C409: + x352 + x441 <= 1
C410: + x154 + x277 <= 1
C411: + x78 + x352 <= 1
C412: + x25 + x278 <= 1
C413: + x34 + x383 <= 1
C414: + x65 + x418 <= 1
C415: + x174 + x258 <= 1
C416: + x73 + x453 <= 1
C417: + x137 + x183 <= 1
C418: + x39 + x417 <= 1
C419: + x54 + x352 <= 1
C420: + x60 + x454 <= 1
C421: + x6 + x477 <= 1
C422: + x9 + x113 <= 1
C423: + x37 + x159 <= 1
C424: + x49 + x232 <= 1
C425: + x3 + x27 <= 1
C426: + x62 + x115 <= 1
C427: + x65 + x336 <= 1
C428: + x19 + x90 <= 1
C429: + x94 + x255 <= 1
C430: + x4 + x139 <= 1
C431: + x74 + x408 <= 1
C432: + x49 + x119 <= 1
C433: + x33 + x273 <= 1
C434: + x25 + x163 <= 1
C435: + x119 + x268 <= 1
C436: + x240 + x241 <= 1
C437: + x36 + x48 <= 1
C438: + x1 + x220 <= 1
C439: + x212 + x477 <= 1
C440: + x9 + x12 <= 1
C441: + x19 + x175 <= 1
C442: + x38 + x46 <= 1
C443: + x91 + x95 <= 1
C444: + x57 + x227 <= 1
C445: + x212 + x334 <= 1
C446: + x14 + x53 <= 1
C447: + x6 + x216 <= 1
C448: + x91 + x244 <= 1
C449: + x121 + x309 <= 1
C450: + x29 + x198 <= 1
C451: + x30 + x242 <= 1
C452: + x112 + x156 <= 1
C453: + x34 + x324 <= 1
C454: + x27 + x130 <= 1
C455: + x11 + x328 <= 1
C456: + x85 + x451 <= 1
C457: + x167 + x217 <= 1
C458: + x32 + x131 <= 1
C459: + x4 + x244 <= 1
C460: + x16 + x180 <= 1
C461: + x37 + x277 <= 1
C462: + x12 + x116 <= 1
C463: + x40 + x266 <= 1
C464: + x70 + x127 <= 1
C465: + x289 + x311 <= 1
C466: + x7 + x10 <= 1
C467: + x32 + x381 <= 1
C468: + x94 + x105 <= 1
C469: + x104 + x301 <= 1
C470: + x31 + x388 <= 1
C471: + x6 + x45 <= 1
C472: + x336 + x353 <= 1
C473: + x3 + x203 <= 1
C474: + x59 + x416 <= 1
C475: + x212 + x486 <= 1
C476: + x307 + x500 <= 1
C477: + x83 + x490 <= 1
C478: + x130 + x427 <= 1
C479: + x78 + x128 <= 1
C480: + x1 + x285 <= 1
C481: + x77 + x213 <= 1
C482: + x376 + x422 <= 1
C483: + x6 + x209 <= 1
C484: + x15 + x134 <= 1
C485: + x18 + x171 <= 1
C486: + x63 + x469 <= 1
C487: + x302 + x464 <= 1
C488: + x3 + x287 <= 1
C489: + x17 + x66 <= 1
C490: + x145 + x407 <= 1
C491: + x28 + x267 <= 1
C492: + x55 + x243 <= 1
C493: + x3 + x420 <= 1
C494: + x95 + x497 <= 1
C495: + x12 + x28 <= 1
C496: + x6 + x98 <= 1
C497: + x67 + x114 <= 1
C498: + x104 + x213 <= 1
C499: + x5 + x11 <= 1
C500: + x126 + x381 <= 1
C501: + x6 + x352 <= 1
C502: + x27 + x60 <= 1
C503: + x316 + x354 <= 1
C504: + x220 + x431 <= 1
C505: + x298 + x476 <= 1
C506: + x96 + x422 <= 1
C507: + x81 + x318 <= 1
C508: + x334 + x411 <= 1
C509: + x1 + x456 <= 1
C510: + x400 + x450 <= 1
C511: + x20 + x25 <= 1
C512: + x3 + x33 <= 1
C513: + x76 + x152 <= 1
C514: + x2 + x464 <= 1
C515: + x126 + x494 <= 1
C516: + x6 + x22 <= 1
C517: + x1 + x170 <= 1
C518: + x173 + x190 <= 1
C519: + x297 + x358 <= 1
C520: + x52 + x492 <= 1
C521: + x1 + x119 <= 1
C522: + x11 + x262 <= 1
C523: + x147 + x494 <= 1
C524: + x15 + x36 + x47 <= 1
C525: + x5 + x297 <= 1
C526: + x283 + x324 <= 1
C527: + x130 + x178 <= 1
C528: + x31 + x439 <= 1
C529: + x197 + x398 <= 1
C530: + x172 + x283 <= 1
C531: + x56 + x91 <= 1
C532: + x3 + x282 <= 1
C533: + x132 + x465 <= 1
C534: + x14 + x138 <= 1
C535: + x23 + x258 <= 1
C536: + x3 + x443 <= 1
C537: + x48 + x205 <= 1
C538: + x367 + x381 <= 1
C539: + x14 + x440 <= 1
C540: + x83 + x259 <= 1
C541: + x2 + x27 <= 1
C542: + x57 + x370 <= 1
C543: + x13 + x141 <= 1
C544: + x4 + x226 <= 1
C545: + x44 + x388 <= 1
C546: + x32 + x52 + x274 <= 1
C547: + x1 + x50 <= 1
C548: + x54 + x383 <= 1
C549: + x32 + x355 <= 1
C550: + x142 + x340 <= 1
C551: + x9 + x82 <= 1
C552: + x18 + x123 <= 1
C553: + x20 + x34 <= 1
C554: + x49 + x270 <= 1
C555: + x148 + x418 <= 1
C556: + x181 + x315 <= 1
C557: + x1 + x380 <= 1
C558: + x55 + x280 <= 1
C559: + x4 + x174 <= 1
C560: + x25 + x370 <= 1
C561: + x45 + x141 <= 1
C562: + x273 + x286 <= 1
C563: + x102 + x124 <= 1
C564: + x4 + x315 <= 1
C565: + x31 + x442 <= 1
C566: + x9 + x144 <= 1
C567: + x82 + x357 <= 1
C568: + x40 + x182 <= 1
C569: + x32 + x233 <= 1
C570: + x16 + x26 <= 1
C571: + x11 + x369 <= 1
C572: + x59 + x343 <= 1
C573: + x69 + x207 <= 1
C574: + x64 + x151 <= 1
C575: + x206 + x468 <= 1
C576: + x44 + x80 <= 1
C577: + x1 + x9 <= 1
C578: + x67 + x485 <= 1
C579: + x4 + x6 <= 1
C580: + x78 + x492 <= 1
C581: + x98 + x278 <= 1
C582: + x81 + x300 <= 1
C583: + x57 + x179 <= 1
C584: + x47 + x166 <= 1
C585: + x3 + x51 <= 1
C586: + x353 + x436 <= 1
C587: + x6 + x8 <= 1
C588: + x152 + x233 <= 1
C589: + x74 + x202 <= 1
C590: + x260 + x459 <= 1
C591: + x363 + x444 <= 1
C592: + x9 + x40 <= 1
C593: + x111 + x292 <= 1
C594: + x4 + x50 <= 1
C595: + x251 + x436 <= 1
C596: + x71 + x239 <= 1
C597: + x1 + x482 <= 1
C598: + x270 + x484 <= 1
C599: + x91 + x257 <= 1
C600: + x273 + x420 <= 1
C601: + x37 + x325 <= 1
C602: + x38 + x339 <= 1
C603: + x5 + x81 <= 1
C604: + x126 + x194 <= 1
C605: + x63 + x171 <= 1
C606: + x55 + x200 <= 1
C607: + x48 + x211 <= 1
C608: + x4 + x433 <= 1
C609: + x55 + x97 <= 1
C610: + x21 + x366 <= 1
C611: + x97 + x151 <= 1
C612: + x4 + x240 <= 1
C613: + x114 + x371 <= 1
C614: + x298 + x463 <= 1
C615: + x45 + x79 <= 1
C616: + x118 + x214 <= 1
C617: + x274 + x360 <= 1
C618: + x56 + x125 <= 1
C619: + x3 + x320 <= 1
C620: + x58 + x467 <= 1
C621: + x9 + x227 <= 1
C622: + x43 + x212 <= 1
C623: + x226 + x338 <= 1
C624: + x27 + x170 <= 1
C625: + x83 + x410 <= 1
C626: + x15 + x441 <= 1
C627: + x3 + x14 <= 1
C628: + x373 + x499 <= 1
C629: + x57 + x332 <= 1
C630: + x348 + x362 <= 1
C631: + x39 + x112 <= 1
C632: + x171 + x320 <= 1
C633: + x16 + x92 <= 1
C634: + x54 + x277 <= 1
C635: + x55 + x131 <= 1
C636: + x95 + x417 <= 1
C637: + x18 + x417 <= 1
C638: + x80 + x191 <= 1
C639: + x194 + x453 <= 1
C640: + x77 + x249 <= 1
C641: + x4 + x297 <= 1
C642: + x5 + x187 <= 1
C643: + x176 + x349 <= 1
C644: + x109 + x210 <= 1
C645: + x120 + x142 + x339 <= 1
C646: + x1 + x408 <= 1
C647: + x55 + x223 <= 1
C648: + x174 + x268 <= 1
C649: + x294 + x330 <= 1
C650: + x7 + x94 <= 1
C651: + x20 + x379 <= 1
C652: + x123 + x439 <= 1
C653: + x59 + x119 <= 1
C654: + x32 + x112 <= 1
C655: + x39 + x427 <= 1
C656: + x16 + x157 <= 1
C657: + x1 + x7 <= 1
C658: + x18 + x195 <= 1
C659: + x361 + x371 <= 1
C660: + x16 + x52 <= 1
C661: + x65 + x100 <= 1
C662: + x5 + x382 <= 1
C663: + x6 + x10 <= 1
C664: + x98 + x387 <= 1
C665: + x52 + x456 <= 1
C666: + x253 + x349 <= 1
C667: + x11 + x314 <= 1
C668: + x29 + x137 <= 1
C669: + x106 + x126 <= 1
C670: + x169 + x436 <= 1
C671: + x15 + x464 <= 1
C672: + x54 + x177 <= 1
C673: + x367 + x426 <= 1
C674: + x22 + x424 <= 1
C675: + x204 + x435 <= 1
C676: + x18 + x325 <= 1
C677: + x18 + x144 <= 1
C678: + x71 + x463 <= 1
C679: + x38 + x325 <= 1
C680: + x4 + x77 <= 1
C681: + x77 + x442 <= 1
C682: + x48 + x288 <= 1
C683: + x25 + x101 <= 1
C684: + x119 + x458 <= 1
C685: + x225 + x293 <= 1
C686: + x14 + x63 <= 1
C687: + x52 + x257 <= 1
C688: + x16 + x303 <= 1
C689: + x73 + x337 <= 1
C690: + x8 + x73 <= 1
C691: + x40 + x149 <= 1
C692: + x7 + x488 <= 1
C693: + x28 + x316 <= 1
C694: + x3 + x32 <= 1
C695: + x30 + x458 <= 1
C696: + x96 + x294 <= 1
C697: + x36 + x428 <= 1
C698: + x54 + x452 <= 1
C699: + x280 + x490 <= 1
C700: + x148 + x208 <= 1
C701: + x68 + x115 <= 1
C702: + x7 + x375 <= 1
C703: + x10 + x211 <= 1
C704: + x39 + x251 <= 1
C705: + x32 + x395 <= 1
C706: + x135 + x229 <= 1
C707: + x33 + x48 <= 1
C708: + x217 + x317 <= 1
C709: + x6 + x39 <= 1
C710: + x100 + x344 <= 1
C711: + x364 + x448 <= 1
C712: + x174 + x219 <= 1
C713: + x228 + x413 <= 1
C714: + x223 + x229 <= 1
C715: + x104 + x396 <= 1
C716: + x92 + x324 <= 1
C717: + x66 + x245 <= 1
C718: + x49 + x338 <= 1
C719: + x13 + x176 <= 1
C720: + x22 + x117 <= 1
C721: + x5 + x221 <= 1
C722: + x46 + x271 <= 1
C723: + x3 + x265 <= 1
C724: + x49 + x63 <= 1
C725: + x12 + x131 <= 1
C726: + x34 + x335 <= 1
C727: + x51 + x61 <= 1
C728: + x33 + x107 <= 1
C729: + x2 + x12 <= 1
C730: + x37 + x437 <= 1
C731: + x367 + x457 <= 1
C732: + x138 + x180 <= 1
C733: + x5 + x499 <= 1
C734: + x11 + x397 <= 1
C735: + x56 + x163 <= 1
C736: + x130 + x240 <= 1
C737: + x59 + x64 <= 1
C738: + x49 + x285 <= 1
C739: + x31 + x413 <= 1
C740: + x18 + x311 <= 1
C741: + x5 + x386 <= 1
C742: + x17 + x147 <= 1
C743: + x2 + x355 <= 1
C744: + x3 + x401 <= 1
C745: + x12 + x43 <= 1
C746: + x7 + x71 <= 1
C747: + x11 + x14 <= 1
C748: + x67 + x191 <= 1
C749: + x225 + x307 <= 1
C750: + x154 + x251 <= 1
C751: + x18 + x182 <= 1
C752: + x27 + x105 <= 1
C753: + x49 + x54 <= 1
C754: + x48 + x104 <= 1
C755: + x91 + x462 <= 1
C756: + x133 + x235 <= 1
C757: + x71 + x179 <= 1
C758: + x1 + x155 <= 1
C759: + x59 + x88 <= 1
C760: + x5 + x16 <= 1
C761: + x130 + x403 <= 1
C762: + x24 + x80 <= 1
C763: + x226 + x330 <= 1
C764: + x3 + x38 <= 1
C765: + x39 + x283 <= 1
C766: + x47 + x330 <= 1
C767: + x23 + x33 <= 1
C768: + x6 + x41 <= 1
C769: + x15 + x126 <= 1
C770: + x66 + x409 <= 1
C771: + x194 + x324 <= 1
C772: + x3 + x199 <= 1
C773: + x13 + x207 <= 1
C774: + x5 + x52 <= 1
C775: + x6 + x263 <= 1
C776: + x7 + x413 <= 1
C777: + x200 + x231 <= 1
C778: + x37 + x197 <= 1
C779: + x3 + x364 <= 1
C780: + x21 + x127 <= 1
C781: + x137 + x460 <= 1
C782: + x78 + x124 <= 1
C783: + x231 + x353 <= 1
C784: + x31 + x279 <= 1
C785: + x208 + x295 <= 1
C786: + x396 + x449 <= 1
C787: + x120 + x449 <= 1
C788: + x71 + x250 <= 1
C789: + x1 + x273 <= 1
C790: + x256 + x377 <= 1
C791: + x55 + x393 <= 1
C792: + x87 + x189 <= 1
C793: + x202 + x434 <= 1
C794: + x365 + x479 <= 1
C795: + x290 + x415 <= 1
C796: + x47 + x119 <= 1
C797: + x132 + x496 <= 1
C798: + x174 + x292 <= 1
C799: + x31 + x451 <= 1
C800: + x422 + x424 <= 1
C801: + x35 + x341 <= 1
C802: + x6 + x110 <= 1
C803: + x173 + x313 <= 1
C804: + x10 + x472 <= 1
C805: + x257 + x268 <= 1
C806: + x39 + x387 <= 1
C807: + x4 + x253 <= 1
C808: + x68 + x106 <= 1
C809: + x6 + x129 <= 1
C810: + x4 + x28 <= 1
C811: + x4 + x495 <= 1
C812: + x14 + x268 <= 1
C813: + x172 + x456 <= 1
C814: + x19 + x270 <= 1
C815: + x97 + x373 <= 1
C816: + x6 + x18 <= 1
C817: + x118 + x317 <= 1
C818: + x160 + x212 <= 1
C819: + x54 + x483 <= 1
C820: + x235 + x399 <= 1
C821: + x18 + x23 <= 1
C822: + x45 + x146 <= 1
C823: + x27 + x204 <= 1
C824: + x39 + x220 <= 1
C825: + x68 + x136 <= 1
C826: + x17 + x46 <= 1
C827: + x3 + x113 <= 1
C828: + x114 + x265 <= 1
C829: + x23 + x120 <= 1
C830: + x180 + x340 <= 1
C831: + x16 + x259 <= 1
C832: + x6 + x198 <= 1
C833: + x1 + x250 <= 1
C834: + x146 + x363 <= 1
C835: + x82 + x360 <= 1
C836: + x11 + x145 <= 1
C837: + x47 + x122 <= 1
C838: + x278 + x414 <= 1
C839: + x32 + x240 <= 1
C840: + x27 + x160 <= 1
C841: + x101 + x443 <= 1
C842: + x102 + x309 <= 1
C843: + x143 + x348 <= 1
C844: + x27 + x305 <= 1
C845: + x31 + x132 <= 1
C846: + x31 + x341 <= 1
C847: + x72 + x200 <= 1
C848: + x38 + x399 <= 1
C849: + x5 + x141 <= 1
C850: + x133 + x269 <= 1
C851: + x35 + x292 <= 1
C852: + x173 + x364 <= 1
C853: + x28 + x38 <= 1
C854: + x336 + x371 <= 1
C855: + x428 + x441 <= 1
C856: + x1 + x384 <= 1
C857: + x4 + x146 <= 1
C858: + x78 + x384 <= 1
C859: + x1 + x66 <= 1
C860: + x113 + x140 <= 1
C861: + x67 + x446 <= 1
C862: + x358 + x363 <= 1
C863: + x7 + x44 <= 1
C864: + x9 + x386 <= 1
C865: + x127 + x445 <= 1
C866: + x83 + x359 <= 1
C867: + x37 + x346 <= 1
C868: + x38 + x342 <= 1
C869: + x170 + x358 <= 1
C870: + x5 + x419 <= 1
C871: + x65 + x94 <= 1
C872: + x267 + x288 <= 1
C873: + x251 + x377 <= 1
C874: + x59 + x144 <= 1
C875: + x170 + x385 <= 1
C876: + x329 + x451 <= 1
C877: + x129 + x240 <= 1
C878: + x16 + x139 <= 1
C879: + x1 + x13 <= 1
C880: + x140 + x283 <= 1
C881: + x201 + x210 <= 1
C882: + x57 + x183 <= 1
C883: + x20 + x43 <= 1
C884: + x3 + x15 <= 1
C885: + x59 + x212 <= 1
C886: + x5 + x140 <= 1
C887: + x9 + x314 <= 1
C888: + x10 + x65 <= 1
C889: + x274 + x500 <= 1
C890: + x58 + x63 <= 1
C891: + x105 + x195 <= 1
C892: + x435 + x464 <= 1
C893: + x71 + x322 <= 1
C894: + x168 + x308 <= 1
C895: + x127 + x331 <= 1
C896: + x10 + x287 <= 1
C897: + x321 + x491 <= 1
C898: + x183 + x425 <= 1
C899: + x49 + x373 <= 1
C900: + x3 + x67 <= 1
C901: + x118 + x339 <= 1
C902: + x3 + x232 <= 1
C903: + x12 + x168 <= 1
C904: + x4 + x67 <= 1
C905: + x16 + x99 <= 1
C906: + x182 + x348 <= 1
C907: + x2 + x283 <= 1
C908: + x38 + x50 <= 1
C909: + x252 + x372 <= 1
C910: + x11 + x22 <= 1
C911: + x3 + x151 <= 1
C912: + x13 + x191 <= 1
C913: + x32 + x99 <= 1
C914: + x82 + x270 <= 1
C915: + x18 + x206 <= 1
C916: + x139 + x388 <= 1
C917: + x3 + x316 <= 1
C918: + x35 + x209 <= 1
C919: + x389 + x488 <= 1
C920: + x3 + x10 <= 1
C921: + x195 + x307 <= 1
C922: + x2 + x37 <= 1
C923: + x56 + x490 <= 1
C924: + x4 + x160 <= 1
C925: + x126 + x344 <= 1
C926: + x2 + x328 <= 1
C927: + x244 + x332 <= 1
C928: + x35 + x165 <= 1
C929: + x162 + x482 <= 1
C930: + x3 + x94 <= 1
C931: + x110 + x218 <= 1
C932: + x55 + x306 <= 1
C933: + x12 + x221 <= 1
C934: + x78 + x422 <= 1
C935: + x187 + x189 <= 1
C936: + x6 + x303 <= 1
C937: + x1 + x108 <= 1
C938: + x38 + x59 <= 1
C939: + x88 + x188 <= 1
C940: + x6 + x66 <= 1
C941: + x321 + x446 <= 1
C942: + x23 + x85 <= 1
C943: + x79 + x114 <= 1
C944: + x32 + x108 <= 1
C945: + x71 + x392 <= 1
C946: + x31 + x245 <= 1
C947: + x36 + x204 <= 1
C948: + x118 + x126 <= 1
C949: + x65 + x104 <= 1
C950: + x56 + x149 <= 1
C951: + x3 + x472 <= 1
C952: + x4 + x362 <= 1
C953: + x216 + x272 <= 1
C954: + x7 + x142 <= 1
C955: + x71 + x78 <= 1
C956: + x33 + x446 <= 1
C957: + x5 + x31 <= 1
C958: + x81 + x104 <= 1
C959: + x171 + x291 <= 1
C960: + x39 + x200 <= 1
C961: + x5 + x265 <= 1
C962: + x168 + x290 <= 1
C963: + x6 + x391 <= 1
C964: + x172 + x480 <= 1
C965: + x5 + x174 <= 1
C966: + x82 + x249 <= 1
C967: + x3 + x250 <= 1
C968: + x21 + x137 <= 1
C969: + x222 + x484 <= 1
C970: + x23 + x253 <= 1
C971: + x47 + x406 <= 1
C972: + x63 + x345 <= 1
C973: + x66 + x85 <= 1
C974: + x3 + x411 <= 1
C975: + x30 + x434 <= 1
C976: + x59 + x153 <= 1
C977: + x258 + x374 <= 1
C978: + x6 + x75 <= 1
C979: + x14 + x45 + x414 <= 1
C980: + x7 + x319 <= 1
C981: + x128 + x173 <= 1
C982: + x11 + x249 <= 1
C983: + x59 + x479 <= 1
C984: + x40 + x145 <= 1
C985: + x23 + x201 <= 1
C986: + x6 + x476 <= 1
C987: + x3 + x28 <= 1
C988: + x39 + x305 <= 1
C989: + x33 + x88 <= 1
C990: + x106 + x301 <= 1
C991: + x189 + x390 <= 1
C992: + x7 + x133 <= 1
C993: + x17 + x498 <= 1
C994: + x57 + x350 <= 1
C995: + x113 + x331 <= 1
C996: + x33 + x437 <= 1
C997: + x90 + x134 <= 1
C998: + x126 + x149 <= 1
C999: + x45 + x109 <= 1
C1000: + x241 + x312 <= 1
C1001: + x3 + x322 <= 1
C1002: + x232 + x389 <= 1
C1003: + x6 + x35 <= 1
C1004: + x73 + x219 <= 1
C1005: + x2 + x195 <= 1
C1006: + x20 + x288 <= 1
C1007: + x39 + x74 <= 1
C1008: + x31 + x59 <= 1
C1009: + x269 + x354 <= 1
C1010: + x35 + x42 <= 1
C1011: + x103 + x418 <= 1
C1012: + x51 + x197 <= 1
C1013: + x31 + x297 <= 1
C1014: + x17 + x61 <= 1
C1015: + x101 + x315 <= 1
C1016: + x11 + x15 <= 1
C1017: + x66 + x308 <= 1
C1018: + x112 + x328 <= 1
C1019: + x31 + x70 <= 1
C1020: + x70 + x348 <= 1
C1021: + x24 + x365 <= 1
C1022: + x192 + x256 <= 1
C1023: + x115 + x203 <= 1
C1024: + x289 + x380 <= 1
C1025: + x62 + x296 <= 1
C1026: + x7 + x467 <= 1
C1027: + x3 + x426 <= 1
C1028: + x3 + x19 <= 1
C1029: + x394 + x419 <= 1
C1030: + x151 + x155 <= 1
C1031: + x8 + x264 <= 1
C1032: + x84 + x230 <= 1
C1033: + x104 + x223 <= 1
C1034: + x42 + x497 <= 1
C1035: + x5 + x13 <= 1
C1036: + x183 + x236 <= 1
C1037: + x172 + x462 <= 1
C1038: + x12 + x357 <= 1
C1039: + x195 + x468 <= 1
C1040: + x6 + x44 <= 1
C1041: + x91 + x184 <= 1
C1042: + x1 + x367 <= 1
C1043: + x127 + x452 <= 1
C1044: + x292 + x418 <= 1
C1045: + x284 + x461 <= 1
C1046: + x53 + x75 <= 1
C1047: + x37 + x218 <= 1
C1048: + x31 + x276 <= 1
C1049: + x78 + x127 <= 1
C1050: + x228 + x229 <= 1
C1051: + x50 + x83 <= 1
C1052: + x153 + x201 <= 1
C1053: + x118 + x379 <= 1
C1054: + x73 + x142 <= 1
C1055: + x92 + x175 <= 1
C1056: + x183 + x215 <= 1
C1057: + x478 + x491 <= 1
C1058: + x24 + x120 <= 1
C1059: + x63 + x183 <= 1
C1060: + x20 + x80 <= 1
C1061: + x12 + x27 <= 1
C1062: + x61 + x239 <= 1
C1063: + x5 + x12 <= 1
C1064: + x117 + x206 <= 1
C1065: + x91 + x377 <= 1
C1066: + x1 + x60 <= 1
C1067: + x57 + x457 <= 1
C1068: + x6 + x351 <= 1
C1069: + x79 + x460 <= 1
C1070: + x11 + x436 <= 1
C1071: + x184 + x426 <= 1
C1072: + x145 + x225 <= 1
C1073: + x16 + x382 <= 1
C1074: + x36 + x394 <= 1
C1075: + x11 + x162 <= 1
C1076: + x56 + x386 <= 1
C1077: + x5 + x64 <= 1
C1078: + x15 + x344 <= 1
C1079: + x48 + x252 <= 1
C1080: + x123 + x374 <= 1
C1081: + x4 + x10 + x56 <= 1
C1082: + x12 + x16 + x29 <= 1
C1083: + x36 + x279 <= 1
C1084: + x2 + x411 <= 1
C1085: + x138 + x246 <= 1
C1086: + x77 + x205 <= 1
C1087: + x21 + x277 <= 1
C1088: + x150 + x190 <= 1
C1089: + x5 + x207 <= 1
C1090: + x350 + x427 <= 1
C1091: + x100 + x201 <= 1
C1092: + x1 + x231 <= 1
C1093: + x11 + x150 <= 1
C1094: + x305 + x374 <= 1
C1095: + x89 + x429 <= 1
C1096: + x15 + x356 <= 1
C1097: + x3 + x444 <= 1
C1098: + x12 + x20 <= 1
C1099: + x81 + x167 <= 1
C1100: + x160 + x172 <= 1
C1101: + x11 + x101 <= 1
C1102: + x95 + x239 <= 1
C1103: + x16 + x129 <= 1
C1104: + x92 + x116 <= 1
C1105: + x63 + x265 <= 1
C1106: + x47 + x71 <= 1
C1107: + x31 + x157 <= 1
C1108: + x351 + x363 <= 1
C1109: + x227 + x333 <= 1
C1110: + x90 + x495 <= 1
C1111: + x3 + x57 <= 1
C1112: + x6 + x30 <= 1
C1113: + x92 + x318 <= 1
C1114: + x11 + x169 <= 1
C1115: + x3 + x222 <= 1
C1116: + x62 + x383 <= 1
C1117: + x1 + x79 <= 1
C1118: + x12 + x93 <= 1
C1119: + x53 + x254 <= 1
C1120: + x57 + x249 <= 1
C1121: + x11 + x60 <= 1
C1122: + x29 + x399 <= 1
C1123: + x12 + x335 <= 1
C1124: + x32 + x53 <= 1
C1125: + x79 + x85 <= 1
C1126: + x100 + x315 <= 1
C1127: + x9 + x380 <= 1
C1128: + x91 + x263 <= 1
C1129: + x46 + x374 <= 1
C1130: + x94 + x337 <= 1
C1131: + x59 + x499 <= 1
C1132: + x6 + x320 <= 1
C1133: + x201 + x227 <= 1
C1134: + x58 + x352 <= 1
C1135: + x3 + x435 <= 1
C1136: + x177 + x415 <= 1
C1137: + x7 + x97 <= 1
C1138: + x263 + x438 <= 1
C1139: + x249 + x389 <= 1
C1140: + x57 + x197 <= 1
C1141: + x4 + x5 <= 1
C1142: + x31 + x136 <= 1
C1143: + x125 + x148 <= 1
C1144: + x73 + x410 <= 1
C1145: + x23 + x55 <= 1
C1146: + x206 + x420 <= 1
C1147: + x63 + x74 <= 1
C1148: + x10 + x68 <= 1
C1149: + x384 + x496 <= 1
C1150: + x23 + x148 <= 1
C1151: + x189 + x323 <= 1
C1152: + x25 + x378 <= 1
C1153: + x38 + x193 <= 1
C1154: + x138 + x232 <= 1
C1155: + x3 + x72 <= 1
C1156: + x56 + x261 <= 1
C1157: + x20 + x425 <= 1
C1158: + x5 + x189 <= 1
C1159: + x133 + x317 <= 1
C1160: + x177 + x263 <= 1
C1161: + x17 + x326 <= 1
C1162: + x49 + x479 <= 1
C1163: + x305 + x356 <= 1
C1164: + x232 + x494 <= 1
C1165: + x57 + x111 <= 1
C1166: + x56 + x207 <= 1
C1167: + x130 + x329 <= 1
C1168: + x59 + x140 <= 1
C1169: + x294 + x336 <= 1
C1170: + x46 + x53 <= 1
C1171: + x2 + x108 <= 1
C1172: + x3 + x156 <= 1
C1173: + x59 + x109 <= 1
C1174: + x184 + x264 <= 1
C1175: + x3 + x5 + x6 + x7 <= 1
C1176: + x12 + x159 <= 1
C1177: + x7 + x491 <= 1
C1178: + x3 + x11 <= 1
C1179: + x20 + x486 <= 1
C1180: + x5 + x376 <= 1
C1181: + x8 + x235 <= 1
C1182: + x5 + x21 <= 1
C1183: + x35 + x412 <= 1
C1184: + x19 + x139 <= 1
C1185: + x121 + x234 <= 1
C1186: + x321 + x322 <= 1
C1187: + x33 + x182 <= 1
C1188: + x11 + x46 <= 1
C1189: + x36 + x489 <= 1
C1190: + x46 + x360 <= 1
C1191: + x452 + x478 <= 1
C1192: + x197 + x214 <= 1
C1193: + x10 + x148 <= 1
C1194: + x48 + x274 <= 1
C1195: + x6 + x69 <= 1
C1196: + x126 + x445 <= 1
C1197: + x11 + x18 <= 1
C1198: + x3 + x147 <= 1
C1199: + x4 + x216 <= 1
C1200: + x381 + x439 <= 1
C1201: + x1 + x8 <= 1
C1202: + x4 + x115 <= 1
C1203: + x43 + x220 <= 1
C1204: + x63 + x159 <= 1
C1205: + x119 + x359 <= 1
C1206: + x1 + x421 <= 1
C1207: + x86 + x104 <= 1
C1208: + x97 + x286 <= 1
C1209: + x87 + x257 <= 1
C1210: + x4 + x357 <= 1
C1211: + x6 + x9 <= 1
C1212: + x63 + x124 <= 1
C1213: + x33 + x443 <= 1
C1214: + x133 + x404 <= 1
C1215: + x172 + x192 <= 1
C1216: + x169 + x437 <= 1
C1217: + x34 + x51 <= 1
C1218: + x24 + x36 <= 1
C1219: + x16 + x455 <= 1
C1220: + x29 + x47 <= 1
C1221: + x204 + x438 <= 1
C1222: + x169 + x338 <= 1
C1223: + x115 + x448 <= 1
C1224: + x53 + x368 <= 1
C1225: + x7 + x187 <= 1
C1226: + x18 + x143 <= 1
C1227: + x137 + x379 <= 1
C1228: + x16 + x209 <= 1
C1229: + x55 + x310 <= 1
C1230: + x17 + x166 <= 1
C1231: + x24 + x145 <= 1
C1232: + x78 + x80 <= 1
C1233: + x92 + x334 <= 1
C1234: + x4 + x221 <= 1
C1235: + x6 + x225 <= 1
C1236: + x92 + x96 <= 1
C1237: + x49 + x230 <= 1
C1238: + x29 + x479 <= 1
C1239: + x175 + x422 <= 1
C1240: + x15 + x37 <= 1
C1241: + x6 + x114 <= 1
C1242: + x66 + x370 <= 1
C1243: + x38 + x281 <= 1
C1244: + x304 + x381 <= 1
C1245: + x5 + x27 <= 1
C1246: + x42 + x294 <= 1
C1247: + x173 + x484 <= 1
C1248: + x220 + x254 <= 1
C1249: + x104 + x310 <= 1
C1250: + x23 + x24 <= 1
C1251: + x24 + x416 <= 1
C1252: + x127 + x470 <= 1
C1253: + x175 + x211 <= 1
C1254: + x4 + x181 <= 1
C1255: + x5 + x79 <= 1
C1256: + x23 + x294 <= 1
C1257: + x43 + x333 <= 1
C1258: + x18 + x35 <= 1
C1259: + x76 + x290 <= 1
C1260: + x65 + x196 <= 1
C1261: + x7 + x234 <= 1
C1262: + x3 + x266 <= 1
C1263: + x33 + x346 <= 1
C1264: + x66 + x101 <= 1
C1265: + x46 + x177 <= 1
C1266: + x3 + x24 <= 1
C1267: + x113 + x482 <= 1
C1268: + x7 + x121 <= 1
C1269: + x190 + x270 <= 1
C1270: + x1 + x133 <= 1
C1271: + x2 + x11 <= 1
C1272: + x3 + x185 <= 1
C1273: + x66 + x331 <= 1
C1274: + x4 + x242 <= 1
C1275: + x224 + x449 <= 1
C1276: + x93 + x403 <= 1
C1277: + x20 + x179 <= 1
C1278: + x3 + x350 <= 1
C1279: + x130 + x409 <= 1
C1280: + x61 + x76 <= 1
C1281: + x63 + x245 <= 1
C1282: + x5 + x145 <= 1
C1283: + x6 + x47 <= 1
C1284: + x5 + x54 <= 1
C1285: + x5 + x387 <= 1
C1286: + x35 + x38 <= 1
C1287: + x18 + x28 <= 1
C1288: + x1 + x126 <= 1
C1289: + x24 + x167 <= 1
C1290: + x213 + x238 <= 1
C1291: + x48 + x301 <= 1
C1292: + x80 + x217 <= 1
C1293: + x27 + x284 <= 1
C1294: + x58 + x147 <= 1
C1295: + x11 + x31 + x73 <= 1
C1296: + x38 + x186 <= 1
C1297: + x39 + x58 <= 1
C1298: + x4 + x106 <= 1
C1299: + x40 + x134 <= 1
C1300: + x21 + x232 <= 1
C1301: + x113 + x247 <= 1
C1302: + x9 + x125 <= 1
C1303: + x18 + x88 <= 1
C1304: + x12 + x26 <= 1
C1305: + x394 + x423 <= 1
C1306: + x106 + x282 <= 1
C1307: + x12 + x429 <= 1
C1308: + x17 + x493 <= 1
C1309: + x236 + x241 <= 1
C1310: + x97 + x291 <= 1
C1311: + x168 + x323 <= 1
C1312: + x6 + x100 <= 1
C1313: + x38 + x267 <= 1
C1314: + x26 + x440 <= 1
C1315: + x31 + x118 <= 1
C1316: + x5 + x9 <= 1
C1317: + x60 + x430 <= 1
C1318: + x25 + x175 <= 1
C1319: + x168 + x468 <= 1
C1320: + x72 + x209 <= 1
C1321: + x63 + x256 <= 1
C1322: + x8 + x401 <= 1
C1323: + x259 + x473 <= 1
C1324: + x5 + x160 <= 1
C1325: + x6 + x24 <= 1
C1326: + x117 + x389 <= 1
C1327: + x287 + x346 <= 1
C1328: + x194 + x323 <= 1
C1329: + x3 + x200 <= 1
C1330: + x31 + x34 <= 1
C1331: + x128 + x202 <= 1
C1332: + x12 + x490 <= 1
C1333: + x52 + x252 <= 1
C1334: + x422 + x470 <= 1
C1335: + x108 + x150 <= 1
C1336: + x189 + x289 <= 1
C1337: + x178 + x197 <= 1
C1338: + x5 + x446 <= 1
C1339: + x17 + x71 <= 1
C1340: + x285 + x300 <= 1
C1341: + x4 + x321 <= 1
C1342: + x18 + x492 <= 1
C1343: + x54 + x99 <= 1
C1344: + x164 + x172 <= 1
C1345: + x2 + x5 <= 1
C1346: + x3 + x139 <= 1
C1347: + x246 + x286 <= 1
C1348: + x5 + x248 <= 1
C1349: + x15 + x272 <= 1
C1350: + x82 + x282 <= 1
C1351: + x3 + x304 <= 1
C1352: + x22 + x173 <= 1
C1353: + x9 + x432 <= 1
C1354: + x255 + x423 <= 1
C1355: + x212 + x224 <= 1
C1356: + x33 + x54 <= 1
C1357: + x5 + x135 <= 1
C1358: + x6 + x17 <= 1
C1359: + x16 + x378 <= 1
C1360: + x63 + x68 <= 1
C1361: + x83 + x313 <= 1
C1362: + x31 + x41 <= 1
C1363: + x33 + x403 <= 1
C1364: + x5 + x60 <= 1
C1365: + x171 + x243 <= 1
C1366: + x100 + x128 <= 1
C1367: + x1 + x76 <= 1
C1368: + x193 + x241 <= 1
C1369: + x5 + x278 <= 1
C1370: + x34 + x43 <= 1
C1371: + x16 + x495 <= 1
C1372: + x174 + x395 <= 1
C1373: + x11 + x61 <= 1
C1374: + x55 + x385 <= 1
C1375: + x163 + x295 <= 1
C1376: + x124 + x176 <= 1
C1377: + x33 + x367 <= 1
C1378: + x198 + x243 <= 1
C1379: + x138 + x440 <= 1
C1380: + x202 + x248 <= 1
C1381: + x48 + x204 <= 1
C1382: + x5 + x346 <= 1
C1383: + x88 + x176 <= 1
C1384: + x62 + x153 <= 1
C1385: + x11 + x472 <= 1
C1386: + x20 + x363 <= 1
C1387: + x56 + x455 <= 1
C1388: + x97 + x158 <= 1
C1389: + x67 + x70 <= 1
C1390: + x13 + x138 <= 1
C1391: + x14 + x22 <= 1
C1392: + x134 + x415 <= 1
C1393: + x87 + x129 <= 1
C1394: + x269 + x471 <= 1
C1395: + x192 + x222 <= 1
C1396: + x36 + x121 <= 1
C1397: + x54 + x378 <= 1
C1398: + x202 + x321 <= 1
C1399: + x315 + x475 <= 1
C1400: + x162 + x411 <= 1
C1401: + x24 + x93 <= 1
C1402: + x72 + x199 <= 1
C1403: + x327 + x386 <= 1
C1404: + x3 + x53 <= 1
C1405: + x195 + x290 <= 1
C1406: + x33 + x77 <= 1
C1407: + x23 + x52 <= 1
C1408: + x18 + x281 <= 1
C1409: + x28 + x498 <= 1
C1410: + x16 + x327 <= 1
C1411: + x3 + x218 <= 1
C1412: + x91 + x404 <= 1
C1413: + x34 + x36 <= 1
C1414: + x6 + x427 <= 1
C1415: + x55 + x87 <= 1
C1416: + x86 + x157 <= 1
C1417: + x31 + x419 <= 1
C1418: + x367 + x410 <= 1
C1419: + x9 + x384 <= 1
C1420: + x134 + x468 <= 1
C1421: + x28 + x113 <= 1
C1422: + x49 + x476 <= 1
C1423: + x24 + x130 <= 1
C1424: + x15 + x367 <= 1
C1425: + x12 + x13 <= 1
C1426: + x77 + x87 <= 1
C1427: + x6 + x95 <= 1
C1428: + x24 + x485 <= 1
C1429: + x2 + x420 <= 1
C1430: + x232 + x322 <= 1
C1431: + x91 + x343 <= 1
C1432: + x1 + x14 <= 1
C1433: + x4 + x9 <= 1
C1434: + x24 + x86 <= 1
C1435: + x6 + x496 <= 1
C1436: + x64 + x227 <= 1
C1437: + x3 + x16 <= 1
C1438: + x5 + x373 <= 1
C1439: + x161 + x393 <= 1
C1440: + x62 + x102 <= 1
C1441: + x300 + x366 <= 1
C1442: + x74 + x264 <= 1
C1443: + x29 + x275 <= 1
C1444: + x105 + x196 <= 1
C1445: + x21 + x184 <= 1
C1446: + x32 + x169 <= 1
C1447: + x78 + x376 <= 1
C1448: + x16 + x90 <= 1
C1449: + x45 + x129 <= 1
C1450: + x49 + x68 <= 1
C1451: + x124 + x372 <= 1
C1452: + x5 + x284 <= 1
C1453: + x62 + x215 <= 1
C1454: + x208 + x317 <= 1
C1455: + x9 + x394 <= 1
C1456: + x330 + x401 <= 1
C1457: + x58 + x175 <= 1
C1458: + x110 + x224 <= 1
C1459: + x2 + x255 <= 1
C1460: + x11 + x132 <= 1
C1461: + x48 + x123 <= 1
C1462: + x113 + x128 <= 1
C1463: + x59 + x152 <= 1
C1464: + x258 + x379 <= 1
C1465: + x70 + x205 <= 1
C1466: + x11 + x19 <= 1
C1467: + x31 + x82 <= 1
C1468: + x5 + x237 <= 1
C1469: + x32 + x110 <= 1
C1470: + x1 + x5 <= 1
C1471: + x357 + x445 <= 1
C1472: + x31 + x481 <= 1
C1473: + x25 + x40 <= 1
C1474: + x45 + x398 <= 1
C1475: + x28 + x51 <= 1
C1476: + x123 + x125 <= 1
C1477: + x5 + x17 <= 1
C1478: + x17 + x247 <= 1
C1479: + x381 + x400 <= 1
C1480: + x72 + x326 <= 1
C1481: + x466 + x471 <= 1
C1482: + x3 + x333 <= 1
C1483: + x48 + x147 <= 1
C1484: + x33 + x202 <= 1
C1485: + x179 + x425 <= 1
C1486: + x17 + x20 <= 1
C1487: + x72 + x233 <= 1
C1488: + x58 + x184 <= 1
C1489: + x6 + x302 <= 1
C1490: + x99 + x341 <= 1
C1491: + x11 + x368 <= 1
C1492: + x322 + x390 <= 1
C1493: + x48 + x231 <= 1
C1494: + x7 + x438 <= 1
C1495: + x16 + x107 <= 1
C1496: + x386 + x423 <= 1
C1497: + x4 + x445 <= 1
C1498: + x45 + x337 <= 1
C1499: + x110 + x287 <= 1
C1500: + x161 + x226 + x402 <= 1
C1501: + x37 + x480 <= 1
C1502: + x3 + x111 <= 1
C1503: + x42 + x474 <= 1
C1504: + x23 + x86 <= 1
C1505: + x31 + x89 <= 1
C1506: + x12 + x140 <= 1
C1507: + x6 + x466 <= 1
C1508: + x58 + x314 <= 1
C1509: + x4 + x361 <= 1
C1510: + x6 + x117 <= 1
C1511: + x74 + x306 <= 1
C1512: + x3 + x163 <= 1
C1513: + x20 + x334 <= 1
C1514: + x32 + x159 <= 1
C1515: + x161 + x228 <= 1
C1516: + x17 + x238 <= 1
C1517: + x36 + x92 <= 1
C1518: + x1 + x88 <= 1
C1519: + x91 + x365 <= 1
C1520: + x23 + x162 <= 1
C1521: + x44 + x109 <= 1
C1522: + x33 + x284 <= 1
C1523: + x42 + x252 <= 1
C1524: + x159 + x336 <= 1
C1525: + x7 + x30 <= 1
C1526: + x43 + x429 <= 1
C1527: + x6 + x57 <= 1
C1528: + x181 + x289 <= 1
C1529: + x109 + x377 <= 1
C1530: + x27 + x96 <= 1
C1531: + x197 + x260 <= 1
C1532: + x36 + x136 <= 1
C1533: + x21 + x412 <= 1
C1534: + x224 + x253 <= 1
C1535: + x415 + x461 <= 1
C1536: + x27 + x278 <= 1
C1537: + x19 + x471 <= 1
C1538: + x2 + x122 <= 1
C1539: + x20 + x391 <= 1
C1540: + x39 + x423 <= 1
C1541: + x214 + x439 <= 1
C1542: + x79 + x122 <= 1
C1543: + x91 + x247 <= 1
C1544: + x45 + x58 <= 1
C1545: + x27 + x100 <= 1
C1546: + x46 + x273 <= 1
C1547: + x227 + x396 <= 1
C1548: + x16 + x310 <= 1
C1549: + x33 + x327 <= 1
C1550: + x273 + x323 <= 1
C1551: + x308 + x357 <= 1
C1552: + x6 + x475 <= 1
C1553: + x154 + x450 <= 1
C1554: + x3 + x25 <= 1
C1555: + x117 + x495 <= 1
C1556: + x83 + x203 <= 1
C1557: + x13 + x226 <= 1
C1558: + x298 + x496 <= 1
C1559: + x195 + x204 <= 1
C1560: + x56 + x368 <= 1
C1561: + x177 + x304 <= 1
C1562: + x33 + x37 <= 1
C1563: + x13 + x369 <= 1
C1564: + x6 + x34 <= 1
C1565: + x309 + x338 <= 1
C1566: + x39 + x79 <= 1
C1567: + x34 + x185 <= 1
C1568: + x35 + x39 <= 1
C1569: + x53 + x77 <= 1
C1570: + x71 + x360 <= 1
C1571: + x29 + x81 <= 1
C1572: + x204 + x233 <= 1
C1573: + x386 + x433 <= 1
C1574: + x170 + x484 <= 1
C1575: + x228 + x255 <= 1
C1576: + x257 + x487 <= 1
C1577: + x31 + x75 <= 1
C1578: + x32 + x89 <= 1
C1579: + x70 + x347 <= 1
C1580: + x9 + x157 <= 1
C1581: + x172 + x246 <= 1
C1582: + x84 + x120 <= 1
C1583: + x3 + x262 <= 1
C1584: + x21 + x229 <= 1
C1585: + x206 + x225 <= 1
C1586: + x37 + x136 <= 1
C1587: + x11 + x326 <= 1
C1588: + x195 + x285 <= 1
C1589: + x81 + x170 <= 1
C1590: + x64 + x305 <= 1
C1591: + x266 + x458 <= 1
C1592: + x268 + x478 <= 1
C1593: + x4 + x246 <= 1
C1594: + x5 + x14 <= 1
C1595: + x11 + x213 <= 1
C1596: + x113 + x176 <= 1
C1597: + x7 + x16 <= 1
C1598: + x337 + x398 <= 1
C1599: + x54 + x142 <= 1
C1600: + x36 + x388 <= 1
C1601: + x10 + x405 <= 1
C1602: + x141 + x333 <= 1
C1603: + x5 + x50 <= 1
C1604: + x43 + x308 <= 1
C1605: + x19 + x168 <= 1
C1606: + x51 + x253 <= 1
C1607: + x164 + x296 <= 1
C1608: + x139 + x196 <= 1
C1609: + x47 + x280 <= 1
C1610: + x357 + x450 <= 1
C1611: + x145 + x167 <= 1
C1612: + x165 + x170 <= 1
C1613: + x47 + x113 <= 1
C1614: + x39 + x62 <= 1
C1615: + x107 + x168 <= 1
C1616: + x62 + x320 <= 1
C1617: + x57 + x91 <= 1
C1618: + x37 + x143 <= 1
C1619: + x250 + x397 <= 1
C1620: + x16 + x425 <= 1
C1621: + x10 + x466 <= 1
C1622: + x156 + x198 <= 1
C1623: + x122 + x291 <= 1
C1624: + x2 + x8 <= 1
C1625: + x112 + x276 <= 1
C1626: + x145 + x296 <= 1
C1627: + x49 + x103 <= 1
C1628: + x195 + x222 <= 1
C1629: + x67 + x401 <= 1
C1630: + x18 + x392 <= 1
C1631: + x3 + x63 <= 1
C1632: + x33 + x51 <= 1
C1633: + x31 + x393 <= 1
C1634: + x404 + x444 <= 1
C1635: + x91 + x192 <= 1
C1636: + x5 + x156 <= 1
C1637: + x8 + x255 <= 1
C1638: + x37 + x365 <= 1
C1639: + x83 + x318 <= 1
C1640: + x1 + x73 <= 1
C1641: + x37 + x194 <= 1
C1642: + x67 + x421 <= 1
C1643: + x48 + x306 <= 1
C1644: + x414 + x434 <= 1
C1645: + x99 + x478 <= 1
C1646: + x55 + x398 <= 1
C1647: + x130 + x184 <= 1
C1648: + x87 + x178 <= 1
C1649: + x209 + x393 <= 1
C1650: + x59 + x489 <= 1
C1651: + x4 + x83 <= 1
C1652: + x260 + x298 <= 1
C1653: + x60 + x491 <= 1
C1654: + x65 + x69 <= 1
C1655: + x121 + x162 <= 1
C1656: + x119 + x327 <= 1
C1657: + x39 + x146 <= 1
C1658: + x59 + x135 <= 1
C1659: + x8 + x466 <= 1
C1660: + x184 + x305 <= 1
C1661: + x31 + x97 <= 1
C1662: + x17 + x261 <= 1
C1663: + x3 + x300 <= 1
C1664: + x4 + x31 <= 1
C1665: + x124 + x231 <= 1
C1666: + x61 + x86 <= 1
C1667: + x20 + x36 <= 1
C1668: + x38 + x385 <= 1
C1669: + x12 + x406 <= 1
C1670: + x259 + x432 <= 1
C1671: + x5 + x131 <= 1
C1672: + x246 + x302 <= 1
C1673: + x31 + x45 <= 1
C1674: + x5 + x40 <= 1
C1675: + x24 + x177 <= 1
C1676: + x26 + x223 <= 1
C1677: + x101 + x116 <= 1
C1678: + x11 + x267 <= 1
C1679: + x465 + x480 <= 1
C1680: + x30 + x42 <= 1
C1681: + x169 + x449 <= 1
C1682: + x243 + x380 <= 1
C1683: + x17 + x35 <= 1
C1684: + x160 + x368 <= 1
C1685: + x44 + x164 <= 1
C1686: + x27 + x362 <= 1
C1687: + x57 + x303 <= 1
C1688: + x3 + x78 <= 1
C1689: + x21 + x285 <= 1
C1690: + x82 + x152 <= 1
C1691: + x173 + x235 <= 1
C1692: + x57 + x396 <= 1
C1693: + x38 + x344 <= 1
C1694: + x257 + x361 <= 1
C1695: + x31 + x217 <= 1
C1696: + x33 + x355 <= 1
C1697: + x220 + x483 <= 1
C1698: + x20 + x93 <= 1
C1699: + x59 + x130 <= 1
C1700: + x104 + x354 <= 1
C1701: + x87 + x316 <= 1
C1702: + x31 + x463 <= 1
C1703: + x7 + x98 <= 1
C1704: + x3 + x130 <= 1
C1705: + x140 + x190 <= 1
C1706: + x51 + x392 <= 1
C1707: + x33 + x466 <= 1
C1708: + x297 + x298 <= 1
C1709: + x182 + x198 <= 1
C1710: + x202 + x325 <= 1
C1711: + x65 + x459 <= 1
C1712: + x48 + x69 <= 1
C1713: + x177 + x218 <= 1
C1714: + x206 + x256 <= 1
C1715: + x44 + x237 <= 1
C1716: + x226 + x351 <= 1
C1717: + x20 + x41 <= 1
C1718: + x3 + x49 <= 1
C1719: + x17 + x395 <= 1
C1720: + x65 + x181 <= 1
C1721: + x237 + x366 <= 1
C1722: + x2 + x46 <= 1
C1723: + x3 + x214 <= 1
C1724: + x11 + x81 <= 1
C1725: + x4 + x149 <= 1
C1726: + x5 + x281 <= 1
C1727: + x108 + x473 <= 1
C1728: + x84 + x181 <= 1
C1729: + x69 + x161 <= 1
C1730: + x90 + x222 <= 1
C1731: + x100 + x291 <= 1
C1732: + x16 + x279 <= 1
C1733: + x10 + x15 <= 1
C1734: + x16 + x206 <= 1
C1735: + x95 + x335 <= 1
C1736: + x31 + x196 <= 1
C1737: + x5 + x83 <= 1
C1738: + x161 + x340 <= 1
C1739: + x23 + x274 <= 1
C1740: + x7 + x448 <= 1
C1741: + x114 + x406 <= 1
C1742: + x271 + x321 <= 1
C1743: + x74 + x133 <= 1
C1744: + x55 + x103 <= 1
C1745: + x11 + x24 <= 1
C1746: + x103 + x173 <= 1
C1747: + x110 + x297 <= 1
C1748: + x3 + x153 <= 1
C1749: + x52 + x309 <= 1
C1750: + x327 + x366 <= 1
C1751: + x4 + x210 <= 1
C1752: + x39 + x434 <= 1
C1753: + x171 + x189 <= 1
C1754: + x7 + x335 <= 1
C1755: + x4 + x13 <= 1
C1756: + x51 + x356 <= 1
C1757: + x72 + x188 <= 1
C1758: + x56 + x158 <= 1
C1759: + x331 + x397 <= 1
C1760: + x13 + x276 <= 1
C1761: + x91 + x137 <= 1
C1762: + x19 + x414 <= 1
C1763: + x27 + x457 <= 1
C1764: + x2 + x39 <= 1
C1765: + x10 + x433 <= 1
C1766: + x283 + x300 <= 1
C1767: + x132 + x286 <= 1
C1768: + x15 + x298 <= 1
C1769: + x245 + x293 <= 1
C1770: + x35 + x70 <= 1
C1771: + x1 + x94 <= 1
C1772: + x93 + x391 <= 1
C1773: + x48 + x146 <= 1
C1774: + x22 + x143 <= 1
C1775: + x26 + x76 <= 1
C1776: + x211 + x387 <= 1
C1777: + x3 + x96 <= 1
C1778: + x67 + x160 <= 1
C1779: + x115 + x390 <= 1
C1780: + x25 + x497 <= 1
C1781: + x118 + x350 <= 1
C1782: + x154 + x269 <= 1
C1783: + x1 + x205 <= 1
C1784: + x112 + x199 <= 1
C1785: + x5 + x90 <= 1
C1786: + x171 + x354 <= 1
C1787: + x67 + x326 <= 1
C1788: + x222 + x272 <= 1
C1789: + x45 + x342 <= 1
C1790: + x53 + x273 <= 1
C1791: + x271 + x332 <= 1
C1792: + x279 + x319 <= 1
C1793: + x23 + x87 <= 1
C1794: + x36 + x107 <= 1
C1795: + x10 + x228 <= 1
C1796: + x57 + x486 <= 1
C1797: + x442 + x456 <= 1
C1798: + x31 + x332 <= 1
C1799: + x194 + x392 <= 1
C1800: + x21 + x486 <= 1
C1801: + x13 + x267 <= 1
C1802: + x91 + x148 <= 1
C1803: + x20 + x329 <= 1
C1804: + x5 + x29 <= 1
C1805: + x24 + x224 <= 1
C1806: + x27 + x34 <= 1
C1807: + x228 + x430 <= 1
C1808: + x12 + x67 <= 1
C1809: + x31 + x163 <= 1
C1810: + x21 + x32 <= 1
C1811: + x41 + x172 <= 1
C1812: + x35 + x162 <= 1
C1813: + x5 + x271 <= 1
C1814: + x7 + x31 <= 1
C1815: + x5 + x164 <= 1
C1816: + x10 + x57 <= 1
C1817: + x51 + x290 <= 1
C1818: + x195 + x371 <= 1
C1819: + x5 + x307 <= 1
C1820: + x27 + x279 <= 1
C1821: + x8 + x345 <= 1
C1822: + x66 + x242 <= 1
C1823: + x138 + x266 <= 1
C1824: + x182 + x451 <= 1
C1825: + x77 + x166 <= 1
C1826: + x69 + x347 <= 1
C1827: + x21 + x382 <= 1
C1828: + x15 + x187 <= 1
C1829: + x181 + x362 <= 1
C1830: + x27 + x428 <= 1
C1831: + x116 + x341 <= 1
C1832: + x243 + x428 <= 1
C1833: + x161 + x318 <= 1
C1834: + x202 + x219 <= 1
C1835: + x212 + x256 <= 1
C1836: + x56 + x351 <= 1
C1837: + x52 + x180 <= 1
C1838: + x8 + x220 <= 1
C1839: + x3 + x191 <= 1
C1840: + x297 + x331 <= 1
C1841: + x42 + x394 <= 1
C1842: + x122 + x239 <= 1
C1843: + x304 + x467 <= 1
C1844: + x138 + x327 <= 1
C1845: + x49 + x211 <= 1
C1846: + x3 + x82 <= 1
C1847: + x78 + x247 <= 1
C1848: + x213 + x470 <= 1
C1849: + x21 + x150 <= 1
C1850: + x452 + x459 <= 1
C1851: + x6 + x275 <= 1
C1852: + x127 + x201 <= 1
C1853: + x9 + x11 <= 1
C1854: + x389 + x431 <= 1
C1855: + x21 + x424 <= 1
C1856: + x123 + x358 <= 1
C1857: + x3 + x102 <= 1
C1858: + x32 + x96 <= 1
C1859: + x87 + x161 <= 1
C1860: + x36 + x454 <= 1
C1861: + x72 + x260 <= 1
C1862: + x137 + x431 <= 1
C1863: + x12 + x133 <= 1
C1864: + x5 + x116 <= 1
C1865: + x43 + x370 <= 1
C1866: + x17 + x74 <= 1
C1867: + x3 + x21 <= 1
C1868: + x203 + x365 <= 1
C1869: + x78 + x188 <= 1
C1870: + x15 + x45 <= 1
C1871: + x236 + x251 <= 1
C1872: + x62 + x141 <= 1
C1873: + x19 + x84 <= 1
C1874: + x64 + x312 <= 1
C1875: + x3 + x186 <= 1
C1876: + x88 + x103 <= 1
C1877: + x154 + x375 <= 1
C1878: + x182 + x238 <= 1
C1879: + x201 + x347 <= 1
C1880: + x38 + x228 <= 1
C1881: + x233 + x474 <= 1
C1882: + x22 + x154 <= 1
C1883: + x107 + x319 <= 1
C1884: + x334 + x483 <= 1
C1885: + x398 + x494 <= 1
C1886: + x330 + x400 <= 1
C1887: + x38 + x71 <= 1
C1888: + x39 + x482 <= 1
C1889: + x33 + x57 <= 1
C1890: + x18 + x309 <= 1
C1891: + x74 + x216 <= 1
C1892: + x11 + x185 <= 1
C1893: + x269 + x287 <= 1
C1894: + x5 + x55 <= 1
C1895: + x150 + x497 <= 1
C1896: + x73 + x498 <= 1
C1897: + x99 + x355 <= 1
C1898: + x10 + x134 <= 1
C1899: + x39 + x369 <= 1
C1900: + x161 + x477 <= 1
C1901: + x6 + x447 <= 1
C1902: + x7 + x69 <= 1
C1903: + x11 + x12 <= 1
C1904: + x3 + x125 <= 1
C1905: + x6 + x210 <= 1
C1906: + x100 + x194 <= 1
C1907: + x173 + x250 <= 1
C1908: + x84 + x124 <= 1
C1909: + x3 + x258 <= 1
C1910: + x242 + x384 <= 1
C1911: + x7 + x299 <= 1
C1912: + x150 + x453 <= 1
C1913: + x24 + x118 <= 1
C1914: + x153 + x473 <= 1
C1915: + x18 + x87 <= 1
C1916: + x37 + x132 <= 1
C1917: + x190 + x262 <= 1
C1918: + x31 + x123 <= 1
C1919: + x234 + x316 <= 1
C1920: + x29 + x152 <= 1
C1921: + x30 + x32 <= 1
C1922: + x12 + x106 <= 1
C1923: + x98 + x261 <= 1
C1924: + x35 + x203 <= 1
C1925: + x44 + x254 <= 1
C1926: + x56 + x182 <= 1
C1927: + x48 + x328 <= 1
C1928: + x340 + x452 <= 1
C1929: + x278 + x364 <= 1
C1930: + x6 + x23 <= 1
C1931: + x19 + x127 <= 1
C1932: + x11 + x164 <= 1
C1933: + x31 + x39 <= 1
C1934: + x5 + x62 <= 1
C1935: + x16 + x78 <= 1
C1936: + x1 + x118 <= 1
C1937: + x20 + x135 <= 1
C1938: + x64 + x72 <= 1
C1939: + x77 + x110 <= 1
C1940: + x11 + x261 <= 1
C1941: + x30 + x84 <= 1
C1942: + x183 + x454 <= 1
C1943: + x422 + x469 <= 1
C1944: + x53 + x394 <= 1
C1945: + x20 + x248 <= 1
C1946: + x260 + x293 <= 1
C1947: + x5 + x447 <= 1
C1948: + x36 + x230 <= 1
C1949: + x12 + x18 <= 1
C1950: + x86 + x123 <= 1
C1951: + x42 + x66 <= 1
C1952: + x36 + x321 <= 1
C1953: + x1 + x303 <= 1
C1954: + x382 + x437 <= 1
C1955: + x4 + x30 <= 1
C1956: + x87 + x413 <= 1
C1957: + x26 + x41 <= 1
C1958: + x135 + x208 <= 1
C1959: + x85 + x412 <= 1

binary
x1 x2 x3 x4 x5 x6 x7 x8 x9 x10 x11 x12 x13 x14 x15 x16 x17 x18 x19 x20 x21 x22 x23 x24 x25 x26 x27 x28 x29 x30 x31 x32 x33 x34 x35 x36 x37 x38 x39 x40 x41 x42 x43 x44 x45 x46 x47 x48 x49 x50 x51 x52 x53 x54 x55 x56 x57 x58 x59 x60 x61 x62 x63 x64 x65 x66 x67 x68 x69 x70 x71 x72 x73 x74 x75 x76 x77 x78 x79 x80 x81 x82 x83 x84 x85 x86 x87 x88 x89 x90 x91 x92 x93 x94 x95 x96 x97 x98 x99 x100 x101 x102 x103 x104 x105 x106 x107 x108 x109 x110 x111 x112 x113 x114 x115 x116 x117 x118 x119 x120 x121 x122 x123 x124 x125 x126 x127 x128 x129 x130 x131 x132 x133 x134 x135 x136 x137 x138 x139 x140 x141 x142 x143 x144 x145 x146 x147 x148 x149 x150 x151 x152 x153 x154 x155 x156 x157 x158 x159 x160 x161 x162 x163 x164 x165 x166 x167 x168 x169 x170 x171 x172 x173 x174 x175 x176 x177 x178 x179 x180 x181 x182 x183 x184 x185 x186 x187 x188 x189 x190 x191 x192 x193 x194 x195 x196 x197 x198 x199 x200 x201 x202 x203 x204 x205 x206 x207 x208 x209 x210 x211 x212 x213 x214 x215 x216 x217 x218 x219 x220 x221 x222 x223 x224 x225 x226 x227 x228 x229 x230 x231 x232 x233 x234 x235 x236 x237 x238 x239 x240 x241 x242 x243 x244 x245 x246 x247 x248 x249 x250 x251 x252 x253 x254 x255 x256 x257 x258 x259 x260 x261 x262 x263 x264 x265 x266 x267 x268 x269 x270 x271 x272 x273 x274 x275 x276 x277 x278 x279 x280 x281 x282 x283 x284 x285 x286 x287 x288 x289 x290 x291 x292 x293 x294 x295 x296 x297 x298 x299 x300 x301 x302 x303 x304 x305 x306 x307 x308 x309 x310 x311 x312 x313 x314 x315 x316 x317 x318 x319 x320 x321 x322 x323 x324 x325 x326 x327 x328 x329 x330 x331 x332 x333 x334 x335 x336 x337 x338 x339 x340 x341 x342 x343 x344 x345 x346 x347 x348 x349 x350 x351 x352 x353 x354 x355 x356 x357 x358 x359 x360 x361 x362 x363 x364 x365 x366 x367 x368 x369 x370 x371 x372 x373 x374 x375 x376 x377 x378 x379 x380 x381 x382 x383 x384 x385 x386 x387 x388 x389 x390 x391 x392 x393 x394 x395 x396 x397 x398 x399 x400 x401 x402 x403 x404 x405 x406 x407 x408 x409 x410 x411 x412 x413 x414 x415 x416 x417 x418 x419 x420 x421 x422 x423 x424 x425 x426 x427 x428 x429 x430 x431 x432 x433 x434 x435 x436 x437 x438 x439 x440 x441 x442 x443 x444 x445 x446 x447 x448 x449 x450 x451 x452 x453 x454 x455 x456 x457 x458 x459 x460 x461 x462 x463 x464 x465 x466 x467 x468 x469 x470 x471 x472 x473 x474 x475 x476 x477 x478 x479 x480 x481 x482 x483 x484 x485 x486 x487 x488 x489 x490 x491 x492 x493 x494 x495 x496 x497 x498 x499 x500
