maximize
OBJ: + 1 x1 + 1 x2 + 1 x3 + 1 x4 + 1 x5 + 1 x6 + 1 x7 + 1 x8 + 1 x9 + 1 x10 + 1 x11 + 1 x12 + 1 x13 + 1 x14 + 1 x15 + 1 x16 + 1 x17 + 1 x18 + 1 x19 + 1 x20 + 1 x21 + 1 x22 + 1 x23 + 1 x24 + 1 x25 + 1 x26 + 1 x27 + 1 x28 + 1 x29 + 1 x30 + 1 x31 + 1 x32 + 1 x33 + 1 x34 + 1 x35 + 1 x36 + 1 x37 + 1 x38 + 1 x39 + 1 x40 + 1 x41 + 1 x42 + 1 x43 + 1 x44 + 1 x45 + 1 x46 + 1 x47 + 1 x48 + 1 x49 + 1 x50 + 1 x51 + 1 x52 + 1 x53 + 1 x54 + 1 x55 + 1 x56 + 1 x57 + 1 x58 + 1 x59 + 1 x60 + 1 x61 + 1 x62 + 1 x63 + 1 x64 + 1 x65 + 1 x66 + 1 x67 + 1 x68 + 1 x69 + 1 x70 + 1 x71 + 1 x72 + 1 x73 + 1 x74 + 1 x75 + 1 x76 + 1 x77 + 1 x78 + 1 x79 + 1 x80 + 1 x81 + 1 x82 + 1 x83 + 1 x84 + 1 x85 + 1 x86 + 1 x87 + 1 x88 + 1 x89 + 1 x90 + 1 x91 + 1 x92 + 1 x93 + 1 x94 + 1 x95 + 1 x96 + 1 x97 + 1 x98 + 1 x99 + 1 x100 + 1 x101 + 1 x102 + 1 x103 + 1 x104 + 1 x105 + 1 x106 + 1 x107 + 1 x108 + 1 x109 + 1 x110 + 1 x111 + 1 x112 + 1 x113 + 1 x114 + 1 x115 + 1 x116 + 1 x117 + 1 x118 + 1 x119 + 1 x120 + 1 x121 + 1 x122 + 1 x123 + 1 x124 + 1 x125 + 1 x126 + 1 x127 + 1 x128 + 1 x129 + 1 x130 + 1 x131 + 1 x132 + 1 x133 + 1 x134 + 1 x135 + 1 x136 + 1 x137 + 1 x138 + 1 x139 + 1 x140 + 1 x141 + 1 x142 + 1 x143 + 1 x144 + 1 x145 + 1 x146 + 1 x147 + 1 x148 + 1 x149 + 1 x150 + 1 x151 + 1 x152 + 1 x153 + 1 x154 + 1 x155 + 1 x156 + 1 x157 + 1 x158 + 1 x159 + 1 x160 + 1 x161 + 1 x162 + 1 x163 + 1 x164 + 1 x165 + 1 x166 + 1 x167 + 1 x168 + 1 x169 + 1 x170 + 1 x171 + 1 x172 + 1 x173 + 1 x174 + 1 x175 + 1 x176 + 1 x177 + 1 x178 + 1 x179 + 1 x180 + 1 x181 + 1 x182 + 1 x183 + 1 x184 + 1 x185 + 1 x186 + 1 x187 + 1 x188 + 1 x189 + 1 x190 + 1 x191 + 1 x192 + 1 x193 + 1 x194 + 1 x195 + 1 x196 + 1 x197 + 1 x198 + 1 x199 + 1 x200 + 1 x201 + 1 x202 + 1 x203 + 1 x204 + 1 x205 + 1 x206 + 1 x207 + 1 x208 + 1 x209 + 1 x210 + 1 x211 + 1 x212 + 1 x213 + 1 x214 + 1 x215 + 1 x216 + 1 x217 + 1 x218 + 1 x219 + 1 x220 + 1 x221 + 1 x222 + 1 x223 + 1 x224 + 1 x225 + 1 x226 + 1 x227 + 1 x228 + 1 x229 + 1 x230 + 1 x231 + 1 x232 + 1 x233 + 1 x234 + 1 x235 + 1 x236 + 1 x237 + 1 x238 + 1 x239 + 1 x240 + 1 x241 + 1 x242 + 1 x243 + 1 x244 + 1 x245 + 1 x246 + 1 x247 + 1 x248 + 1 x249 + 1 x250 + 1 x251 + 1 x252 + 1 x253 + 1 x254 + 1 x255 + 1 x256 + 1 x257 + 1 x258 + 1 x259 + 1 x260 + 1 x261 + 1 x262 + 1 x263 + 1 x264 + 1 x265 + 1 x266 + 1 x267 + 1 x268 + 1 x269 + 1 x270 + 1 x271 + 1 x272 + 1 x273 + 1 x274 + 1 x275 + 1 x276 + 1 x277 + 1 x278 + 1 x279 + 1 x280 + 1 x281 + 1 x282 + 1 x283 + 1 x284 + 1 x285 + 1 x286 + 1 x287 + 1 x288 + 1 x289 + 1 x290 + 1 x291 + 1 x292 + 1 x293 + 1 x294 + 1 x295 + 1 x296 + 1 x297 + 1 x298 + 1 x299 + 1 x300 + 1 x301 + 1 x302 + 1 x303 + 1 x304 + 1 x305 + 1 x306 + 1 x307 + 1 x308 + 1 x309 + 1 x310 + 1 x311 + 1 x312 + 1 x313 + 1 x314 + 1 x315 + 1 x316 + 1 x317 + 1 x318 + 1 x319 + 1 x320 + 1 x321 + 1 x322 + 1 x323 + 1 x324 + 1 x325 + 1 x326 + 1 x327 + 1 x328 + 1 x329 + 1 x330 + 1 x331 + 1 x332 + 1 x333 + 1 x334 + 1 x335 + 1 x336 + 1 x337 + 1 x338 + 1 x339 + 1 x340 + 1 x341 + 1 x342 + 1 x343 + 1 x344 + 1 x345 + 1 x346 + 1 x347 + 1 x348 + 1 x349 + 1 x350 + 1 x351 + 1 x352 + 1 x353 + 1 x354 + 1 x355 + 1 x356 + 1 x357 + 1 x358 + 1 x359 + 1 x360 + 1 x361 + 1 x362 + 1 x363 + 1 x364 + 1 x365 + 1 x366 + 1 x367 + 1 x368 + 1 x369 + 1 x370 + 1 x371 + 1 x372 + 1 x373 + 1 x374 + 1 x375 + 1 x376 + 1 x377 + 1 x378 + 1 x379 + 1 x380 + 1 x381 + 1 x382 + 1 x383 + 1 x384 + 1 x385 + 1 x386 + 1 x387 + 1 x388 + 1 x389 + 1 x390 + 1 x391 + 1 x392 + 1 x393 + 1 x394 + 1 x395 + 1 x396 + 1 x397 + 1 x398 + 1 x399 + 1 x400 + 1 x401 + 1 x402 + 1 x403 + 1 x404 + 1 x405 + 1 x406 + 1 x407 + 1 x408 + 1 x409 + 1 x410 + 1 x411 + 1 x412 + 1 x413 + 1 x414 + 1 x415 + 1 x416 + 1 x417 + 1 x418 + 1 x419 + 1 x420 + 1 x421 + 1 x422 + 1 x423 + 1 x424 + 1 x425 + 1 x426 + 1 x427 + 1 x428 + 1 x429 + 1 x430 + 1 x431 + 1 x432 + 1 x433 + 1 x434 + 1 x435 + 1 x436 + 1 x437 + 1 x438 + 1 x439 + 1 x440 + 1 x441 + 1 x442 + 1 x443 + 1 x444 + 1 x445 + 1 x446 + 1 x447 + 1 x448 + 1 x449 + 1 x450 + 1 x451 + 1 x452 + 1 x453 + 1 x454 + 1 x455 + 1 x456 + 1 x457 + 1 x458 + 1 x459 + 1 x460 + 1 x461 + 1 x462 + 1 x463 + 1 x464 + 1 x465 + 1 x466 + 1 x467 + 1 x468 + 1 x469 + 1 x470 + 1 x471 + 1 x472 + 1 x473 + 1 x474 + 1 x475 + 1 x476 + 1 x477 + 1 x478 + 1 x479 + 1 x480 + 1 x481 + 1 x482 + 1 x483 + 1 x484 + 1 x485 + 1 x486 + 1 x487 + 1 x488 + 1 x489 + 1 x490 + 1 x491 + 1 x492 + 1 x493 + 1 x494 + 1 x495 + 1 x496 + 1 x497 + 1 x498 + 1 x499 + 1 x500

subject to
C1: + x41 + x378 <= 1
C2: + x97 + x375 <= 1
C3: + x6 + x32 <= 1
C4: + x63 + x65 <= 1
C5: + x8 + x251 <= 1
C6: + x24 + x265 <= 1
C7: + x117 + x159 <= 1
C8: + x207 + x424 <= 1
C9: + x246 + x452 <= 1
C10: + x123 + x198 <= 1
C11: + x95 + x434 <= 1
C12: + x77 + x101 <= 1
C13: + x7 + x55 <= 1
C14: + x120 + x476 <= 1
C15: + x23 + x118 <= 1
C16: + x5 + x105 <= 1
C17: + x52 + x113 <= 1
C18: + x91 + x478 <= 1
C19: + x134 + x269 <= 1
C20: + x58 + x346 <= 1
C21: + x112 + x450 <= 1
C22: + x170 + x414 <= 1
C23: + x62 + x152 <= 1
C24: + x91 + x127 <= 1
C25: + x271 + x379 <= 1
C26: + x138 + x165 <= 1
C27: + x29 + x321 <= 1
C28: + x3 + x131 <= 1
C29: + x94 + x196 <= 1
C30: + x6 + x248 <= 1
C31: + x84 + x86 <= 1
C32: + x121 + x277 <= 1
C33: + x294 + x298 <= 1
C34: + x158 + x402 <= 1
C35: + x13 + x112 <= 1
C36: + x3 + x54 <= 1
C37: + x257 + x436 <= 1
C38: + x13 + x282 <= 1
C39: + x71 + x95 <= 1
C40: + x63 + x76 <= 1
C41: + x74 + x286 <= 1
C42: + x44 + x438 <= 1
C43: + x44 + x121 <= 1
C44: + x15 + x292 <= 1
C45: + x49 + x78 <= 1
C46: + x131 + x146 <= 1
C47: + x186 + x381 <= 1
C48: + x92 + x418 <= 1
C49: + x11 + x37 <= 1
C50: + x104 + x269 <= 1
C51: + x14 + x90 <= 1
C52: + x172 + x266 <= 1
C53: + x7 + x288 <= 1
C54: + x13 + x51 <= 1
C55: + x31 + x221 <= 1
C56: + x34 + x361 <= 1
C57: + x5 + x88 <= 1
C58: + x9 + x19 <= 1
C59: + x54 + x209 <= 1
C60: + x57 + x109 <= 1
C61: + x106 + x500 <= 1
C62: + x173 + x297 <= 1
C63: + x84 + x329 <= 1
C64: + x37 + x427 <= 1
C65: + x274 + x454 <= 1
C66: + x431 + x480 <= 1
C67: + x4 + x237 <= 1
C68: + x132 + x365 <= 1
C69: + x6 + x241 <= 1
C70: + x8 + x92 <= 1
C71: + x10 + x246 <= 1
C72: + x89 + x453 <= 1
C73: + x9 + x95 <= 1
C74: + x288 + x324 <= 1
C75: + x81 + x207 <= 1
C76: + x7 + x146 <= 1
C77: + x77 + x361 <= 1
C78: + x213 + x497 <= 1
C79: + x26 + x172 <= 1
C80: + x8 + x16 <= 1
C81: + x228 + x420 <= 1
C82: + x29 + x177 <= 1
C83: + x157 + x305 <= 1
C84: + x15 + x456 <= 1
C85: + x2 + x496 <= 1
C86: + x69 + x173 <= 1
C87: + x14 + x83 <= 1
C88: + x118 + x140 <= 1
C89: + x373 + x390 <= 1
C90: + x74 + x371 <= 1
C91: + x41 + x49 <= 1
C92: + x112 + x198 <= 1
C93: + x5 + x95 <= 1
C94: + x197 + x236 <= 1
C95: + x44 + x46 <= 1
C96: + x9 + x26 <= 1
C97: + x120 + x351 <= 1
C98: + x20 + x106 <= 1
C99: + x3 + x391 <= 1
C100: + x97 + x464 <= 1
C101: + x19 + x486 <= 1
C102: + x66 + x252 <= 1
C103: + x91 + x230 <= 1
C104: + x1 + x6 <= 1
C105: + x19 + x212 <= 1
C106: + x10 + x255 <= 1
C107: + x31 + x244 <= 1
C108: + x17 + x89 <= 1
C109: + x65 + x99 <= 1
C110: + x54 + x238 <= 1
C111: + x3 + x8 <= 1
C112: + x25 + x41 <= 1
C113: + x117 + x410 <= 1
C114: + x9 + x291 <= 1
C115: + x30 + x149 <= 1
C116: + x4 + x130 <= 1
C117: + x23 + x176 <= 1
C118: + x278 + x483 <= 1
C119: + x44 + x119 <= 1
C120: + x191 + x236 <= 1
C121: + x146 + x451 <= 1
C122: + x310 + x458 <= 1
C123: + x30 + x56 <= 1
C124: + x58 + x417 <= 1
C125: + x79 + x271 <= 1
C126: + x337 + x410 <= 1
C127: + x46 + x117 <= 1
C128: + x7 + x197 <= 1
C129: + x185 + x339 <= 1
C130: + x6 + x301 <= 1
C131: + x199 + x235 <= 1
C132: + x62 + x352 <= 1
C133: + x119 + x176 <= 1
C134: + x95 + x471 <= 1
C135: + x12 + x62 <= 1
C136: + x158 + x460 <= 1
C137: + x123 + x163 <= 1
C138: + x7 + x88 <= 1
C139: + x11 + x450 <= 1
C140: + x326 + x329 <= 1
C141: + x210 + x336 <= 1
C142: + x55 + x324 <= 1
C143: + x58 + x478 <= 1
C144: + x86 + x341 <= 1
C145: + x295 + x467 <= 1
C146: + x13 + x21 <= 1
C147: + x159 + x385 <= 1
C148: + x10 + x323 <= 1
C149: + x5 + x380 <= 1
C150: + x15 + x39 <= 1
C151: + x345 + x421 <= 1
C152: + x137 + x255 <= 1
C153: + x93 + x245 <= 1
C154: + x5 + x25 <= 1
C155: + x43 + x283 <= 1
C156: + x26 + x182 <= 1
C157: + x206 + x308 <= 1
C158: + x10 + x212 <= 1
C159: + x151 + x413 <= 1
C160: + x326 + x381 <= 1
C161: + x68 + x303 <= 1
C162: + x165 + x354 <= 1
C163: + x58 + x426 <= 1
C164: + x457 + x486 <= 1
C165: + x187 + x211 <= 1
C166: + x150 + x378 <= 1
C167: + x8 + x417 <= 1
C168: + x49 + x224 <= 1
C169: + x4 + x280 <= 1
C170: + x89 + x188 <= 1
C171: + x189 + x477 <= 1
C172: + x7 + x192 <= 1
C173: + x415 + x419 <= 1
C174: + x109 + x199 <= 1
C175: + x92 + x135 <= 1
C176: + x304 + x327 <= 1
C177: + x32 + x206 <= 1
C178: + x93 + x430 <= 1
C179: + x32 + x448 <= 1
C180: + x28 + x385 <= 1
C181: + x64 + x140 <= 1
C182: + x5 + x212 <= 1
C183: + x18 + x363 <= 1
C184: + x18 + x190 <= 1
C185: + x278 + x388 <= 1
C186: + x5 + x355 <= 1
C187: + x38 + x260 <= 1
C188: + x194 + x320 <= 1
C189: + x5 + x8 <= 1
C190: + x26 + x332 <= 1
C191: + x363 + x415 <= 1
C192: + x19 + x250 <= 1
C193: + x13 + x72 <= 1
C194: + x5 + x151 <= 1
C195: + x190 + x452 <= 1
C196: + x173 + x203 <= 1
C197: + x83 + x329 <= 1
C198: + x46 + x341 <= 1
C199: + x94 + x144 <= 1
C200: + x176 + x208 <= 1
C201: + x14 + x161 <= 1
C202: + x179 + x226 <= 1
C203: + x268 + x404 <= 1
C204: + x214 + x462 <= 1
C205: + x39 + x80 <= 1
C206: + x113 + x313 <= 1
C207: + x116 + x278 <= 1
C208: + x131 + x349 <= 1
C209: + x11 + x287 <= 1
C210: + x12 + x44 <= 1
C211: + x90 + x422 <= 1
C212: + x120 + x457 <= 1
C213: + x129 + x307 <= 1
C214: + x4 + x201 <= 1
C215: + x23 + x101 <= 1
C216: + x99 + x174 <= 1
C217: + x409 + x441 <= 1
C218: + x73 + x350 <= 1
C219: + x10 + x18 <= 1
C220: + x292 + x487 <= 1
C221: + x38 + x188 <= 1
C222: + x84 + x119 <= 1
C223: + x8 + x192 <= 1
C224: + x197 + x320 <= 1
C225: + x9 + x123 <= 1
C226: + x19 + x354 <= 1
C227: + x76 + x273 <= 1
C228: + x49 + x295 <= 1
C229: + x3 + x17 <= 1
C230: + x69 + x221 <= 1
C231: + x43 + x108 <= 1
C232: + x6 + x102 <= 1
C233: + x7 + x126 <= 1
C234: + x173 + x321 <= 1
C235: + x146 + x267 <= 1
C236: + x246 + x279 <= 1
C237: + x13 + x154 <= 1
C238: + x43 + x269 <= 1
C239: + x117 + x268 <= 1
C240: + x45 + x102 <= 1
C241: + x182 + x234 <= 1
C242: + x59 + x300 <= 1
C243: + x127 + x357 <= 1
C244: + x256 + x310 <= 1
C245: + x311 + x384 <= 1
C246: + x176 + x370 <= 1
C247: + x196 + x454 <= 1
C248: + x6 + x42 <= 1
C249: + x173 + x373 <= 1
C250: + x28 + x482 <= 1
C251: + x38 + x369 <= 1
C252: + x158 + x308 <= 1
C253: + x42 + x419 <= 1
C254: + x23 + x306 <= 1
C255: + x17 + x137 <= 1
C256: + x1 + x115 <= 1
C257: + x8 + x40 <= 1
C258: + x185 + x197 <= 1
C259: + x10 + x138 <= 1
C260: + x77 + x115 <= 1
C261: + x50 + x291 <= 1
C262: + x316 + x389 <= 1
C263: + x7 + x57 <= 1
C264: + x8 + x331 <= 1
C265: + x153 + x430 <= 1
C266: + x74 + x165 <= 1
C267: + x38 + x165 <= 1
C268: + x39 + x51 <= 1
C269: + x20 + x243 <= 1
C270: + x177 + x241 <= 1
C271: + x5 + x436 <= 1
C272: + x51 + x260 <= 1
C273: + x28 + x272 <= 1
C274: + x49 + x137 <= 1
C275: + x131 + x364 <= 1
C276: + x4 + x351 <= 1
C277: + x22 + x489 <= 1
C278: + x143 + x237 <= 1
C279: + x110 + x317 <= 1
C280: + x8 + x198 <= 1
C281: + x3 + x141 <= 1
C282: + x112 + x275 <= 1
C283: + x39 + x398 <= 1
C284: + x15 + x213 <= 1
C285: + x93 + x103 <= 1
C286: + x139 + x490 <= 1
C287: + x20 + x191 <= 1
C288: + x16 + x473 <= 1
C289: + x19 + x269 <= 1
C290: + x75 + x370 <= 1
C291: + x130 + x312 <= 1
C292: + x7 + x8 <= 1
C293: + x39 + x285 <= 1
C294: + x180 + x389 <= 1
C295: + x46 + x327 <= 1
C296: + x3 + x193 <= 1
C297: + x32 + x185 <= 1
C298: + x7 + x407 <= 1
C299: + x84 + x408 <= 1
C300: + x150 + x345 <= 1
C301: + x82 + x115 <= 1
C302: + x57 + x244 <= 1
C303: + x192 + x393 <= 1
C304: + x95 + x161 <= 1
C305: + x14 + x36 <= 1
C306: + x24 + x381 <= 1
C307: + x9 + x375 <= 1
C308: + x82 + x353 <= 1
C309: + x39 + x54 <= 1
C310: + x4 + x86 <= 1
C311: + x105 + x160 <= 1
C312: + x142 + x413 <= 1
C313: + x9 + x105 <= 1
C314: + x16 + x30 <= 1
C315: + x84 + x484 <= 1
C316: + x47 + x214 <= 1
C317: + x285 + x289 <= 1
C318: + x21 + x73 <= 1
C319: + x53 + x261 <= 1
C320: + x17 + x473 <= 1
C321: + x137 + x155 <= 1
C322: + x225 + x284 <= 1
C323: + x273 + x357 <= 1
C324: + x47 + x69 <= 1
C325: + x140 + x483 <= 1
C326: + x170 + x298 <= 1
C327: + x35 + x194 <= 1
C328: + x168 + x456 <= 1
C329: + x74 + x107 <= 1
C330: + x138 + x382 <= 1
C331: + x141 + x159 <= 1
C332: + x23 + x62 <= 1
C333: + x5 + x132 <= 1
C334: + x7 + x156 <= 1
C335: + x137 + x199 <= 1
C336: + x118 + x263 <= 1
C337: + x406 + x428 <= 1
C338: + x251 + x325 <= 1
C339: + x73 + x242 <= 1
C340: + x4 + x5 + x6 + x7 <= 1
C341: + x15 + x236 <= 1
C342: + x117 + x302 <= 1
C343: + x27 + x214 <= 1
C344: + x7 + x394 <= 1
C345: + x239 + x465 <= 1
C346: + x77 + x476 <= 1
C347: + x35 + x150 <= 1
C348: + x67 + x139 <= 1
C349: + x3 + x75 <= 1
C350: + x118 + x134 <= 1
C351: + x37 + x345 <= 1
C352: + x3 + x240 <= 1
C353: + x250 + x414 <= 1
C354: + x30 + x125 <= 1
C355: + x106 + x271 <= 1
C356: + x52 + x148 <= 1
C357: + x32 + x456 <= 1
C358: + x314 + x383 <= 1
C359: + x118 + x202 <= 1
C360: + x119 + x202 <= 1
C361: + x58 + x463 <= 1
C362: + x130 + x487 <= 1
C363: + x7 + x498 <= 1
C364: + x164 + x402 <= 1
C365: + x57 + x182 <= 1
C366: + x376 + x378 <= 1
C367: + x5 + x139 <= 1
C368: + x61 + x307 <= 1
C369: + x9 + x313 <= 1
C370: + x63 + x80 <= 1
C371: + x26 + x465 <= 1
C372: + x121 + x392 <= 1
C373: + x52 + x352 <= 1
C374: + x125 + x499 <= 1
C375: + x36 + x442 <= 1
C376: + x23 + x146 <= 1
C377: + x8 + x19 <= 1
C378: + x139 + x464 <= 1
C379: + x318 + x388 <= 1
C380: + x11 + x33 <= 1
C381: + x30 + x272 <= 1
C382: + x367 + x419 <= 1
C383: + x89 + x171 <= 1
C384: + x39 + x40 <= 1
C385: + x131 + x468 <= 1
C386: + x13 + x47 <= 1
C387: + x32 + x211 <= 1
C388: + x34 + x152 <= 1
C389: + x33 + x379 <= 1
C390: + x16 + x100 <= 1
C391: + x39 + x129 <= 1
C392: + x12 + x310 <= 1
C393: + x52 + x312 <= 1
C394: + x26 + x297 <= 1
C395: + x28 + x132 <= 1
C396: + x25 + x137 <= 1
C397: + x241 + x426 <= 1
C398: + x69 + x229 <= 1
C399: + x168 + x345 <= 1
C400: + x14 + x411 <= 1
C401: + x49 + x412 <= 1
C402: + x4 + x157 <= 1
C403: + x5 + x23 <= 1
C404: + x44 + x431 <= 1
C405: + x6 + x380 <= 1
C406: + x100 + x145 <= 1
C407: + x37 + x256 <= 1
C408: + x166 + x376 <= 1
C409: + x84 + x427 <= 1
C410: + x22 + x142 <= 1
C411: + x194 + x204 <= 1
C412: + x319 + x442 <= 1
C413: + x17 + x18 <= 1
C414: + x64 + x222 <= 1
C415: + x41 + x408 <= 1
C416: + x32 + x37 <= 1
C417: + x15 + x101 <= 1
C418: + x23 + x28 <= 1
C419: + x73 + x353 <= 1
C420: + x55 + x305 <= 1
C421: + x76 + x87 <= 1
C422: + x41 + x53 <= 1
C423: + x23 + x229 <= 1
C424: + x9 + x30 <= 1
C425: + x10 + x146 <= 1
C426: + x57 + x120 <= 1
C427: + x38 + x60 <= 1
C428: + x30 + x79 <= 1
C429: + x50 + x315 <= 1
C430: + x58 + x368 <= 1
C431: + x5 + x309 <= 1
C432: + x23 + x395 <= 1
C433: + x54 + x121 <= 1
C434: + x8 + x355 <= 1
C435: + x58 + x126 <= 1
C436: + x12 + x299 <= 1
C437: + x78 + x312 <= 1
C438: + x177 + x364 <= 1
C439: + x361 + x473 <= 1
C440: + x90 + x242 <= 1
C441: + x9 + x237 <= 1
C442: + x11 + x241 <= 1
C443: + x22 + x382 <= 1
C444: + x34 + x229 <= 1
C445: + x179 + x370 <= 1
C446: + x170 + x285 <= 1
C447: + x6 + x119 <= 1
C448: + x7 + x141 <= 1
C449: + x9 + x295 <= 1
C450: + x10 + x116 <= 1
C451: + x8 + x222 <= 1
C452: + x198 + x439 <= 1
C453: + x205 + x425 <= 1
C454: + x99 + x209 <= 1
C455: + x160 + x423 <= 1
C456: + x171 + x233 <= 1
C457: + x201 + x302 <= 1
C458: + x9 + x217 <= 1
C459: + x20 + x167 <= 1
C460: + x34 + x49 <= 1
C461: + x10 + x266 <= 1
C462: + x46 + x113 <= 1
C463: + x56 + x170 <= 1
C464: + x221 + x342 <= 1
C465: + x82 + x250 <= 1
C466: + x36 + x39 <= 1
C467: + x9 + x168 <= 1
C468: + x49 + x463 <= 1
C469: + x39 + x82 <= 1
C470: + x21 + x144 <= 1
C471: + x21 + x109 <= 1
C472: + x419 + x479 <= 1
C473: + x247 + x251 <= 1
C474: + x214 + x425 <= 1
C475: + x14 + x60 <= 1
C476: + x9 + x148 <= 1
C477: + x8 + x70 <= 1
C478: + x84 + x109 <= 1
C479: + x137 + x425 <= 1
C480: + x34 + x331 <= 1
C481: + x25 + x290 <= 1
C482: + x17 + x84 <= 1
C483: + x5 + x451 <= 1
C484: + x10 + x327 <= 1
C485: + x38 + x105 <= 1
C486: + x252 + x347 <= 1
C487: + x15 + x43 <= 1
C488: + x73 + x238 <= 1
C489: + x63 + x97 <= 1
C490: + x12 + x288 <= 1
C491: + x13 + x232 <= 1
C492: + x22 + x61 <= 1
C493: + x119 + x239 <= 1
C494: + x84 + x441 <= 1
C495: + x313 + x367 <= 1
C496: + x58 + x430 <= 1
C497: + x14 + x65 <= 1
C498: + x7 + x180 <= 1
C499: + x9 + x175 <= 1
C500: + x10 + x33 <= 1
C501: + x11 + x191 <= 1
C502: + x100 + x240 <= 1
C503: + x227 + x433 <= 1
C504: + x89 + x402 <= 1
C505: + x6 + x274 <= 1
C506: + x9 + x12 <= 1
C507: + x7 + x418 <= 1
C508: + x21 + x108 <= 1
C509: + x39 + x383 <= 1
C510: + x88 + x335 <= 1
C511: + x6 + x216 <= 1
C512: + x24 + x366 <= 1
C513: + x192 + x253 <= 1
C514: + x21 + x219 <= 1
C515: + x13 + x16 <= 1
C516: + x24 + x128 <= 1
C517: + x54 + x252 <= 1
C518: + x476 + x496 <= 1
C519: + x271 + x359 <= 1
C520: + x191 + x492 <= 1
C521: + x246 + x266 <= 1
C522: + x265 + x500 <= 1
C523: + x30 + x355 <= 1
C524: + x169 + x179 <= 1
C525: + x88 + x429 <= 1
C526: + x113 + x174 <= 1
C527: + x7 + x10 <= 1
C528: + x335 + x466 <= 1
C529: + x57 + x158 <= 1
C530: + x6 + x45 <= 1
C531: + x8 + x136 <= 1
C532: + x165 + x252 <= 1
C533: + x301 + x404 <= 1
C534: + x303 + x348 <= 1
C535: + x4 + x192 <= 1
C536: + x5 + x56 <= 1
C537: + x23 + x138 <= 1
C538: + x32 + x183 <= 1
C539: + x7 + x409 <= 1
C540: + x119 + x190 <= 1
C541: + x111 + x271 <= 1
C542: + x233 + x391 <= 1
C543: + x144 + x210 <= 1
C544: + x37 + x459 <= 1
C545: + x136 + x356 <= 1
C546: + x233 + x249 <= 1
C547: + x23 + x121 <= 1
C548: + x82 + x168 <= 1
C549: + x171 + x400 <= 1
C550: + x27 + x137 <= 1
C551: + x30 + x110 <= 1
C552: + x50 + x173 <= 1
C553: + x13 + x305 <= 1
C554: + x23 + x492 <= 1
C555: + x15 + x53 <= 1
C556: + x8 + x382 <= 1
C557: + x348 + x375 <= 1
C558: + x39 + x399 <= 1
C559: + x35 + x103 <= 1
C560: + x10 + x194 <= 1
C561: + x83 + x429 <= 1
C562: + x20 + x190 <= 1
C563: + x13 + x123 <= 1
C564: + x14 + x272 <= 1
C565: + x89 + x142 <= 1
C566: + x23 + x40 <= 1
C567: + x271 + x438 <= 1
C568: + x61 + x290 <= 1
C569: + x335 + x374 <= 1
C570: + x5 + x63 <= 1
C571: + x96 + x459 <= 1
C572: + x171 + x323 <= 1
C573: + x32 + x267 <= 1
C574: + x18 + x19 <= 1
C575: + x308 + x457 <= 1
C576: + x42 + x149 <= 1
C577: + x271 + x293 <= 1
C578: + x55 + x91 <= 1
C579: + x3 + x117 <= 1
C580: + x49 + x323 <= 1
C581: + x9 + x372 <= 1
C582: + x8 + x177 <= 1
C583: + x382 + x451 <= 1
C584: + x23 + x221 <= 1
C585: + x8 + x472 <= 1
C586: + x139 + x259 <= 1
C587: + x13 + x304 <= 1
C588: + x14 + x440 <= 1
C589: + x163 + x413 <= 1
C590: + x109 + x431 <= 1
C591: + x182 + x481 <= 1
C592: + x11 + x104 <= 1
C593: + x46 + x399 <= 1
C594: + x177 + x324 <= 1
C595: + x221 + x395 <= 1
C596: + x21 + x352 <= 1
C597: + x3 + x9 + x11 + x13 <= 1
C598: + x292 + x480 <= 1
C599: + x33 + x294 <= 1
C600: + x42 + x210 <= 1
C601: + x135 + x205 <= 1
C602: + x131 + x229 <= 1
C603: + x176 + x379 <= 1
C604: + x150 + x244 <= 1
C605: + x6 + x31 <= 1
C606: + x36 + x400 <= 1
C607: + x31 + x47 <= 1
C608: + x5 + x38 <= 1
C609: + x6 + x178 <= 1
C610: + x189 + x248 <= 1
C611: + x43 + x296 <= 1
C612: + x8 + x25 <= 1
C613: + x345 + x359 <= 1
C614: + x237 + x410 <= 1
C615: + x17 + x33 <= 1
C616: + x82 + x119 <= 1
C617: + x93 + x348 <= 1
C618: + x21 + x275 <= 1
C619: + x13 + x344 <= 1
C620: + x39 + x42 <= 1
C621: + x41 + x68 <= 1
C622: + x125 + x274 <= 1
C623: + x61 + x466 <= 1
C624: + x17 + x192 <= 1
C625: + x336 + x405 <= 1
C626: + x139 + x270 <= 1
C627: + x23 + x486 <= 1
C628: + x45 + x358 <= 1
C629: + x109 + x422 <= 1
C630: + x92 + x360 <= 1
C631: + x39 + x441 <= 1
C632: + x197 + x441 <= 1
C633: + x6 + x322 <= 1
C634: + x281 + x396 <= 1
C635: + x1 + x9 <= 1
C636: + x11 + x196 <= 1
C637: + x97 + x125 <= 1
C638: + x33 + x317 <= 1
C639: + x10 + x303 <= 1
C640: + x46 + x78 <= 1
C641: + x113 + x453 <= 1
C642: + x50 + x139 <= 1
C643: + x59 + x216 <= 1
C644: + x23 + x147 <= 1
C645: + x35 + x77 <= 1
C646: + x145 + x464 <= 1
C647: + x12 + x83 <= 1
C648: + x13 + x93 <= 1
C649: + x31 + x264 <= 1
C650: + x143 + x183 <= 1
C651: + x163 + x475 <= 1
C652: + x7 + x47 <= 1
C653: + x62 + x220 <= 1
C654: + x67 + x135 <= 1
C655: + x50 + x71 <= 1
C656: + x7 + x285 <= 1
C657: + x19 + x38 <= 1
C658: + x9 + x20 <= 1
C659: + x39 + x343 <= 1
C660: + x176 + x453 <= 1
C661: + x93 + x359 <= 1
C662: + x10 + x245 <= 1
C663: + x38 + x135 <= 1
C664: + x22 + x376 <= 1
C665: + x161 + x302 <= 1
C666: + x143 + x366 <= 1
C667: + x75 + x368 <= 1
C668: + x212 + x240 <= 1
C669: + x106 + x319 <= 1
C670: + x52 + x164 <= 1
C671: + x91 + x139 <= 1
C672: + x19 + x416 <= 1
C673: + x7 + x151 <= 1
C674: + x10 + x435 <= 1
C675: + x131 + x412 <= 1
C676: + x35 + x411 <= 1
C677: + x100 + x112 <= 1
C678: + x8 + x15 <= 1
C679: + x134 + x330 <= 1
C680: + x49 + x70 <= 1
C681: + x55 + x131 <= 1
C682: + x460 + x479 <= 1
C683: + x259 + x339 <= 1
C684: + x314 + x448 <= 1
C685: + x153 + x391 <= 1
C686: + x7 + x34 <= 1
C687: + x9 + x396 <= 1
C688: + x14 + x15 + x136 <= 1
C689: + x84 + x188 <= 1
C690: + x428 + x452 <= 1
C691: + x24 + x58 + x204 <= 1
C692: + x42 + x43 <= 1
C693: + x5 + x187 <= 1
C694: + x79 + x162 <= 1
C695: + x32 + x60 <= 1
C696: + x109 + x210 <= 1
C697: + x55 + x318 <= 1
C698: + x205 + x363 <= 1
C699: + x5 + x96 <= 1
C700: + x158 + x498 <= 1
C701: + x50 + x201 <= 1
C702: + x105 + x484 <= 1
C703: + x15 + x17 <= 1
C704: + x64 + x133 <= 1
C705: + x11 + x17 <= 1
C706: + x356 + x472 <= 1
C707: + x93 + x171 <= 1
C708: + x13 + x186 <= 1
C709: + x221 + x408 <= 1
C710: + x39 + x52 + x227 <= 1
C711: + x18 + x384 <= 1
C712: + x18 + x195 <= 1
C713: + x1 + x7 <= 1
C714: + x74 + x446 <= 1
C715: + x113 + x193 <= 1
C716: + x100 + x169 <= 1
C717: + x29 + x245 <= 1
C718: + x33 + x256 <= 1
C719: + x251 + x498 <= 1
C720: + x17 + x90 <= 1
C721: + x10 + x345 <= 1
C722: + x11 + x343 <= 1
C723: + x57 + x65 <= 1
C724: + x130 + x287 <= 1
C725: + x3 + x5 <= 1
C726: + x95 + x110 <= 1
C727: + x243 + x280 <= 1
C728: + x9 + x292 <= 1
C729: + x192 + x339 <= 1
C730: + x158 + x276 <= 1
C731: + x13 + x238 <= 1
C732: + x6 + x360 <= 1
C733: + x82 + x319 <= 1
C734: + x93 + x388 <= 1
C735: + x67 + x395 <= 1
C736: + x77 + x454 <= 1
C737: + x34 + x52 <= 1
C738: + x71 + x217 <= 1
C739: + x322 + x491 <= 1
C740: + x32 + x33 <= 1
C741: + x9 + x368 <= 1
C742: + x94 + x189 <= 1
C743: + x38 + x325 <= 1
C744: + x18 + x43 <= 1
C745: + x57 + x124 <= 1
C746: + x16 + x49 + x151 <= 1
C747: + x7 + x85 <= 1
C748: + x51 + x435 <= 1
C749: + x74 + x423 <= 1
C750: + x11 + x253 <= 1
C751: + x118 + x123 <= 1
C752: + x16 + x57 <= 1
C753: + x127 + x144 <= 1
C754: + x326 + x491 <= 1
C755: + x105 + x407 <= 1
C756: + x349 + x459 <= 1
C757: + x66 + x371 <= 1
C758: + x20 + x336 <= 1
C759: + x48 + x455 <= 1
C760: + x32 + x153 <= 1
C761: + x235 + x482 <= 1
C762: + x11 + x289 <= 1
C763: + x311 + x450 <= 1
C764: + x252 + x311 <= 1
C765: + x92 + x440 <= 1
C766: + x94 + x424 <= 1
C767: + x77 + x340 <= 1
C768: + x46 + x254 <= 1
C769: + x56 + x219 <= 1
C770: + x55 + x447 <= 1
C771: + x47 + x268 <= 1
C772: + x304 + x311 <= 1
C773: + x7 + x318 <= 1
C774: + x14 + x155 <= 1
C775: + x5 + x463 <= 1
C776: + x139 + x278 <= 1
C777: + x3 + x23 <= 1
C778: + x38 + x432 <= 1
C779: + x7 + x124 <= 1
C780: + x2 + x12 <= 1
C781: + x29 + x378 <= 1
C782: + x6 + x159 <= 1
C783: + x44 + x104 <= 1
C784: + x6 + x362 <= 1
C785: + x17 + x231 <= 1
C786: + x16 + x183 <= 1
C787: + x90 + x382 <= 1
C788: + x61 + x75 <= 1
C789: + x26 + x89 <= 1
C790: + x7 + x11 <= 1
C791: + x28 + x333 <= 1
C792: + x9 + x417 <= 1
C793: + x94 + x417 <= 1
C794: + x20 + x454 <= 1
C795: + x7 + x184 <= 1
C796: + x127 + x480 <= 1
C797: + x17 + x147 <= 1
C798: + x19 + x171 <= 1
C799: + x309 + x497 <= 1
C800: + x130 + x342 <= 1
C801: + x46 + x247 <= 1
C802: + x98 + x474 <= 1
C803: + x7 + x71 <= 1
C804: + x144 + x213 <= 1
C805: + x11 + x14 <= 1
C806: + x437 + x448 <= 1
C807: + x32 + x91 <= 1
C808: + x9 + x330 <= 1
C809: + x109 + x243 <= 1
C810: + x12 + x188 <= 1
C811: + x10 + x372 <= 1
C812: + x121 + x150 <= 1
C813: + x49 + x147 <= 1
C814: + x84 + x469 <= 1
C815: + x123 + x307 <= 1
C816: + x182 + x328 <= 1
C817: + x179 + x449 <= 1
C818: + x187 + x432 <= 1
C819: + x208 + x366 <= 1
C820: + x58 + x96 <= 1
C821: + x23 + x178 <= 1
C822: + x135 + x310 <= 1
C823: + x13 + x128 <= 1
C824: + x40 + x255 <= 1
C825: + x4 + x490 <= 1
C826: + x23 + x328 <= 1
C827: + x11 + x440 <= 1
C828: + x49 + x207 <= 1
C829: + x76 + x147 <= 1
C830: + x68 + x242 <= 1
C831: + x13 + x362 <= 1
C832: + x82 + x240 <= 1
C833: + x220 + x475 <= 1
C834: + x85 + x173 <= 1
C835: + x50 + x455 <= 1
C836: + x203 + x447 <= 1
C837: + x17 + x138 <= 1
C838: + x179 + x392 <= 1
C839: + x6 + x442 <= 1
C840: + x17 + x55 <= 1
C841: + x173 + x261 <= 1
C842: + x35 + x129 <= 1
C843: + x11 + x53 <= 1
C844: + x84 + x164 <= 1
C845: + x19 + x455 <= 1
C846: + x55 + x72 <= 1
C847: + x16 + x241 <= 1
C848: + x10 + x26 <= 1
C849: + x51 + x257 <= 1
C850: + x5 + x104 <= 1
C851: + x32 + x231 <= 1
C852: + x207 + x224 <= 1
C853: + x52 + x106 <= 1
C854: + x141 + x387 <= 1
C855: + x19 + x23 + x341 <= 1
C856: + x49 + x138 <= 1
C857: + x20 + x81 <= 1
C858: + x59 + x321 <= 1
C859: + x5 + x338 <= 1
C860: + x74 + x152 <= 1
C861: + x83 + x264 <= 1
C862: + x11 + x121 <= 1
C863: + x175 + x283 <= 1
C864: + x23 + x73 <= 1
C865: + x6 + x129 <= 1
C866: + x19 + x233 <= 1
C867: + x120 + x231 <= 1
C868: + x239 + x387 <= 1
C869: + x24 + x69 <= 1
C870: + x181 + x411 <= 1
C871: + x30 + x489 <= 1
C872: + x5 + x134 <= 1
C873: + x74 + x196 <= 1
C874: + x19 + x124 <= 1
C875: + x236 + x277 <= 1
C876: + x82 + x471 <= 1
C877: + x12 + x89 <= 1
C878: + x77 + x107 <= 1
C879: + x41 + x263 <= 1
C880: + x5 + x277 <= 1
C881: + x213 + x243 <= 1
C882: + x252 + x298 <= 1
C883: + x249 + x437 <= 1
C884: + x73 + x184 <= 1
C885: + x67 + x470 <= 1
C886: + x39 + x43 <= 1
C887: + x23 + x209 <= 1
C888: + x188 + x276 <= 1
C889: + x43 + x365 <= 1
C890: + x281 + x282 <= 1
C891: + x5 + x444 <= 1
C892: + x120 + x335 <= 1
C893: + x391 + x474 <= 1
C894: + x195 + x365 <= 1
C895: + x6 + x87 <= 1
C896: + x7 + x109 <= 1
C897: + x292 + x357 <= 1
C898: + x38 + x318 <= 1
C899: + x11 + x100 <= 1
C900: + x97 + x122 <= 1
C901: + x49 + x258 <= 1
C902: + x68 + x256 <= 1
C903: + x6 + x27 <= 1
C904: + x219 + x427 <= 1
C905: + x84 + x193 <= 1
C906: + x141 + x381 <= 1
C907: + x207 + x425 <= 1
C908: + x73 + x485 <= 1
C909: + x1 + x66 <= 1
C910: + x19 + x152 <= 1
C911: + x38 + x197 <= 1
C912: + x241 + x268 <= 1
C913: + x327 + x445 <= 1
C914: + x64 + x175 <= 1
C915: + x37 + x48 <= 1
C916: + x55 + x82 <= 1
C917: + x32 + x50 <= 1
C918: + x82 + x150 <= 1
C919: + x10 + x12 <= 1
C920: + x189 + x200 <= 1
C921: + x9 + x17 <= 1
C922: + x54 + x118 <= 1
C923: + x136 + x187 <= 1
C924: + x55 + x372 <= 1
C925: + x38 + x154 <= 1
C926: + x231 + x474 <= 1
C927: + x4 + x10 <= 1
C928: + x26 + x53 <= 1
C929: + x84 + x312 <= 1
C930: + x403 + x428 <= 1
C931: + x13 + x279 <= 1
C932: + x73 + x250 <= 1
C933: + x216 + x477 <= 1
C934: + x153 + x178 <= 1
C935: + x19 + x143 <= 1
C936: + x84 + x421 <= 1
C937: + x20 + x156 <= 1
C938: + x4 + x54 <= 1
C939: + x4 + x393 <= 1
C940: + x14 + x85 <= 1
C941: + x79 + x163 <= 1
C942: + x27 + x404 <= 1
C943: + x92 + x183 <= 1
C944: + x8 + x163 <= 1
C945: + x5 + x93 <= 1
C946: + x32 + x297 <= 1
C947: + x6 + x294 <= 1
C948: + x9 + x24 <= 1
C949: + x46 + x143 <= 1
C950: + x38 + x50 <= 1
C951: + x30 + x117 <= 1
C952: + x136 + x180 <= 1
C953: + x58 + x124 <= 1
C954: + x68 + x93 <= 1
C955: + x233 + x315 <= 1
C956: + x77 + x279 <= 1
C957: + x14 + x311 <= 1
C958: + x23 + x356 <= 1
C959: + x252 + x336 <= 1
C960: + x73 + x225 <= 1
C961: + x39 + x100 <= 1
C962: + x27 + x37 <= 1
C963: + x1 + x96 <= 1
C964: + x49 + x122 <= 1
C965: + x131 + x313 <= 1
C966: + x213 + x339 <= 1
C967: + x34 + x63 <= 1
C968: + x10 + x264 <= 1
C969: + x272 + x476 <= 1
C970: + x186 + x492 <= 1
C971: + x51 + x68 <= 1
C972: + x78 + x195 <= 1
C973: + x23 + x25 <= 1
C974: + x163 + x256 <= 1
C975: + x20 + x274 <= 1
C976: + x4 + x76 <= 1
C977: + x13 + x39 <= 1
C978: + x180 + x185 <= 1
C979: + x9 + x31 <= 1
C980: + x90 + x315 <= 1
C981: + x309 + x488 <= 1
C982: + x55 + x211 <= 1
C983: + x113 + x118 <= 1
C984: + x21 + x103 <= 1
C985: + x6 + x66 <= 1
C986: + x157 + x212 <= 1
C987: + x56 + x114 <= 1
C988: + x112 + x149 <= 1
C989: + x81 + x286 <= 1
C990: + x165 + x273 <= 1
C991: + x170 + x447 <= 1
C992: + x9 + x296 <= 1
C993: + x65 + x133 <= 1
C994: + x1 + x325 <= 1
C995: + x4 + x133 <= 1
C996: + x23 + x161 <= 1
C997: + x20 + x170 <= 1
C998: + x379 + x405 <= 1
C999: + x167 + x478 <= 1
C1000: + x24 + x61 <= 1
C1001: + x7 + x29 <= 1
C1002: + x118 + x386 <= 1
C1003: + x108 + x457 <= 1
C1004: + x93 + x317 <= 1
C1005: + x239 + x249 <= 1
C1006: + x36 + x403 <= 1
C1007: + x152 + x207 <= 1
C1008: + x427 + x438 <= 1
C1009: + x120 + x144 <= 1
C1010: + x11 + x181 <= 1
C1011: + x12 + x214 <= 1
C1012: + x116 + x267 <= 1
C1013: + x52 + x75 <= 1
C1014: + x227 + x284 <= 1
C1015: + x89 + x396 <= 1
C1016: + x469 + x496 <= 1
C1017: + x19 + x181 <= 1
C1018: + x15 + x32 <= 1
C1019: + x80 + x216 <= 1
C1020: + x146 + x157 <= 1
C1021: + x11 + x459 <= 1
C1022: + x14 + x59 <= 1
C1023: + x52 + x261 <= 1
C1024: + x19 + x200 <= 1
C1025: + x52 + x420 <= 1
C1026: + x254 + x495 <= 1
C1027: + x57 + x76 <= 1
C1028: + x58 + x247 <= 1
C1029: + x9 + x303 <= 1
C1030: + x26 + x326 <= 1
C1031: + x126 + x149 <= 1
C1032: + x73 + x257 <= 1
C1033: + x219 + x292 <= 1
C1034: + x183 + x273 <= 1
C1035: + x134 + x424 <= 1
C1036: + x13 + x70 <= 1
C1037: + x98 + x265 <= 1
C1038: + x226 + x308 <= 1
C1039: + x82 + x87 <= 1
C1040: + x8 + x416 <= 1
C1041: + x22 + x429 <= 1
C1042: + x16 + x368 <= 1
C1043: + x9 + x283 <= 1
C1044: + x100 + x239 <= 1
C1045: + x10 + x40 <= 1
C1046: + x78 + x344 <= 1
C1047: + x99 + x362 <= 1
C1048: + x39 + x384 <= 1
C1049: + x21 + x418 <= 1
C1050: + x109 + x390 <= 1
C1051: + x11 + x15 <= 1
C1052: + x17 + x346 <= 1
C1053: + x7 + x306 <= 1
C1054: + x55 + x352 <= 1
C1055: + x46 + x174 <= 1
C1056: + x9 + x470 <= 1
C1057: + x19 + x82 <= 1
C1058: + x167 + x218 <= 1
C1059: + x5 + x13 <= 1
C1060: + x417 + x422 <= 1
C1061: + x29 + x155 <= 1
C1062: + x21 + x48 <= 1
C1063: + x22 + x168 <= 1
C1064: + x13 + x125 <= 1
C1065: + x24 + x51 <= 1
C1066: + x73 + x101 <= 1
C1067: + x54 + x143 <= 1
C1068: + x362 + x405 <= 1
C1069: + x23 + x46 <= 1
C1070: + x352 + x426 <= 1
C1071: + x10 + x41 <= 1
C1072: + x140 + x324 <= 1
C1073: + x45 + x160 <= 1
C1074: + x122 + x194 <= 1
C1075: + x302 + x446 <= 1
C1076: + x349 + x385 <= 1
C1077: + x176 + x485 <= 1
C1078: + x298 + x313 <= 1
C1079: + x7 + x59 <= 1
C1080: + x74 + x167 <= 1
C1081: + x204 + x401 <= 1
C1082: + x32 + x71 <= 1
C1083: + x53 + x397 <= 1
C1084: + x300 + x319 <= 1
C1085: + x30 + x202 <= 1
C1086: + x65 + x77 <= 1
C1087: + x42 + x95 <= 1
C1088: + x14 + x446 <= 1
C1089: + x46 + x405 <= 1
C1090: + x23 + x349 <= 1
C1091: + x5 + x12 <= 1
C1092: + x113 + x166 <= 1
C1093: + x12 + x108 <= 1
C1094: + x4 + x23 <= 1
C1095: + x196 + x215 <= 1
C1096: + x251 + x475 <= 1
C1097: + x26 + x38 <= 1
C1098: + x208 + x287 <= 1
C1099: + x10 + x292 <= 1
C1100: + x3 + x34 <= 1
C1101: + x23 + x37 <= 1
C1102: + x440 + x444 <= 1
C1103: + x90 + x279 <= 1
C1104: + x8 + x10 + x21 + x22 <= 1
C1105: + x11 + x259 <= 1
C1106: + x84 + x406 <= 1
C1107: + x148 + x265 <= 1
C1108: + x251 + x431 <= 1
C1109: + x52 + x253 <= 1
C1110: + x79 + x305 <= 1
C1111: + x84 + x369 <= 1
C1112: + x13 + x346 <= 1
C1113: + x44 + x471 <= 1
C1114: + x343 + x358 <= 1
C1115: + x91 + x195 <= 1
C1116: + x282 + x494 <= 1
C1117: + x18 + x163 <= 1
C1118: + x57 + x388 <= 1
C1119: + x32 + x314 <= 1
C1120: + x23 + x263 <= 1
C1121: + x218 + x278 <= 1
C1122: + x45 + x203 <= 1
C1123: + x222 + x294 <= 1
C1124: + x196 + x390 <= 1
C1125: + x43 + x96 <= 1
C1126: + x14 + x439 <= 1
C1127: + x175 + x287 <= 1
C1128: + x132 + x353 <= 1
C1129: + x37 + x284 <= 1
C1130: + x11 + x218 <= 1
C1131: + x139 + x403 <= 1
C1132: + x115 + x177 <= 1
C1133: + x52 + x58 <= 1
C1134: + x24 + x65 <= 1
C1135: + x334 + x403 <= 1
C1136: + x3 + x57 <= 1
C1137: + x175 + x394 <= 1
C1138: + x23 + x64 <= 1
C1139: + x61 + x314 <= 1
C1140: + x45 + x420 <= 1
C1141: + x136 + x452 <= 1
C1142: + x29 + x288 <= 1
C1143: + x131 + x391 <= 1
C1144: + x5 + x39 <= 1
C1145: + x14 + x206 <= 1
C1146: + x15 + x230 <= 1
C1147: + x35 + x51 <= 1
C1148: + x91 + x408 <= 1
C1149: + x289 + x437 <= 1
C1150: + x12 + x484 <= 1
C1151: + x4 + x415 <= 1
C1152: + x18 + x438 <= 1
C1153: + x55 + x83 <= 1
C1154: + x330 + x492 <= 1
C1155: + x76 + x252 <= 1
C1156: + x132 + x190 <= 1
C1157: + x30 + x220 <= 1
C1158: + x14 + x130 <= 1
C1159: + x14 + x333 <= 1
C1160: + x5 + x107 <= 1
C1161: + x170 + x353 <= 1
C1162: + x29 + x113 <= 1
C1163: + x47 + x223 <= 1
C1164: + x42 + x46 + x262 <= 1
C1165: + x79 + x200 <= 1
C1166: + x7 + x97 <= 1
C1167: + x50 + x57 <= 1
C1168: + x126 + x270 <= 1
C1169: + x82 + x280 <= 1
C1170: + x280 + x365 <= 1
C1171: + x192 + x223 <= 1
C1172: + x12 + x154 <= 1
C1173: + x97 + x126 <= 1
C1174: + x22 + x179 <= 1
C1175: + x13 + x106 <= 1
C1176: + x19 + x257 <= 1
C1177: + x56 + x369 <= 1
C1178: + x123 + x277 <= 1
C1179: + x41 + x355 <= 1
C1180: + x15 + x84 <= 1
C1181: + x91 + x129 <= 1
C1182: + x181 + x259 <= 1
C1183: + x129 + x366 <= 1
C1184: + x142 + x175 <= 1
C1185: + x49 + x483 <= 1
C1186: + x14 + x199 <= 1
C1187: + x15 + x290 <= 1
C1188: + x64 + x120 <= 1
C1189: + x11 + x309 <= 1
C1190: + x39 + x215 <= 1
C1191: + x33 + x191 <= 1
C1192: + x176 + x500 <= 1
C1193: + x22 + x306 <= 1
C1194: + x18 + x431 <= 1
C1195: + x83 + x117 <= 1
C1196: + x32 + x45 + x246 <= 1
C1197: + x19 + x35 <= 1
C1198: + x121 + x338 <= 1
C1199: + x144 + x314 <= 1
C1200: + x30 + x213 <= 1
C1201: + x4 + x66 <= 1
C1202: + x74 + x134 <= 1
C1203: + x168 + x202 <= 1
C1204: + x79 + x108 <= 1
C1205: + x241 + x331 <= 1
C1206: + x29 + x255 <= 1
C1207: + x4 + x14 <= 1
C1208: + x40 + x226 <= 1
C1209: + x179 + x377 <= 1
C1210: + x156 + x276 <= 1
C1211: + x20 + x47 <= 1
C1212: + x186 + x283 <= 1
C1213: + x20 + x486 <= 1
C1214: + x35 + x311 <= 1
C1215: + x72 + x427 <= 1
C1216: + x75 + x155 <= 1
C1217: + x13 + x248 <= 1
C1218: + x35 + x412 <= 1
C1219: + x27 + x218 <= 1
C1220: + x261 + x354 <= 1
C1221: + x47 + x307 <= 1
C1222: + x30 + x267 <= 1
C1223: + x47 + x400 <= 1
C1224: + x53 + x115 <= 1
C1225: + x24 + x156 <= 1
C1226: + x9 + x28 <= 1
C1227: + x111 + x376 <= 1
C1228: + x8 + x62 <= 1
C1229: + x6 + x290 <= 1
C1230: + x41 + x293 <= 1
C1231: + x21 + x401 <= 1
C1232: + x17 + x460 <= 1
C1233: + x11 + x18 <= 1
C1234: + x158 + x223 <= 1
C1235: + x71 + x385 <= 1
C1236: + x38 + x143 <= 1
C1237: + x4 + x458 <= 1
C1238: + x23 + x360 <= 1
C1239: + x20 + x56 <= 1
C1240: + x3 + x6 <= 1
C1241: + x74 + x270 <= 1
C1242: + x312 + x337 <= 1
C1243: + x13 + x239 <= 1
C1244: + x209 + x485 <= 1
C1245: + x457 + x481 <= 1
C1246: + x49 + x126 <= 1
C1247: + x38 + x243 <= 1
C1248: + x77 + x455 <= 1
C1249: + x106 + x440 <= 1
C1250: + x61 + x182 <= 1
C1251: + x239 + x321 <= 1
C1252: + x221 + x348 <= 1
C1253: + x12 + x374 <= 1
C1254: + x97 + x362 <= 1
C1255: + x6 + x61 <= 1
C1256: + x158 + x295 <= 1
C1257: + x13 + x35 <= 1
C1258: + x140 + x337 <= 1
C1259: + x41 + x58 <= 1
C1260: + x18 + x42 <= 1
C1261: + x54 + x289 <= 1
C1262: + x57 + x125 <= 1
C1263: + x219 + x354 <= 1
C1264: + x30 + x74 <= 1
C1265: + x42 + x164 <= 1
C1266: + x286 + x387 <= 1
C1267: + x91 + x235 <= 1
C1268: + x73 + x338 <= 1
C1269: + x9 + x349 <= 1
C1270: + x111 + x234 <= 1
C1271: + x55 + x322 <= 1
C1272: + x45 + x62 <= 1
C1273: + x27 + x104 <= 1
C1274: + x45 + x227 <= 1
C1275: + x63 + x130 <= 1
C1276: + x191 + x258 <= 1
C1277: + x156 + x482 <= 1
C1278: + x7 + x485 <= 1
C1279: + x12 + x447 <= 1
C1280: + x13 + x257 <= 1
C1281: + x254 + x466 <= 1
C1282: + x239 + x384 <= 1
C1283: + x163 + x374 <= 1
C1284: + x19 + x399 <= 1
C1285: + x5 + x358 <= 1
C1286: + x23 + x476 <= 1
C1287: + x20 + x335 <= 1
C1288: + x112 + x258 <= 1
C1289: + x118 + x285 <= 1
C1290: + x5 + x27 <= 1
C1291: + x29 + x356 <= 1
C1292: + x7 + x376 <= 1
C1293: + x16 + x169 <= 1
C1294: + x64 + x99 <= 1
C1295: + x181 + x234 <= 1
C1296: + x187 + x209 <= 1
C1297: + x61 + x77 <= 1
C1298: + x26 + x87 <= 1
C1299: + x23 + x331 <= 1
C1300: + x82 + x328 <= 1
C1301: + x8 + x141 <= 1
C1302: + x120 + x140 <= 1
C1303: + x94 + x181 <= 1
C1304: + x353 + x371 <= 1
C1305: + x43 + x154 <= 1
C1306: + x9 + x10 <= 1
C1307: + x152 + x469 <= 1
C1308: + x42 + x165 <= 1
C1309: + x388 + x433 <= 1
C1310: + x139 + x221 <= 1
C1311: + x12 + x295 <= 1
C1312: + x109 + x304 <= 1
C1313: + x54 + x347 <= 1
C1314: + x120 + x224 <= 1
C1315: + x4 + x97 <= 1
C1316: + x61 + x120 <= 1
C1317: + x55 + x230 <= 1
C1318: + x328 + x499 <= 1
C1319: + x3 + x24 <= 1
C1320: + x13 + x320 <= 1
C1321: + x52 + x186 <= 1
C1322: + x45 + x383 <= 1
C1323: + x263 + x462 <= 1
C1324: + x246 + x268 <= 1
C1325: + x6 + x158 <= 1
C1326: + x13 + x66 <= 1
C1327: + x70 + x113 <= 1
C1328: + x87 + x398 <= 1
C1329: + x16 + x469 <= 1
C1330: + x38 + x72 <= 1
C1331: + x3 + x44 <= 1
C1332: + x130 + x316 <= 1
C1333: + x125 + x489 <= 1
C1334: + x35 + x280 <= 1
C1335: + x45 + x435 <= 1
C1336: + x409 + x495 <= 1
C1337: + x10 + x44 <= 1
C1338: + x2 + x199 <= 1
C1339: + x39 + x78 <= 1
C1340: + x361 + x445 <= 1
C1341: + x5 + x54 <= 1
C1342: + x18 + x28 <= 1
C1343: + x19 + x172 <= 1
C1344: + x8 + x41 <= 1
C1345: + x121 + x203 <= 1
C1346: + x41 + x197 <= 1
C1347: + x41 + x282 <= 1
C1348: + x22 + x282 <= 1
C1349: + x5 + x296 <= 1
C1350: + x23 + x410 <= 1
C1351: + x14 + x461 <= 1
C1352: + x127 + x304 <= 1
C1353: + x84 + x158 <= 1
C1354: + x192 + x389 <= 1
C1355: + x31 + x74 <= 1
C1356: + x14 + x48 <= 1
C1357: + x63 + x232 <= 1
C1358: + x9 + x160 <= 1
C1359: + x10 + x24 <= 1
C1360: + x168 + x416 <= 1
C1361: + x17 + x80 <= 1
C1362: + x174 + x298 <= 1
C1363: + x12 + x26 <= 1
C1364: + x240 + x390 <= 1
C1365: + x132 + x220 <= 1
C1366: + x7 + x116 <= 1
C1367: + x225 + x272 <= 1
C1368: + x126 + x170 <= 1
C1369: + x109 + x168 <= 1
C1370: + x92 + x122 <= 1
C1371: + x139 + x493 <= 1
C1372: + x311 + x465 <= 1
C1373: + x22 + x164 <= 1
C1374: + x24 + x79 <= 1
C1375: + x93 + x271 <= 1
C1376: + x330 + x434 <= 1
C1377: + x264 + x498 <= 1
C1378: + x123 + x264 <= 1
C1379: + x23 + x34 <= 1
C1380: + x15 + x67 <= 1
C1381: + x18 + x303 <= 1
C1382: + x8 + x131 <= 1
C1383: + x8 + x34 <= 1
C1384: + x228 + x398 <= 1
C1385: + x21 + x437 <= 1
C1386: + x79 + x302 <= 1
C1387: + x55 + x69 <= 1
C1388: + x36 + x497 <= 1
C1389: + x59 + x493 <= 1
C1390: + x4 + x111 <= 1
C1391: + x12 + x180 <= 1
C1392: + x7 + x458 <= 1
C1393: + x139 + x261 <= 1
C1394: + x12 + x31 <= 1
C1395: + x21 + x68 <= 1
C1396: + x294 + x337 <= 1
C1397: + x9 + x449 <= 1
C1398: + x2 + x5 <= 1
C1399: + x22 + x74 <= 1
C1400: + x180 + x205 <= 1
C1401: + x245 + x263 <= 1
C1402: + x91 + x325 <= 1
C1403: + x86 + x434 <= 1
C1404: + x9 + x432 <= 1
C1405: + x20 + x32 <= 1
C1406: + x167 + x296 <= 1
C1407: + x14 + x110 <= 1
C1408: + x73 + x205 <= 1
C1409: + x246 + x247 <= 1
C1410: + x21 + x162 <= 1
C1411: + x17 + x130 <= 1
C1412: + x142 + x423 <= 1
C1413: + x9 + x63 <= 1
C1414: + x8 + x31 <= 1
C1415: + x158 + x430 <= 1
C1416: + x21 + x436 <= 1
C1417: + x346 + x361 <= 1
C1418: + x135 + x251 <= 1
C1419: + x11 + x484 <= 1
C1420: + x122 + x477 <= 1
C1421: + x204 + x398 <= 1
C1422: + x41 + x421 <= 1
C1423: + x189 + x320 <= 1
C1424: + x73 + x334 <= 1
C1425: + x274 + x317 <= 1
C1426: + x94 + x340 <= 1
C1427: + x46 + x377 <= 1
C1428: + x4 + x88 <= 1
C1429: + x34 + x337 <= 1
C1430: + x5 + x421 <= 1
C1431: + x65 + x72 <= 1
C1432: + x210 + x213 <= 1
C1433: + x12 + x475 <= 1
C1434: + x21 + x392 <= 1
C1435: + x342 + x491 <= 1
C1436: + x23 + x488 <= 1
C1437: + x91 + x114 <= 1
C1438: + x6 + x86 <= 1
C1439: + x410 + x432 <= 1
C1440: + x39 + x443 <= 1
C1441: + x225 + x286 <= 1
C1442: + x181 + x206 <= 1
C1443: + x57 + x468 <= 1
C1444: + x58 + x460 <= 1
C1445: + x30 + x481 <= 1
C1446: + x11 + x85 <= 1
C1447: + x13 + x254 <= 1
C1448: + x23 + x157 <= 1
C1449: + x171 + x254 <= 1
C1450: + x316 + x330 <= 1
C1451: + x55 + x182 <= 1
C1452: + x94 + x316 <= 1
C1453: + x41 + x186 <= 1
C1454: + x21 + x443 <= 1
C1455: + x26 + x127 <= 1
C1456: + x8 + x443 <= 1
C1457: + x138 + x304 <= 1
C1458: + x84 + x177 <= 1
C1459: + x1 + x496 <= 1
C1460: + x109 + x217 <= 1
C1461: + x27 + x67 <= 1
C1462: + x57 + x399 <= 1
C1463: + x10 + x11 <= 1
C1464: + x47 + x386 <= 1
C1465: + x125 + x220 <= 1
C1466: + x9 + x18 <= 1
C1467: + x199 + x293 <= 1
C1468: + x46 + x56 <= 1
C1469: + x66 + x228 <= 1
C1470: + x249 + x393 <= 1
C1471: + x356 + x429 <= 1
C1472: + x23 + x92 <= 1
C1473: + x198 + x306 <= 1
C1474: + x9 + x225 <= 1
C1475: + x36 + x98 <= 1
C1476: + x1 + x14 <= 1
C1477: + x56 + x99 <= 1
C1478: + x241 + x344 <= 1
C1479: + x22 + x191 <= 1
C1480: + x40 + x308 <= 1
C1481: + x59 + x451 <= 1
C1482: + x17 + x97 <= 1
C1483: + x9 + x94 <= 1
C1484: + x321 + x480 <= 1
C1485: + x3 + x16 <= 1
C1486: + x96 + x310 <= 1
C1487: + x168 + x350 <= 1
C1488: + x7 + x145 <= 1
C1489: + x2 + x35 <= 1
C1490: + x180 + x231 <= 1
C1491: + x27 + x219 <= 1
C1492: + x72 + x333 <= 1
C1493: + x466 + x478 <= 1
C1494: + x39 + x203 <= 1
C1495: + x13 + x90 <= 1
C1496: + x37 + x493 <= 1
C1497: + x51 + x74 <= 1
C1498: + x216 + x333 <= 1
C1499: + x76 + x84 <= 1
C1500: + x131 + x466 <= 1
C1501: + x17 + x172 <= 1
C1502: + x160 + x487 <= 1
C1503: + x93 + x479 <= 1
C1504: + x20 + x103 <= 1
C1505: + x7 + x249 <= 1
C1506: + x254 + x377 <= 1
C1507: + x1 + x5 <= 1
C1508: + x11 + x248 <= 1
C1509: + x122 + x150 <= 1
C1510: + x111 + x228 <= 1
C1511: + x13 + x29 <= 1
C1512: + x70 + x94 <= 1
C1513: + x35 + x210 <= 1
C1514: + x5 + x479 <= 1
C1515: + x93 + x275 <= 1
C1516: + x42 + x98 <= 1
C1517: + x314 + x338 <= 1
C1518: + x71 + x76 <= 1
C1519: + x19 + x409 <= 1
C1520: + x23 + x175 <= 1
C1521: + x16 + x167 <= 1
C1522: + x63 + x363 <= 1
C1523: + x130 + x394 <= 1
C1524: + x13 + x81 <= 1
C1525: + x5 + x259 <= 1
C1526: + x52 + x216 <= 1
C1527: + x19 + x300 <= 1
C1528: + x3 + x91 <= 1
C1529: + x58 + x184 <= 1
C1530: + x34 + x409 <= 1
C1531: + x109 + x258 <= 1
C1532: + x19 + x26 <= 1
C1533: + x165 + x201 <= 1
C1534: + x5 + x69 <= 1
C1535: + x45 + x180 <= 1
C1536: + x38 + x58 <= 1
C1537: + x23 + x393 <= 1
C1538: + x11 + x30 <= 1
C1539: + x24 + x346 <= 1
C1540: + x121 + x297 <= 1
C1541: + x57 + x489 <= 1
C1542: + x148 + x349 <= 1
C1543: + x13 + x28 <= 1
C1544: + x323 + x467 <= 1
C1545: + x73 + x396 <= 1
C1546: + x44 + x379 <= 1
C1547: + x18 + x260 <= 1
C1548: + x120 + x123 <= 1
C1549: + x84 + x215 <= 1
C1550: + x363 + x407 <= 1
C1551: + x171 + x215 <= 1
C1552: + x372 + x450 <= 1
C1553: + x7 + x369 <= 1
C1554: + x185 + x234 <= 1
C1555: + x21 + x27 <= 1
C1556: + x187 + x214 <= 1
C1557: + x27 + x322 <= 1
C1558: + x19 + x291 <= 1
C1559: + x129 + x186 <= 1
C1560: + x3 + x86 <= 1
C1561: + x77 + x237 <= 1
C1562: + x33 + x46 <= 1
C1563: + x89 + x187 <= 1
C1564: + x350 + x395 <= 1
C1565: + x20 + x443 <= 1
C1566: + x55 + x266 <= 1
C1567: + x125 + x316 <= 1
C1568: + x14 + x372 <= 1
C1569: + x26 + x195 <= 1
C1570: + x12 + x52 <= 1
C1571: + x177 + x392 <= 1
C1572: + x251 + x403 <= 1
C1573: + x21 + x111 <= 1
C1574: + x144 + x206 <= 1
C1575: + x44 + x79 + x98 <= 1
C1576: + x113 + x416 <= 1
C1577: + x112 + x314 <= 1
C1578: + x352 + x367 <= 1
C1579: + x18 + x364 <= 1
C1580: + x84 + x111 <= 1
C1581: + x388 + x477 <= 1
C1582: + x41 + x348 <= 1
C1583: + x42 + x84 <= 1
C1584: + x22 + x488 <= 1
C1585: + x13 + x226 <= 1
C1586: + x88 + x90 <= 1
C1587: + x24 + x299 <= 1
C1588: + x9 + x194 <= 1
C1589: + x240 + x481 <= 1
C1590: + x33 + x275 <= 1
C1591: + x7 + x21 <= 1
C1592: + x3 + x45 <= 1
C1593: + x69 + x153 <= 1
C1594: + x187 + x491 <= 1
C1595: + x353 + x426 <= 1
C1596: + x91 + x174 <= 1
C1597: + x30 + x394 <= 1
C1598: + x13 + x456 <= 1
C1599: + x55 + x79 <= 1
C1600: + x11 + x499 <= 1
C1601: + x233 + x244 <= 1
C1602: + x22 + x128 <= 1
C1603: + x5 + x218 <= 1
C1604: + x167 + x227 <= 1
C1605: + x42 + x460 <= 1
C1606: + x17 + x347 <= 1
C1607: + x8 + x189 <= 1
C1608: + x11 + x225 <= 1
C1609: + x49 + x52 <= 1
C1610: + x105 + x145 <= 1
C1611: + x73 + x136 <= 1
C1612: + x42 + x359 <= 1
C1613: + x84 + x467 <= 1
C1614: + x187 + x418 <= 1
C1615: + x17 + x490 <= 1
C1616: + x57 + x358 <= 1
C1617: + x85 + x223 <= 1
C1618: + x13 + x153 <= 1
C1619: + x22 + x68 <= 1
C1620: + x5 + x14 <= 1
C1621: + x299 + x495 <= 1
C1622: + x63 + x288 <= 1
C1623: + x369 + x373 <= 1
C1624: + x12 + x118 <= 1
C1625: + x179 + x342 <= 1
C1626: + x26 + x36 <= 1
C1627: + x88 + x270 <= 1
C1628: + x20 + x22 <= 1
C1629: + x139 + x160 <= 1
C1630: + x204 + x424 <= 1
C1631: + x97 + x380 <= 1
C1632: + x5 + x157 <= 1
C1633: + x24 + x401 <= 1
C1634: + x10 + x48 <= 1
C1635: + x6 + x281 <= 1
C1636: + x15 + x334 <= 1
C1637: + x139 + x470 <= 1
C1638: + x50 + x247 <= 1
C1639: + x196 + x340 <= 1
C1640: + x131 + x132 <= 1
C1641: + x344 + x397 <= 1
C1642: + x329 + x487 <= 1
C1643: + x249 + x428 <= 1
C1644: + x23 + x127 <= 1
C1645: + x14 + x44 <= 1
C1646: + x19 + x55 <= 1
C1647: + x38 + x166 <= 1
C1648: + x89 + x114 <= 1
C1649: + x5 + x435 <= 1
C1650: + x200 + x281 <= 1
C1651: + x8 + x473 <= 1
C1652: + x26 + x444 <= 1
C1653: + x7 + x120 <= 1
C1654: + x112 + x276 <= 1
C1655: + x51 + x406 <= 1
C1656: + x184 + x316 <= 1
C1657: + x6 + x131 <= 1
C1658: + x117 + x207 <= 1
C1659: + x299 + x490 <= 1
C1660: + x60 + x85 <= 1
C1661: + x196 + x301 <= 1
C1662: + x298 + x373 <= 1
C1663: + x6 + x497 <= 1
C1664: + x15 + x71 <= 1
C1665: + x6 + x20 <= 1
C1666: + x121 + x377 <= 1
C1667: + x141 + x332 <= 1
C1668: + x15 + x228 <= 1
C1669: + x19 + x159 <= 1
C1670: + x170 + x494 <= 1
C1671: + x54 + x91 <= 1
C1672: + x11 + x50 <= 1
C1673: + x30 + x319 <= 1
C1674: + x23 + x114 <= 1
C1675: + x5 + x208 <= 1
C1676: + x44 + x458 <= 1
C1677: + x269 + x488 <= 1
C1678: + x8 + x179 <= 1
C1679: + x157 + x342 <= 1
C1680: + x13 + x64 <= 1
C1681: + x158 + x322 <= 1
C1682: + x112 + x172 <= 1
C1683: + x4 + x83 <= 1
C1684: + x16 + x19 <= 1
C1685: + x116 + x301 <= 1
C1686: + x20 + x88 <= 1
C1687: + x77 + x93 <= 1
C1688: + x60 + x253 <= 1
C1689: + x7 + x111 <= 1
C1690: + x16 + x434 <= 1
C1691: + x156 + x219 <= 1
C1692: + x75 + x166 <= 1
C1693: + x30 + x371 <= 1
C1694: + x3 + x135 <= 1
C1695: + x94 + x200 <= 1
C1696: + x198 + x332 <= 1
C1697: + x93 + x224 <= 1
C1698: + x28 + x179 <= 1
C1699: + x21 + x63 <= 1
C1700: + x22 + x169 <= 1
C1701: + x12 + x20 + x67 <= 1
C1702: + x134 + x309 <= 1
C1703: + x227 + x334 <= 1
C1704: + x200 + x326 <= 1
C1705: + x402 + x407 <= 1
C1706: + x20 + x36 <= 1
C1707: + x404 + x449 <= 1
C1708: + x278 + x370 <= 1
C1709: + x35 + x294 <= 1
C1710: + x72 + x105 <= 1
C1711: + x104 + x132 <= 1
C1712: + x15 + x235 <= 1
C1713: + x171 + x332 <= 1
C1714: + x8 + x27 <= 1
C1715: + x5 + x274 <= 1
C1716: + x321 + x402 <= 1
C1717: + x120 + x469 <= 1
C1718: + x49 + x380 <= 1
C1719: + x14 + x94 <= 1
C1720: + x109 + x273 <= 1
C1721: + x36 + x49 <= 1
C1722: + x38 + x344 <= 1
C1723: + x13 + x55 <= 1
C1724: + x334 + x343 <= 1
C1725: + x18 + x70 <= 1
C1726: + x49 + x134 <= 1
C1727: + x250 + x415 <= 1
C1728: + x5 + x326 <= 1
C1729: + x6 + x82 <= 1
C1730: + x52 + x145 <= 1
C1731: + x71 + x162 <= 1
C1732: + x46 + x59 <= 1
C1733: + x19 + x495 <= 1
C1734: + x4 + x233 <= 1
C1735: + x159 + x189 <= 1
C1736: + x6 + x245 <= 1
C1737: + x80 + x457 <= 1
C1738: + x4 + x8 <= 1
C1739: + x89 + x449 <= 1
C1740: + x171 + x420 <= 1
C1741: + x11 + x419 <= 1
C1742: + x22 + x464 <= 1
C1743: + x15 + x81 <= 1
C1744: + x172 + x351 <= 1
C1745: + x21 + x181 <= 1
C1746: + x9 + x42 <= 1
C1747: + x8 + x20 <= 1
C1748: + x14 + x500 <= 1
C1749: + x7 + x45 <= 1
C1750: + x89 + x170 <= 1
C1751: + x426 + x462 <= 1
C1752: + x9 + x356 <= 1
C1753: + x137 + x334 <= 1
C1754: + x179 + x249 <= 1
C1755: + x92 + x468 <= 1
C1756: + x121 + x176 <= 1
C1757: + x29 + x73 <= 1
C1758: + x120 + x323 <= 1
C1759: + x15 + x16 <= 1
C1760: + x100 + x436 <= 1
C1761: + x42 + x468 <= 1
C1762: + x96 + x161 <= 1
C1763: + x36 + x102 <= 1
C1764: + x21 + x205 <= 1
C1765: + x242 + x340 <= 1
C1766: + x106 + x386 <= 1
C1767: + x129 + x148 <= 1
C1768: + x248 + x350 <= 1
C1769: + x23 + x463 <= 1
C1770: + x6 + x15 <= 1
C1771: + x8 + x230 <= 1
C1772: + x75 + x156 <= 1
C1773: + x30 + x153 <= 1
C1774: + x8 + x9 <= 1
C1775: + x38 + x201 <= 1
C1776: + x160 + x350 <= 1
C1777: + x318 + x414 <= 1
C1778: + x139 + x232 <= 1
C1779: + x21 + x291 <= 1
C1780: + x204 + x448 <= 1
C1781: + x260 + x482 <= 1
C1782: + x14 + x80 <= 1
C1783: + x7 + x193 <= 1
C1784: + x312 + x367 <= 1
C1785: + x7 + x439 <= 1
C1786: + x66 + x94 <= 1
C1787: + x95 + x467 <= 1
C1788: + x112 + x465 <= 1
C1789: + x123 + x167 <= 1
C1790: + x13 + x471 <= 1
C1791: + x16 + x397 <= 1
C1792: + x177 + x363 <= 1
C1793: + x115 + x122 <= 1
C1794: + x25 + x445 <= 1
C1795: + x163 + x265 <= 1
C1796: + x27 + x30 <= 1
C1797: + x9 + x236 <= 1
C1798: + x111 + x232 <= 1
C1799: + x13 + x25 <= 1
C1800: + x96 + x412 <= 1
C1801: + x147 + x445 <= 1
C1802: + x4 + x360 <= 1
C1803: + x24 + x462 <= 1
C1804: + x21 + x187 <= 1
C1805: + x5 + x29 <= 1
C1806: + x24 + x35 <= 1
C1807: + x26 + x77 <= 1
C1808: + x248 + x367 <= 1
C1809: + x20 + x442 <= 1
C1810: + x14 + x73 <= 1
C1811: + x209 + x373 <= 1
C1812: + x89 + x184 <= 1
C1813: + x87 + x222 <= 1
C1814: + x53 + x361 <= 1
C1815: + x112 + x208 <= 1
C1816: + x14 + x375 <= 1
C1817: + x18 + x41 <= 1
C1818: + x109 + x112 <= 1
C1819: + x128 + x222 <= 1
C1820: + x200 + x246 <= 1
C1821: + x131 + x330 <= 1
C1822: + x35 + x374 <= 1
C1823: + x174 + x422 <= 1
C1824: + x130 + x176 <= 1
C1825: + x14 + x61 <= 1
C1826: + x20 + x225 <= 1
C1827: + x13 + x24 <= 1
C1828: + x14 + x299 <= 1
C1829: + x138 + x411 <= 1
C1830: + x58 + x318 <= 1
C1831: + x49 + x300 <= 1
C1832: + x97 + x278 <= 1
C1833: + x314 + x351 <= 1
C1834: + x235 + x242 <= 1
C1835: + x59 + x198 + x461 <= 1
C1836: + x19 + x89 <= 1
C1837: + x11 + x78 <= 1
C1838: + x4 + x140 <= 1
C1839: + x6 + x148 <= 1
C1840: + x71 + x437 <= 1
C1841: + x285 + x335 <= 1
C1842: + x59 + x293 <= 1
C1843: + x190 + x357 <= 1
C1844: + x9 + x444 <= 1
C1845: + x5 + x171 <= 1
C1846: + x27 + x92 <= 1
C1847: + x11 + x178 <= 1
C1848: + x66 + x397 <= 1
C1849: + x40 + x92 <= 1
C1850: + x70 + x461 <= 1
C1851: + x300 + x439 <= 1
C1852: + x49 + x162 <= 1
C1853: + x6 + x233 <= 1
C1854: + x145 + x173 <= 1
C1855: + x143 + x428 <= 1
C1856: + x7 + x239 <= 1
C1857: + x283 + x406 <= 1
C1858: + x49 + x158 <= 1
C1859: + x58 + x250 <= 1
C1860: + x189 + x387 <= 1
C1861: + x10 + x127 <= 1
C1862: + x57 + x64 <= 1
C1863: + x139 + x483 <= 1
C1864: + x165 + x364 <= 1
C1865: + x76 + x494 <= 1
C1866: + x44 + x133 <= 1
C1867: + x16 + x472 <= 1
C1868: + x7 + x9 <= 1
C1869: + x84 + x286 <= 1
C1870: + x76 + x329 <= 1
C1871: + x79 + x185 <= 1
C1872: + x198 + x494 <= 1
C1873: + x34 + x189 <= 1
C1874: + x126 + x228 <= 1
C1875: + x6 + x284 <= 1
C1876: + x9 + x50 <= 1
C1877: + x310 + x493 <= 1
C1878: + x134 + x343 <= 1
C1879: + x5 + x289 <= 1
C1880: + x26 + x107 <= 1
C1881: + x23 + x415 <= 1
C1882: + x347 + x406 <= 1
C1883: + x158 + x169 <= 1
C1884: + x21 + x260 <= 1
C1885: + x426 + x470 <= 1
C1886: + x7 + x226 <= 1
C1887: + x7 + x299 <= 1
C1888: + x63 + x472 <= 1
C1889: + x38 + x185 <= 1
C1890: + x30 + x204 <= 1
C1891: + x75 + x386 <= 1
C1892: + x58 + x336 <= 1
C1893: + x30 + x474 <= 1
C1894: + x33 + x100 <= 1
C1895: + x106 + x281 <= 1
C1896: + x4 + x347 <= 1
C1897: + x6 + x99 <= 1
C1898: + x19 + x75 <= 1
C1899: + x35 + x106 <= 1
C1900: + x27 + x59 <= 1
C1901: + x62 + x404 <= 1
C1902: + x196 + x300 <= 1
C1903: + x45 + x262 <= 1
C1904: + x3 + x36 <= 1
C1905: + x14 + x116 <= 1
C1906: + x89 + x141 <= 1
C1907: + x53 + x326 <= 1
C1908: + x10 + x409 <= 1
C1909: + x74 + x217 <= 1
C1910: + x219 + x423 <= 1
C1911: + x49 + x499 <= 1
C1912: + x86 + x281 <= 1
C1913: + x166 + x254 <= 1
C1914: + x4 + x166 <= 1
C1915: + x170 + x251 <= 1
C1916: + x54 + x315 <= 1
C1917: + x12 + x38 <= 1
C1918: + x77 + x110 <= 1
C1919: + x50 + x235 <= 1
C1920: + x342 + x413 <= 1
C1921: + x14 + x453 <= 1
C1922: + x7 + x64 <= 1
C1923: + x37 + x60 <= 1
C1924: + x251 + x262 <= 1
C1925: + x96 + x142 <= 1
C1926: + x27 + x389 <= 1
C1927: + x73 + x328 <= 1
C1928: + x10 + x32 <= 1
C1929: + x50 + x433 <= 1
C1930: + x26 + x29 <= 1
C1931: + x15 + x414 <= 1
C1932: + x29 + x128 <= 1
C1933: + x250 + x401 <= 1
C1934: + x142 + x196 <= 1
C1935: + x207 + x383 <= 1
C1936: + x92 + x211 <= 1
C1937: + x60 + x327 <= 1
C1938: + x24 + x309 <= 1
C1939: + x26 + x142 <= 1
C1940: + x8 + x102 <= 1
C1941: + x111 + x208 <= 1
C1942: + x56 + x112 <= 1
C1943: + x86 + x433 <= 1
C1944: + x39 + x238 <= 1
C1945: + x13 + x446 <= 1
C1946: + x3 + x301 <= 1
C1947: + x17 + x116 <= 1
C1948: + x9 + x81 <= 1
C1949: + x327 + x400 <= 1

binary
x1 x2 x3 x4 x5 x6 x7 x8 x9 x10 x11 x12 x13 x14 x15 x16 x17 x18 x19 x20 x21 x22 x23 x24 x25 x26 x27 x28 x29 x30 x31 x32 x33 x34 x35 x36 x37 x38 x39 x40 x41 x42 x43 x44 x45 x46 x47 x48 x49 x50 x51 x52 x53 x54 x55 x56 x57 x58 x59 x60 x61 x62 x63 x64 x65 x66 x67 x68 x69 x70 x71 x72 x73 x74 x75 x76 x77 x78 x79 x80 x81 x82 x83 x84 x85 x86 x87 x88 x89 x90 x91 x92 x93 x94 x95 x96 x97 x98 x99 x100 x101 x102 x103 x104 x105 x106 x107 x108 x109 x110 x111 x112 x113 x114 x115 x116 x117 x118 x119 x120 x121 x122 x123 x124 x125 x126 x127 x128 x129 x130 x131 x132 x133 x134 x135 x136 x137 x138 x139 x140 x141 x142 x143 x144 x145 x146 x147 x148 x149 x150 x151 x152 x153 x154 x155 x156 x157 x158 x159 x160 x161 x162 x163 x164 x165 x166 x167 x168 x169 x170 x171 x172 x173 x174 x175 x176 x177 x178 x179 x180 x181 x182 x183 x184 x185 x186 x187 x188 x189 x190 x191 x192 x193 x194 x195 x196 x197 x198 x199 x200 x201 x202 x203 x204 x205 x206 x207 x208 x209 x210 x211 x212 x213 x214 x215 x216 x217 x218 x219 x220 x221 x222 x223 x224 x225 x226 x227 x228 x229 x230 x231 x232 x233 x234 x235 x236 x237 x238 x239 x240 x241 x242 x243 x244 x245 x246 x247 x248 x249 x250 x251 x252 x253 x254 x255 x256 x257 x258 x259 x260 x261 x262 x263 x264 x265 x266 x267 x268 x269 x270 x271 x272 x273 x274 x275 x276 x277 x278 x279 x280 x281 x282 x283 x284 x285 x286 x287 x288 x289 x290 x291 x292 x293 x294 x295 x296 x297 x298 x299 x300 x301 x302 x303 x304 x305 x306 x307 x308 x309 x310 x311 x312 x313 x314 x315 x316 x317 x318 x319 x320 x321 x322 x323 x324 x325 x326 x327 x328 x329 x330 x331 x332 x333 x334 x335 x336 x337 x338 x339 x340 x341 x342 x343 x344 x345 x346 x347 x348 x349 x350 x351 x352 x353 x354 x355 x356 x357 x358 x359 x360 x361 x362 x363 x364 x365 x366 x367 x368 x369 x370 x371 x372 x373 x374 x375 x376 x377 x378 x379 x380 x381 x382 x383 x384 x385 x386 x387 x388 x389 x390 x391 x392 x393 x394 x395 x396 x397 x398 x399 x400 x401 x402 x403 x404 x405 x406 x407 x408 x409 x410 x411 x412 x413 x414 x415 x416 x417 x418 x419 x420 x421 x422 x423 x424 x425 x426 x427 x428 x429 x430 x431 x432 x433 x434 x435 x436 x437 x438 x439 x440 x441 x442 x443 x444 x445 x446 x447 x448 x449 x450 x451 x452 x453 x454 x455 x456 x457 x458 x459 x460 x461 x462 x463 x464 x465 x466 x467 x468 x469 x470 x471 x472 x473 x474 x475 x476 x477 x478 x479 x480 x481 x482 x483 x484 x485 x486 x487 x488 x489 x490 x491 x492 x493 x494 x495 x496 x497 x498 x499 x500
