maximize
OBJ: + 1 x1 + 1 x2 + 1 x3 + 1 x4 + 1 x5 + 1 x6 + 1 x7 + 1 x8 + 1 x9 + 1 x10 + 1 x11 + 1 x12 + 1 x13 + 1 x14 + 1 x15 + 1 x16 + 1 x17 + 1 x18 + 1 x19 + 1 x20 + 1 x21 + 1 x22 + 1 x23 + 1 x24 + 1 x25 + 1 x26 + 1 x27 + 1 x28 + 1 x29 + 1 x30 + 1 x31 + 1 x32 + 1 x33 + 1 x34 + 1 x35 + 1 x36 + 1 x37 + 1 x38 + 1 x39 + 1 x40 + 1 x41 + 1 x42 + 1 x43 + 1 x44 + 1 x45 + 1 x46 + 1 x47 + 1 x48 + 1 x49 + 1 x50 + 1 x51 + 1 x52 + 1 x53 + 1 x54 + 1 x55 + 1 x56 + 1 x57 + 1 x58 + 1 x59 + 1 x60 + 1 x61 + 1 x62 + 1 x63 + 1 x64 + 1 x65 + 1 x66 + 1 x67 + 1 x68 + 1 x69 + 1 x70 + 1 x71 + 1 x72 + 1 x73 + 1 x74 + 1 x75 + 1 x76 + 1 x77 + 1 x78 + 1 x79 + 1 x80 + 1 x81 + 1 x82 + 1 x83 + 1 x84 + 1 x85 + 1 x86 + 1 x87 + 1 x88 + 1 x89 + 1 x90 + 1 x91 + 1 x92 + 1 x93 + 1 x94 + 1 x95 + 1 x96 + 1 x97 + 1 x98 + 1 x99 + 1 x100 + 1 x101 + 1 x102 + 1 x103 + 1 x104 + 1 x105 + 1 x106 + 1 x107 + 1 x108 + 1 x109 + 1 x110 + 1 x111 + 1 x112 + 1 x113 + 1 x114 + 1 x115 + 1 x116 + 1 x117 + 1 x118 + 1 x119 + 1 x120 + 1 x121 + 1 x122 + 1 x123 + 1 x124 + 1 x125 + 1 x126 + 1 x127 + 1 x128 + 1 x129 + 1 x130 + 1 x131 + 1 x132 + 1 x133 + 1 x134 + 1 x135 + 1 x136 + 1 x137 + 1 x138 + 1 x139 + 1 x140 + 1 x141 + 1 x142 + 1 x143 + 1 x144 + 1 x145 + 1 x146 + 1 x147 + 1 x148 + 1 x149 + 1 x150 + 1 x151 + 1 x152 + 1 x153 + 1 x154 + 1 x155 + 1 x156 + 1 x157 + 1 x158 + 1 x159 + 1 x160 + 1 x161 + 1 x162 + 1 x163 + 1 x164 + 1 x165 + 1 x166 + 1 x167 + 1 x168 + 1 x169 + 1 x170 + 1 x171 + 1 x172 + 1 x173 + 1 x174 + 1 x175 + 1 x176 + 1 x177 + 1 x178 + 1 x179 + 1 x180 + 1 x181 + 1 x182 + 1 x183 + 1 x184 + 1 x185 + 1 x186 + 1 x187 + 1 x188 + 1 x189 + 1 x190 + 1 x191 + 1 x192 + 1 x193 + 1 x194 + 1 x195 + 1 x196 + 1 x197 + 1 x198 + 1 x199 + 1 x200 + 1 x201 + 1 x202 + 1 x203 + 1 x204 + 1 x205 + 1 x206 + 1 x207 + 1 x208 + 1 x209 + 1 x210 + 1 x211 + 1 x212 + 1 x213 + 1 x214 + 1 x215 + 1 x216 + 1 x217 + 1 x218 + 1 x219 + 1 x220 + 1 x221 + 1 x222 + 1 x223 + 1 x224 + 1 x225 + 1 x226 + 1 x227 + 1 x228 + 1 x229 + 1 x230 + 1 x231 + 1 x232 + 1 x233 + 1 x234 + 1 x235 + 1 x236 + 1 x237 + 1 x238 + 1 x239 + 1 x240 + 1 x241 + 1 x242 + 1 x243 + 1 x244 + 1 x245 + 1 x246 + 1 x247 + 1 x248 + 1 x249 + 1 x250 + 1 x251 + 1 x252 + 1 x253 + 1 x254 + 1 x255 + 1 x256 + 1 x257 + 1 x258 + 1 x259 + 1 x260 + 1 x261 + 1 x262 + 1 x263 + 1 x264 + 1 x265 + 1 x266 + 1 x267 + 1 x268 + 1 x269 + 1 x270 + 1 x271 + 1 x272 + 1 x273 + 1 x274 + 1 x275 + 1 x276 + 1 x277 + 1 x278 + 1 x279 + 1 x280 + 1 x281 + 1 x282 + 1 x283 + 1 x284 + 1 x285 + 1 x286 + 1 x287 + 1 x288 + 1 x289 + 1 x290 + 1 x291 + 1 x292 + 1 x293 + 1 x294 + 1 x295 + 1 x296 + 1 x297 + 1 x298 + 1 x299 + 1 x300 + 1 x301 + 1 x302 + 1 x303 + 1 x304 + 1 x305 + 1 x306 + 1 x307 + 1 x308 + 1 x309 + 1 x310 + 1 x311 + 1 x312 + 1 x313 + 1 x314 + 1 x315 + 1 x316 + 1 x317 + 1 x318 + 1 x319 + 1 x320 + 1 x321 + 1 x322 + 1 x323 + 1 x324 + 1 x325 + 1 x326 + 1 x327 + 1 x328 + 1 x329 + 1 x330 + 1 x331 + 1 x332 + 1 x333 + 1 x334 + 1 x335 + 1 x336 + 1 x337 + 1 x338 + 1 x339 + 1 x340 + 1 x341 + 1 x342 + 1 x343 + 1 x344 + 1 x345 + 1 x346 + 1 x347 + 1 x348 + 1 x349 + 1 x350 + 1 x351 + 1 x352 + 1 x353 + 1 x354 + 1 x355 + 1 x356 + 1 x357 + 1 x358 + 1 x359 + 1 x360 + 1 x361 + 1 x362 + 1 x363 + 1 x364 + 1 x365 + 1 x366 + 1 x367 + 1 x368 + 1 x369 + 1 x370 + 1 x371 + 1 x372 + 1 x373 + 1 x374 + 1 x375 + 1 x376 + 1 x377 + 1 x378 + 1 x379 + 1 x380 + 1 x381 + 1 x382 + 1 x383 + 1 x384 + 1 x385 + 1 x386 + 1 x387 + 1 x388 + 1 x389 + 1 x390 + 1 x391 + 1 x392 + 1 x393 + 1 x394 + 1 x395 + 1 x396 + 1 x397 + 1 x398 + 1 x399 + 1 x400 + 1 x401 + 1 x402 + 1 x403 + 1 x404 + 1 x405 + 1 x406 + 1 x407 + 1 x408 + 1 x409 + 1 x410 + 1 x411 + 1 x412 + 1 x413 + 1 x414 + 1 x415 + 1 x416 + 1 x417 + 1 x418 + 1 x419 + 1 x420 + 1 x421 + 1 x422 + 1 x423 + 1 x424 + 1 x425 + 1 x426 + 1 x427 + 1 x428 + 1 x429 + 1 x430 + 1 x431 + 1 x432 + 1 x433 + 1 x434 + 1 x435 + 1 x436 + 1 x437 + 1 x438 + 1 x439 + 1 x440 + 1 x441 + 1 x442 + 1 x443 + 1 x444 + 1 x445 + 1 x446 + 1 x447 + 1 x448 + 1 x449 + 1 x450 + 1 x451 + 1 x452 + 1 x453 + 1 x454 + 1 x455 + 1 x456 + 1 x457 + 1 x458 + 1 x459 + 1 x460 + 1 x461 + 1 x462 + 1 x463 + 1 x464 + 1 x465 + 1 x466 + 1 x467 + 1 x468 + 1 x469 + 1 x470 + 1 x471 + 1 x472 + 1 x473 + 1 x474 + 1 x475 + 1 x476 + 1 x477 + 1 x478 + 1 x479 + 1 x480 + 1 x481 + 1 x482 + 1 x483 + 1 x484 + 1 x485 + 1 x486 + 1 x487 + 1 x488 + 1 x489 + 1 x490 + 1 x491 + 1 x492 + 1 x493 + 1 x494 + 1 x495 + 1 x496 + 1 x497 + 1 x498 + 1 x499 + 1 x500

subject to
C1: + x206 + x429 <= 1
C2: + x338 + x426 <= 1
C3: + x135 + x446 <= 1
C4: + x114 + x190 <= 1
C5: + x6 + x179 <= 1
C6: + x9 + x64 <= 1
C7: + x100 + x127 <= 1
C8: + x16 + x75 <= 1
C9: + x2 + x371 <= 1
C10: + x123 + x383 <= 1
C11: + x176 + x489 <= 1
C12: + x17 + x48 <= 1
C13: + x2 + x65 <= 1
C14: + x192 + x438 <= 1
C15: + x42 + x58 <= 1
C16: + x43 + x458 <= 1
C17: + x6 + x196 <= 1
C18: + x14 + x33 <= 1
C19: + x53 + x99 <= 1
C20: + x6 + x306 <= 1
C21: + x135 + x139 <= 1
C22: + x75 + x436 <= 1
C23: + x28 + x282 <= 1
C24: + x30 + x97 <= 1
C25: + x9 + x457 <= 1
C26: + x129 + x235 <= 1
C27: + x265 + x488 <= 1
C28: + x20 + x366 <= 1
C29: + x14 + x21 <= 1
C30: + x25 + x428 <= 1
C31: + x91 + x333 <= 1
C32: + x28 + x183 <= 1
C33: + x37 + x257 <= 1
C34: + x29 + x230 <= 1
C35: + x205 + x245 <= 1
C36: + x88 + x288 <= 1
C37: + x82 + x445 <= 1
C38: + x155 + x411 <= 1
C39: + x3 + x54 <= 1
C40: + x14 + x102 <= 1
C41: + x180 + x399 <= 1
C42: + x5 + x143 <= 1
C43: + x6 + x25 <= 1
C44: + x44 + x121 <= 1
C45: + x9 + x39 <= 1
C46: + x90 + x355 <= 1
C47: + x30 + x38 <= 1
C48: + x41 + x272 <= 1
C49: + x34 + x35 <= 1
C50: + x87 + x356 <= 1
C51: + x170 + x475 <= 1
C52: + x83 + x119 <= 1
C53: + x184 + x370 <= 1
C54: + x69 + x166 <= 1
C55: + x62 + x491 <= 1
C56: + x16 + x193 <= 1
C57: + x203 + x403 <= 1
C58: + x52 + x122 <= 1
C59: + x23 + x275 <= 1
C60: + x127 + x209 <= 1
C61: + x20 + x97 <= 1
C62: + x2 + x22 <= 1
C63: + x129 + x343 <= 1
C64: + x141 + x258 <= 1
C65: + x181 + x214 <= 1
C66: + x309 + x387 <= 1
C67: + x291 + x489 <= 1
C68: + x63 + x309 <= 1
C69: + x34 + x240 <= 1
C70: + x20 + x45 <= 1
C71: + x139 + x181 <= 1
C72: + x29 + x463 <= 1
C73: + x34 + x75 <= 1
C74: + x23 + x460 <= 1
C75: + x16 + x335 <= 1
C76: + x96 + x108 <= 1
C77: + x191 + x225 <= 1
C78: + x75 + x498 <= 1
C79: + x39 + x204 <= 1
C80: + x13 + x91 <= 1
C81: + x116 + x402 <= 1
C82: + x88 + x361 <= 1
C83: + x7 + x33 <= 1
C84: + x175 + x354 <= 1
C85: + x22 + x416 <= 1
C86: + x117 + x423 <= 1
C87: + x7 + x206 <= 1
C88: + x9 + x189 <= 1
C89: + x10 + x51 <= 1
C90: + x8 + x157 <= 1
C91: + x36 + x62 <= 1
C92: + x21 + x133 <= 1
C93: + x16 + x109 <= 1
C94: + x9 + x26 <= 1
C95: + x14 + x420 <= 1
C96: + x35 + x384 <= 1
C97: + x10 + x457 <= 1
C98: + x42 + x472 <= 1
C99: + x23 + x84 <= 1
C100: + x271 + x482 <= 1
C101: + x1 + x6 <= 1
C102: + x2 + x138 <= 1
C103: + x25 + x140 <= 1
C104: + x80 + x369 <= 1
C105: + x392 + x394 <= 1
C106: + x139 + x192 <= 1
C107: + x122 + x427 <= 1
C108: + x130 + x288 <= 1
C109: + x71 + x73 <= 1
C110: + x101 + x137 <= 1
C111: + x185 + x263 <= 1
C112: + x20 + x328 <= 1
C113: + x103 + x157 <= 1
C114: + x5 + x18 <= 1
C115: + x12 + x227 <= 1
C116: + x45 + x121 <= 1
C117: + x119 + x148 <= 1
C118: + x29 + x144 <= 1
C119: + x20 + x163 <= 1
C120: + x34 + x61 <= 1
C121: + x151 + x359 <= 1
C122: + x16 + x453 <= 1
C123: + x7 + x28 <= 1
C124: + x66 + x161 <= 1
C125: + x58 + x183 <= 1
C126: + x7 + x266 <= 1
C127: + x10 + x60 <= 1
C128: + x101 + x253 <= 1
C129: + x121 + x350 <= 1
C130: + x299 + x390 <= 1
C131: + x14 + x175 <= 1
C132: + x235 + x430 <= 1
C133: + x27 + x247 <= 1
C134: + x97 + x455 <= 1
C135: + x61 + x144 <= 1
C136: + x23 + x394 <= 1
C137: + x7 + x88 <= 1
C138: + x10 + x498 <= 1
C139: + x321 + x448 <= 1
C140: + x90 + x92 <= 1
C141: + x75 + x219 <= 1
C142: + x41 + x455 <= 1
C143: + x299 + x458 <= 1
C144: + x46 + x279 <= 1
C145: + x94 + x370 <= 1
C146: + x42 + x207 <= 1
C147: + x23 + x377 <= 1
C148: + x226 + x365 <= 1
C149: + x9 + x77 <= 1
C150: + x3 + x31 <= 1
C151: + x124 + x404 <= 1
C152: + x5 + x380 <= 1
C153: + x53 + x289 <= 1
C154: + x20 + x333 <= 1
C155: + x431 + x438 <= 1
C156: + x5 + x25 <= 1
C157: + x61 + x417 <= 1
C158: + x44 + x112 <= 1
C159: + x19 + x255 <= 1
C160: + x3 + x325 <= 1
C161: + x295 + x399 <= 1
C162: + x108 + x459 <= 1
C163: + x7 + x19 <= 1
C164: + x267 + x424 <= 1
C165: + x7 + x192 <= 1
C166: + x9 + x278 <= 1
C167: + x72 + x467 <= 1
C168: + x438 + x447 <= 1
C169: + x361 + x436 <= 1
C170: + x52 + x77 <= 1
C171: + x116 + x269 <= 1
C172: + x46 + x255 <= 1
C173: + x203 + x225 <= 1
C174: + x39 + x178 <= 1
C175: + x131 + x143 <= 1
C176: + x14 + x470 <= 1
C177: + x15 + x30 <= 1
C178: + x155 + x336 <= 1
C179: + x8 + x341 <= 1
C180: + x55 + x117 <= 1
C181: + x364 + x489 <= 1
C182: + x28 + x147 <= 1
C183: + x13 + x20 <= 1
C184: + x14 + x156 <= 1
C185: + x203 + x213 <= 1
C186: + x313 + x387 <= 1
C187: + x195 + x259 <= 1
C188: + x94 + x494 <= 1
C189: + x26 + x425 <= 1
C190: + x10 + x423 <= 1
C191: + x54 + x462 <= 1
C192: + x10 + x122 <= 1
C193: + x221 + x441 <= 1
C194: + x112 + x269 <= 1
C195: + x64 + x267 <= 1
C196: + x5 + x8 <= 1
C197: + x48 + x461 <= 1
C198: + x234 + x334 <= 1
C199: + x14 + x237 <= 1
C200: + x10 + x213 <= 1
C201: + x16 + x184 <= 1
C202: + x47 + x52 <= 1
C203: + x12 + x128 <= 1
C204: + x248 + x356 <= 1
C205: + x251 + x300 <= 1
C206: + x107 + x138 <= 1
C207: + x5 + x385 <= 1
C208: + x9 + x15 <= 1
C209: + x46 + x248 <= 1
C210: + x12 + x44 <= 1
C211: + x7 + x66 <= 1
C212: + x190 + x309 <= 1
C213: + x47 + x270 <= 1
C214: + x41 + x437 <= 1
C215: + x16 + x318 <= 1
C216: + x74 + x338 <= 1
C217: + x211 + x330 <= 1
C218: + x22 + x210 <= 1
C219: + x5 + x128 <= 1
C220: + x278 + x397 <= 1
C221: + x9 + x123 <= 1
C222: + x317 + x487 <= 1
C223: + x49 + x146 <= 1
C224: + x203 + x361 <= 1
C225: + x13 + x309 <= 1
C226: + x335 + x422 <= 1
C227: + x75 + x177 <= 1
C228: + x232 + x345 <= 1
C229: + x24 + x291 <= 1
C230: + x4 + x20 <= 1
C231: + x115 + x330 <= 1
C232: + x221 + x250 <= 1
C233: + x215 + x356 <= 1
C234: + x6 + x42 <= 1
C235: + x375 + x398 <= 1
C236: + x86 + x284 <= 1
C237: + x5 + x51 <= 1
C238: + x197 + x208 <= 1
C239: + x6 + x264 <= 1
C240: + x8 + x40 <= 1
C241: + x61 + x149 <= 1
C242: + x62 + x206 <= 1
C243: + x8 + x331 <= 1
C244: + x54 + x81 <= 1
C245: + x11 + x56 <= 1
C246: + x93 + x142 <= 1
C247: + x20 + x408 <= 1
C248: + x184 + x359 <= 1
C249: + x14 + x43 <= 1
C250: + x9 + x133 <= 1
C251: + x19 + x56 <= 1
C252: + x7 + x303 <= 1
C253: + x157 + x352 <= 1
C254: + x59 + x495 <= 1
C255: + x4 + x109 <= 1
C256: + x25 + x307 <= 1
C257: + x214 + x283 <= 1
C258: + x16 + x21 <= 1
C259: + x46 + x165 <= 1
C260: + x12 + x29 <= 1
C261: + x30 + x107 <= 1
C262: + x39 + x160 <= 1
C263: + x8 + x383 <= 1
C264: + x10 + x465 <= 1
C265: + x2 + x7 <= 1
C266: + x13 + x145 <= 1
C267: + x14 + x31 <= 1
C268: + x6 + x130 <= 1
C269: + x117 + x208 <= 1
C270: + x135 + x304 <= 1
C271: + x12 + x110 <= 1
C272: + x40 + x260 <= 1
C273: + x44 + x242 <= 1
C274: + x7 + x8 <= 1
C275: + x392 + x418 <= 1
C276: + x14 + x112 <= 1
C277: + x9 + x267 <= 1
C278: + x28 + x46 <= 1
C279: + x22 + x32 <= 1
C280: + x199 + x215 <= 1
C281: + x200 + x221 <= 1
C282: + x54 + x263 <= 1
C283: + x143 + x271 <= 1
C284: + x8 + x29 <= 1
C285: + x24 + x26 <= 1
C286: + x7 + x52 <= 1
C287: + x138 + x252 <= 1
C288: + x238 + x280 <= 1
C289: + x78 + x217 <= 1
C290: + x32 + x74 <= 1
C291: + x25 + x413 <= 1
C292: + x9 + x375 <= 1
C293: + x54 + x440 <= 1
C294: + x9 + x105 <= 1
C295: + x202 + x242 <= 1
C296: + x93 + x463 <= 1
C297: + x12 + x22 <= 1
C298: + x21 + x73 <= 1
C299: + x226 + x236 <= 1
C300: + x7 + x112 <= 1
C301: + x237 + x247 <= 1
C302: + x164 + x175 <= 1
C303: + x94 + x199 <= 1
C304: + x22 + x85 <= 1
C305: + x23 + x67 <= 1
C306: + x14 + x24 <= 1
C307: + x15 + x224 <= 1
C308: + x9 + x248 <= 1
C309: + x282 + x320 <= 1
C310: + x35 + x125 <= 1
C311: + x36 + x214 <= 1
C312: + x34 + x445 <= 1
C313: + x136 + x318 <= 1
C314: + x220 + x298 <= 1
C315: + x13 + x196 <= 1
C316: + x35 + x49 <= 1
C317: + x245 + x472 <= 1
C318: + x46 + x227 <= 1
C319: + x7 + x43 <= 1
C320: + x39 + x45 <= 1
C321: + x112 + x180 <= 1
C322: + x115 + x246 <= 1
C323: + x12 + x176 <= 1
C324: + x31 + x218 <= 1
C325: + x34 + x159 <= 1
C326: + x65 + x93 <= 1
C327: + x18 + x69 <= 1
C328: + x114 + x404 <= 1
C329: + x81 + x160 <= 1
C330: + x136 + x188 <= 1
C331: + x2 + x17 <= 1
C332: + x215 + x262 <= 1
C333: + x17 + x381 <= 1
C334: + x26 + x155 <= 1
C335: + x9 + x255 <= 1
C336: + x182 + x197 <= 1
C337: + x3 + x292 <= 1
C338: + x14 + x319 <= 1
C339: + x61 + x110 <= 1
C340: + x23 + x364 <= 1
C341: + x345 + x468 <= 1
C342: + x10 + x66 <= 1
C343: + x11 + x82 <= 1
C344: + x101 + x135 <= 1
C345: + x156 + x239 <= 1
C346: + x1 + x187 <= 1
C347: + x14 + x197 <= 1
C348: + x125 + x344 <= 1
C349: + x24 + x201 <= 1
C350: + x2 + x336 <= 1
C351: + x156 + x398 <= 1
C352: + x7 + x46 <= 1
C353: + x2 + x94 <= 1
C354: + x139 + x254 <= 1
C355: + x180 + x351 <= 1
C356: + x16 + x274 <= 1
C357: + x10 + x14 <= 1
C358: + x8 + x164 <= 1
C359: + x85 + x141 <= 1
C360: + x41 + x78 <= 1
C361: + x22 + x246 <= 1
C362: + x120 + x191 <= 1
C363: + x13 + x47 <= 1
C364: + x24 + x157 <= 1
C365: + x9 + x23 <= 1
C366: + x63 + x170 <= 1
C367: + x190 + x202 <= 1
C368: + x322 + x399 <= 1
C369: + x158 + x339 <= 1
C370: + x88 + x477 <= 1
C371: + x31 + x311 <= 1
C372: + x36 + x371 <= 1
C373: + x163 + x430 <= 1
C374: + x7 + x90 <= 1
C375: + x2 + x106 <= 1
C376: + x19 + x34 + x83 <= 1
C377: + x30 + x324 <= 1
C378: + x22 + x103 <= 1
C379: + x7 + x251 <= 1
C380: + x337 + x377 <= 1
C381: + x28 + x132 <= 1
C382: + x139 + x387 <= 1
C383: + x3 + x315 <= 1
C384: + x5 + x477 <= 1
C385: + x18 + x106 <= 1
C386: + x11 + x427 <= 1
C387: + x97 + x281 <= 1
C388: + x209 + x323 <= 1
C389: + x83 + x219 <= 1
C390: + x2 + x38 <= 1
C391: + x13 + x242 <= 1
C392: + x126 + x132 <= 1
C393: + x8 + x12 <= 1
C394: + x2 + x321 <= 1
C395: + x4 + x60 <= 1
C396: + x187 + x205 <= 1
C397: + x13 + x87 <= 1
C398: + x44 + x145 <= 1
C399: + x151 + x356 <= 1
C400: + x13 + x484 <= 1
C401: + x11 + x415 <= 1
C402: + x11 + x44 <= 1
C403: + x192 + x424 <= 1
C404: + x149 + x164 <= 1
C405: + x14 + x79 <= 1
C406: + x309 + x322 <= 1
C407: + x25 + x196 <= 1
C408: + x142 + x392 <= 1
C409: + x18 + x55 <= 1
C410: + x8 + x64 <= 1
C411: + x74 + x466 <= 1
C412: + x276 + x289 <= 1
C413: + x42 + x185 <= 1
C414: + x398 + x438 <= 1
C415: + x7 + x81 <= 1
C416: + x338 + x485 <= 1
C417: + x393 + x453 <= 1
C418: + x267 + x486 <= 1
C419: + x286 + x392 <= 1
C420: + x109 + x316 <= 1
C421: + x182 + x215 <= 1
C422: + x55 + x333 <= 1
C423: + x95 + x355 <= 1
C424: + x40 + x153 <= 1
C425: + x178 + x354 <= 1
C426: + x34 + x229 <= 1
C427: + x397 + x441 <= 1
C428: + x163 + x377 <= 1
C429: + x10 + x116 <= 1
C430: + x1 + x137 <= 1
C431: + x38 + x286 <= 1
C432: + x132 + x262 <= 1
C433: + x36 + x90 <= 1
C434: + x7 + x371 <= 1
C435: + x20 + x167 <= 1
C436: + x14 + x485 <= 1
C437: + x7 + x32 <= 1
C438: + x16 + x449 <= 1
C439: + x188 + x466 <= 1
C440: + x15 + x112 <= 1
C441: + x18 + x141 <= 1
C442: + x9 + x168 <= 1
C443: + x32 + x288 <= 1
C444: + x7 + x431 <= 1
C445: + x87 + x334 <= 1
C446: + x32 + x435 <= 1
C447: + x163 + x448 <= 1
C448: + x6 + x76 <= 1
C449: + x134 + x135 <= 1
C450: + x338 + x478 <= 1
C451: + x47 + x264 <= 1
C452: + x216 + x405 <= 1
C453: + x152 + x335 <= 1
C454: + x83 + x391 <= 1
C455: + x11 + x252 <= 1
C456: + x215 + x396 <= 1
C457: + x5 + x451 <= 1
C458: + x9 + x113 <= 1
C459: + x156 + x484 <= 1
C460: + x39 + x308 <= 1
C461: + x81 + x177 <= 1
C462: + x24 + x454 <= 1
C463: + x71 + x72 <= 1
C464: + x16 + x345 <= 1
C465: + x2 + x56 <= 1
C466: + x12 + x288 <= 1
C467: + x28 + x174 <= 1
C468: + x93 + x406 <= 1
C469: + x29 + x131 <= 1
C470: + x69 + x429 <= 1
C471: + x205 + x210 <= 1
C472: + x24 + x59 <= 1
C473: + x7 + x23 <= 1
C474: + x119 + x268 <= 1
C475: + x84 + x280 <= 1
C476: + x29 + x40 <= 1
C477: + x9 + x282 <= 1
C478: + x56 + x433 <= 1
C479: + x448 + x456 <= 1
C480: + x14 + x164 <= 1
C481: + x43 + x136 <= 1
C482: + x9 + x12 <= 1
C483: + x51 + x200 <= 1
C484: + x5 + x315 <= 1
C485: + x235 + x310 <= 1
C486: + x74 + x191 <= 1
C487: + x23 + x98 <= 1
C488: + x44 + x474 <= 1
C489: + x28 + x151 <= 1
C490: + x211 + x331 <= 1
C491: + x66 + x480 <= 1
C492: + x19 + x194 <= 1
C493: + x166 + x319 <= 1
C494: + x18 + x93 <= 1
C495: + x399 + x447 <= 1
C496: + x111 + x340 <= 1
C497: + x130 + x366 <= 1
C498: + x327 + x487 <= 1
C499: + x8 + x482 <= 1
C500: + x16 + x418 <= 1
C501: + x63 + x108 <= 1
C502: + x246 + x266 <= 1
C503: + x2 + x9 <= 1
C504: + x264 + x358 <= 1
C505: + x22 + x70 <= 1
C506: + x161 + x256 <= 1
C507: + x230 + x419 <= 1
C508: + x39 + x241 <= 1
C509: + x234 + x493 <= 1
C510: + x9 + x420 <= 1
C511: + x221 + x300 <= 1
C512: + x141 + x238 <= 1
C513: + x44 + x291 <= 1
C514: + x7 + x171 <= 1
C515: + x19 + x444 <= 1
C516: + x424 + x455 <= 1
C517: + x11 + x186 <= 1
C518: + x24 + x161 <= 1
C519: + x16 + x72 <= 1
C520: + x11 + x283 <= 1
C521: + x2 + x360 <= 1
C522: + x148 + x257 <= 1
C523: + x30 + x389 <= 1
C524: + x342 + x403 <= 1
C525: + x16 + x411 <= 1
C526: + x54 + x84 <= 1
C527: + x232 + x353 <= 1
C528: + x14 + x46 <= 1
C529: + x82 + x168 <= 1
C530: + x7 + x300 <= 1
C531: + x16 + x314 <= 1
C532: + x11 + x238 <= 1
C533: + x377 + x497 <= 1
C534: + x56 + x94 <= 1
C535: + x21 + x226 <= 1
C536: + x52 + x102 <= 1
C537: + x9 + x127 <= 1
C538: + x200 + x287 <= 1
C539: + x7 + x469 <= 1
C540: + x61 + x238 <= 1
C541: + x5 + x342 <= 1
C542: + x24 + x476 <= 1
C543: + x10 + x103 <= 1
C544: + x22 + x79 <= 1
C545: + x34 + x310 <= 1
C546: + x180 + x275 <= 1
C547: + x18 + x231 <= 1
C548: + x7 + x360 <= 1
C549: + x280 + x352 <= 1
C550: + x20 + x190 <= 1
C551: + x30 + x31 <= 1
C552: + x28 + x327 <= 1
C553: + x239 + x348 <= 1
C554: + x76 + x152 <= 1
C555: + x5 + x154 <= 1
C556: + x6 + x22 <= 1
C557: + x18 + x301 <= 1
C558: + x7 + x174 <= 1
C559: + x8 + x36 <= 1
C560: + x11 + x262 <= 1
C561: + x12 + x37 <= 1
C562: + x167 + x287 <= 1
C563: + x11 + x149 <= 1
C564: + x41 + x93 <= 1
C565: + x14 + x138 <= 1
C566: + x16 + x17 <= 1
C567: + x8 + x472 <= 1
C568: + x13 + x141 <= 1
C569: + x5 + x242 <= 1
C570: + x17 + x216 <= 1
C571: + x20 + x195 <= 1
C572: + x52 + x55 <= 1
C573: + x17 + x117 <= 1
C574: + x9 + x82 <= 1
C575: + x281 + x290 <= 1
C576: + x76 + x378 <= 1
C577: + x33 + x56 <= 1
C578: + x14 + x108 <= 1
C579: + x9 + x271 <= 1
C580: + x19 + x119 <= 1
C581: + x13 + x193 <= 1
C582: + x101 + x114 <= 1
C583: + x41 + x181 <= 1
C584: + x13 + x499 <= 1
C585: + x16 + x489 <= 1
C586: + x11 + x59 <= 1
C587: + x76 + x249 <= 1
C588: + x154 + x202 <= 1
C589: + x13 + x53 <= 1
C590: + x33 + x353 <= 1
C591: + x14 + x334 <= 1
C592: + x443 + x476 <= 1
C593: + x424 + x442 <= 1
C594: + x7 + x100 <= 1
C595: + x28 + x424 <= 1
C596: + x12 + x316 <= 1
C597: + x25 + x429 <= 1
C598: + x16 + x143 <= 1
C599: + x145 + x276 <= 1
C600: + x4 + x6 <= 1
C601: + x2 + x474 <= 1
C602: + x115 + x473 <= 1
C603: + x53 + x341 <= 1
C604: + x54 + x62 <= 1
C605: + x74 + x285 <= 1
C606: + x24 + x446 <= 1
C607: + x22 + x37 <= 1
C608: + x81 + x118 <= 1
C609: + x160 + x440 <= 1
C610: + x28 + x198 <= 1
C611: + x54 + x268 <= 1
C612: + x55 + x140 <= 1
C613: + x60 + x61 <= 1
C614: + x75 + x297 <= 1
C615: + x11 + x38 <= 1
C616: + x348 + x386 <= 1
C617: + x264 + x406 <= 1
C618: + x22 + x406 <= 1
C619: + x14 + x89 <= 1
C620: + x15 + x159 <= 1
C621: + x216 + x434 <= 1
C622: + x4 + x95 <= 1
C623: + x188 + x302 <= 1
C624: + x9 + x20 <= 1
C625: + x41 + x232 <= 1
C626: + x7 + x91 <= 1
C627: + x398 + x448 <= 1
C628: + x58 + x120 <= 1
C629: + x167 + x197 <= 1
C630: + x89 + x244 <= 1
C631: + x237 + x476 <= 1
C632: + x26 + x58 <= 1
C633: + x27 + x170 <= 1
C634: + x16 + x43 <= 1
C635: + x46 + x71 <= 1
C636: + x54 + x228 <= 1
C637: + x12 + x386 <= 1
C638: + x340 + x474 <= 1
C639: + x88 + x251 <= 1
C640: + x44 + x271 <= 1
C641: + x30 + x155 <= 1
C642: + x363 + x419 <= 1
C643: + x9 + x47 <= 1
C644: + x101 + x104 <= 1
C645: + x247 + x451 <= 1
C646: + x94 + x307 <= 1
C647: + x68 + x292 <= 1
C648: + x458 + x463 <= 1
C649: + x215 + x252 <= 1
C650: + x5 + x262 <= 1
C651: + x9 + x396 <= 1
C652: + x249 + x454 <= 1
C653: + x224 + x380 <= 1
C654: + x18 + x151 <= 1
C655: + x10 + x50 <= 1
C656: + x11 + x130 <= 1
C657: + x85 + x137 <= 1
C658: + x19 + x29 <= 1
C659: + x165 + x196 <= 1
C660: + x274 + x301 <= 1
C661: + x236 + x308 <= 1
C662: + x91 + x429 <= 1
C663: + x68 + x368 <= 1
C664: + x33 + x129 <= 1
C665: + x44 + x332 <= 1
C666: + x62 + x169 <= 1
C667: + x101 + x265 <= 1
C668: + x15 + x17 <= 1
C669: + x21 + x202 <= 1
C670: + x4 + x116 <= 1
C671: + x243 + x435 <= 1
C672: + x201 + x220 <= 1
C673: + x85 + x434 <= 1
C674: + x14 + x407 <= 1
C675: + x63 + x400 <= 1
C676: + x49 + x416 <= 1
C677: + x97 + x250 <= 1
C678: + x142 + x464 <= 1
C679: + x119 + x145 <= 1
C680: + x4 + x64 <= 1
C681: + x187 + x201 <= 1
C682: + x116 + x410 <= 1
C683: + x17 + x22 <= 1
C684: + x54 + x177 <= 1
C685: + x19 + x298 <= 1
C686: + x221 + x238 <= 1
C687: + x221 + x347 <= 1
C688: + x44 + x308 <= 1
C689: + x279 + x321 <= 1
C690: + x24 + x392 <= 1
C691: + x16 + x210 <= 1
C692: + x12 + x210 <= 1
C693: + x13 + x34 <= 1
C694: + x112 + x206 <= 1
C695: + x469 + x484 <= 1
C696: + x18 + x43 <= 1
C697: + x12 + x452 <= 1
C698: + x5 + x305 <= 1
C699: + x6 + x79 <= 1
C700: + x98 + x464 <= 1
C701: + x155 + x326 <= 1
C702: + x16 + x396 <= 1
C703: + x301 + x306 <= 1
C704: + x19 + x478 <= 1
C705: + x68 + x71 <= 1
C706: + x143 + x419 <= 1
C707: + x63 + x296 <= 1
C708: + x65 + x478 <= 1
C709: + x33 + x322 <= 1
C710: + x16 + x57 <= 1
C711: + x28 + x316 <= 1
C712: + x156 + x495 <= 1
C713: + x12 + x448 <= 1
C714: + x13 + x264 <= 1
C715: + x404 + x475 <= 1
C716: + x44 + x381 <= 1
C717: + x2 + x51 <= 1
C718: + x186 + x385 <= 1
C719: + x41 + x500 <= 1
C720: + x188 + x357 <= 1
C721: + x197 + x346 <= 1
C722: + x38 + x253 <= 1
C723: + x12 + x122 <= 1
C724: + x132 + x421 <= 1
C725: + x33 + x195 <= 1
C726: + x36 + x313 <= 1
C727: + x172 + x465 <= 1
C728: + x156 + x315 <= 1
C729: + x241 + x401 <= 1
C730: + x67 + x148 <= 1
C731: + x139 + x236 <= 1
C732: + x430 + x462 <= 1
C733: + x5 + x169 <= 1
C734: + x151 + x220 <= 1
C735: + x89 + x189 <= 1
C736: + x20 + x284 <= 1
C737: + x104 + x154 <= 1
C738: + x134 + x368 <= 1
C739: + x110 + x115 <= 1
C740: + x54 + x299 <= 1
C741: + x83 + x500 <= 1
C742: + x11 + x277 <= 1
C743: + x13 + x459 <= 1
C744: + x129 + x248 <= 1
C745: + x63 + x303 <= 1
C746: + x56 + x76 <= 1
C747: + x149 + x352 <= 1
C748: + x12 + x131 <= 1
C749: + x116 + x229 <= 1
C750: + x217 + x486 <= 1
C751: + x183 + x357 <= 1
C752: + x349 + x450 <= 1
C753: + x15 + x47 <= 1
C754: + x7 + x124 <= 1
C755: + x19 + x393 <= 1
C756: + x382 + x421 <= 1
C757: + x54 + x461 <= 1
C758: + x83 + x278 <= 1
C759: + x22 + x57 <= 1
C760: + x61 + x441 <= 1
C761: + x81 + x82 <= 1
C762: + x14 + x236 <= 1
C763: + x82 + x297 <= 1
C764: + x180 + x256 <= 1
C765: + x64 + x105 <= 1
C766: + x16 + x183 <= 1
C767: + x22 + x156 <= 1
C768: + x104 + x308 <= 1
C769: + x151 + x211 <= 1
C770: + x82 + x247 <= 1
C771: + x73 + x222 <= 1
C772: + x10 + x37 <= 1
C773: + x13 + x216 <= 1
C774: + x14 + x224 <= 1
C775: + x40 + x87 <= 1
C776: + x28 + x254 <= 1
C777: + x84 + x393 <= 1
C778: + x224 + x232 <= 1
C779: + x64 + x180 <= 1
C780: + x283 + x382 <= 1
C781: + x132 + x332 <= 1
C782: + x14 + x49 <= 1
C783: + x16 + x236 <= 1
C784: + x229 + x493 <= 1
C785: + x25 + x301 <= 1
C786: + x153 + x471 <= 1
C787: + x197 + x246 <= 1
C788: + x127 + x186 <= 1
C789: + x54 + x200 <= 1
C790: + x24 + x479 <= 1
C791: + x10 + x98 <= 1
C792: + x58 + x96 <= 1
C793: + x223 + x437 <= 1
C794: + x13 + x155 <= 1
C795: + x26 + x135 <= 1
C796: + x217 + x412 <= 1
C797: + x28 + x167 <= 1
C798: + x313 + x378 <= 1
C799: + x31 + x146 <= 1
C800: + x17 + x123 <= 1
C801: + x7 + x14 <= 1
C802: + x74 + x128 <= 1
C803: + x66 + x139 <= 1
C804: + x20 + x24 <= 1
C805: + x166 + x450 <= 1
C806: + x5 + x159 <= 1
C807: + x406 + x409 <= 1
C808: + x14 + x118 <= 1
C809: + x54 + x410 <= 1
C810: + x30 + x179 <= 1
C811: + x5 + x52 <= 1
C812: + x9 + x55 <= 1
C813: + x7 + x413 <= 1
C814: + x231 + x353 <= 1
C815: + x347 + x415 <= 1
C816: + x84 + x164 <= 1
C817: + x167 + x284 <= 1
C818: + x14 + x42 <= 1
C819: + x96 + x132 <= 1
C820: + x16 + x241 <= 1
C821: + x9 + x134 <= 1
C822: + x8 + x184 <= 1
C823: + x132 + x496 <= 1
C824: + x235 + x332 <= 1
C825: + x21 + x67 <= 1
C826: + x222 + x298 <= 1
C827: + x270 + x326 <= 1
C828: + x1 + x146 <= 1
C829: + x84 + x240 <= 1
C830: + x12 + x258 <= 1
C831: + x44 + x86 <= 1
C832: + x6 + x348 <= 1
C833: + x83 + x425 <= 1
C834: + x309 + x435 <= 1
C835: + x21 + x50 <= 1
C836: + x42 + x282 <= 1
C837: + x51 + x130 <= 1
C838: + x63 + x226 <= 1
C839: + x267 + x338 <= 1
C840: + x61 + x318 <= 1
C841: + x45 + x424 <= 1
C842: + x198 + x373 <= 1
C843: + x16 + x73 <= 1
C844: + x75 + x291 <= 1
C845: + x330 + x488 <= 1
C846: + x419 + x488 <= 1
C847: + x24 + x29 + x54 <= 1
C848: + x7 + x222 <= 1
C849: + x7 + x295 <= 1
C850: + x52 + x444 <= 1
C851: + x89 + x432 <= 1
C852: + x9 + x106 <= 1
C853: + x392 + x486 <= 1
C854: + x365 + x394 <= 1
C855: + x103 + x177 <= 1
C856: + x78 + x268 <= 1
C857: + x31 + x103 <= 1
C858: + x14 + x23 <= 1
C859: + x198 + x330 <= 1
C860: + x7 + x339 <= 1
C861: + x35 + x126 <= 1
C862: + x265 + x323 <= 1
C863: + x122 + x133 <= 1
C864: + x311 + x430 <= 1
C865: + x41 + x141 <= 1
C866: + x9 + x86 <= 1
C867: + x263 + x321 <= 1
C868: + x42 + x113 <= 1
C869: + x288 + x345 <= 1
C870: + x16 + x328 <= 1
C871: + x83 + x234 <= 1
C872: + x29 + x283 <= 1
C873: + x194 + x350 <= 1
C874: + x213 + x496 <= 1
C875: + x167 + x187 <= 1
C876: + x5 + x34 <= 1
C877: + x210 + x275 <= 1
C878: + x48 + x313 <= 1
C879: + x104 + x432 <= 1
C880: + x342 + x417 <= 1
C881: + x118 + x439 <= 1
C882: + x2 + x401 <= 1
C883: + x3 + x76 <= 1
C884: + x12 + x324 <= 1
C885: + x69 + x188 <= 1
C886: + x278 + x324 <= 1
C887: + x36 + x51 <= 1
C888: + x41 + x72 <= 1
C889: + x161 + x170 <= 1
C890: + x179 + x265 <= 1
C891: + x26 + x233 <= 1
C892: + x80 + x294 <= 1
C893: + x8 + x457 <= 1
C894: + x339 + x341 <= 1
C895: + x318 + x350 <= 1
C896: + x111 + x454 <= 1
C897: + x11 + x107 <= 1
C898: + x195 + x393 <= 1
C899: + x225 + x276 <= 1
C900: + x11 + x208 <= 1
C901: + x136 + x421 <= 1
C902: + x148 + x336 <= 1
C903: + x13 + x101 <= 1
C904: + x40 + x230 <= 1
C905: + x16 + x42 <= 1
C906: + x147 + x329 <= 1
C907: + x239 + x362 <= 1
C908: + x7 + x148 <= 1
C909: + x137 + x207 <= 1
C910: + x28 + x59 <= 1
C911: + x8 + x292 <= 1
C912: + x3 + x212 <= 1
C913: + x50 + x490 <= 1
C914: + x99 + x265 <= 1
C915: + x9 + x44 <= 1
C916: + x27 + x222 <= 1
C917: + x25 + x79 <= 1
C918: + x7 + x35 <= 1
C919: + x28 + x357 <= 1
C920: + x143 + x187 <= 1
C921: + x200 + x369 <= 1
C922: + x88 + x206 <= 1
C923: + x211 + x299 <= 1
C924: + x15 + x369 <= 1
C925: + x9 + x24 <= 1
C926: + x134 + x369 <= 1
C927: + x7 + x446 <= 1
C928: + x248 + x268 <= 1
C929: + x94 + x458 <= 1
C930: + x21 + x96 <= 1
C931: + x41 + x289 <= 1
C932: + x34 + x114 <= 1
C933: + x217 + x219 <= 1
C934: + x16 + x386 <= 1
C935: + x128 + x397 <= 1
C936: + x22 + x102 <= 1
C937: + x5 + x228 <= 1
C938: + x215 + x286 <= 1
C939: + x7 + x333 <= 1
C940: + x20 + x213 <= 1
C941: + x31 + x142 <= 1
C942: + x295 + x422 <= 1
C943: + x9 + x68 <= 1
C944: + x293 + x295 <= 1
C945: + x95 + x111 <= 1
C946: + x6 + x13 <= 1
C947: + x24 + x439 <= 1
C948: + x164 + x373 <= 1
C949: + x156 + x231 <= 1
C950: + x87 + x106 <= 1
C951: + x121 + x237 <= 1
C952: + x13 + x88 <= 1
C953: + x33 + x260 <= 1
C954: + x17 + x19 <= 1
C955: + x229 + x299 <= 1
C956: + x3 + x94 <= 1
C957: + x14 + x78 <= 1
C958: + x16 + x282 <= 1
C959: + x118 + x348 <= 1
C960: + x29 + x317 <= 1
C961: + x12 + x221 <= 1
C962: + x162 + x339 <= 1
C963: + x36 + x160 <= 1
C964: + x8 + x63 <= 1
C965: + x121 + x185 <= 1
C966: + x19 + x190 <= 1
C967: + x30 + x78 <= 1
C968: + x55 + x211 <= 1
C969: + x7 + x82 <= 1
C970: + x94 + x209 <= 1
C971: + x23 + x85 <= 1
C972: + x105 + x162 <= 1
C973: + x69 + x499 <= 1
C974: + x22 + x194 <= 1
C975: + x205 + x347 <= 1
C976: + x9 + x75 <= 1
C977: + x41 + x340 <= 1
C978: + x81 + x187 <= 1
C979: + x120 + x124 <= 1
C980: + x11 + x65 <= 1
C981: + x194 + x289 <= 1
C982: + x141 + x362 <= 1
C983: + x66 + x382 <= 1
C984: + x40 + x105 <= 1
C985: + x38 + x494 <= 1
C986: + x41 + x416 <= 1
C987: + x35 + x257 <= 1
C988: + x56 + x443 <= 1
C989: + x114 + x152 <= 1
C990: + x7 + x319 <= 1
C991: + x28 + x145 <= 1
C992: + x2 + x134 <= 1
C993: + x383 + x445 <= 1
C994: + x305 + x321 <= 1
C995: + x13 + x18 <= 1
C996: + x14 + x158 <= 1
C997: + x5 + x452 <= 1
C998: + x15 + x399 <= 1
C999: + x147 + x438 <= 1
C1000: + x20 + x66 <= 1
C1001: + x67 + x367 <= 1
C1002: + x41 + x347 <= 1
C1003: + x33 + x88 <= 1
C1004: + x25 + x53 <= 1
C1005: + x23 + x479 <= 1
C1006: + x251 + x346 <= 1
C1007: + x2 + x55 <= 1
C1008: + x48 + x451 <= 1
C1009: + x13 + x225 <= 1
C1010: + x126 + x362 <= 1
C1011: + x13 + x70 <= 1
C1012: + x43 + x246 <= 1
C1013: + x44 + x130 <= 1
C1014: + x127 + x384 <= 1
C1015: + x54 + x134 <= 1
C1016: + x2 + x195 <= 1
C1017: + x11 + x192 <= 1
C1018: + x95 + x290 <= 1
C1019: + x4 + x186 <= 1
C1020: + x265 + x314 <= 1
C1021: + x2 + x6 + x8 <= 1
C1022: + x121 + x199 <= 1
C1023: + x59 + x375 <= 1
C1024: + x4 + x428 <= 1
C1025: + x7 + x68 <= 1
C1026: + x318 + x354 <= 1
C1027: + x11 + x15 <= 1
C1028: + x3 + x5 + x11 + x16 <= 1
C1029: + x13 + x172 <= 1
C1030: + x108 + x153 <= 1
C1031: + x7 + x306 <= 1
C1032: + x16 + x239 <= 1
C1033: + x114 + x197 <= 1
C1034: + x5 + x126 <= 1
C1035: + x224 + x445 <= 1
C1036: + x9 + x121 <= 1
C1037: + x135 + x168 <= 1
C1038: + x248 + x299 <= 1
C1039: + x366 + x388 <= 1
C1040: + x342 + x477 <= 1
C1041: + x146 + x194 <= 1
C1042: + x10 + x125 <= 1
C1043: + x74 + x317 <= 1
C1044: + x182 + x414 <= 1
C1045: + x5 + x13 <= 1
C1046: + x12 + x14 + x53 <= 1
C1047: + x8 + x114 <= 1
C1048: + x305 + x436 <= 1
C1049: + x33 + x222 <= 1
C1050: + x35 + x178 <= 1
C1051: + x7 + x15 <= 1
C1052: + x8 + x405 <= 1
C1053: + x4 + x10 + x33 <= 1
C1054: + x94 + x139 <= 1
C1055: + x59 + x413 <= 1
C1056: + x106 + x253 <= 1
C1057: + x5 + x49 <= 1
C1058: + x181 + x421 <= 1
C1059: + x7 + x59 <= 1
C1060: + x220 + x375 <= 1
C1061: + x4 + x208 <= 1
C1062: + x23 + x272 <= 1
C1063: + x316 + x500 <= 1
C1064: + x12 + x27 <= 1
C1065: + x35 + x346 <= 1
C1066: + x190 + x260 <= 1
C1067: + x65 + x234 <= 1
C1068: + x101 + x163 <= 1
C1069: + x11 + x126 <= 1
C1070: + x8 + x204 <= 1
C1071: + x12 + x269 <= 1
C1072: + x16 + x426 <= 1
C1073: + x20 + x354 <= 1
C1074: + x5 + x12 <= 1
C1075: + x121 + x265 <= 1
C1076: + x185 + x254 <= 1
C1077: + x40 + x251 <= 1
C1078: + x132 + x407 <= 1
C1079: + x51 + x131 <= 1
C1080: + x62 + x245 <= 1
C1081: + x10 + x292 <= 1
C1082: + x19 + x271 <= 1
C1083: + x128 + x358 <= 1
C1084: + x95 + x119 <= 1
C1085: + x96 + x220 <= 1
C1086: + x53 + x328 <= 1
C1087: + x91 + x191 <= 1
C1088: + x24 + x431 <= 1
C1089: + x282 + x418 <= 1
C1090: + x46 + x329 <= 1
C1091: + x12 + x249 <= 1
C1092: + x108 + x250 <= 1
C1093: + x24 + x185 <= 1
C1094: + x114 + x425 <= 1
C1095: + x44 + x172 <= 1
C1096: + x127 + x342 <= 1
C1097: + x54 + x92 <= 1
C1098: + x7 + x62 <= 1
C1099: + x288 + x411 <= 1
C1100: + x382 + x450 <= 1
C1101: + x29 + x213 <= 1
C1102: + x31 + x209 <= 1
C1103: + x51 + x317 <= 1
C1104: + x9 + x103 <= 1
C1105: + x57 + x97 <= 1
C1106: + x242 + x466 <= 1
C1107: + x112 + x443 <= 1
C1108: + x48 + x379 <= 1
C1109: + x344 + x479 <= 1
C1110: + x10 + x111 <= 1
C1111: + x11 + x101 <= 1
C1112: + x8 + x193 <= 1
C1113: + x66 + x346 <= 1
C1114: + x185 + x296 <= 1
C1115: + x217 + x359 <= 1
C1116: + x6 + x328 <= 1
C1117: + x151 + x443 <= 1
C1118: + x8 + x104 <= 1
C1119: + x11 + x218 <= 1
C1120: + x20 + x198 <= 1
C1121: + x7 + x9 + x13 <= 1
C1122: + x108 + x437 <= 1
C1123: + x27 + x165 <= 1
C1124: + x84 + x302 <= 1
C1125: + x4 + x370 <= 1
C1126: + x6 + x30 <= 1
C1127: + x9 + x272 <= 1
C1128: + x22 + x27 <= 1
C1129: + x162 + x376 <= 1
C1130: + x11 + x270 <= 1
C1131: + x467 + x495 <= 1
C1132: + x59 + x189 <= 1
C1133: + x159 + x343 <= 1
C1134: + x5 + x273 <= 1
C1135: + x127 + x349 <= 1
C1136: + x44 + x161 <= 1
C1137: + x6 + x431 <= 1
C1138: + x10 + x273 <= 1
C1139: + x28 + x363 <= 1
C1140: + x120 + x470 <= 1
C1141: + x78 + x212 <= 1
C1142: + x176 + x330 <= 1
C1143: + x18 + x337 <= 1
C1144: + x28 + x125 <= 1
C1145: + x8 + x169 <= 1
C1146: + x185 + x192 <= 1
C1147: + x3 + x274 <= 1
C1148: + x6 + x320 <= 1
C1149: + x16 + x25 <= 1
C1150: + x7 + x456 <= 1
C1151: + x11 + x370 <= 1
C1152: + x196 + x395 <= 1
C1153: + x406 + x483 <= 1
C1154: + x9 + x459 <= 1
C1155: + x29 + x323 <= 1
C1156: + x22 + x96 <= 1
C1157: + x14 + x19 <= 1
C1158: + x79 + x470 <= 1
C1159: + x118 + x204 <= 1
C1160: + x1 + x10 <= 1
C1161: + x274 + x366 <= 1
C1162: + x28 + x137 <= 1
C1163: + x11 + x193 <= 1
C1164: + x4 + x5 <= 1
C1165: + x61 + x84 <= 1
C1166: + x43 + x234 <= 1
C1167: + x14 + x257 <= 1
C1168: + x10 + x302 <= 1
C1169: + x8 + x388 <= 1
C1170: + x16 + x45 <= 1
C1171: + x330 + x417 <= 1
C1172: + x111 + x434 <= 1
C1173: + x185 + x414 <= 1
C1174: + x34 + x440 <= 1
C1175: + x61 + x305 <= 1
C1176: + x6 + x7 <= 1
C1177: + x9 + x311 <= 1
C1178: + x110 + x176 <= 1
C1179: + x28 + x58 <= 1
C1180: + x10 + x68 <= 1
C1181: + x64 + x273 <= 1
C1182: + x22 + x36 <= 1
C1183: + x61 + x406 <= 1
C1184: + x17 + x252 <= 1
C1185: + x9 + x41 <= 1
C1186: + x54 + x267 <= 1
C1187: + x121 + x227 <= 1
C1188: + x26 + x68 <= 1
C1189: + x7 + x48 <= 1
C1190: + x219 + x237 <= 1
C1191: + x2 + x405 <= 1
C1192: + x1 + x483 <= 1
C1193: + x63 + x217 <= 1
C1194: + x132 + x450 <= 1
C1195: + x151 + x167 <= 1
C1196: + x9 + x498 <= 1
C1197: + x8 + x364 <= 1
C1198: + x129 + x297 <= 1
C1199: + x13 + x132 <= 1
C1200: + x22 + x89 <= 1
C1201: + x206 + x460 <= 1
C1202: + x42 + x493 <= 1
C1203: + x36 + x99 <= 1
C1204: + x16 + x151 <= 1
C1205: + x181 + x216 <= 1
C1206: + x65 + x449 <= 1
C1207: + x4 + x14 <= 1
C1208: + x5 + x467 <= 1
C1209: + x9 + x65 <= 1
C1210: + x142 + x325 <= 1
C1211: + x147 + x325 <= 1
C1212: + x67 + x258 <= 1
C1213: + x94 + x385 <= 1
C1214: + x315 + x481 <= 1
C1215: + x33 + x71 <= 1
C1216: + x6 + x16 <= 1
C1217: + x79 + x155 <= 1
C1218: + x44 + x258 <= 1
C1219: + x5 + x21 <= 1
C1220: + x82 + x453 <= 1
C1221: + x132 + x442 <= 1
C1222: + x4 + x397 <= 1
C1223: + x52 + x212 <= 1
C1224: + x481 + x496 <= 1
C1225: + x72 + x237 <= 1
C1226: + x19 + x304 <= 1
C1227: + x163 + x312 <= 1
C1228: + x2 + x244 <= 1
C1229: + x212 + x461 <= 1
C1230: + x158 + x302 <= 1
C1231: + x77 + x351 <= 1
C1232: + x4 + x71 <= 1
C1233: + x22 + x241 <= 1
C1234: + x9 + x28 <= 1
C1235: + x8 + x62 <= 1
C1236: + x328 + x457 <= 1
C1237: + x28 + x234 <= 1
C1238: + x186 + x344 <= 1
C1239: + x332 + x465 <= 1
C1240: + x12 + x462 <= 1
C1241: + x44 + x331 <= 1
C1242: + x118 + x464 <= 1
C1243: + x64 + x136 <= 1
C1244: + x232 + x380 <= 1
C1245: + x9 + x235 <= 1
C1246: + x83 + x402 <= 1
C1247: + x53 + x135 <= 1
C1248: + x3 + x6 <= 1
C1249: + x19 + x408 <= 1
C1250: + x10 + x78 <= 1
C1251: + x11 + x70 <= 1
C1252: + x360 + x379 <= 1
C1253: + x44 + x422 <= 1
C1254: + x167 + x479 <= 1
C1255: + x337 + x412 <= 1
C1256: + x75 + x348 <= 1
C1257: + x22 + x423 <= 1
C1258: + x274 + x293 <= 1
C1259: + x12 + x209 <= 1
C1260: + x205 + x355 <= 1
C1261: + x116 + x211 <= 1
C1262: + x14 + x376 <= 1
C1263: + x15 + x384 <= 1
C1264: + x16 + x120 <= 1
C1265: + x309 + x484 <= 1
C1266: + x206 + x365 <= 1
C1267: + x7 + x425 <= 1
C1268: + x240 + x420 <= 1
C1269: + x11 + x363 <= 1
C1270: + x13 + x461 <= 1
C1271: + x147 + x296 <= 1
C1272: + x93 + x374 <= 1
C1273: + x4 + x221 <= 1
C1274: + x96 + x152 <= 1
C1275: + x6 + x225 <= 1
C1276: + x7 + x247 <= 1
C1277: + x61 + x121 <= 1
C1278: + x34 + x256 <= 1
C1279: + x317 + x467 <= 1
C1280: + x28 + x315 <= 1
C1281: + x349 + x460 <= 1
C1282: + x15 + x37 <= 1
C1283: + x8 + x270 <= 1
C1284: + x19 + x92 <= 1
C1285: + x137 + x310 <= 1
C1286: + x22 + x63 <= 1
C1287: + x5 + x27 <= 1
C1288: + x98 + x230 <= 1
C1289: + x86 + x423 <= 1
C1290: + x61 + x77 <= 1
C1291: + x7 + x17 <= 1
C1292: + x75 + x323 <= 1
C1293: + x47 + x140 <= 1
C1294: + x3 + x81 <= 1
C1295: + x5 + x170 <= 1
C1296: + x62 + x73 <= 1
C1297: + x154 + x165 <= 1
C1298: + x28 + x89 <= 1
C1299: + x7 + x190 <= 1
C1300: + x7 + x263 <= 1
C1301: + x381 + x497 <= 1
C1302: + x13 + x218 <= 1
C1303: + x238 + x410 <= 1
C1304: + x9 + x10 <= 1
C1305: + x7 + x420 <= 1
C1306: + x11 + x278 <= 1
C1307: + x86 + x491 <= 1
C1308: + x25 + x109 <= 1
C1309: + x185 + x459 <= 1
C1310: + x25 + x394 <= 1
C1311: + x43 + x480 <= 1
C1312: + x353 + x482 <= 1
C1313: + x82 + x372 <= 1
C1314: + x84 + x116 <= 1
C1315: + x3 + x266 <= 1
C1316: + x4 + x97 <= 1
C1317: + x25 + x295 <= 1
C1318: + x14 + x154 <= 1
C1319: + x182 + x382 <= 1
C1320: + x94 + x492 <= 1
C1321: + x184 + x388 <= 1
C1322: + x13 + x320 <= 1
C1323: + x117 + x490 <= 1
C1324: + x2 + x11 <= 1
C1325: + x75 + x184 <= 1
C1326: + x6 + x158 <= 1
C1327: + x28 + x161 <= 1
C1328: + x205 + x207 <= 1
C1329: + x398 + x495 <= 1
C1330: + x83 + x89 <= 1
C1331: + x2 + x497 <= 1
C1332: + x195 + x469 <= 1
C1333: + x14 + x124 <= 1
C1334: + x287 + x343 <= 1
C1335: + x28 + x491 <= 1
C1336: + x10 + x44 <= 1
C1337: + x111 + x176 <= 1
C1338: + x2 + x199 <= 1
C1339: + x149 + x276 <= 1
C1340: + x33 + x389 <= 1
C1341: + x274 + x279 <= 1
C1342: + x125 + x251 <= 1
C1343: + x253 + x296 <= 1
C1344: + x179 + x297 <= 1
C1345: + x88 + x487 <= 1
C1346: + x37 + x223 <= 1
C1347: + x58 + x381 <= 1
C1348: + x170 + x481 <= 1
C1349: + x88 + x326 <= 1
C1350: + x62 + x179 <= 1
C1351: + x10 + x482 <= 1
C1352: + x84 + x359 <= 1
C1353: + x248 + x253 <= 1
C1354: + x76 + x201 <= 1
C1355: + x14 + x48 <= 1
C1356: + x162 + x175 <= 1
C1357: + x8 + x186 <= 1
C1358: + x183 + x212 <= 1
C1359: + x94 + x322 <= 1
C1360: + x242 + x377 <= 1
C1361: + x30 + x205 <= 1
C1362: + x378 + x481 <= 1
C1363: + x244 + x279 <= 1
C1364: + x10 + x371 <= 1
C1365: + x293 + x352 <= 1
C1366: + x12 + x26 <= 1
C1367: + x5 + x364 <= 1
C1368: + x338 + x390 <= 1
C1369: + x54 + x469 <= 1
C1370: + x272 + x398 <= 1
C1371: + x30 + x382 <= 1
C1372: + x180 + x200 <= 1
C1373: + x88 + x428 <= 1
C1374: + x37 + x274 <= 1
C1375: + x302 + x390 <= 1
C1376: + x370 + x384 <= 1
C1377: + x10 + x319 <= 1
C1378: + x14 + x117 <= 1
C1379: + x6 + x24 <= 1
C1380: + x8 + x131 <= 1
C1381: + x7 + x414 <= 1
C1382: + x174 + x367 <= 1
C1383: + x122 + x198 <= 1
C1384: + x62 + x204 <= 1
C1385: + x54 + x95 <= 1
C1386: + x76 + x194 <= 1
C1387: + x14 + x41 <= 1
C1388: + x7 + x301 <= 1
C1389: + x28 + x99 <= 1
C1390: + x227 + x409 <= 1
C1391: + x248 + x409 <= 1
C1392: + x61 + x473 <= 1
C1393: + x14 + x140 <= 1
C1394: + x380 + x478 <= 1
C1395: + x135 + x147 <= 1
C1396: + x10 + x380 <= 1
C1397: + x404 + x497 <= 1
C1398: + x363 + x366 <= 1
C1399: + x24 + x471 <= 1
C1400: + x246 + x286 <= 1
C1401: + x2 + x5 <= 1
C1402: + x11 + x122 <= 1
C1403: + x69 + x379 <= 1
C1404: + x23 + x74 <= 1
C1405: + x159 + x178 <= 1
C1406: + x461 + x498 <= 1
C1407: + x15 + x219 <= 1
C1408: + x8 + x107 <= 1
C1409: + x145 + x283 <= 1
C1410: + x166 + x279 <= 1
C1411: + x115 + x182 <= 1
C1412: + x89 + x147 <= 1
C1413: + x15 + x70 <= 1
C1414: + x52 + x340 <= 1
C1415: + x240 + x353 <= 1
C1416: + x33 + x403 <= 1
C1417: + x276 + x485 <= 1
C1418: + x6 + x180 <= 1
C1419: + x117 + x158 <= 1
C1420: + x156 + x434 <= 1
C1421: + x239 + x464 <= 1
C1422: + x7 + x50 <= 1
C1423: + x318 + x400 <= 1
C1424: + x192 + x395 <= 1
C1425: + x114 + x272 <= 1
C1426: + x63 + x449 <= 1
C1427: + x185 + x189 <= 1
C1428: + x239 + x447 <= 1
C1429: + x30 + x223 <= 1
C1430: + x14 + x133 <= 1
C1431: + x34 + x156 <= 1
C1432: + x126 + x203 <= 1
C1433: + x82 + x386 <= 1
C1434: + x10 + x381 <= 1
C1435: + x7 + x449 <= 1
C1436: + x16 + x32 <= 1
C1437: + x145 + x387 <= 1
C1438: + x32 + x128 <= 1
C1439: + x88 + x115 <= 1
C1440: + x118 + x207 <= 1
C1441: + x201 + x335 <= 1
C1442: + x152 + x396 <= 1
C1443: + x200 + x327 <= 1
C1444: + x393 + x417 <= 1
C1445: + x4 + x374 <= 1
C1446: + x7 + x154 <= 1
C1447: + x94 + x153 <= 1
C1448: + x177 + x181 <= 1
C1449: + x214 + x487 <= 1
C1450: + x22 + x39 <= 1
C1451: + x40 + x125 <= 1
C1452: + x25 + x375 <= 1
C1453: + x9 + x38 <= 1
C1454: + x55 + x182 <= 1
C1455: + x139 + x451 <= 1
C1456: + x184 + x468 <= 1
C1457: + x13 + x496 <= 1
C1458: + x35 + x148 <= 1
C1459: + x88 + x337 <= 1
C1460: + x2 + x91 <= 1
C1461: + x65 + x306 <= 1
C1462: + x4 + x93 <= 1
C1463: + x104 + x113 <= 1
C1464: + x26 + x240 <= 1
C1465: + x9 + x18 <= 1
C1466: + x16 + x101 <= 1
C1467: + x29 + x77 <= 1
C1468: + x6 + x95 <= 1
C1469: + x7 + x101 <= 1
C1470: + x173 + x304 <= 1
C1471: + x75 + x287 <= 1
C1472: + x2 + x23 <= 1
C1473: + x221 + x415 <= 1
C1474: + x44 + x337 <= 1
C1475: + x157 + x223 <= 1
C1476: + x432 + x469 <= 1
C1477: + x26 + x294 <= 1
C1478: + x15 + x165 <= 1
C1479: + x4 + x9 <= 1
C1480: + x4 + x480 <= 1
C1481: + x34 + x233 <= 1
C1482: + x35 + x215 <= 1
C1483: + x9 + x94 <= 1
C1484: + x150 + x264 <= 1
C1485: + x53 + x338 <= 1
C1486: + x18 + x274 <= 1
C1487: + x200 + x483 <= 1
C1488: + x265 + x474 <= 1
C1489: + x23 + x152 <= 1
C1490: + x44 + x127 <= 1
C1491: + x149 + x405 <= 1
C1492: + x12 + x74 <= 1
C1493: + x13 + x90 <= 1
C1494: + x35 + x171 <= 1
C1495: + x7 + x36 <= 1
C1496: + x325 + x401 <= 1
C1497: + x5 + x185 <= 1
C1498: + x73 + x167 <= 1
C1499: + x9 + x188 <= 1
C1500: + x19 + x31 <= 1
C1501: + x10 + x52 <= 1
C1502: + x90 + x305 <= 1
C1503: + x28 + x277 <= 1
C1504: + x46 + x142 <= 1
C1505: + x385 + x400 <= 1
C1506: + x186 + x339 <= 1
C1507: + x12 + x312 <= 1
C1508: + x23 + x83 <= 1
C1509: + x10 + x256 <= 1
C1510: + x1 + x5 <= 1
C1511: + x320 + x324 <= 1
C1512: + x253 + x468 <= 1
C1513: + x9 + x69 <= 1
C1514: + x256 + x300 <= 1
C1515: + x221 + x224 <= 1
C1516: + x3 + x7 <= 1
C1517: + x20 + x490 <= 1
C1518: + x47 + x363 <= 1
C1519: + x341 + x471 <= 1
C1520: + x65 + x372 <= 1
C1521: + x348 + x365 <= 1
C1522: + x21 + x191 <= 1
C1523: + x234 + x349 <= 1
C1524: + x221 + x426 <= 1
C1525: + x6 + x378 <= 1
C1526: + x7 + x378 <= 1
C1527: + x156 + x389 <= 1
C1528: + x49 + x123 <= 1
C1529: + x30 + x57 <= 1
C1530: + x13 + x81 <= 1
C1531: + x67 + x397 <= 1
C1532: + x6 + x413 <= 1
C1533: + x7 + x27 <= 1
C1534: + x82 + x92 <= 1
C1535: + x2 + x85 <= 1
C1536: + x50 + x115 <= 1
C1537: + x149 + x174 <= 1
C1538: + x17 + x433 <= 1
C1539: + x12 + x224 <= 1
C1540: + x25 + x273 <= 1
C1541: + x23 + x304 <= 1
C1542: + x43 + x327 <= 1
C1543: + x5 + x402 <= 1
C1544: + x389 + x444 <= 1
C1545: + x29 + x67 <= 1
C1546: + x173 + x286 <= 1
C1547: + x11 + x30 <= 1
C1548: + x156 + x163 <= 1
C1549: + x23 + x86 <= 1
C1550: + x7 + x244 <= 1
C1551: + x9 + x239 <= 1
C1552: + x46 + x280 <= 1
C1553: + x441 + x467 <= 1
C1554: + x16 + x63 <= 1
C1555: + x157 + x407 <= 1
C1556: + x52 + x176 <= 1
C1557: + x181 + x285 <= 1
C1558: + x356 + x391 <= 1
C1559: + x2 + x61 <= 1
C1560: + x37 + x388 <= 1
C1561: + x272 + x435 <= 1
C1562: + x5 + x32 <= 1
C1563: + x28 + x215 <= 1
C1564: + x210 + x261 <= 1
C1565: + x31 + x379 <= 1
C1566: + x32 + x393 <= 1
C1567: + x6 + x57 <= 1
C1568: + x9 + x277 <= 1
C1569: + x28 + x72 <= 1
C1570: + x111 + x162 <= 1
C1571: + x104 + x160 <= 1
C1572: + x14 + x169 <= 1
C1573: + x197 + x217 <= 1
C1574: + x197 + x260 <= 1
C1575: + x25 + x47 + x226 <= 1
C1576: + x10 + x153 <= 1
C1577: + x55 + x171 <= 1
C1578: + x111 + x259 <= 1
C1579: + x21 + x111 <= 1
C1580: + x240 + x432 <= 1
C1581: + x14 + x471 <= 1
C1582: + x7 + x74 <= 1
C1583: + x54 + x80 <= 1
C1584: + x30 + x340 <= 1
C1585: + x40 + x45 <= 1
C1586: + x234 + x259 <= 1
C1587: + x217 + x327 <= 1
C1588: + x94 + x332 <= 1
C1589: + x225 + x391 <= 1
C1590: + x23 + x202 <= 1
C1591: + x61 + x117 <= 1
C1592: + x90 + x463 <= 1
C1593: + x60 + x456 <= 1
C1594: + x9 + x115 <= 1
C1595: + x7 + x473 <= 1
C1596: + x102 + x284 <= 1
C1597: + x341 + x485 <= 1
C1598: + x43 + x100 <= 1
C1599: + x152 + x243 <= 1
C1600: + x18 + x261 <= 1
C1601: + x57 + x351 <= 1
C1602: + x48 + x462 <= 1
C1603: + x167 + x168 <= 1
C1604: + x5 + x7 <= 1
C1605: + x81 + x96 <= 1
C1606: + x316 + x342 <= 1
C1607: + x7 + x364 <= 1
C1608: + x22 + x158 <= 1
C1609: + x162 + x499 <= 1
C1610: + x12 + x367 <= 1
C1611: + x41 + x392 <= 1
C1612: + x5 + x150 <= 1
C1613: + x8 + x318 <= 1
C1614: + x13 + x214 <= 1
C1615: + x98 + x182 <= 1
C1616: + x70 + x458 <= 1
C1617: + x24 + x166 <= 1
C1618: + x14 + x365 <= 1
C1619: + x15 + x331 <= 1
C1620: + x236 + x293 <= 1
C1621: + x320 + x490 <= 1
C1622: + x48 + x245 <= 1
C1623: + x13 + x456 <= 1
C1624: + x7 + x65 <= 1
C1625: + x102 + x436 <= 1
C1626: + x12 + x347 <= 1
C1627: + x82 + x173 <= 1
C1628: + x7 + x311 <= 1
C1629: + x10 + x19 <= 1
C1630: + x373 + x422 <= 1
C1631: + x20 + x235 <= 1
C1632: + x14 + x150 <= 1
C1633: + x6 + x452 <= 1
C1634: + x54 + x250 <= 1
C1635: + x28 + x312 <= 1
C1636: + x47 + x203 <= 1
C1637: + x13 + x316 <= 1
C1638: + x62 + x138 <= 1
C1639: + x10 + x100 <= 1
C1640: + x11 + x116 <= 1
C1641: + x2 + x15 <= 1
C1642: + x162 + x230 <= 1
C1643: + x126 + x173 <= 1
C1644: + x44 + x91 <= 1
C1645: + x74 + x415 <= 1
C1646: + x250 + x373 <= 1
C1647: + x177 + x295 <= 1
C1648: + x12 + x360 <= 1
C1649: + x168 + x182 <= 1
C1650: + x309 + x345 <= 1
C1651: + x3 + x201 <= 1
C1652: + x12 + x195 <= 1
C1653: + x13 + x205 <= 1
C1654: + x5 + x50 <= 1
C1655: + x90 + x269 <= 1
C1656: + x10 + x139 <= 1
C1657: + x200 + x229 <= 1
C1658: + x183 + x293 <= 1
C1659: + x7 + x60 <= 1
C1660: + x2 + x76 <= 1
C1661: + x3 + x124 <= 1
C1662: + x58 + x151 <= 1
C1663: + x197 + x385 <= 1
C1664: + x90 + x203 <= 1
C1665: + x28 + x98 <= 1
C1666: + x292 + x493 <= 1
C1667: + x3 + x285 <= 1
C1668: + x311 + x409 <= 1
C1669: + x31 + x239 <= 1
C1670: + x14 + x143 <= 1
C1671: + x4 + x110 <= 1
C1672: + x5 + x102 <= 1
C1673: + x45 + x205 <= 1
C1674: + x329 + x374 <= 1
C1675: + x46 + x166 <= 1
C1676: + x320 + x475 <= 1
C1677: + x160 + x174 <= 1
C1678: + x33 + x452 <= 1
C1679: + x197 + x437 <= 1
C1680: + x7 + x358 <= 1
C1681: + x1 + x61 <= 1
C1682: + x59 + x310 <= 1
C1683: + x14 + x270 <= 1
C1684: + x139 + x334 <= 1
C1685: + x14 + x113 <= 1
C1686: + x127 + x460 <= 1
C1687: + x62 + x87 <= 1
C1688: + x19 + x126 <= 1
C1689: + x55 + x275 <= 1
C1690: + x148 + x173 <= 1
C1691: + x9 + x60 <= 1
C1692: + x8 + x30 <= 1
C1693: + x7 + x402 <= 1
C1694: + x22 + x303 <= 1
C1695: + x74 + x175 <= 1
C1696: + x264 + x418 <= 1
C1697: + x50 + x75 <= 1
C1698: + x12 + x329 <= 1
C1699: + x133 + x336 <= 1
C1700: + x79 + x83 <= 1
C1701: + x9 + x374 <= 1
C1702: + x112 + x172 <= 1
C1703: + x77 + x307 <= 1
C1704: + x90 + x290 <= 1
C1705: + x36 + x231 <= 1
C1706: + x9 + x104 <= 1
C1707: + x245 + x404 <= 1
C1708: + x11 + x376 <= 1
C1709: + x195 + x367 <= 1
C1710: + x4 + x325 <= 1
C1711: + x7 + x111 <= 1
C1712: + x100 + x390 <= 1
C1713: + x9 + x453 <= 1
C1714: + x221 + x389 <= 1
C1715: + x40 + x243 <= 1
C1716: + x124 + x231 <= 1
C1717: + x5 + x494 <= 1
C1718: + x14 + x263 <= 1
C1719: + x9 + x84 <= 1
C1720: + x16 + x39 <= 1
C1721: + x56 + x144 <= 1
C1722: + x28 + x36 <= 1
C1723: + x8 + x248 <= 1
C1724: + x12 + x241 <= 1
C1725: + x22 + x26 <= 1
C1726: + x5 + x40 <= 1
C1727: + x183 + x311 <= 1
C1728: + x131 + x150 <= 1
C1729: + x359 + x363 <= 1
C1730: + x7 + x54 <= 1
C1731: + x66 + x211 <= 1
C1732: + x4 + x317 <= 1
C1733: + x22 + x395 <= 1
C1734: + x19 + x41 <= 1
C1735: + x12 + x173 <= 1
C1736: + x14 + x129 <= 1
C1737: + x32 + x290 <= 1
C1738: + x34 + x341 <= 1
C1739: + x16 + x28 <= 1
C1740: + x76 + x261 <= 1
C1741: + x222 + x233 <= 1
C1742: + x42 + x80 <= 1
C1743: + x68 + x183 <= 1
C1744: + x127 + x266 <= 1
C1745: + x101 + x261 <= 1
C1746: + x28 + x442 <= 1
C1747: + x54 + x120 <= 1
C1748: + x55 + x465 <= 1
C1749: + x14 + x18 <= 1
C1750: + x15 + x162 <= 1
C1751: + x34 + x454 <= 1
C1752: + x79 + x98 <= 1
C1753: + x6 + x245 <= 1
C1754: + x9 + x254 <= 1
C1755: + x22 + x178 <= 1
C1756: + x42 + x217 <= 1
C1757: + x51 + x361 <= 1
C1758: + x14 + x320 <= 1
C1759: + x16 + x48 <= 1
C1760: + x267 + x326 <= 1
C1761: + x251 + x335 <= 1
C1762: + x432 + x441 <= 1
C1763: + x94 + x149 <= 1
C1764: + x39 + x107 <= 1
C1765: + x22 + x35 <= 1
C1766: + x6 + x372 <= 1
C1767: + x9 + x42 <= 1
C1768: + x8 + x20 <= 1
C1769: + x12 + x85 <= 1
C1770: + x195 + x228 <= 1
C1771: + x22 + x134 <= 1
C1772: + x5 + x281 <= 1
C1773: + x83 + x118 <= 1
C1774: + x24 + x372 <= 1
C1775: + x80 + x87 <= 1
C1776: + x15 + x157 <= 1
C1777: + x36 + x58 <= 1
C1778: + x55 + x313 <= 1
C1779: + x240 + x314 <= 1
C1780: + x13 + x46 <= 1
C1781: + x37 + x188 <= 1
C1782: + x21 + x395 <= 1
C1783: + x167 + x410 <= 1
C1784: + x149 + x240 <= 1
C1785: + x368 + x486 <= 1
C1786: + x16 + x146 <= 1
C1787: + x62 + x444 <= 1
C1788: + x25 + x136 <= 1
C1789: + x81 + x293 <= 1
C1790: + x9 + x66 <= 1
C1791: + x248 + x350 <= 1
C1792: + x3 + x12 <= 1
C1793: + x13 + x276 <= 1
C1794: + x40 + x403 <= 1
C1795: + x67 + x109 <= 1
C1796: + x60 + x294 <= 1
C1797: + x25 + x322 <= 1
C1798: + x216 + x476 <= 1
C1799: + x8 + x9 <= 1
C1800: + x28 + x221 <= 1
C1801: + x51 + x344 <= 1
C1802: + x2 + x88 <= 1
C1803: + x132 + x171 <= 1
C1804: + x61 + x285 <= 1
C1805: + x344 + x376 <= 1
C1806: + x280 + x426 <= 1
C1807: + x107 + x156 <= 1
C1808: + x14 + x179 <= 1
C1809: + x88 + x475 <= 1
C1810: + x23 + x232 <= 1
C1811: + x5 + x407 <= 1
C1812: + x37 + x163 <= 1
C1813: + x10 + x147 <= 1
C1814: + x259 + x357 <= 1
C1815: + x66 + x249 <= 1
C1816: + x156 + x162 <= 1
C1817: + x61 + x337 <= 1
C1818: + x16 + x159 <= 1
C1819: + x11 + x244 <= 1
C1820: + x3 + x309 <= 1
C1821: + x88 + x303 <= 1
C1822: + x7 + x483 <= 1
C1823: + x156 + x492 <= 1
C1824: + x320 + x419 <= 1
C1825: + x85 + x105 <= 1
C1826: + x55 + x233 <= 1
C1827: + x107 + x446 <= 1
C1828: + x198 + x440 <= 1
C1829: + x71 + x80 <= 1
C1830: + x9 + x294 <= 1
C1831: + x101 + x383 <= 1
C1832: + x9 + x216 <= 1
C1833: + x462 + x473 <= 1
C1834: + x232 + x398 <= 1
C1835: + x32 + x400 <= 1
C1836: + x330 + x414 <= 1
C1837: + x66 + x166 <= 1
C1838: + x64 + x220 <= 1
C1839: + x13 + x383 <= 1
C1840: + x96 + x227 <= 1
C1841: + x89 + x184 <= 1
C1842: + x135 + x466 <= 1
C1843: + x148 + x149 <= 1
C1844: + x14 + x172 <= 1
C1845: + x52 + x232 <= 1
C1846: + x7 + x313 <= 1
C1847: + x309 + x404 <= 1
C1848: + x250 + x291 <= 1
C1849: + x4 + x123 <= 1
C1850: + x35 + x229 <= 1
C1851: + x389 + x492 <= 1
C1852: + x75 + x416 <= 1
C1853: + x231 + x243 <= 1
C1854: + x33 + x86 <= 1
C1855: + x10 + x118 <= 1
C1856: + x156 + x243 <= 1
C1857: + x158 + x235 <= 1
C1858: + x9 + x223 <= 1
C1859: + x230 + x443 <= 1
C1860: + x303 + x481 <= 1
C1861: + x21 + x39 <= 1
C1862: + x39 + x249 <= 1
C1863: + x14 + x287 <= 1
C1864: + x54 + x136 <= 1
C1865: + x21 + x305 <= 1
C1866: + x151 + x218 <= 1
C1867: + x9 + x281 <= 1
C1868: + x15 + x114 <= 1
C1869: + x10 + x34 <= 1
C1870: + x8 + x144 <= 1
C1871: + x271 + x427 <= 1
C1872: + x309 + x343 <= 1
C1873: + x292 + x439 <= 1
C1874: + x94 + x180 <= 1
C1875: + x14 + x368 <= 1
C1876: + x108 + x349 <= 1
C1877: + x326 + x430 <= 1
C1878: + x144 + x427 <= 1
C1879: + x5 + x80 <= 1
C1880: + x313 + x442 <= 1
C1881: + x26 + x199 <= 1
C1882: + x9 + x11 <= 1
C1883: + x62 + x342 <= 1
C1884: + x25 + x110 <= 1
C1885: + x120 + x298 <= 1
C1886: + x8 + x338 <= 1
C1887: + x50 + x391 <= 1
C1888: + x304 + x408 <= 1
C1889: + x7 + x477 <= 1
C1890: + x147 + x431 <= 1
C1891: + x47 + x200 <= 1
C1892: + x12 + x439 <= 1
C1893: + x164 + x362 <= 1
C1894: + x10 + x428 <= 1
C1895: + x135 + x408 <= 1
C1896: + x12 + x278 <= 1
C1897: + x6 + x344 <= 1
C1898: + x9 + x198 <= 1
C1899: + x7 + x368 <= 1
C1900: + x1 + x35 <= 1
C1901: + x95 + x412 <= 1
C1902: + x24 + x49 <= 1
C1903: + x26 + x95 <= 1
C1904: + x46 + x100 <= 1
C1905: + x12 + x355 <= 1
C1906: + x1 + x127 <= 1
C1907: + x241 + x281 <= 1
C1908: + x16 + x412 <= 1
C1909: + x55 + x67 <= 1
C1910: + x156 + x181 <= 1
C1911: + x2 + x119 <= 1
C1912: + x9 + x129 <= 1
C1913: + x62 + x480 <= 1
C1914: + x142 + x360 <= 1
C1915: + x12 + x25 <= 1
C1916: + x13 + x312 <= 1
C1917: + x23 + x491 <= 1
C1918: + x6 + x99 <= 1
C1919: + x16 + x432 <= 1
C1920: + x8 + x259 <= 1
C1921: + x54 + x468 <= 1
C1922: + x65 + x349 <= 1
C1923: + x12 + x267 <= 1
C1924: + x104 + x214 <= 1
C1925: + x5 + x10 <= 1
C1926: + x100 + x142 <= 1
C1927: + x381 + x401 <= 1
C1928: + x41 + x129 <= 1
C1929: + x4 + x21 <= 1
C1930: + x341 + x351 <= 1
C1931: + x38 + x411 <= 1
C1932: + x412 + x492 <= 1
C1933: + x22 + x433 <= 1
C1934: + x63 + x90 <= 1
C1935: + x28 + x41 + x69 <= 1
C1936: + x15 + x499 <= 1
C1937: + x7 + x64 <= 1
C1938: + x3 + x120 <= 1
C1939: + x348 + x433 <= 1
C1940: + x14 + x40 <= 1
C1941: + x61 + x373 <= 1
C1942: + x206 + x488 <= 1
C1943: + x192 + x228 <= 1
C1944: + x59 + x494 <= 1
C1945: + x5 + x447 <= 1
C1946: + x197 + x255 <= 1
C1947: + x179 + x277 <= 1
C1948: + x88 + x307 <= 1
C1949: + x85 + x472 <= 1
C1950: + x30 + x104 <= 1
C1951: + x167 + x361 <= 1
C1952: + x243 + x314 <= 1
C1953: + x15 + x63 <= 1
C1954: + x44 + x358 <= 1
C1955: + x164 + x280 <= 1
C1956: + x7 + x108 <= 1
C1957: + x2 + x28 <= 1
C1958: + x116 + x455 <= 1
C1959: + x10 + x470 <= 1
C1960: + x61 + x329 <= 1
C1961: + x117 + x203 <= 1
C1962: + x38 + x150 <= 1
C1963: + x78 + x500 <= 1

binary
x1 x2 x3 x4 x5 x6 x7 x8 x9 x10 x11 x12 x13 x14 x15 x16 x17 x18 x19 x20 x21 x22 x23 x24 x25 x26 x27 x28 x29 x30 x31 x32 x33 x34 x35 x36 x37 x38 x39 x40 x41 x42 x43 x44 x45 x46 x47 x48 x49 x50 x51 x52 x53 x54 x55 x56 x57 x58 x59 x60 x61 x62 x63 x64 x65 x66 x67 x68 x69 x70 x71 x72 x73 x74 x75 x76 x77 x78 x79 x80 x81 x82 x83 x84 x85 x86 x87 x88 x89 x90 x91 x92 x93 x94 x95 x96 x97 x98 x99 x100 x101 x102 x103 x104 x105 x106 x107 x108 x109 x110 x111 x112 x113 x114 x115 x116 x117 x118 x119 x120 x121 x122 x123 x124 x125 x126 x127 x128 x129 x130 x131 x132 x133 x134 x135 x136 x137 x138 x139 x140 x141 x142 x143 x144 x145 x146 x147 x148 x149 x150 x151 x152 x153 x154 x155 x156 x157 x158 x159 x160 x161 x162 x163 x164 x165 x166 x167 x168 x169 x170 x171 x172 x173 x174 x175 x176 x177 x178 x179 x180 x181 x182 x183 x184 x185 x186 x187 x188 x189 x190 x191 x192 x193 x194 x195 x196 x197 x198 x199 x200 x201 x202 x203 x204 x205 x206 x207 x208 x209 x210 x211 x212 x213 x214 x215 x216 x217 x218 x219 x220 x221 x222 x223 x224 x225 x226 x227 x228 x229 x230 x231 x232 x233 x234 x235 x236 x237 x238 x239 x240 x241 x242 x243 x244 x245 x246 x247 x248 x249 x250 x251 x252 x253 x254 x255 x256 x257 x258 x259 x260 x261 x262 x263 x264 x265 x266 x267 x268 x269 x270 x271 x272 x273 x274 x275 x276 x277 x278 x279 x280 x281 x282 x283 x284 x285 x286 x287 x288 x289 x290 x291 x292 x293 x294 x295 x296 x297 x298 x299 x300 x301 x302 x303 x304 x305 x306 x307 x308 x309 x310 x311 x312 x313 x314 x315 x316 x317 x318 x319 x320 x321 x322 x323 x324 x325 x326 x327 x328 x329 x330 x331 x332 x333 x334 x335 x336 x337 x338 x339 x340 x341 x342 x343 x344 x345 x346 x347 x348 x349 x350 x351 x352 x353 x354 x355 x356 x357 x358 x359 x360 x361 x362 x363 x364 x365 x366 x367 x368 x369 x370 x371 x372 x373 x374 x375 x376 x377 x378 x379 x380 x381 x382 x383 x384 x385 x386 x387 x388 x389 x390 x391 x392 x393 x394 x395 x396 x397 x398 x399 x400 x401 x402 x403 x404 x405 x406 x407 x408 x409 x410 x411 x412 x413 x414 x415 x416 x417 x418 x419 x420 x421 x422 x423 x424 x425 x426 x427 x428 x429 x430 x431 x432 x433 x434 x435 x436 x437 x438 x439 x440 x441 x442 x443 x444 x445 x446 x447 x448 x449 x450 x451 x452 x453 x454 x455 x456 x457 x458 x459 x460 x461 x462 x463 x464 x465 x466 x467 x468 x469 x470 x471 x472 x473 x474 x475 x476 x477 x478 x479 x480 x481 x482 x483 x484 x485 x486 x487 x488 x489 x490 x491 x492 x493 x494 x495 x496 x497 x498 x499 x500
