maximize
OBJ: + 1 x1 + 1 x2 + 1 x3 + 1 x4 + 1 x5 + 1 x6 + 1 x7 + 1 x8 + 1 x9 + 1 x10 + 1 x11 + 1 x12 + 1 x13 + 1 x14 + 1 x15 + 1 x16 + 1 x17 + 1 x18 + 1 x19 + 1 x20 + 1 x21 + 1 x22 + 1 x23 + 1 x24 + 1 x25 + 1 x26 + 1 x27 + 1 x28 + 1 x29 + 1 x30 + 1 x31 + 1 x32 + 1 x33 + 1 x34 + 1 x35 + 1 x36 + 1 x37 + 1 x38 + 1 x39 + 1 x40 + 1 x41 + 1 x42 + 1 x43 + 1 x44 + 1 x45 + 1 x46 + 1 x47 + 1 x48 + 1 x49 + 1 x50 + 1 x51 + 1 x52 + 1 x53 + 1 x54 + 1 x55 + 1 x56 + 1 x57 + 1 x58 + 1 x59 + 1 x60 + 1 x61 + 1 x62 + 1 x63 + 1 x64 + 1 x65 + 1 x66 + 1 x67 + 1 x68 + 1 x69 + 1 x70 + 1 x71 + 1 x72 + 1 x73 + 1 x74 + 1 x75 + 1 x76 + 1 x77 + 1 x78 + 1 x79 + 1 x80 + 1 x81 + 1 x82 + 1 x83 + 1 x84 + 1 x85 + 1 x86 + 1 x87 + 1 x88 + 1 x89 + 1 x90 + 1 x91 + 1 x92 + 1 x93 + 1 x94 + 1 x95 + 1 x96 + 1 x97 + 1 x98 + 1 x99 + 1 x100 + 1 x101 + 1 x102 + 1 x103 + 1 x104 + 1 x105 + 1 x106 + 1 x107 + 1 x108 + 1 x109 + 1 x110 + 1 x111 + 1 x112 + 1 x113 + 1 x114 + 1 x115 + 1 x116 + 1 x117 + 1 x118 + 1 x119 + 1 x120 + 1 x121 + 1 x122 + 1 x123 + 1 x124 + 1 x125 + 1 x126 + 1 x127 + 1 x128 + 1 x129 + 1 x130 + 1 x131 + 1 x132 + 1 x133 + 1 x134 + 1 x135 + 1 x136 + 1 x137 + 1 x138 + 1 x139 + 1 x140 + 1 x141 + 1 x142 + 1 x143 + 1 x144 + 1 x145 + 1 x146 + 1 x147 + 1 x148 + 1 x149 + 1 x150 + 1 x151 + 1 x152 + 1 x153 + 1 x154 + 1 x155 + 1 x156 + 1 x157 + 1 x158 + 1 x159 + 1 x160 + 1 x161 + 1 x162 + 1 x163 + 1 x164 + 1 x165 + 1 x166 + 1 x167 + 1 x168 + 1 x169 + 1 x170 + 1 x171 + 1 x172 + 1 x173 + 1 x174 + 1 x175 + 1 x176 + 1 x177 + 1 x178 + 1 x179 + 1 x180 + 1 x181 + 1 x182 + 1 x183 + 1 x184 + 1 x185 + 1 x186 + 1 x187 + 1 x188 + 1 x189 + 1 x190 + 1 x191 + 1 x192 + 1 x193 + 1 x194 + 1 x195 + 1 x196 + 1 x197 + 1 x198 + 1 x199 + 1 x200 + 1 x201 + 1 x202 + 1 x203 + 1 x204 + 1 x205 + 1 x206 + 1 x207 + 1 x208 + 1 x209 + 1 x210 + 1 x211 + 1 x212 + 1 x213 + 1 x214 + 1 x215 + 1 x216 + 1 x217 + 1 x218 + 1 x219 + 1 x220 + 1 x221 + 1 x222 + 1 x223 + 1 x224 + 1 x225 + 1 x226 + 1 x227 + 1 x228 + 1 x229 + 1 x230 + 1 x231 + 1 x232 + 1 x233 + 1 x234 + 1 x235 + 1 x236 + 1 x237 + 1 x238 + 1 x239 + 1 x240 + 1 x241 + 1 x242 + 1 x243 + 1 x244 + 1 x245 + 1 x246 + 1 x247 + 1 x248 + 1 x249 + 1 x250 + 1 x251 + 1 x252 + 1 x253 + 1 x254 + 1 x255 + 1 x256 + 1 x257 + 1 x258 + 1 x259 + 1 x260 + 1 x261 + 1 x262 + 1 x263 + 1 x264 + 1 x265 + 1 x266 + 1 x267 + 1 x268 + 1 x269 + 1 x270 + 1 x271 + 1 x272 + 1 x273 + 1 x274 + 1 x275 + 1 x276 + 1 x277 + 1 x278 + 1 x279 + 1 x280 + 1 x281 + 1 x282 + 1 x283 + 1 x284 + 1 x285 + 1 x286 + 1 x287 + 1 x288 + 1 x289 + 1 x290 + 1 x291 + 1 x292 + 1 x293 + 1 x294 + 1 x295 + 1 x296 + 1 x297 + 1 x298 + 1 x299 + 1 x300 + 1 x301 + 1 x302 + 1 x303 + 1 x304 + 1 x305 + 1 x306 + 1 x307 + 1 x308 + 1 x309 + 1 x310 + 1 x311 + 1 x312 + 1 x313 + 1 x314 + 1 x315 + 1 x316 + 1 x317 + 1 x318 + 1 x319 + 1 x320 + 1 x321 + 1 x322 + 1 x323 + 1 x324 + 1 x325 + 1 x326 + 1 x327 + 1 x328 + 1 x329 + 1 x330 + 1 x331 + 1 x332 + 1 x333 + 1 x334 + 1 x335 + 1 x336 + 1 x337 + 1 x338 + 1 x339 + 1 x340 + 1 x341 + 1 x342 + 1 x343 + 1 x344 + 1 x345 + 1 x346 + 1 x347 + 1 x348 + 1 x349 + 1 x350 + 1 x351 + 1 x352 + 1 x353 + 1 x354 + 1 x355 + 1 x356 + 1 x357 + 1 x358 + 1 x359 + 1 x360 + 1 x361 + 1 x362 + 1 x363 + 1 x364 + 1 x365 + 1 x366 + 1 x367 + 1 x368 + 1 x369 + 1 x370 + 1 x371 + 1 x372 + 1 x373 + 1 x374 + 1 x375 + 1 x376 + 1 x377 + 1 x378 + 1 x379 + 1 x380 + 1 x381 + 1 x382 + 1 x383 + 1 x384 + 1 x385 + 1 x386 + 1 x387 + 1 x388 + 1 x389 + 1 x390 + 1 x391 + 1 x392 + 1 x393 + 1 x394 + 1 x395 + 1 x396 + 1 x397 + 1 x398 + 1 x399 + 1 x400 + 1 x401 + 1 x402 + 1 x403 + 1 x404 + 1 x405 + 1 x406 + 1 x407 + 1 x408 + 1 x409 + 1 x410 + 1 x411 + 1 x412 + 1 x413 + 1 x414 + 1 x415 + 1 x416 + 1 x417 + 1 x418 + 1 x419 + 1 x420 + 1 x421 + 1 x422 + 1 x423 + 1 x424 + 1 x425 + 1 x426 + 1 x427 + 1 x428 + 1 x429 + 1 x430 + 1 x431 + 1 x432 + 1 x433 + 1 x434 + 1 x435 + 1 x436 + 1 x437 + 1 x438 + 1 x439 + 1 x440 + 1 x441 + 1 x442 + 1 x443 + 1 x444 + 1 x445 + 1 x446 + 1 x447 + 1 x448 + 1 x449 + 1 x450 + 1 x451 + 1 x452 + 1 x453 + 1 x454 + 1 x455 + 1 x456 + 1 x457 + 1 x458 + 1 x459 + 1 x460 + 1 x461 + 1 x462 + 1 x463 + 1 x464 + 1 x465 + 1 x466 + 1 x467 + 1 x468 + 1 x469 + 1 x470 + 1 x471 + 1 x472 + 1 x473 + 1 x474 + 1 x475 + 1 x476 + 1 x477 + 1 x478 + 1 x479 + 1 x480 + 1 x481 + 1 x482 + 1 x483 + 1 x484 + 1 x485 + 1 x486 + 1 x487 + 1 x488 + 1 x489 + 1 x490 + 1 x491 + 1 x492 + 1 x493 + 1 x494 + 1 x495 + 1 x496 + 1 x497 + 1 x498 + 1 x499 + 1 x500

subject to
C1: + x359 + x485 <= 1
C2: + x5 + x37 <= 1
C3: + x6 + x179 <= 1
C4: + x24 + x184 <= 1
C5: + x6 + x270 <= 1
C6: + x17 + x131 <= 1
C7: + x1 + x77 <= 1
C8: + x29 + x163 <= 1
C9: + x19 + x155 <= 1
C10: + x38 + x218 <= 1
C11: + x3 + x353 <= 1
C12: + x2 + x65 <= 1
C13: + x51 + x85 <= 1
C14: + x9 + x143 <= 1
C15: + x155 + x182 <= 1
C16: + x92 + x187 <= 1
C17: + x40 + x421 <= 1
C18: + x1 + x294 <= 1
C19: + x97 + x159 <= 1
C20: + x6 + x248 <= 1
C21: + x73 + x408 <= 1
C22: + x47 + x165 <= 1
C23: + x38 + x397 <= 1
C24: + x41 + x353 <= 1
C25: + x5 + x143 <= 1
C26: + x6 + x25 <= 1
C27: + x279 + x358 <= 1
C28: + x74 + x203 <= 1
C29: + x5 + x36 <= 1
C30: + x81 + x117 <= 1
C31: + x153 + x173 <= 1
C32: + x188 + x351 <= 1
C33: + x15 + x292 <= 1
C34: + x114 + x421 <= 1
C35: + x52 + x201 <= 1
C36: + x5 + x383 <= 1
C37: + x3 + x74 <= 1
C38: + x3 + x5 + x6 + x8 <= 1
C39: + x78 + x207 <= 1
C40: + x122 + x328 <= 1
C41: + x223 + x285 <= 1
C42: + x107 + x367 <= 1
C43: + x307 + x468 <= 1
C44: + x127 + x209 <= 1
C45: + x23 + x275 <= 1
C46: + x9 + x19 <= 1
C47: + x3 + x400 <= 1
C48: + x4 + x434 <= 1
C49: + x62 + x145 <= 1
C50: + x65 + x253 <= 1
C51: + x3 + x158 <= 1
C52: + x89 + x243 <= 1
C53: + x6 + x241 <= 1
C54: + x8 + x92 <= 1
C55: + x56 + x126 <= 1
C56: + x40 + x307 <= 1
C57: + x4 + x479 <= 1
C58: + x3 + x13 <= 1
C59: + x60 + x198 <= 1
C60: + x1 + x329 <= 1
C61: + x8 + x233 <= 1
C62: + x3 + x210 <= 1
C63: + x22 + x47 <= 1
C64: + x5 + x43 <= 1
C65: + x119 + x153 <= 1
C66: + x29 + x177 <= 1
C67: + x141 + x475 <= 1
C68: + x4 + x56 <= 1
C69: + x36 + x268 <= 1
C70: + x18 + x418 <= 1
C71: + x344 + x379 <= 1
C72: + x18 + x51 <= 1
C73: + x16 + x109 <= 1
C74: + x164 + x432 <= 1
C75: + x9 + x26 <= 1
C76: + x77 + x79 <= 1
C77: + x5 + x329 <= 1
C78: + x168 + x354 <= 1
C79: + x80 + x196 <= 1
C80: + x29 + x343 <= 1
C81: + x4 + x214 <= 1
C82: + x42 + x472 <= 1
C83: + x181 + x360 <= 1
C84: + x1 + x6 <= 1
C85: + x8 + x81 <= 1
C86: + x242 + x344 <= 1
C87: + x40 + x157 <= 1
C88: + x105 + x189 <= 1
C89: + x25 + x140 <= 1
C90: + x389 + x482 <= 1
C91: + x135 + x177 <= 1
C92: + x10 + x346 <= 1
C93: + x85 + x110 <= 1
C94: + x124 + x411 <= 1
C95: + x42 + x97 <= 1
C96: + x25 + x41 <= 1
C97: + x6 + x11 <= 1
C98: + x101 + x372 <= 1
C99: + x378 + x441 <= 1
C100: + x40 + x110 <= 1
C101: + x5 + x18 <= 1
C102: + x23 + x176 <= 1
C103: + x104 + x174 <= 1
C104: + x118 + x228 <= 1
C105: + x270 + x390 <= 1
C106: + x15 + x302 <= 1
C107: + x72 + x325 <= 1
C108: + x21 + x29 <= 1
C109: + x306 + x365 <= 1
C110: + x5 + x260 <= 1
C111: + x10 + x262 <= 1
C112: + x40 + x451 <= 1
C113: + x133 + x289 <= 1
C114: + x6 + x63 <= 1
C115: + x197 + x481 <= 1
C116: + x308 + x339 <= 1
C117: + x65 + x257 <= 1
C118: + x1 + x193 <= 1
C119: + x52 + x72 <= 1
C120: + x25 + x199 <= 1
C121: + x26 + x249 <= 1
C122: + x1 + x110 <= 1
C123: + x77 + x441 <= 1
C124: + x15 + x27 <= 1
C125: + x66 + x296 <= 1
C126: + x67 + x176 <= 1
C127: + x112 + x308 <= 1
C128: + x11 + x256 <= 1
C129: + x33 + x246 <= 1
C130: + x53 + x289 <= 1
C131: + x6 + x116 <= 1
C132: + x78 + x361 <= 1
C133: + x156 + x413 <= 1
C134: + x84 + x437 <= 1
C135: + x160 + x327 <= 1
C136: + x6 + x40 <= 1
C137: + x9 + x278 <= 1
C138: + x36 + x44 <= 1
C139: + x164 + x255 <= 1
C140: + x143 + x409 <= 1
C141: + x47 + x412 <= 1
C142: + x123 + x359 <= 1
C143: + x19 + x472 <= 1
C144: + x37 + x456 <= 1
C145: + x361 + x451 <= 1
C146: + x4 + x196 <= 1
C147: + x152 + x332 <= 1
C148: + x61 + x457 <= 1
C149: + x58 + x245 <= 1
C150: + x43 + x97 <= 1
C151: + x9 + x465 <= 1
C152: + x146 + x274 <= 1
C153: + x8 + x216 <= 1
C154: + x11 + x74 <= 1
C155: + x301 + x356 <= 1
C156: + x75 + x81 + x152 <= 1
C157: + x135 + x318 <= 1
C158: + x13 + x397 <= 1
C159: + x19 + x283 <= 1
C160: + x256 + x269 <= 1
C161: + x135 + x223 <= 1
C162: + x27 + x29 + x138 <= 1
C163: + x39 + x483 <= 1
C164: + x33 + x38 <= 1
C165: + x5 + x151 <= 1
C166: + x53 + x372 <= 1
C167: + x27 + x491 <= 1
C168: + x146 + x334 <= 1
C169: + x309 + x339 <= 1
C170: + x275 + x415 <= 1
C171: + x5 + x385 <= 1
C172: + x7 + x66 <= 1
C173: + x8 + x334 <= 1
C174: + x11 + x13 <= 1
C175: + x42 + x459 <= 1
C176: + x273 + x443 <= 1
C177: + x11 + x226 <= 1
C178: + x49 + x53 <= 1
C179: + x101 + x396 <= 1
C180: + x29 + x102 <= 1
C181: + x139 + x288 <= 1
C182: + x47 + x381 <= 1
C183: + x3 + x17 <= 1
C184: + x134 + x177 <= 1
C185: + x8 + x205 <= 1
C186: + x12 + x266 <= 1
C187: + x48 + x470 <= 1
C188: + x36 + x73 <= 1
C189: + x103 + x355 <= 1
C190: + x97 + x107 <= 1
C191: + x311 + x384 <= 1
C192: + x5 + x158 <= 1
C193: + x1 + x24 + x145 <= 1
C194: + x21 + x153 <= 1
C195: + x69 + x294 <= 1
C196: + x24 + x190 <= 1
C197: + x18 + x31 <= 1
C198: + x3 + x363 <= 1
C199: + x41 + x202 <= 1
C200: + x94 + x370 + x453 <= 1
C201: + x116 + x442 <= 1
C202: + x179 + x391 <= 1
C203: + x27 + x357 <= 1
C204: + x263 + x398 <= 1
C205: + x358 + x477 <= 1
C206: + x21 + x272 <= 1
C207: + x70 + x323 <= 1
C208: + x184 + x359 <= 1
C209: + x276 + x426 <= 1
C210: + x43 + x178 <= 1
C211: + x5 + x436 <= 1
C212: + x63 + x181 <= 1
C213: + x128 + x308 <= 1
C214: + x59 + x324 <= 1
C215: + x33 + x104 <= 1
C216: + x40 + x435 <= 1
C217: + x15 + x60 <= 1
C218: + x160 + x173 <= 1
C219: + x146 + x185 <= 1
C220: + x6 + x111 <= 1
C221: + x8 + x198 <= 1
C222: + x91 + x327 <= 1
C223: + x182 + x243 <= 1
C224: + x146 + x431 <= 1
C225: + x81 + x305 <= 1
C226: + x1 + x475 <= 1
C227: + x75 + x370 <= 1
C228: + x20 + x30 <= 1
C229: + x46 + x89 <= 1
C230: + x31 + x394 <= 1
C231: + x279 + x368 <= 1
C232: + x137 + x277 <= 1
C233: + x373 + x481 <= 1
C234: + x31 + x43 <= 1
C235: + x5 + x58 <= 1
C236: + x81 + x464 <= 1
C237: + x36 + x190 <= 1
C238: + x9 + x61 <= 1
C239: + x77 + x106 <= 1
C240: + x24 + x26 <= 1
C241: + x17 + x45 <= 1
C242: + x110 + x258 <= 1
C243: + x2 + x68 <= 1
C244: + x97 + x336 <= 1
C245: + x89 + x221 <= 1
C246: + x25 + x413 <= 1
C247: + x73 + x183 <= 1
C248: + x153 + x210 <= 1
C249: + x8 + x174 <= 1
C250: + x20 + x252 <= 1
C251: + x15 + x354 <= 1
C252: + x9 + x105 <= 1
C253: + x30 + x100 <= 1
C254: + x21 + x73 <= 1
C255: + x6 + x88 <= 1
C256: + x65 + x227 <= 1
C257: + x19 + x66 <= 1
C258: + x111 + x119 <= 1
C259: + x67 + x72 <= 1
C260: + x68 + x112 <= 1
C261: + x42 + x481 <= 1
C262: + x358 + x394 <= 1
C263: + x153 + x158 <= 1
C264: + x99 + x317 <= 1
C265: + x3 + x297 <= 1
C266: + x23 + x337 <= 1
C267: + x253 + x452 <= 1
C268: + x8 + x389 <= 1
C269: + x120 + x388 <= 1
C270: + x85 + x93 <= 1
C271: + x42 + x114 <= 1
C272: + x25 + x472 <= 1
C273: + x6 + x28 <= 1
C274: + x75 + x151 <= 1
C275: + x4 + x175 <= 1
C276: + x9 + x36 <= 1
C277: + x5 + x275 <= 1
C278: + x82 + x108 <= 1
C279: + x50 + x67 <= 1
C280: + x376 + x437 <= 1
C281: + x32 + x55 <= 1
C282: + x21 + x286 <= 1
C283: + x187 + x457 <= 1
C284: + x174 + x244 <= 1
C285: + x5 + x85 <= 1
C286: + x387 + x444 <= 1
C287: + x151 + x449 <= 1
C288: + x52 + x386 <= 1
C289: + x8 + x458 <= 1
C290: + x76 + x264 <= 1
C291: + x5 + x327 <= 1
C292: + x6 + x81 <= 1
C293: + x100 + x398 <= 1
C294: + x111 + x453 <= 1
C295: + x22 + x94 <= 1
C296: + x16 + x140 <= 1
C297: + x63 + x306 <= 1
C298: + x8 + x95 <= 1
C299: + x1 + x12 <= 1
C300: + x91 + x329 <= 1
C301: + x4 + x7 <= 1
C302: + x69 + x89 <= 1
C303: + x187 + x242 <= 1
C304: + x24 + x92 <= 1
C305: + x9 + x92 <= 1
C306: + x255 + x467 <= 1
C307: + x76 + x372 <= 1
C308: + x78 + x151 <= 1
C309: + x159 + x205 <= 1
C310: + x10 + x66 <= 1
C311: + x56 + x402 <= 1
C312: + x6 + x168 <= 1
C313: + x99 + x268 <= 1
C314: + x8 + x19 <= 1
C315: + x34 + x39 <= 1
C316: + x17 + x27 <= 1
C317: + x321 + x490 <= 1
C318: + x93 + x302 <= 1
C319: + x93 + x155 <= 1
C320: + x365 + x459 <= 1
C321: + x41 + x401 <= 1
C322: + x155 + x185 <= 1
C323: + x57 + x404 <= 1
C324: + x63 + x461 <= 1
C325: + x41 + x78 <= 1
C326: + x40 + x176 <= 1
C327: + x77 + x290 <= 1
C328: + x136 + x495 <= 1
C329: + x6 + x295 <= 1
C330: + x11 + x359 <= 1
C331: + x3 + x396 <= 1
C332: + x77 + x391 <= 1
C333: + x314 + x392 <= 1
C334: + x25 + x26 <= 1
C335: + x6 + x90 <= 1
C336: + x202 + x402 <= 1
C337: + x31 + x84 <= 1
C338: + x105 + x186 <= 1
C339: + x31 + x141 <= 1
C340: + x4 + x16 <= 1
C341: + x45 + x239 <= 1
C342: + x20 + x49 <= 1
C343: + x3 + x9 <= 1
C344: + x3 + x480 <= 1
C345: + x67 + x201 <= 1
C346: + x8 + x229 <= 1
C347: + x301 + x371 <= 1
C348: + x375 + x490 <= 1
C349: + x5 + x23 <= 1
C350: + x15 + x303 <= 1
C351: + x6 + x380 <= 1
C352: + x38 + x248 <= 1
C353: + x3 + x335 <= 1
C354: + x142 + x311 <= 1
C355: + x135 + x234 <= 1
C356: + x76 + x236 <= 1
C357: + x11 + x19 + x49 <= 1
C358: + x15 + x101 <= 1
C359: + x9 + x364 <= 1
C360: + x23 + x229 <= 1
C361: + x24 + x150 <= 1
C362: + x16 + x105 <= 1
C363: + x3 + x387 <= 1
C364: + x252 + x266 <= 1
C365: + x143 + x201 <= 1
C366: + x398 + x438 <= 1
C367: + x283 + x368 <= 1
C368: + x12 + x299 <= 1
C369: + x106 + x156 <= 1
C370: + x96 + x169 <= 1
C371: + x90 + x242 <= 1
C372: + x427 + x498 <= 1
C373: + x18 + x200 <= 1
C374: + x5 + x476 <= 1
C375: + x134 + x303 <= 1
C376: + x10 + x350 <= 1
C377: + x119 + x357 <= 1
C378: + x10 + x441 <= 1
C379: + x280 + x494 <= 1
C380: + x72 + x87 <= 1
C381: + x5 + x30 <= 1
C382: + x345 + x383 <= 1
C383: + x309 + x474 <= 1
C384: + x65 + x406 <= 1
C385: + x46 + x206 <= 1
C386: + x40 + x284 <= 1
C387: + x252 + x307 <= 1
C388: + x7 + x32 <= 1
C389: + x119 + x305 <= 1
C390: + x155 + x445 <= 1
C391: + x402 + x437 <= 1
C392: + x29 + x406 <= 1
C393: + x105 + x351 <= 1
C394: + x163 + x333 <= 1
C395: + x265 + x306 <= 1
C396: + x5 + x66 <= 1
C397: + x5 + x415 <= 1
C398: + x18 + x48 <= 1
C399: + x148 + x499 <= 1
C400: + x140 + x434 <= 1
C401: + x33 + x155 <= 1
C402: + x15 + x31 <= 1
C403: + x6 + x76 <= 1
C404: + x173 + x283 <= 1
C405: + x33 + x488 <= 1
C406: + x278 + x292 <= 1
C407: + x14 + x60 <= 1
C408: + x236 + x443 <= 1
C409: + x282 + x284 <= 1
C410: + x1 + x17 <= 1
C411: + x21 + x212 <= 1
C412: + x5 + x118 <= 1
C413: + x3 + x27 <= 1
C414: + x43 + x102 <= 1
C415: + x70 + x229 <= 1
C416: + x1 + x347 <= 1
C417: + x329 + x419 <= 1
C418: + x48 + x452 <= 1
C419: + x149 + x195 <= 1
C420: + x161 + x249 <= 1
C421: + x169 + x446 <= 1
C422: + x74 + x115 <= 1
C423: + x111 + x405 <= 1
C424: + x3 + x47 <= 1
C425: + x5 + x172 <= 1
C426: + x260 + x495 <= 1
C427: + x7 + x261 <= 1
C428: + x10 + x33 <= 1
C429: + x55 + x259 <= 1
C430: + x31 + x54 <= 1
C431: + x333 + x366 <= 1
C432: + x53 + x67 <= 1
C433: + x9 + x12 <= 1
C434: + x300 + x426 <= 1
C435: + x120 + x297 <= 1
C436: + x18 + x33 <= 1
C437: + x48 + x235 <= 1
C438: + x30 + x396 <= 1
C439: + x222 + x257 <= 1
C440: + x13 + x171 <= 1
C441: + x17 + x345 <= 1
C442: + x19 + x194 <= 1
C443: + x218 + x261 <= 1
C444: + x103 + x413 <= 1
C445: + x13 + x314 <= 1
C446: + x134 + x180 <= 1
C447: + x118 + x484 <= 1
C448: + x236 + x254 <= 1
C449: + x199 + x319 <= 1
C450: + x1 + x338 <= 1
C451: + x16 + x418 <= 1
C452: + x116 + x151 <= 1
C453: + x26 + x336 <= 1
C454: + x6 + x343 <= 1
C455: + x1 + x36 <= 1
C456: + x11 + x215 <= 1
C457: + x3 + x348 <= 1
C458: + x222 + x326 <= 1
C459: + x250 + x375 <= 1
C460: + x12 + x116 <= 1
C461: + x1 + x449 <= 1
C462: + x3 + x42 <= 1
C463: + x21 + x313 <= 1
C464: + x13 + x366 <= 1
C465: + x279 + x338 <= 1
C466: + x335 + x371 <= 1
C467: + x8 + x136 <= 1
C468: + x103 + x255 <= 1
C469: + x149 + x286 <= 1
C470: + x81 + x470 <= 1
C471: + x142 + x435 <= 1
C472: + x140 + x432 <= 1
C473: + x21 + x115 <= 1
C474: + x77 + x120 <= 1
C475: + x25 + x118 <= 1
C476: + x335 + x414 <= 1
C477: + x77 + x213 <= 1
C478: + x167 + x232 <= 1
C479: + x23 + x121 <= 1
C480: + x106 + x143 <= 1
C481: + x14 + x46 <= 1
C482: + x10 + x22 <= 1
C483: + x5 + x124 <= 1
C484: + x15 + x412 <= 1
C485: + x102 + x272 <= 1
C486: + x12 + x28 <= 1
C487: + x21 + x500 <= 1
C488: + x5 + x342 <= 1
C489: + x6 + x98 <= 1
C490: + x146 + x271 <= 1
C491: + x72 + x393 <= 1
C492: + x12 + x270 <= 1
C493: + x31 + x124 <= 1
C494: + x380 + x440 <= 1
C495: + x5 + x11 <= 1
C496: + x26 + x337 <= 1
C497: + x290 + x471 <= 1
C498: + x19 + x237 <= 1
C499: + x66 + x493 <= 1
C500: + x24 + x73 <= 1
C501: + x17 + x126 <= 1
C502: + x349 + x496 <= 1
C503: + x106 + x332 <= 1
C504: + x5 + x154 <= 1
C505: + x23 + x129 <= 1
C506: + x278 + x462 <= 1
C507: + x8 + x36 <= 1
C508: + x10 + x142 <= 1
C509: + x21 + x122 <= 1
C510: + x39 + x361 <= 1
C511: + x124 + x134 + x440 <= 1
C512: + x25 + x125 <= 1
C513: + x71 + x253 <= 1
C514: + x3 + x117 <= 1
C515: + x49 + x323 <= 1
C516: + x42 + x56 <= 1
C517: + x188 + x433 <= 1
C518: + x429 + x487 <= 1
C519: + x27 + x390 <= 1
C520: + x80 + x446 <= 1
C521: + x216 + x420 <= 1
C522: + x70 + x482 <= 1
C523: + x142 + x416 <= 1
C524: + x91 + x468 <= 1
C525: + x21 + x78 <= 1
C526: + x12 + x17 <= 1
C527: + x6 + x107 <= 1
C528: + x335 + x433 <= 1
C529: + x8 + x379 <= 1
C530: + x90 + x127 <= 1
C531: + x5 + x242 <= 1
C532: + x24 + x312 <= 1
C533: + x162 + x293 <= 1
C534: + x253 + x356 <= 1
C535: + x1 + x50 <= 1
C536: + x166 + x277 <= 1
C537: + x33 + x294 <= 1
C538: + x116 + x375 <= 1
C539: + x3 + x60 <= 1
C540: + x366 + x427 <= 1
C541: + x43 + x387 <= 1
C542: + x24 + x421 <= 1
C543: + x9 + x271 <= 1
C544: + x92 + x226 <= 1
C545: + x2 + x215 <= 1
C546: + x11 + x172 <= 1
C547: + x162 + x206 <= 1
C548: + x91 + x407 <= 1
C549: + x457 + x459 <= 1
C550: + x5 + x280 <= 1
C551: + x23 + x426 <= 1
C552: + x171 + x495 <= 1
C553: + x1 + x491 <= 1
C554: + x366 + x479 <= 1
C555: + x14 + x96 <= 1
C556: + x24 + x377 <= 1
C557: + x118 + x334 <= 1
C558: + x102 + x223 <= 1
C559: + x140 + x299 <= 1
C560: + x41 + x68 <= 1
C561: + x5 + x106 <= 1
C562: + x179 + x269 <= 1
C563: + x5 + x423 <= 1
C564: + x3 + x438 <= 1
C565: + x34 + x101 <= 1
C566: + x53 + x257 <= 1
C567: + x91 + x128 <= 1
C568: + x265 + x489 <= 1
C569: + x1 + x9 <= 1
C570: + x8 + x94 <= 1
C571: + x10 + x244 <= 1
C572: + x29 + x231 <= 1
C573: + x4 + x6 <= 1
C574: + x14 + x258 <= 1
C575: + x252 + x472 <= 1
C576: + x134 + x320 <= 1
C577: + x138 + x354 <= 1
C578: + x47 + x166 <= 1
C579: + x3 + x51 <= 1
C580: + x5 + x144 <= 1
C581: + x15 + x83 <= 1
C582: + x142 + x176 <= 1
C583: + x73 + x246 <= 1
C584: + x151 + x251 <= 1
C585: + x9 + x310 <= 1
C586: + x43 + x398 <= 1
C587: + x5 + x45 <= 1
C588: + x47 + x444 <= 1
C589: + x355 + x428 <= 1
C590: + x10 + x192 <= 1
C591: + x237 + x401 <= 1
C592: + x60 + x61 <= 1
C593: + x235 + x298 <= 1
C594: + x3 + x71 <= 1
C595: + x105 + x366 <= 1
C596: + x48 + x409 <= 1
C597: + x6 + x204 <= 1
C598: + x426 + x464 <= 1
C599: + x109 + x219 <= 1
C600: + x19 + x38 <= 1
C601: + x144 + x319 <= 1
C602: + x285 + x407 <= 1
C603: + x31 + x222 <= 1
C604: + x25 + x250 <= 1
C605: + x15 + x365 <= 1
C606: + x109 + x128 <= 1
C607: + x63 + x171 <= 1
C608: + x37 + x186 <= 1
C609: + x3 + x397 <= 1
C610: + x139 + x309 <= 1
C611: + x59 + x139 <= 1
C612: + x61 + x251 <= 1
C613: + x1 + x16 <= 1
C614: + x4 + x450 <= 1
C615: + x23 + x368 <= 1
C616: + x26 + x58 <= 1
C617: + x387 + x460 <= 1
C618: + x3 + x14 <= 1
C619: + x12 + x386 <= 1
C620: + x52 + x164 <= 1
C621: + x107 + x437 <= 1
C622: + x18 + x280 <= 1
C623: + x74 + x262 <= 1
C624: + x4 + x156 <= 1
C625: + x25 + x384 <= 1
C626: + x27 + x217 <= 1
C627: + x119 + x154 <= 1
C628: + x116 + x401 <= 1
C629: + x25 + x495 <= 1
C630: + x4 + x72 <= 1
C631: + x117 + x178 <= 1
C632: + x236 + x308 <= 1
C633: + x26 + x247 <= 1
C634: + x223 + x251 <= 1
C635: + x6 + x70 <= 1
C636: + x81 + x139 <= 1
C637: + x103 + x162 <= 1
C638: + x140 + x170 <= 1
C639: + x439 + x475 <= 1
C640: + x61 + x343 <= 1
C641: + x26 + x301 <= 1
C642: + x24 + x323 <= 1
C643: + x134 + x399 <= 1
C644: + x80 + x477 <= 1
C645: + x2 + x137 <= 1
C646: + x31 + x241 <= 1
C647: + x40 + x299 <= 1
C648: + x98 + x296 <= 1
C649: + x5 + x473 <= 1
C650: + x38 + x99 <= 1
C651: + x69 + x225 <= 1
C652: + x52 + x169 <= 1
C653: + x53 + x347 <= 1
C654: + x145 + x204 <= 1
C655: + x38 + x446 <= 1
C656: + x5 + x382 <= 1
C657: + x6 + x10 <= 1
C658: + x77 + x353 <= 1
C659: + x11 + x69 <= 1
C660: + x67 + x106 <= 1
C661: + x378 + x448 <= 1
C662: + x100 + x149 <= 1
C663: + x21 + x30 <= 1
C664: + x4 + x64 <= 1
C665: + x42 + x241 <= 1
C666: + x34 + x52 <= 1
C667: + x295 + x405 <= 1
C668: + x149 + x414 <= 1
C669: + x23 + x435 <= 1
C670: + x38 + x87 <= 1
C671: + x67 + x304 <= 1
C672: + x60 + x170 <= 1
C673: + x32 + x33 <= 1
C674: + x27 + x83 <= 1
C675: + x28 + x65 <= 1
C676: + x265 + x271 <= 1
C677: + x445 + x486 <= 1
C678: + x16 + x210 <= 1
C679: + x13 + x34 <= 1
C680: + x237 + x278 <= 1
C681: + x54 + x399 <= 1
C682: + x132 + x461 <= 1
C683: + x5 + x71 <= 1
C684: + x6 + x300 <= 1
C685: + x121 + x188 <= 1
C686: + x9 + x13 + x21 <= 1
C687: + x222 + x267 <= 1
C688: + x186 + x346 <= 1
C689: + x279 + x308 <= 1
C690: + x7 + x85 <= 1
C691: + x119 + x458 <= 1
C692: + x423 + x444 <= 1
C693: + x228 + x485 <= 1
C694: + x38 + x137 <= 1
C695: + x42 + x206 <= 1
C696: + x34 + x249 <= 1
C697: + x24 + x102 <= 1
C698: + x6 + x480 <= 1
C699: + x7 + x488 <= 1
C700: + x127 + x144 <= 1
C701: + x145 + x422 <= 1
C702: + x166 + x492 <= 1
C703: + x131 + x201 <= 1
C704: + x21 + x483 <= 1
C705: + x324 + x354 <= 1
C706: + x65 + x136 <= 1
C707: + x280 + x490 <= 1
C708: + x301 + x358 <= 1
C709: + x77 + x160 <= 1
C710: + x4 + x138 <= 1
C711: + x34 + x295 <= 1
C712: + x244 + x439 <= 1
C713: + x111 + x309 <= 1
C714: + x230 + x445 <= 1
C715: + x3 + x326 <= 1
C716: + x21 + x37 <= 1
C717: + x69 + x127 <= 1
C718: + x168 + x291 <= 1
C719: + x390 + x426 <= 1
C720: + x258 + x474 <= 1
C721: + x4 + x279 <= 1
C722: + x88 + x221 <= 1
C723: + x160 + x229 <= 1
C724: + x254 + x309 <= 1
C725: + x83 + x335 <= 1
C726: + x143 + x410 <= 1
C727: + x125 + x227 <= 1
C728: + x40 + x332 <= 1
C729: + x43 + x62 <= 1
C730: + x25 + x108 <= 1
C731: + x33 + x159 <= 1
C732: + x8 + x344 <= 1
C733: + x124 + x352 <= 1
C734: + x196 + x360 <= 1
C735: + x68 + x80 <= 1
C736: + x370 + x425 <= 1
C737: + x117 + x378 <= 1
C738: + x27 + x98 <= 1
C739: + x37 + x294 <= 1
C740: + x57 + x498 <= 1
C741: + x41 + x108 <= 1
C742: + x134 + x276 <= 1
C743: + x18 + x96 <= 1
C744: + x3 + x23 <= 1
C745: + x123 + x300 <= 1
C746: + x89 + x376 <= 1
C747: + x150 + x273 <= 1
C748: + x1 + x351 <= 1
C749: + x138 + x180 <= 1
C750: + x40 + x99 <= 1
C751: + x4 + x143 <= 1
C752: + x32 + x130 <= 1
C753: + x8 + x118 <= 1
C754: + x10 + x220 <= 1
C755: + x1 + x33 <= 1
C756: + x38 + x230 <= 1
C757: + x187 + x219 <= 1
C758: + x259 + x320 <= 1
C759: + x7 + x11 <= 1
C760: + x3 + x43 <= 1
C761: + x23 + x42 <= 1
C762: + x6 + x48 <= 1
C763: + x71 + x120 <= 1
C764: + x10 + x37 <= 1
C765: + x8 + x139 <= 1
C766: + x66 + x392 <= 1
C767: + x16 + x123 <= 1
C768: + x135 + x367 <= 1
C769: + x183 + x292 <= 1
C770: + x81 + x384 <= 1
C771: + x64 + x180 <= 1
C772: + x366 + x496 <= 1
C773: + x41 + x438 <= 1
C774: + x104 + x232 <= 1
C775: + x22 + x126 <= 1
C776: + x9 + x330 <= 1
C777: + x16 + x236 <= 1
C778: + x144 + x295 <= 1
C779: + x211 + x327 <= 1
C780: + x157 + x322 <= 1
C781: + x285 + x399 <= 1
C782: + x475 + x500 <= 1
C783: + x85 + x463 <= 1
C784: + x3 + x18 <= 1
C785: + x33 + x98 <= 1
C786: + x5 + x16 <= 1
C787: + x6 + x339 <= 1
C788: + x93 + x105 <= 1
C789: + x51 + x135 <= 1
C790: + x253 + x463 <= 1
C791: + x156 + x265 <= 1
C792: + x6 + x41 <= 1
C793: + x76 + x114 <= 1
C794: + x104 + x144 <= 1
C795: + x34 + x269 <= 1
C796: + x243 + x483 <= 1
C797: + x19 + x166 <= 1
C798: + x63 + x330 <= 1
C799: + x59 + x381 <= 1
C800: + x40 + x378 <= 1
C801: + x228 + x234 <= 1
C802: + x8 + x326 <= 1
C803: + x11 + x53 <= 1
C804: + x5 + x195 <= 1
C805: + x101 + x223 <= 1
C806: + x4 + x112 <= 1
C807: + x116 + x243 <= 1
C808: + x178 + x198 <= 1
C809: + x63 + x182 <= 1
C810: + x12 + x32 <= 1
C811: + x285 + x299 <= 1
C812: + x323 + x351 <= 1
C813: + x77 + x411 <= 1
C814: + x15 + x57 <= 1
C815: + x27 + x298 <= 1
C816: + x83 + x187 <= 1
C817: + x1 + x146 <= 1
C818: + x246 + x287 <= 1
C819: + x257 + x268 <= 1
C820: + x21 + x349 <= 1
C821: + x5 + x247 <= 1
C822: + x1 + x63 <= 1
C823: + x109 + x451 <= 1
C824: + x249 + x489 <= 1
C825: + x177 + x480 <= 1
C826: + x51 + x99 <= 1
C827: + x5 + x134 <= 1
C828: + x5 + x59 <= 1
C829: + x160 + x462 <= 1
C830: + x199 + x216 <= 1
C831: + x290 + x295 <= 1
C832: + x6 + x272 <= 1
C833: + x8 + x32 <= 1
C834: + x23 + x427 <= 1
C835: + x398 + x470 <= 1
C836: + x125 + x434 <= 1
C837: + x65 + x314 <= 1
C838: + x3 + x278 <= 1
C839: + x31 + x216 <= 1
C840: + x5 + x111 <= 1
C841: + x25 + x315 <= 1
C842: + x43 + x365 <= 1
C843: + x41 + x307 <= 1
C844: + x74 + x153 <= 1
C845: + x296 + x341 <= 1
C846: + x6 + x138 <= 1
C847: + x88 + x116 <= 1
C848: + x12 + x102 <= 1
C849: + x77 + x481 <= 1
C850: + x253 + x477 <= 1
C851: + x290 + x335 <= 1
C852: + x6 + x488 <= 1
C853: + x28 + x340 <= 1
C854: + x247 + x326 <= 1
C855: + x47 + x348 <= 1
C856: + x81 + x214 <= 1
C857: + x24 + x417 <= 1
C858: + x190 + x494 <= 1
C859: + x15 + x80 <= 1
C860: + x415 + x416 <= 1
C861: + x1 + x384 <= 1
C862: + x19 + x115 <= 1
C863: + x129 + x362 <= 1
C864: + x185 + x375 <= 1
C865: + x23 + x160 <= 1
C866: + x62 + x380 <= 1
C867: + x123 + x207 <= 1
C868: + x81 + x357 <= 1
C869: + x143 + x180 <= 1
C870: + x77 + x199 <= 1
C871: + x69 + x188 <= 1
C872: + x5 + x177 <= 1
C873: + x72 + x486 <= 1
C874: + x37 + x346 <= 1
C875: + x129 + x422 <= 1
C876: + x179 + x256 <= 1
C877: + x43 + x161 <= 1
C878: + x68 + x185 <= 1
C879: + x31 + x461 <= 1
C880: + x222 + x231 <= 1
C881: + x134 + x171 <= 1
C882: + x2 + x429 <= 1
C883: + x103 + x172 <= 1
C884: + x21 + x355 <= 1
C885: + x7 + x342 <= 1
C886: + x4 + x10 <= 1
C887: + x116 + x324 <= 1
C888: + x226 + x349 <= 1
C889: + x5 + x471 <= 1
C890: + x11 + x417 <= 1
C891: + x38 + x125 <= 1
C892: + x3 + x15 <= 1
C893: + x5 + x140 <= 1
C894: + x15 + x87 <= 1
C895: + x364 + x401 <= 1
C896: + x83 + x225 <= 1
C897: + x74 + x257 <= 1
C898: + x166 + x235 <= 1
C899: + x12 + x236 <= 1
C900: + x50 + x490 <= 1
C901: + x132 + x279 <= 1
C902: + x9 + x44 <= 1
C903: + x8 + x14 <= 1
C904: + x10 + x164 <= 1
C905: + x4 + x54 <= 1
C906: + x187 + x195 <= 1
C907: + x5 + x283 <= 1
C908: + x252 + x296 <= 1
C909: + x35 + x174 <= 1
C910: + x11 + x34 <= 1
C911: + x190 + x443 <= 1
C912: + x11 + x131 <= 1
C913: + x5 + x93 <= 1
C914: + x478 + x499 <= 1
C915: + x80 + x291 <= 1
C916: + x109 + x124 <= 1
C917: + x251 + x388 <= 1
C918: + x23 + x497 <= 1
C919: + x92 + x369 <= 1
C920: + x83 + x168 <= 1
C921: + x11 + x22 <= 1
C922: + x4 + x212 <= 1
C923: + x31 + x81 <= 1
C924: + x30 + x230 <= 1
C925: + x231 + x465 <= 1
C926: + x161 + x290 <= 1
C927: + x116 + x329 <= 1
C928: + x5 + x478 <= 1
C929: + x3 + x10 <= 1
C930: + x39 + x263 <= 1
C931: + x279 + x370 <= 1
C932: + x24 + x439 <= 1
C933: + x15 + x90 <= 1
C934: + x160 + x207 <= 1
C935: + x5 + x24 <= 1
C936: + x162 + x263 <= 1
C937: + x74 + x485 <= 1
C938: + x67 + x400 <= 1
C939: + x12 + x80 <= 1
C940: + x4 + x59 <= 1
C941: + x97 + x393 <= 1
C942: + x51 + x159 <= 1
C943: + x6 + x414 <= 1
C944: + x337 + x424 <= 1
C945: + x41 + x409 <= 1
C946: + x106 + x367 <= 1
C947: + x42 + x47 <= 1
C948: + x4 + x15 + x42 <= 1
C949: + x55 + x306 <= 1
C950: + x57 + x412 <= 1
C951: + x5 + x92 <= 1
C952: + x226 + x403 <= 1
C953: + x9 + x31 <= 1
C954: + x174 + x264 <= 1
C955: + x20 + x109 <= 1
C956: + x5 + x310 <= 1
C957: + x1 + x265 <= 1
C958: + x64 + x352 <= 1
C959: + x3 + x146 <= 1
C960: + x4 + x217 <= 1
C961: + x5 + x235 <= 1
C962: + x2 + x141 <= 1
C963: + x8 + x499 <= 1
C964: + x25 + x46 <= 1
C965: + x81 + x187 <= 1
C966: + x52 + x173 <= 1
C967: + x4 + x133 <= 1
C968: + x5 + x31 <= 1
C969: + x15 + x254 <= 1
C970: + x235 + x483 <= 1
C971: + x24 + x218 <= 1
C972: + x157 + x261 <= 1
C973: + x77 + x450 <= 1
C974: + x30 + x51 <= 1
C975: + x31 + x161 <= 1
C976: + x31 + x374 <= 1
C977: + x10 + x265 <= 1
C978: + x1 + x500 <= 1
C979: + x139 + x237 <= 1
C980: + x77 + x244 <= 1
C981: + x27 + x486 <= 1
C982: + x9 + x169 <= 1
C983: + x10 + x63 <= 1
C984: + x227 + x439 <= 1
C985: + x41 + x61 <= 1
C986: + x23 + x290 <= 1
C987: + x6 + x280 <= 1
C988: + x107 + x350 <= 1
C989: + x128 + x224 <= 1
C990: + x391 + x454 <= 1
C991: + x20 + x118 <= 1
C992: + x5 + x317 <= 1
C993: + x78 + x304 <= 1
C994: + x104 + x238 <= 1
C995: + x9 + x352 <= 1
C996: + x8 + x69 <= 1
C997: + x102 + x186 <= 1
C998: + x22 + x203 <= 1
C999: + x32 + x248 <= 1
C1000: + x5 + x452 <= 1
C1001: + x91 + x456 <= 1
C1002: + x63 + x133 <= 1
C1003: + x8 + x492 <= 1
C1004: + x47 + x195 <= 1
C1005: + x257 + x315 <= 1
C1006: + x23 + x188 <= 1
C1007: + x35 + x86 <= 1
C1008: + x126 + x149 <= 1
C1009: + x1 + x46 <= 1
C1010: + x63 + x280 <= 1
C1011: + x59 + x291 <= 1
C1012: + x68 + x278 <= 1
C1013: + x86 + x420 <= 1
C1014: + x233 + x469 <= 1
C1015: + x89 + x484 <= 1
C1016: + x109 + x466 <= 1
C1017: + x29 + x494 <= 1
C1018: + x34 + x428 <= 1
C1019: + x71 + x113 <= 1
C1020: + x36 + x412 <= 1
C1021: + x71 + x454 <= 1
C1022: + x9 + x283 <= 1
C1023: + x11 + x192 <= 1
C1024: + x174 + x215 <= 1
C1025: + x224 + x393 <= 1
C1026: + x1 + x122 <= 1
C1027: + x29 + x88 <= 1
C1028: + x5 + x316 <= 1
C1029: + x35 + x139 <= 1
C1030: + x1 + x263 <= 1
C1031: + x156 + x331 <= 1
C1032: + x265 + x393 <= 1
C1033: + x421 + x471 <= 1
C1034: + x52 + x270 <= 1
C1035: + x6 + x215 <= 1
C1036: + x36 + x456 <= 1
C1037: + x101 + x213 <= 1
C1038: + x1 + x233 <= 1
C1039: + x48 + x91 <= 1
C1040: + x51 + x267 <= 1
C1041: + x125 + x262 <= 1
C1042: + x41 + x112 <= 1
C1043: + x17 + x76 <= 1
C1044: + x21 + x220 <= 1
C1045: + x5 + x459 <= 1
C1046: + x41 + x322 <= 1
C1047: + x8 + x264 <= 1
C1048: + x65 + x328 <= 1
C1049: + x5 + x13 <= 1
C1050: + x207 + x400 <= 1
C1051: + x26 + x130 <= 1
C1052: + x24 + x240 <= 1
C1053: + x371 + x487 <= 1
C1054: + x21 + x48 <= 1
C1055: + x31 + x147 <= 1
C1056: + x96 + x448 <= 1
C1057: + x7 + x15 <= 1
C1058: + x15 + x127 <= 1
C1059: + x6 + x44 <= 1
C1060: + x92 + x304 <= 1
C1061: + x282 + x473 <= 1
C1062: + x11 + x167 <= 1
C1063: + x52 + x89 <= 1
C1064: + x53 + x75 <= 1
C1065: + x15 + x333 <= 1
C1066: + x8 + x38 <= 1
C1067: + x194 + x234 <= 1
C1068: + x77 + x113 <= 1
C1069: + x118 + x379 <= 1
C1070: + x10 + x21 <= 1
C1071: + x19 + x58 <= 1
C1072: + x382 + x457 <= 1
C1073: + x285 + x395 <= 1
C1074: + x239 + x436 <= 1
C1075: + x89 + x113 <= 1
C1076: + x5 + x101 <= 1
C1077: + x6 + x462 <= 1
C1078: + x134 + x281 <= 1
C1079: + x320 + x476 <= 1
C1080: + x48 + x382 <= 1
C1081: + x52 + x132 <= 1
C1082: + x70 + x214 <= 1
C1083: + x89 + x323 <= 1
C1084: + x28 + x32 <= 1
C1085: + x238 + x341 <= 1
C1086: + x296 + x419 <= 1
C1087: + x88 + x122 <= 1
C1088: + x15 + x268 <= 1
C1089: + x160 + x413 <= 1
C1090: + x8 + x111 <= 1
C1091: + x276 + x372 <= 1
C1092: + x61 + x94 <= 1
C1093: + x5 + x486 <= 1
C1094: + x20 + x463 <= 1
C1095: + x81 + x121 <= 1
C1096: + x198 + x376 <= 1
C1097: + x35 + x60 <= 1
C1098: + x144 + x443 <= 1
C1099: + x103 + x340 <= 1
C1100: + x378 + x382 <= 1
C1101: + x293 + x414 <= 1
C1102: + x40 + x374 <= 1
C1103: + x96 + x361 <= 1
C1104: + x4 + x410 <= 1
C1105: + x6 + x422 <= 1
C1106: + x185 + x476 <= 1
C1107: + x138 + x246 <= 1
C1108: + x42 + x55 <= 1
C1109: + x363 + x474 <= 1
C1110: + x82 + x160 <= 1
C1111: + x56 + x86 <= 1
C1112: + x12 + x181 <= 1
C1113: + x24 + x141 <= 1
C1114: + x152 + x444 <= 1
C1115: + x37 + x181 <= 1
C1116: + x69 + x193 <= 1
C1117: + x10 + x476 <= 1
C1118: + x25 + x423 <= 1
C1119: + x6 + x328 <= 1
C1120: + x79 + x467 <= 1
C1121: + x55 + x358 <= 1
C1122: + x12 + x97 <= 1
C1123: + x31 + x157 <= 1
C1124: + x40 + x319 <= 1
C1125: + x98 + x276 <= 1
C1126: + x24 + x65 <= 1
C1127: + x129 + x133 <= 1
C1128: + x38 + x119 <= 1
C1129: + x3 + x57 <= 1
C1130: + x167 + x347 <= 1
C1131: + x23 + x64 <= 1
C1132: + x15 + x73 <= 1
C1133: + x36 + x399 <= 1
C1134: + x6 + x30 <= 1
C1135: + x406 + x430 <= 1
C1136: + x119 + x447 <= 1
C1137: + x221 + x480 <= 1
C1138: + x104 + x129 <= 1
C1139: + x5 + x39 <= 1
C1140: + x99 + x202 <= 1
C1141: + x13 + x194 <= 1
C1142: + x20 + x146 <= 1
C1143: + x3 + x383 <= 1
C1144: + x77 + x103 <= 1
C1145: + x204 + x292 <= 1
C1146: + x150 + x356 <= 1
C1147: + x53 + x254 <= 1
C1148: + x44 + x161 <= 1
C1149: + x6 + x431 <= 1
C1150: + x8 + x447 <= 1
C1151: + x193 + x454 <= 1
C1152: + x152 + x167 <= 1
C1153: + x201 + x390 <= 1
C1154: + x5 + x107 <= 1
C1155: + x23 + x282 <= 1
C1156: + x150 + x469 <= 1
C1157: + x43 + x71 <= 1
C1158: + x88 + x169 <= 1
C1159: + x5 + x250 <= 1
C1160: + x6 + x321 <= 1
C1161: + x84 + x88 <= 1
C1162: + x120 + x252 <= 1
C1163: + x4 + x5 <= 1
C1164: + x31 + x345 <= 1
C1165: + x13 + x439 <= 1
C1166: + x26 + x56 <= 1
C1167: + x134 + x319 <= 1
C1168: + x37 + x104 <= 1
C1169: + x58 + x300 <= 1
C1170: + x3 + x52 <= 1
C1171: + x345 + x466 <= 1
C1172: + x6 + x7 <= 1
C1173: + x401 + x420 <= 1
C1174: + x144 + x374 <= 1
C1175: + x336 + x383 <= 1
C1176: + x15 + x237 <= 1
C1177: + x19 + x148 <= 1
C1178: + x187 + x200 <= 1
C1179: + x169 + x455 <= 1
C1180: + x25 + x76 <= 1
C1181: + x36 + x261 <= 1
C1182: + x57 + x256 <= 1
C1183: + x9 + x355 <= 1
C1184: + x172 + x223 <= 1
C1185: + x12 + x163 <= 1
C1186: + x222 + x405 <= 1
C1187: + x5 + x82 <= 1
C1188: + x23 + x273 <= 1
C1189: + x5 + x431 <= 1
C1190: + x65 + x82 <= 1
C1191: + x139 + x310 <= 1
C1192: + x123 + x332 <= 1
C1193: + x51 + x221 <= 1
C1194: + x209 + x277 <= 1
C1195: + x52 + x310 <= 1
C1196: + x15 + x172 <= 1
C1197: + x26 + x158 <= 1
C1198: + x8 + x86 <= 1
C1199: + x4 + x449 <= 1
C1200: + x316 + x467 <= 1
C1201: + x18 + x108 <= 1
C1202: + x390 + x499 <= 1
C1203: + x46 + x70 <= 1
C1204: + x85 + x428 <= 1
C1205: + x257 + x397 <= 1
C1206: + x135 + x430 <= 1
C1207: + x264 + x381 <= 1
C1208: + x10 + x77 + x208 <= 1
C1209: + x69 + x288 <= 1
C1210: + x5 + x21 <= 1
C1211: + x226 + x450 <= 1
C1212: + x10 + x168 <= 1
C1213: + x174 + x343 <= 1
C1214: + x249 + x362 <= 1
C1215: + x21 + x24 <= 1
C1216: + x214 + x336 <= 1
C1217: + x4 + x58 <= 1
C1218: + x143 + x191 <= 1
C1219: + x18 + x424 <= 1
C1220: + x129 + x276 <= 1
C1221: + x21 + x290 <= 1
C1222: + x186 + x487 <= 1
C1223: + x10 + x49 <= 1
C1224: + x3 + x228 <= 1
C1225: + x242 + x282 <= 1
C1226: + x51 + x298 <= 1
C1227: + x78 + x425 <= 1
C1228: + x180 + x184 <= 1
C1229: + x15 + x373 <= 1
C1230: + x8 + x62 <= 1
C1231: + x259 + x360 <= 1
C1232: + x5 + x331 <= 1
C1233: + x15 + x18 <= 1
C1234: + x335 + x395 <= 1
C1235: + x5 + x240 <= 1
C1236: + x73 + x150 <= 1
C1237: + x159 + x170 <= 1
C1238: + x8 + x83 <= 1
C1239: + x20 + x217 <= 1
C1240: + x3 + x312 <= 1
C1241: + x76 + x385 <= 1
C1242: + x60 + x114 <= 1
C1243: + x103 + x260 <= 1
C1244: + x24 + x112 <= 1
C1245: + x316 + x492 <= 1
C1246: + x85 + x350 <= 1
C1247: + x31 + x331 <= 1
C1248: + x67 + x281 <= 1
C1249: + x53 + x135 <= 1
C1250: + x3 + x473 <= 1
C1251: + x20 + x53 <= 1
C1252: + x43 + x125 <= 1
C1253: + x151 + x246 <= 1
C1254: + x127 + x487 <= 1
C1255: + x1 + x322 <= 1
C1256: + x9 + x293 <= 1
C1257: + x147 + x174 <= 1
C1258: + x185 + x265 <= 1
C1259: + x65 + x130 <= 1
C1260: + x28 + x56 <= 1
C1261: + x5 + x20 <= 1
C1262: + x24 + x274 <= 1
C1263: + x48 + x57 <= 1
C1264: + x49 + x126 <= 1
C1265: + x39 + x193 <= 1
C1266: + x31 + x375 <= 1
C1267: + x252 + x305 <= 1
C1268: + x314 + x456 <= 1
C1269: + x116 + x409 <= 1
C1270: + x3 + x90 <= 1
C1271: + x335 + x355 <= 1
C1272: + x18 + x316 <= 1
C1273: + x8 + x152 <= 1
C1274: + x36 + x37 <= 1
C1275: + x32 + x286 <= 1
C1276: + x190 + x222 <= 1
C1277: + x392 + x461 <= 1
C1278: + x204 + x256 <= 1
C1279: + x158 + x458 <= 1
C1280: + x42 + x164 <= 1
C1281: + x133 + x178 <= 1
C1282: + x86 + x482 <= 1
C1283: + x15 + x25 <= 1
C1284: + x119 + x463 <= 1
C1285: + x220 + x360 <= 1
C1286: + x112 + x318 <= 1
C1287: + x106 + x159 <= 1
C1288: + x14 + x62 <= 1
C1289: + x104 + x241 <= 1
C1290: + x16 + x298 <= 1
C1291: + x265 + x380 <= 1
C1292: + x166 + x312 <= 1
C1293: + x325 + x478 <= 1
C1294: + x49 + x230 <= 1
C1295: + x139 + x364 <= 1
C1296: + x38 + x107 <= 1
C1297: + x62 + x117 <= 1
C1298: + x8 + x270 <= 1
C1299: + x75 + x141 <= 1
C1300: + x113 + x344 <= 1
C1301: + x11 + x77 <= 1
C1302: + x40 + x101 <= 1
C1303: + x5 + x27 <= 1
C1304: + x153 + x377 <= 1
C1305: + x53 + x61 <= 1
C1306: + x29 + x129 <= 1
C1307: + x185 + x237 <= 1
C1308: + x22 + x146 <= 1
C1309: + x60 + x416 <= 1
C1310: + x25 + x161 <= 1
C1311: + x337 + x403 <= 1
C1312: + x191 + x334 <= 1
C1313: + x129 + x189 <= 1
C1314: + x14 + x67 <= 1
C1315: + x15 + x113 <= 1
C1316: + x10 + x35 <= 1
C1317: + x149 + x277 <= 1
C1318: + x176 + x193 <= 1
C1319: + x125 + x311 <= 1
C1320: + x34 + x165 <= 1
C1321: + x2 + x361 <= 1
C1322: + x41 + x222 <= 1
C1323: + x77 + x127 <= 1
C1324: + x276 + x301 <= 1
C1325: + x187 + x338 <= 1
C1326: + x190 + x314 <= 1
C1327: + x8 + x65 <= 1
C1328: + x55 + x345 <= 1
C1329: + x20 + x231 <= 1
C1330: + x103 + x318 <= 1
C1331: + x248 + x395 <= 1
C1332: + x89 + x103 <= 1
C1333: + x306 + x417 <= 1
C1334: + x73 + x438 <= 1
C1335: + x63 + x137 <= 1
C1336: + x8 + x488 <= 1
C1337: + x3 + x427 <= 1
C1338: + x61 + x213 <= 1
C1339: + x6 + x123 <= 1
C1340: + x2 + x11 <= 1
C1341: + x284 + x448 <= 1
C1342: + x145 + x301 <= 1
C1343: + x76 + x491 <= 1
C1344: + x21 + x45 <= 1
C1345: + x149 + x429 <= 1
C1346: + x24 + x50 <= 1
C1347: + x143 + x148 <= 1
C1348: + x348 + x493 <= 1
C1349: + x61 + x297 <= 1
C1350: + x89 + x133 <= 1
C1351: + x28 + x82 <= 1
C1352: + x173 + x197 <= 1
C1353: + x174 + x211 <= 1
C1354: + x12 + x207 <= 1
C1355: + x21 + x148 <= 1
C1356: + x34 + x267 <= 1
C1357: + x252 + x448 <= 1
C1358: + x5 + x387 <= 1
C1359: + x18 + x28 <= 1
C1360: + x391 + x433 <= 1
C1361: + x302 + x321 <= 1
C1362: + x77 + x425 <= 1
C1363: + x233 + x247 <= 1
C1364: + x167 + x226 <= 1
C1365: + x23 + x123 <= 1
C1366: + x9 + x160 <= 1
C1367: + x19 + x59 <= 1
C1368: + x107 + x373 <= 1
C1369: + x90 + x469 <= 1
C1370: + x52 + x191 <= 1
C1371: + x137 + x239 <= 1
C1372: + x258 + x442 <= 1
C1373: + x5 + x9 <= 1
C1374: + x24 + x317 <= 1
C1375: + x36 + x75 <= 1
C1376: + x8 + x110 <= 1
C1377: + x51 + x136 <= 1
C1378: + x167 + x452 <= 1
C1379: + x53 + x168 <= 1
C1380: + x85 + x404 <= 1
C1381: + x15 + x67 <= 1
C1382: + x9 + x262 <= 1
C1383: + x145 + x238 <= 1
C1384: + x39 + x69 <= 1
C1385: + x40 + x79 <= 1
C1386: + x222 + x498 <= 1
C1387: + x15 + x337 <= 1
C1388: + x219 + x379 <= 1
C1389: + x8 + x34 <= 1
C1390: + x135 + x359 <= 1
C1391: + x29 + x171 <= 1
C1392: + x77 + x109 <= 1
C1393: + x43 + x45 <= 1
C1394: + x3 + x119 <= 1
C1395: + x44 + x470 <= 1
C1396: + x91 + x200 <= 1
C1397: + x157 + x346 <= 1
C1398: + x5 + x97 <= 1
C1399: + x371 + x395 <= 1
C1400: + x210 + x212 <= 1
C1401: + x164 + x442 <= 1
C1402: + x302 + x366 <= 1
C1403: + x252 + x368 <= 1
C1404: + x109 + x429 <= 1
C1405: + x137 + x150 <= 1
C1406: + x2 + x5 <= 1
C1407: + x13 + x147 <= 1
C1408: + x117 + x285 <= 1
C1409: + x17 + x214 <= 1
C1410: + x146 + x429 <= 1
C1411: + x124 + x227 <= 1
C1412: + x106 + x404 <= 1
C1413: + x314 + x484 <= 1
C1414: + x61 + x90 <= 1
C1415: + x16 + x475 <= 1
C1416: + x3 + x497 <= 1
C1417: + x50 + x148 <= 1
C1418: + x33 + x54 <= 1
C1419: + x98 + x122 <= 1
C1420: + x89 + x147 <= 1
C1421: + x19 + x432 <= 1
C1422: + x10 + x86 <= 1
C1423: + x21 + x162 <= 1
C1424: + x116 + x175 <= 1
C1425: + x276 + x324 <= 1
C1426: + x55 + x96 <= 1
C1427: + x23 + x117 <= 1
C1428: + x18 + x167 <= 1
C1429: + x1 + x251 <= 1
C1430: + x91 + x316 <= 1
C1431: + x94 + x340 <= 1
C1432: + x273 + x427 <= 1
C1433: + x188 + x218 <= 1
C1434: + x5 + x421 <= 1
C1435: + x387 + x447 <= 1
C1436: + x63 + x190 <= 1
C1437: + x174 + x284 <= 1
C1438: + x3 + x440 <= 1
C1439: + x18 + x493 <= 1
C1440: + x41 + x465 <= 1
C1441: + x44 + x391 <= 1
C1442: + x24 + x250 <= 1
C1443: + x35 + x123 <= 1
C1444: + x92 + x120 <= 1
C1445: + x19 + x225 <= 1
C1446: + x68 + x269 <= 1
C1447: + x15 + x436 <= 1
C1448: + x67 + x245 <= 1
C1449: + x91 + x134 <= 1
C1450: + x19 + x423 <= 1
C1451: + x1 + x166 <= 1
C1452: + x13 + x254 <= 1
C1453: + x15 + x291 <= 1
C1454: + x119 + x129 <= 1
C1455: + x11 + x266 <= 1
C1456: + x303 + x460 <= 1
C1457: + x4 + x387 <= 1
C1458: + x226 + x279 <= 1
C1459: + x128 + x339 <= 1
C1460: + x174 + x388 <= 1
C1461: + x265 + x418 <= 1
C1462: + x93 + x337 <= 1
C1463: + x238 + x271 <= 1
C1464: + x130 + x142 <= 1
C1465: + x77 + x200 <= 1
C1466: + x21 + x288 <= 1
C1467: + x5 + x178 <= 1
C1468: + x82 + x149 <= 1
C1469: + x3 + x238 <= 1
C1470: + x31 + x224 <= 1
C1471: + x25 + x259 <= 1
C1472: + x9 + x18 <= 1
C1473: + x62 + x335 <= 1
C1474: + x19 + x494 <= 1
C1475: + x136 + x182 <= 1
C1476: + x2 + x23 <= 1
C1477: + x5 + x230 <= 1
C1478: + x153 + x348 <= 1
C1479: + x15 + x282 <= 1
C1480: + x36 + x98 <= 1
C1481: + x4 + x9 <= 1
C1482: + x277 + x382 <= 1
C1483: + x6 + x496 <= 1
C1484: + x18 + x119 <= 1
C1485: + x49 + x314 <= 1
C1486: + x204 + x336 <= 1
C1487: + x216 + x377 <= 1
C1488: + x2 + x35 <= 1
C1489: + x21 + x184 <= 1
C1490: + x4 + x154 <= 1
C1491: + x197 + x362 <= 1
C1492: + x10 + x163 <= 1
C1493: + x256 + x436 <= 1
C1494: + x38 + x205 <= 1
C1495: + x30 + x64 <= 1
C1496: + x79 + x263 <= 1
C1497: + x63 + x221 <= 1
C1498: + x238 + x264 <= 1
C1499: + x3 + x68 <= 1
C1500: + x34 + x392 <= 1
C1501: + x6 + x55 <= 1
C1502: + x28 + x74 <= 1
C1503: + x165 + x194 <= 1
C1504: + x76 + x84 <= 1
C1505: + x2 + x255 <= 1
C1506: + x4 + x70 <= 1
C1507: + x40 + x170 <= 1
C1508: + x280 + x430 <= 1
C1509: + x32 + x300 <= 1
C1510: + x21 + x89 <= 1
C1511: + x112 + x469 <= 1
C1512: + x6 + x72 <= 1
C1513: + x146 + x162 <= 1
C1514: + x83 + x165 <= 1
C1515: + x25 + x441 <= 1
C1516: + x80 + x104 <= 1
C1517: + x1 + x5 <= 1
C1518: + x72 + x274 <= 1
C1519: + x21 + x208 <= 1
C1520: + x142 + x321 <= 1
C1521: + x24 + x83 <= 1
C1522: + x27 + x179 <= 1
C1523: + x93 + x275 <= 1
C1524: + x166 + x485 <= 1
C1525: + x3 + x7 <= 1
C1526: + x204 + x325 <= 1
C1527: + x6 + x12 <= 1
C1528: + x81 + x197 <= 1
C1529: + x101 + x371 <= 1
C1530: + x5 + x17 <= 1
C1531: + x15 + x301 <= 1
C1532: + x121 + x238 <= 1
C1533: + x113 + x187 <= 1
C1534: + x77 + x460 <= 1
C1535: + x187 + x203 <= 1
C1536: + x17 + x20 <= 1
C1537: + x36 + x306 <= 1
C1538: + x49 + x365 <= 1
C1539: + x12 + x369 <= 1
C1540: + x32 + x39 <= 1
C1541: + x142 + x152 <= 1
C1542: + x91 + x220 <= 1
C1543: + x2 + x248 <= 1
C1544: + x103 + x204 <= 1
C1545: + x5 + x69 <= 1
C1546: + x52 + x402 <= 1
C1547: + x18 + x53 <= 1
C1548: + x1 + x109 <= 1
C1549: + x131 + x183 <= 1
C1550: + x51 + x212 <= 1
C1551: + x42 + x191 <= 1
C1552: + x35 + x378 <= 1
C1553: + x4 + x445 <= 1
C1554: + x81 + x144 <= 1
C1555: + x26 + x405 <= 1
C1556: + x86 + x243 <= 1
C1557: + x60 + x356 <= 1
C1558: + x48 + x497 <= 1
C1559: + x279 + x415 <= 1
C1560: + x15 + x183 <= 1
C1561: + x254 + x370 <= 1
C1562: + x2 + x132 <= 1
C1563: + x13 + x28 <= 1
C1564: + x51 + x282 <= 1
C1565: + x15 + x389 <= 1
C1566: + x65 + x121 <= 1
C1567: + x75 + x404 <= 1
C1568: + x241 + x419 <= 1
C1569: + x420 + x447 <= 1
C1570: + x63 + x131 <= 1
C1571: + x78 + x135 <= 1
C1572: + x157 + x407 <= 1
C1573: + x33 + x82 <= 1
C1574: + x26 + x142 + x478 <= 1
C1575: + x74 + x255 <= 1
C1576: + x93 + x252 <= 1
C1577: + x30 + x367 <= 1
C1578: + x4 + x136 <= 1
C1579: + x434 + x497 <= 1
C1580: + x381 + x391 <= 1
C1581: + x4 + x35 <= 1
C1582: + x277 + x344 <= 1
C1583: + x3 + x489 <= 1
C1584: + x38 + x493 <= 1
C1585: + x259 + x460 <= 1
C1586: + x150 + x222 <= 1
C1587: + x309 + x331 <= 1
C1588: + x129 + x396 <= 1
C1589: + x12 + x213 <= 1
C1590: + x18 + x46 <= 1
C1591: + x12 + x52 <= 1
C1592: + x41 + x219 <= 1
C1593: + x5 + x318 <= 1
C1594: + x8 + x342 <= 1
C1595: + x156 + x373 <= 1
C1596: + x129 + x315 <= 1
C1597: + x119 + x451 <= 1
C1598: + x376 + x466 <= 1
C1599: + x43 + x465 <= 1
C1600: + x90 + x249 <= 1
C1601: + x18 + x364 <= 1
C1602: + x83 + x389 <= 1
C1603: + x202 + x381 <= 1
C1604: + x223 + x317 <= 1
C1605: + x9 + x115 <= 1
C1606: + x8 + x491 <= 1
C1607: + x4 + x338 <= 1
C1608: + x1 + x130 <= 1
C1609: + x3 + x190 <= 1
C1610: + x105 + x313 <= 1
C1611: + x195 + x423 <= 1
C1612: + x5 + x7 <= 1
C1613: + x6 + x145 <= 1
C1614: + x26 + x192 <= 1
C1615: + x9 + x194 <= 1
C1616: + x6 + x364 <= 1
C1617: + x46 + x197 <= 1
C1618: + x298 + x496 <= 1
C1619: + x199 + x341 <= 1
C1620: + x3 + x484 <= 1
C1621: + x140 + x239 <= 1
C1622: + x13 + x369 <= 1
C1623: + x376 + x411 <= 1
C1624: + x39 + x79 <= 1
C1625: + x5 + x75 <= 1
C1626: + x9 + x14 <= 1
C1627: + x8 + x48 <= 1
C1628: + x158 + x479 <= 1
C1629: + x106 + x489 <= 1
C1630: + x89 + x305 <= 1
C1631: + x22 + x285 <= 1
C1632: + x155 + x330 <= 1
C1633: + x11 + x16 <= 1
C1634: + x12 + x347 <= 1
C1635: + x89 + x206 <= 1
C1636: + x26 + x258 <= 1
C1637: + x10 + x19 <= 1
C1638: + x55 + x349 <= 1
C1639: + x71 + x276 <= 1
C1640: + x72 + x164 <= 1
C1641: + x134 + x287 <= 1
C1642: + x3 + x20 <= 1
C1643: + x13 + x316 <= 1
C1644: + x6 + x103 <= 1
C1645: + x10 + x100 <= 1
C1646: + x1 + x153 <= 1
C1647: + x3 + x181 <= 1
C1648: + x106 + x184 <= 1
C1649: + x5 + x14 <= 1
C1650: + x90 + x142 <= 1
C1651: + x74 + x415 <= 1
C1652: + x121 + x259 <= 1
C1653: + x69 + x406 <= 1
C1654: + x106 + x422 <= 1
C1655: + x179 + x342 <= 1
C1656: + x83 + x85 <= 1
C1657: + x185 + x394 <= 1
C1658: + x4 + x259 <= 1
C1659: + x36 + x64 + x91 <= 1
C1660: + x15 + x128 <= 1
C1661: + x103 + x253 <= 1
C1662: + x105 + x236 <= 1
C1663: + x22 + x24 <= 1
C1664: + x5 + x50 <= 1
C1665: + x25 + x358 <= 1
C1666: + x25 + x120 <= 1
C1667: + x2 + x385 <= 1
C1668: + x84 + x363 <= 1
C1669: + x120 + x455 <= 1
C1670: + x3 + x285 <= 1
C1671: + x21 + x228 <= 1
C1672: + x94 + x350 <= 1
C1673: + x81 + x260 <= 1
C1674: + x16 + x22 <= 1
C1675: + x103 + x406 <= 1
C1676: + x150 + x293 <= 1
C1677: + x8 + x203 <= 1
C1678: + x2 + x8 <= 1
C1679: + x67 + x80 <= 1
C1680: + x5 + x245 <= 1
C1681: + x53 + x466 <= 1
C1682: + x24 + x313 <= 1
C1683: + x24 + x232 <= 1
C1684: + x45 + x100 <= 1
C1685: + x135 + x303 <= 1
C1686: + x8 + x106 <= 1
C1687: + x4 + x26 <= 1
C1688: + x61 + x95 <= 1
C1689: + x102 + x498 <= 1
C1690: + x6 + x20 <= 1
C1691: + x151 + x239 <= 1
C1692: + x63 + x93 <= 1
C1693: + x201 + x468 <= 1
C1694: + x3 + x196 <= 1
C1695: + x433 + x464 <= 1
C1696: + x5 + x57 <= 1
C1697: + x183 + x473 <= 1
C1698: + x249 + x435 <= 1
C1699: + x49 + x325 <= 1
C1700: + x73 + x182 <= 1
C1701: + x7 + x289 <= 1
C1702: + x10 + x29 <= 1
C1703: + x19 + x50 <= 1
C1704: + x23 + x211 <= 1
C1705: + x188 + x274 <= 1
C1706: + x26 + x226 <= 1
C1707: + x226 + x394 <= 1
C1708: + x41 + x252 <= 1
C1709: + x4 + x228 <= 1
C1710: + x23 + x78 <= 1
C1711: + x5 + x244 <= 1
C1712: + x91 + x321 <= 1
C1713: + x93 + x125 <= 1
C1714: + x111 + x211 <= 1
C1715: + x25 + x186 <= 1
C1716: + x43 + x240 <= 1
C1717: + x21 + x457 <= 1
C1718: + x33 + x74 <= 1
C1719: + x5 + x131 <= 1
C1720: + x102 + x233 <= 1
C1721: + x3 + x219 <= 1
C1722: + x149 + x302 <= 1
C1723: + x5 + x40 <= 1
C1724: + x6 + x192 <= 1
C1725: + x148 + x273 <= 1
C1726: + x48 + x132 <= 1
C1727: + x186 + x198 <= 1
C1728: + x6 + x430 <= 1
C1729: + x75 + x304 <= 1
C1730: + x229 + x315 <= 1
C1731: + x12 + x25 + x40 <= 1
C1732: + x117 + x340 <= 1
C1733: + x18 + x155 <= 1
C1734: + x447 + x467 <= 1
C1735: + x12 + x173 <= 1
C1736: + x303 + x312 <= 1
C1737: + x380 + x471 <= 1
C1738: + x166 + x216 <= 1
C1739: + x21 + x242 <= 1
C1740: + x18 + x70 <= 1
C1741: + x43 + x163 <= 1
C1742: + x21 + x87 <= 1
C1743: + x271 + x378 <= 1
C1744: + x1 + x313 <= 1
C1745: + x113 + x376 <= 1
C1746: + x421 + x433 <= 1
C1747: + x4 + x233 <= 1
C1748: + x53 + x424 <= 1
C1749: + x8 + x96 <= 1
C1750: + x20 + x41 <= 1
C1751: + x74 + x208 <= 1
C1752: + x63 + x79 <= 1
C1753: + x37 + x403 <= 1
C1754: + x149 + x309 <= 1
C1755: + x68 + x386 <= 1
C1756: + x27 + x224 <= 1
C1757: + x141 + x479 <= 1
C1758: + x48 + x411 <= 1
C1759: + x178 + x400 <= 1
C1760: + x206 + x407 <= 1
C1761: + x6 + x202 <= 1
C1762: + x155 + x188 <= 1
C1763: + x76 + x95 <= 1
C1764: + x221 + x492 <= 1
C1765: + x22 + x247 <= 1
C1766: + x21 + x94 <= 1
C1767: + x131 + x376 <= 1
C1768: + x16 + x392 <= 1
C1769: + x138 + x288 <= 1
C1770: + x140 + x179 <= 1
C1771: + x24 + x328 <= 1
C1772: + x297 + x462 <= 1
C1773: + x5 + x468 <= 1
C1774: + x227 + x352 <= 1
C1775: + x19 + x377 <= 1
C1776: + x3 + x12 <= 1
C1777: + x60 + x199 <= 1
C1778: + x5 + x369 <= 1
C1779: + x88 + x245 <= 1
C1780: + x6 + x15 <= 1
C1781: + x347 + x454 <= 1
C1782: + x8 + x287 <= 1
C1783: + x75 + x156 <= 1
C1784: + x220 + x293 <= 1
C1785: + x64 + x281 <= 1
C1786: + x40 + x114 <= 1
C1787: + x5 + x22 <= 1
C1788: + x153 + x183 <= 1
C1789: + x24 + x199 <= 1
C1790: + x48 + x51 <= 1
C1791: + x35 + x167 <= 1
C1792: + x73 + x78 <= 1
C1793: + x28 + x380 <= 1
C1794: + x15 + x104 <= 1
C1795: + x18 + x322 <= 1
C1796: + x1 + x205 <= 1
C1797: + x143 + x303 <= 1
C1798: + x27 + x235 <= 1
C1799: + x10 + x147 <= 1
C1800: + x3 + x390 <= 1
C1801: + x189 + x220 <= 1
C1802: + x48 + x273 <= 1
C1803: + x6 + x68 <= 1
C1804: + x26 + x408 <= 1
C1805: + x93 + x165 <= 1
C1806: + x384 + x425 <= 1
C1807: + x24 + x349 <= 1
C1808: + x352 + x357 <= 1
C1809: + x1 + x25 <= 1
C1810: + x21 + x204 <= 1
C1811: + x24 + x111 <= 1
C1812: + x11 + x341 <= 1
C1813: + x25 + x44 <= 1
C1814: + x15 + x35 <= 1
C1815: + x137 + x272 <= 1
C1816: + x265 + x453 <= 1
C1817: + x5 + x29 <= 1
C1818: + x35 + x93 <= 1
C1819: + x94 + x266 <= 1
C1820: + x4 + x34 <= 1
C1821: + x314 + x455 <= 1
C1822: + x25 + x91 <= 1
C1823: + x181 + x385 <= 1
C1824: + x24 + x386 <= 1
C1825: + x71 + x124 <= 1
C1826: + x275 + x428 <= 1
C1827: + x252 + x417 <= 1
C1828: + x40 + x333 <= 1
C1829: + x6 + x77 <= 1
C1830: + x8 + x345 <= 1
C1831: + x318 + x363 <= 1
C1832: + x75 + x218 <= 1
C1833: + x17 + x353 <= 1
C1834: + x6 + x240 <= 1
C1835: + x218 + x482 <= 1
C1836: + x45 + x63 <= 1
C1837: + x41 + x103 <= 1
C1838: + x380 + x458 <= 1
C1839: + x25 + x150 <= 1
C1840: + x16 + x59 <= 1
C1841: + x135 + x175 <= 1
C1842: + x174 + x311 <= 1
C1843: + x1 + x445 <= 1
C1844: + x12 + x434 <= 1
C1845: + x15 + x38 <= 1
C1846: + x160 + x179 <= 1
C1847: + x142 + x217 <= 1
C1848: + x406 + x449 <= 1
C1849: + x7 + x135 <= 1
C1850: + x58 + x84 <= 1
C1851: + x3 + x191 <= 1
C1852: + x4 + x140 <= 1
C1853: + x23 + x166 <= 1
C1854: + x208 + x410 <= 1
C1855: + x140 + x157 <= 1
C1856: + x67 + x388 <= 1
C1857: + x51 + x330 <= 1
C1858: + x295 + x398 <= 1
C1859: + x14 + x287 <= 1
C1860: + x32 + x373 <= 1
C1861: + x83 + x95 <= 1
C1862: + x41 + x389 <= 1
C1863: + x335 + x363 <= 1
C1864: + x36 + x410 <= 1
C1865: + x83 + x333 <= 1
C1866: + x39 + x76 <= 1
C1867: + x104 + x156 <= 1
C1868: + x38 + x47 <= 1
C1869: + x3 + x408 <= 1
C1870: + x77 + x128 <= 1
C1871: + x49 + x162 <= 1
C1872: + x103 + x420 <= 1
C1873: + x90 + x418 <= 1
C1874: + x247 + x253 <= 1
C1875: + x216 + x403 <= 1
C1876: + x9 + x154 <= 1
C1877: + x5 + x116 <= 1
C1878: + x6 + x455 <= 1
C1879: + x85 + x450 <= 1
C1880: + x69 + x209 <= 1
C1881: + x42 + x88 <= 1
C1882: + x1 + x134 <= 1
C1883: + x2 + x10 <= 1
C1884: + x8 + x209 <= 1
C1885: + x135 + x408 <= 1
C1886: + x90 + x137 <= 1
C1887: + x1 + x464 <= 1
C1888: + x3 + x41 <= 1
C1889: + x21 + x320 <= 1
C1890: + x34 + x431 <= 1
C1891: + x81 + x227 <= 1
C1892: + x15 + x121 <= 1
C1893: + x10 + x43 <= 1
C1894: + x1 + x210 <= 1
C1895: + x103 + x250 <= 1
C1896: + x5 + x55 <= 1
C1897: + x63 + x325 <= 1
C1898: + x11 + x286 <= 1
C1899: + x12 + x500 <= 1
C1900: + x1 + x284 <= 1
C1901: + x84 + x157 <= 1
C1902: + x21 + x260 <= 1
C1903: + x100 + x267 <= 1
C1904: + x21 + x225 <= 1
C1905: + x4 + x105 <= 1
C1906: + x51 + x54 <= 1
C1907: + x33 + x100 <= 1
C1908: + x35 + x348 <= 1
C1909: + x124 + x419 <= 1
C1910: + x347 + x474 <= 1
C1911: + x19 + x75 <= 1
C1912: + x6 + x99 <= 1
C1913: + x257 + x311 <= 1
C1914: + x8 + x202 <= 1
C1915: + x13 + x149 <= 1
C1916: + x307 + x442 <= 1
C1917: + x28 + x185 <= 1
C1918: + x194 + x209 <= 1
C1919: + x85 + x320 <= 1
C1920: + x42 + x279 <= 1
C1921: + x33 + x211 <= 1
C1922: + x34 + x197 <= 1
C1923: + x39 + x281 <= 1
C1924: + x184 + x432 <= 1
C1925: + x61 + x289 <= 1
C1926: + x6 + x23 <= 1
C1927: + x69 + x132 <= 1
C1928: + x18 + x302 <= 1
C1929: + x92 + x234 <= 1
C1930: + x113 + x307 <= 1
C1931: + x77 + x324 <= 1
C1932: + x31 + x39 <= 1
C1933: + x32 + x189 <= 1
C1934: + x5 + x62 <= 1
C1935: + x25 + x362 <= 1
C1936: + x190 + x232 <= 1
C1937: + x30 + x84 <= 1
C1938: + x33 + x175 <= 1
C1939: + x6 + x424 <= 1
C1940: + x337 + x446 <= 1
C1941: + x1 + x275 <= 1
C1942: + x274 + x416 <= 1
C1943: + x95 + x189 <= 1
C1944: + x9 + x371 <= 1
C1945: + x214 + x296 <= 1
C1946: + x23 + x224 <= 1
C1947: + x106 + x258 <= 1
C1948: + x74 + x297 <= 1
C1949: + x189 + x374 <= 1
C1950: + x19 + x231 <= 1
C1951: + x20 + x196 <= 1
C1952: + x21 + x52 <= 1
C1953: + x297 + x477 <= 1
C1954: + x169 + x402 <= 1
C1955: + x24 + x71 <= 1

binary
x1 x2 x3 x4 x5 x6 x7 x8 x9 x10 x11 x12 x13 x14 x15 x16 x17 x18 x19 x20 x21 x22 x23 x24 x25 x26 x27 x28 x29 x30 x31 x32 x33 x34 x35 x36 x37 x38 x39 x40 x41 x42 x43 x44 x45 x46 x47 x48 x49 x50 x51 x52 x53 x54 x55 x56 x57 x58 x59 x60 x61 x62 x63 x64 x65 x66 x67 x68 x69 x70 x71 x72 x73 x74 x75 x76 x77 x78 x79 x80 x81 x82 x83 x84 x85 x86 x87 x88 x89 x90 x91 x92 x93 x94 x95 x96 x97 x98 x99 x100 x101 x102 x103 x104 x105 x106 x107 x108 x109 x110 x111 x112 x113 x114 x115 x116 x117 x118 x119 x120 x121 x122 x123 x124 x125 x126 x127 x128 x129 x130 x131 x132 x133 x134 x135 x136 x137 x138 x139 x140 x141 x142 x143 x144 x145 x146 x147 x148 x149 x150 x151 x152 x153 x154 x155 x156 x157 x158 x159 x160 x161 x162 x163 x164 x165 x166 x167 x168 x169 x170 x171 x172 x173 x174 x175 x176 x177 x178 x179 x180 x181 x182 x183 x184 x185 x186 x187 x188 x189 x190 x191 x192 x193 x194 x195 x196 x197 x198 x199 x200 x201 x202 x203 x204 x205 x206 x207 x208 x209 x210 x211 x212 x213 x214 x215 x216 x217 x218 x219 x220 x221 x222 x223 x224 x225 x226 x227 x228 x229 x230 x231 x232 x233 x234 x235 x236 x237 x238 x239 x240 x241 x242 x243 x244 x245 x246 x247 x248 x249 x250 x251 x252 x253 x254 x255 x256 x257 x258 x259 x260 x261 x262 x263 x264 x265 x266 x267 x268 x269 x270 x271 x272 x273 x274 x275 x276 x277 x278 x279 x280 x281 x282 x283 x284 x285 x286 x287 x288 x289 x290 x291 x292 x293 x294 x295 x296 x297 x298 x299 x300 x301 x302 x303 x304 x305 x306 x307 x308 x309 x310 x311 x312 x313 x314 x315 x316 x317 x318 x319 x320 x321 x322 x323 x324 x325 x326 x327 x328 x329 x330 x331 x332 x333 x334 x335 x336 x337 x338 x339 x340 x341 x342 x343 x344 x345 x346 x347 x348 x349 x350 x351 x352 x353 x354 x355 x356 x357 x358 x359 x360 x361 x362 x363 x364 x365 x366 x367 x368 x369 x370 x371 x372 x373 x374 x375 x376 x377 x378 x379 x380 x381 x382 x383 x384 x385 x386 x387 x388 x389 x390 x391 x392 x393 x394 x395 x396 x397 x398 x399 x400 x401 x402 x403 x404 x405 x406 x407 x408 x409 x410 x411 x412 x413 x414 x415 x416 x417 x418 x419 x420 x421 x422 x423 x424 x425 x426 x427 x428 x429 x430 x431 x432 x433 x434 x435 x436 x437 x438 x439 x440 x441 x442 x443 x444 x445 x446 x447 x448 x449 x450 x451 x452 x453 x454 x455 x456 x457 x458 x459 x460 x461 x462 x463 x464 x465 x466 x467 x468 x469 x470 x471 x472 x473 x474 x475 x476 x477 x478 x479 x480 x481 x482 x483 x484 x485 x486 x487 x488 x489 x490 x491 x492 x493 x494 x495 x496 x497 x498 x499 x500
