maximize
OBJ: + 1 x1 + 1 x2 + 1 x3 + 1 x4 + 1 x5 + 1 x6 + 1 x7 + 1 x8 + 1 x9 + 1 x10 + 1 x11 + 1 x12 + 1 x13 + 1 x14 + 1 x15 + 1 x16 + 1 x17 + 1 x18 + 1 x19 + 1 x20 + 1 x21 + 1 x22 + 1 x23 + 1 x24 + 1 x25 + 1 x26 + 1 x27 + 1 x28 + 1 x29 + 1 x30 + 1 x31 + 1 x32 + 1 x33 + 1 x34 + 1 x35 + 1 x36 + 1 x37 + 1 x38 + 1 x39 + 1 x40 + 1 x41 + 1 x42 + 1 x43 + 1 x44 + 1 x45 + 1 x46 + 1 x47 + 1 x48 + 1 x49 + 1 x50 + 1 x51 + 1 x52 + 1 x53 + 1 x54 + 1 x55 + 1 x56 + 1 x57 + 1 x58 + 1 x59 + 1 x60 + 1 x61 + 1 x62 + 1 x63 + 1 x64 + 1 x65 + 1 x66 + 1 x67 + 1 x68 + 1 x69 + 1 x70 + 1 x71 + 1 x72 + 1 x73 + 1 x74 + 1 x75 + 1 x76 + 1 x77 + 1 x78 + 1 x79 + 1 x80 + 1 x81 + 1 x82 + 1 x83 + 1 x84 + 1 x85 + 1 x86 + 1 x87 + 1 x88 + 1 x89 + 1 x90 + 1 x91 + 1 x92 + 1 x93 + 1 x94 + 1 x95 + 1 x96 + 1 x97 + 1 x98 + 1 x99 + 1 x100 + 1 x101 + 1 x102 + 1 x103 + 1 x104 + 1 x105 + 1 x106 + 1 x107 + 1 x108 + 1 x109 + 1 x110 + 1 x111 + 1 x112 + 1 x113 + 1 x114 + 1 x115 + 1 x116 + 1 x117 + 1 x118 + 1 x119 + 1 x120 + 1 x121 + 1 x122 + 1 x123 + 1 x124 + 1 x125 + 1 x126 + 1 x127 + 1 x128 + 1 x129 + 1 x130 + 1 x131 + 1 x132 + 1 x133 + 1 x134 + 1 x135 + 1 x136 + 1 x137 + 1 x138 + 1 x139 + 1 x140 + 1 x141 + 1 x142 + 1 x143 + 1 x144 + 1 x145 + 1 x146 + 1 x147 + 1 x148 + 1 x149 + 1 x150 + 1 x151 + 1 x152 + 1 x153 + 1 x154 + 1 x155 + 1 x156 + 1 x157 + 1 x158 + 1 x159 + 1 x160 + 1 x161 + 1 x162 + 1 x163 + 1 x164 + 1 x165 + 1 x166 + 1 x167 + 1 x168 + 1 x169 + 1 x170 + 1 x171 + 1 x172 + 1 x173 + 1 x174 + 1 x175 + 1 x176 + 1 x177 + 1 x178 + 1 x179 + 1 x180 + 1 x181 + 1 x182 + 1 x183 + 1 x184 + 1 x185 + 1 x186 + 1 x187 + 1 x188 + 1 x189 + 1 x190 + 1 x191 + 1 x192 + 1 x193 + 1 x194 + 1 x195 + 1 x196 + 1 x197 + 1 x198 + 1 x199 + 1 x200 + 1 x201 + 1 x202 + 1 x203 + 1 x204 + 1 x205 + 1 x206 + 1 x207 + 1 x208 + 1 x209 + 1 x210 + 1 x211 + 1 x212 + 1 x213 + 1 x214 + 1 x215 + 1 x216 + 1 x217 + 1 x218 + 1 x219 + 1 x220 + 1 x221 + 1 x222 + 1 x223 + 1 x224 + 1 x225 + 1 x226 + 1 x227 + 1 x228 + 1 x229 + 1 x230 + 1 x231 + 1 x232 + 1 x233 + 1 x234 + 1 x235 + 1 x236 + 1 x237 + 1 x238 + 1 x239 + 1 x240 + 1 x241 + 1 x242 + 1 x243 + 1 x244 + 1 x245 + 1 x246 + 1 x247 + 1 x248 + 1 x249 + 1 x250 + 1 x251 + 1 x252 + 1 x253 + 1 x254 + 1 x255 + 1 x256 + 1 x257 + 1 x258 + 1 x259 + 1 x260 + 1 x261 + 1 x262 + 1 x263 + 1 x264 + 1 x265 + 1 x266 + 1 x267 + 1 x268 + 1 x269 + 1 x270 + 1 x271 + 1 x272 + 1 x273 + 1 x274 + 1 x275 + 1 x276 + 1 x277 + 1 x278 + 1 x279 + 1 x280 + 1 x281 + 1 x282 + 1 x283 + 1 x284 + 1 x285 + 1 x286 + 1 x287 + 1 x288 + 1 x289 + 1 x290 + 1 x291 + 1 x292 + 1 x293 + 1 x294 + 1 x295 + 1 x296 + 1 x297 + 1 x298 + 1 x299 + 1 x300 + 1 x301 + 1 x302 + 1 x303 + 1 x304 + 1 x305 + 1 x306 + 1 x307 + 1 x308 + 1 x309 + 1 x310 + 1 x311 + 1 x312 + 1 x313 + 1 x314 + 1 x315 + 1 x316 + 1 x317 + 1 x318 + 1 x319 + 1 x320 + 1 x321 + 1 x322 + 1 x323 + 1 x324 + 1 x325 + 1 x326 + 1 x327 + 1 x328 + 1 x329 + 1 x330 + 1 x331 + 1 x332 + 1 x333 + 1 x334 + 1 x335 + 1 x336 + 1 x337 + 1 x338 + 1 x339 + 1 x340 + 1 x341 + 1 x342 + 1 x343 + 1 x344 + 1 x345 + 1 x346 + 1 x347 + 1 x348 + 1 x349 + 1 x350 + 1 x351 + 1 x352 + 1 x353 + 1 x354 + 1 x355 + 1 x356 + 1 x357 + 1 x358 + 1 x359 + 1 x360 + 1 x361 + 1 x362 + 1 x363 + 1 x364 + 1 x365 + 1 x366 + 1 x367 + 1 x368 + 1 x369 + 1 x370 + 1 x371 + 1 x372 + 1 x373 + 1 x374 + 1 x375 + 1 x376 + 1 x377 + 1 x378 + 1 x379 + 1 x380 + 1 x381 + 1 x382 + 1 x383 + 1 x384 + 1 x385 + 1 x386 + 1 x387 + 1 x388 + 1 x389 + 1 x390 + 1 x391 + 1 x392 + 1 x393 + 1 x394 + 1 x395 + 1 x396 + 1 x397 + 1 x398 + 1 x399 + 1 x400 + 1 x401 + 1 x402 + 1 x403 + 1 x404 + 1 x405 + 1 x406 + 1 x407 + 1 x408 + 1 x409 + 1 x410 + 1 x411 + 1 x412 + 1 x413 + 1 x414 + 1 x415 + 1 x416 + 1 x417 + 1 x418 + 1 x419 + 1 x420 + 1 x421 + 1 x422 + 1 x423 + 1 x424 + 1 x425 + 1 x426 + 1 x427 + 1 x428 + 1 x429 + 1 x430 + 1 x431 + 1 x432 + 1 x433 + 1 x434 + 1 x435 + 1 x436 + 1 x437 + 1 x438 + 1 x439 + 1 x440 + 1 x441 + 1 x442 + 1 x443 + 1 x444 + 1 x445 + 1 x446 + 1 x447 + 1 x448 + 1 x449 + 1 x450 + 1 x451 + 1 x452 + 1 x453 + 1 x454 + 1 x455 + 1 x456 + 1 x457 + 1 x458 + 1 x459 + 1 x460 + 1 x461 + 1 x462 + 1 x463 + 1 x464 + 1 x465 + 1 x466 + 1 x467 + 1 x468 + 1 x469 + 1 x470 + 1 x471 + 1 x472 + 1 x473 + 1 x474 + 1 x475 + 1 x476 + 1 x477 + 1 x478 + 1 x479 + 1 x480 + 1 x481 + 1 x482 + 1 x483 + 1 x484 + 1 x485 + 1 x486 + 1 x487 + 1 x488 + 1 x489 + 1 x490 + 1 x491 + 1 x492 + 1 x493 + 1 x494 + 1 x495 + 1 x496 + 1 x497 + 1 x498 + 1 x499 + 1 x500

subject to
C1: + x69 + x139 <= 1
C2: + x259 + x465 <= 1
C3: + x20 + x305 <= 1
C4: + x264 + x269 <= 1
C5: + x68 + x408 <= 1
C6: + x5 + x37 <= 1
C7: + x96 + x102 <= 1
C8: + x104 + x135 <= 1
C9: + x80 + x267 <= 1
C10: + x15 + x232 <= 1
C11: + x51 + x244 <= 1
C12: + x7 + x55 <= 1
C13: + x28 + x361 <= 1
C14: + x2 + x414 <= 1
C15: + x138 + x294 <= 1
C16: + x178 + x402 <= 1
C17: + x31 + x441 <= 1
C18: + x100 + x208 <= 1
C19: + x229 + x413 <= 1
C20: + x41 + x67 <= 1
C21: + x14 + x335 <= 1
C22: + x15 + x357 <= 1
C23: + x243 + x464 <= 1
C24: + x69 + x206 <= 1
C25: + x13 + x294 <= 1
C26: + x151 + x170 <= 1
C27: + x134 + x176 <= 1
C28: + x91 + x127 <= 1
C29: + x87 + x130 <= 1
C30: + x6 + x323 <= 1
C31: + x18 + x210 <= 1
C32: + x93 + x121 <= 1
C33: + x70 + x107 <= 1
C34: + x226 + x346 <= 1
C35: + x80 + x355 <= 1
C36: + x63 + x239 <= 1
C37: + x10 + x304 <= 1
C38: + x72 + x194 <= 1
C39: + x357 + x400 <= 1
C40: + x293 + x307 <= 1
C41: + x5 + x143 <= 1
C42: + x24 + x419 <= 1
C43: + x7 + x159 <= 1
C44: + x11 + x86 <= 1
C45: + x43 + x290 <= 1
C46: + x32 + x163 <= 1
C47: + x290 + x318 <= 1
C48: + x85 + x274 <= 1
C49: + x113 + x142 <= 1
C50: + x105 + x464 <= 1
C51: + x4 + x390 <= 1
C52: + x61 + x166 <= 1
C53: + x199 + x362 <= 1
C54: + x54 + x176 <= 1
C55: + x93 + x338 <= 1
C56: + x147 + x205 <= 1
C57: + x233 + x237 <= 1
C58: + x105 + x365 <= 1
C59: + x6 + x205 <= 1
C60: + x8 + x168 <= 1
C61: + x92 + x180 <= 1
C62: + x42 + x350 <= 1
C63: + x16 + x104 <= 1
C64: + x164 + x423 <= 1
C65: + x46 + x148 <= 1
C66: + x139 + x312 <= 1
C67: + x104 + x414 <= 1
C68: + x8 + x362 <= 1
C69: + x66 + x342 <= 1
C70: + x103 + x170 <= 1
C71: + x220 + x280 <= 1
C72: + x292 + x368 <= 1
C73: + x217 + x371 <= 1
C74: + x180 + x222 <= 1
C75: + x36 + x97 <= 1
C76: + x82 + x267 <= 1
C77: + x292 + x459 <= 1
C78: + x320 + x326 <= 1
C79: + x130 + x263 <= 1
C80: + x7 + x146 <= 1
C81: + x10 + x436 <= 1
C82: + x284 + x471 <= 1
C83: + x39 + x111 <= 1
C84: + x99 + x222 <= 1
C85: + x90 + x177 <= 1
C86: + x45 + x130 <= 1
C87: + x10 + x162 <= 1
C88: + x227 + x308 <= 1
C89: + x36 + x173 <= 1
C90: + x21 + x22 <= 1
C91: + x13 + x91 <= 1
C92: + x252 + x314 <= 1
C93: + x17 + x30 <= 1
C94: + x5 + x261 <= 1
C95: + x26 + x71 <= 1
C96: + x57 + x133 <= 1
C97: + x5 + x186 <= 1
C98: + x7 + x206 <= 1
C99: + x1 + x202 <= 1
C100: + x16 + x109 <= 1
C101: + x66 + x89 <= 1
C102: + x29 + x69 <= 1
C103: + x6 + x71 <= 1
C104: + x7 + x93 <= 1
C105: + x58 + x122 <= 1
C106: + x13 + x185 <= 1
C107: + x207 + x493 <= 1
C108: + x7 + x250 <= 1
C109: + x1 + x6 <= 1
C110: + x309 + x394 <= 1
C111: + x140 + x278 <= 1
C112: + x13 + x427 <= 1
C113: + x88 + x302 <= 1
C114: + x11 + x426 <= 1
C115: + x27 + x469 <= 1
C116: + x10 + x80 <= 1
C117: + x11 + x72 <= 1
C118: + x29 + x363 <= 1
C119: + x149 + x320 <= 1
C120: + x28 + x209 <= 1
C121: + x12 + x66 <= 1
C122: + x68 + x298 <= 1
C123: + x53 + x201 <= 1
C124: + x16 + x453 <= 1
C125: + x118 + x391 <= 1
C126: + x28 + x384 <= 1
C127: + x9 + x434 <= 1
C128: + x48 + x432 <= 1
C129: + x26 + x491 <= 1
C130: + x27 + x409 <= 1
C131: + x134 + x453 <= 1
C132: + x8 + x150 <= 1
C133: + x145 + x332 <= 1
C134: + x203 + x389 <= 1
C135: + x281 + x369 <= 1
C136: + x66 + x82 <= 1
C137: + x240 + x418 <= 1
C138: + x13 + x467 <= 1
C139: + x15 + x27 <= 1
C140: + x58 + x131 <= 1
C141: + x77 + x171 <= 1
C142: + x9 + x347 <= 1
C143: + x27 + x429 <= 1
C144: + x92 + x94 <= 1
C145: + x58 + x478 <= 1
C146: + x106 + x399 <= 1
C147: + x14 + x302 <= 1
C148: + x17 + x96 <= 1
C149: + x16 + x58 <= 1
C150: + x10 + x323 <= 1
C151: + x336 + x437 <= 1
C152: + x8 + x493 <= 1
C153: + x13 + x418 <= 1
C154: + x33 + x83 <= 1
C155: + x13 + x263 <= 1
C156: + x23 + x454 <= 1
C157: + x116 + x495 <= 1
C158: + x137 + x308 <= 1
C159: + x64 + x270 <= 1
C160: + x39 + x409 <= 1
C161: + x140 + x156 <= 1
C162: + x5 + x25 <= 1
C163: + x69 + x260 <= 1
C164: + x70 + x412 <= 1
C165: + x88 + x109 <= 1
C166: + x15 + x196 <= 1
C167: + x11 + x292 <= 1
C168: + x248 + x456 <= 1
C169: + x1 + x41 <= 1
C170: + x2 + x351 <= 1
C171: + x4 + x38 <= 1
C172: + x87 + x373 <= 1
C173: + x107 + x457 <= 1
C174: + x58 + x192 <= 1
C175: + x47 + x319 <= 1
C176: + x181 + x290 <= 1
C177: + x11 + x179 <= 1
C178: + x368 + x391 <= 1
C179: + x27 + x242 <= 1
C180: + x140 + x435 <= 1
C181: + x39 + x379 <= 1
C182: + x159 + x377 <= 1
C183: + x118 + x468 <= 1
C184: + x20 + x394 <= 1
C185: + x9 + x322 <= 1
C186: + x172 + x256 <= 1
C187: + x1 + x20 <= 1
C188: + x292 + x482 <= 1
C189: + x28 + x147 <= 1
C190: + x21 + x223 <= 1
C191: + x13 + x20 <= 1
C192: + x380 + x462 <= 1
C193: + x27 + x134 <= 1
C194: + x119 + x371 <= 1
C195: + x48 + x362 <= 1
C196: + x106 + x275 <= 1
C197: + x70 + x226 <= 1
C198: + x164 + x357 <= 1
C199: + x171 + x223 <= 1
C200: + x194 + x219 <= 1
C201: + x31 + x355 <= 1
C202: + x150 + x387 <= 1
C203: + x26 + x90 <= 1
C204: + x19 + x283 <= 1
C205: + x63 + x247 <= 1
C206: + x156 + x305 <= 1
C207: + x29 + x35 <= 1
C208: + x39 + x483 <= 1
C209: + x225 + x230 <= 1
C210: + x97 + x358 <= 1
C211: + x34 + x426 <= 1
C212: + x114 + x143 <= 1
C213: + x26 + x203 <= 1
C214: + x191 + x194 <= 1
C215: + x21 + x119 <= 1
C216: + x62 + x181 <= 1
C217: + x137 + x161 <= 1
C218: + x174 + x411 <= 1
C219: + x130 + x165 <= 1
C220: + x4 + x201 <= 1
C221: + x24 + x367 <= 1
C222: + x91 + x255 <= 1
C223: + x7 + x312 <= 1
C224: + x28 + x108 <= 1
C225: + x114 + x251 <= 1
C226: + x115 + x201 <= 1
C227: + x25 + x300 <= 1
C228: + x5 + x437 <= 1
C229: + x140 + x313 <= 1
C230: + x9 + x123 <= 1
C231: + x7 + x465 <= 1
C232: + x33 + x351 <= 1
C233: + x14 + x352 <= 1
C234: + x203 + x224 <= 1
C235: + x70 + x235 <= 1
C236: + x1 + x154 <= 1
C237: + x107 + x208 + x289 <= 1
C238: + x1 + x39 <= 1
C239: + x48 + x169 <= 1
C240: + x50 + x375 <= 1
C241: + x42 + x229 <= 1
C242: + x206 + x212 <= 1
C243: + x22 + x337 <= 1
C244: + x398 + x490 <= 1
C245: + x182 + x269 <= 1
C246: + x212 + x268 <= 1
C247: + x172 + x363 <= 1
C248: + x1 + x353 <= 1
C249: + x92 + x149 <= 1
C250: + x212 + x487 <= 1
C251: + x285 + x497 <= 1
C252: + x34 + x177 <= 1
C253: + x8 + x40 <= 1
C254: + x131 + x344 <= 1
C255: + x68 + x329 <= 1
C256: + x16 + x488 <= 1
C257: + x31 + x435 <= 1
C258: + x61 + x378 <= 1
C259: + x9 + x336 <= 1
C260: + x262 + x425 <= 1
C261: + x107 + x165 <= 1
C262: + x125 + x287 <= 1
C263: + x36 + x225 <= 1
C264: + x65 + x79 <= 1
C265: + x11 + x334 <= 1
C266: + x4 + x351 <= 1
C267: + x236 + x248 <= 1
C268: + x9 + x479 <= 1
C269: + x2 + x7 <= 1
C270: + x68 + x103 <= 1
C271: + x126 + x378 <= 1
C272: + x15 + x266 <= 1
C273: + x218 + x388 <= 1
C274: + x4 + x496 <= 1
C275: + x70 + x101 <= 1
C276: + x15 + x427 <= 1
C277: + x25 + x180 <= 1
C278: + x1 + x475 <= 1
C279: + x27 + x348 <= 1
C280: + x20 + x30 <= 1
C281: + x9 + x430 <= 1
C282: + x173 + x463 <= 1
C283: + x70 + x264 <= 1
C284: + x9 + x267 <= 1
C285: + x145 + x227 <= 1
C286: + x1 + x173 <= 1
C287: + x64 + x493 <= 1
C288: + x1 + x74 <= 1
C289: + x119 + x140 <= 1
C290: + x48 + x134 <= 1
C291: + x51 + x245 <= 1
C292: + x98 + x469 <= 1
C293: + x119 + x469 <= 1
C294: + x64 + x70 + x272 <= 1
C295: + x6 + x199 <= 1
C296: + x56 + x88 <= 1
C297: + x25 + x314 <= 1
C298: + x9 + x105 <= 1
C299: + x36 + x234 <= 1
C300: + x60 + x256 <= 1
C301: + x7 + x112 <= 1
C302: + x155 + x365 <= 1
C303: + x8 + x195 <= 1
C304: + x300 + x327 <= 1
C305: + x6 + x139 <= 1
C306: + x15 + x273 <= 1
C307: + x45 + x92 <= 1
C308: + x63 + x271 <= 1
C309: + x62 + x425 <= 1
C310: + x143 + x355 <= 1
C311: + x12 + x99 <= 1
C312: + x26 + x45 <= 1
C313: + x27 + x163 <= 1
C314: + x92 + x401 <= 1
C315: + x79 + x366 <= 1
C316: + x64 + x252 <= 1
C317: + x15 + x79 <= 1
C318: + x8 + x247 <= 1
C319: + x257 + x350 <= 1
C320: + x17 + x135 <= 1
C321: + x45 + x144 <= 1
C322: + x111 + x288 <= 1
C323: + x78 + x111 <= 1
C324: + x5 + x275 <= 1
C325: + x17 + x36 <= 1
C326: + x9 + x385 <= 1
C327: + x200 + x377 <= 1
C328: + x2 + x402 <= 1
C329: + x11 + x58 <= 1
C330: + x56 + x266 <= 1
C331: + x14 + x93 <= 1
C332: + x15 + x155 <= 1
C333: + x150 + x197 <= 1
C334: + x9 + x382 <= 1
C335: + x7 + x281 <= 1
C336: + x28 + x127 <= 1
C337: + x65 + x320 <= 1
C338: + x27 + x396 <= 1
C339: + x104 + x119 <= 1
C340: + x52 + x117 <= 1
C341: + x44 + x52 <= 1
C342: + x216 + x299 <= 1
C343: + x367 + x488 <= 1
C344: + x14 + x17 <= 1
C345: + x44 + x65 <= 1
C346: + x117 + x222 <= 1
C347: + x128 + x183 <= 1
C348: + x13 + x108 <= 1
C349: + x31 + x134 <= 1
C350: + x87 + x428 <= 1
C351: + x4 + x7 <= 1
C352: + x413 + x486 <= 1
C353: + x14 + x98 <= 1
C354: + x49 + x485 <= 1
C355: + x126 + x352 <= 1
C356: + x44 + x125 <= 1
C357: + x10 + x189 <= 1
C358: + x67 + x440 <= 1
C359: + x31 + x178 <= 1
C360: + x109 + x492 <= 1
C361: + x390 + x444 <= 1
C362: + x290 + x419 <= 1
C363: + x10 + x14 <= 1
C364: + x42 + x322 <= 1
C365: + x52 + x77 + x394 <= 1
C366: + x188 + x214 <= 1
C367: + x34 + x152 <= 1
C368: + x252 + x406 <= 1
C369: + x37 + x165 <= 1
C370: + x34 + x115 <= 1
C371: + x7 + x90 <= 1
C372: + x335 + x386 <= 1
C373: + x147 + x308 <= 1
C374: + x419 + x461 <= 1
C375: + x5 + x227 <= 1
C376: + x27 + x423 <= 1
C377: + x218 + x407 <= 1
C378: + x121 + x288 <= 1
C379: + x248 + x442 <= 1
C380: + x31 + x141 <= 1
C381: + x25 + x137 <= 1
C382: + x26 + x63 <= 1
C383: + x98 + x292 <= 1
C384: + x10 + x341 <= 1
C385: + x130 + x283 <= 1
C386: + x6 + x14 <= 1
C387: + x100 + x383 <= 1
C388: + x431 + x432 <= 1
C389: + x32 + x152 <= 1
C390: + x27 + x40 <= 1
C391: + x242 + x399 <= 1
C392: + x4 + x60 <= 1
C393: + x205 + x279 <= 1
C394: + x182 + x309 <= 1
C395: + x37 + x490 <= 1
C396: + x49 + x363 <= 1
C397: + x6 + x50 <= 1
C398: + x127 + x426 <= 1
C399: + x27 + x87 <= 1
C400: + x25 + x196 <= 1
C401: + x9 + x30 <= 1
C402: + x1 + x107 <= 1
C403: + x68 + x168 <= 1
C404: + x39 + x333 <= 1
C405: + x16 + x400 <= 1
C406: + x74 + x141 <= 1
C407: + x7 + x81 <= 1
C408: + x214 + x432 <= 1
C409: + x25 + x446 <= 1
C410: + x189 + x287 <= 1
C411: + x1 + x26 <= 1
C412: + x236 + x353 <= 1
C413: + x9 + x74 <= 1
C414: + x14 + x404 <= 1
C415: + x65 + x132 <= 1
C416: + x1 + x324 <= 1
C417: + x20 + x332 <= 1
C418: + x25 + x330 <= 1
C419: + x90 + x190 <= 1
C420: + x44 + x424 <= 1
C421: + x143 + x491 <= 1
C422: + x27 + x47 <= 1
C423: + x19 + x22 + x36 <= 1
C424: + x223 + x356 <= 1
C425: + x2 + x485 <= 1
C426: + x50 + x118 <= 1
C427: + x12 + x376 <= 1
C428: + x13 + x384 <= 1
C429: + x108 + x117 <= 1
C430: + x73 + x211 <= 1
C431: + x27 + x82 <= 1
C432: + x1 + x5 + x8 <= 1
C433: + x8 + x53 <= 1
C434: + x10 + x155 <= 1
C435: + x29 + x96 <= 1
C436: + x300 + x433 <= 1
C437: + x19 + x184 <= 1
C438: + x354 + x376 <= 1
C439: + x208 + x341 <= 1
C440: + x200 + x412 <= 1
C441: + x328 + x359 <= 1
C442: + x257 + x494 <= 1
C443: + x87 + x175 <= 1
C444: + x216 + x405 <= 1
C445: + x27 + x102 <= 1
C446: + x63 + x299 <= 1
C447: + x295 + x471 <= 1
C448: + x168 + x492 <= 1
C449: + x319 + x473 <= 1
C450: + x131 + x200 <= 1
C451: + x24 + x454 <= 1
C452: + x15 + x43 <= 1
C453: + x39 + x413 <= 1
C454: + x7 + x374 <= 1
C455: + x7 + x23 <= 1
C456: + x72 + x221 <= 1
C457: + x29 + x40 <= 1
C458: + x95 + x136 <= 1
C459: + x149 + x178 <= 1
C460: + x52 + x383 <= 1
C461: + x5 + x172 <= 1
C462: + x118 + x303 <= 1
C463: + x31 + x54 <= 1
C464: + x361 + x440 <= 1
C465: + x9 + x12 <= 1
C466: + x39 + x182 <= 1
C467: + x68 + x150 <= 1
C468: + x115 + x264 <= 1
C469: + x199 + x259 <= 1
C470: + x50 + x91 <= 1
C471: + x12 + x345 <= 1
C472: + x99 + x175 <= 1
C473: + x9 + x326 <= 1
C474: + x36 + x453 <= 1
C475: + x65 + x472 <= 1
C476: + x112 + x156 <= 1
C477: + x14 + x152 <= 1
C478: + x14 + x291 <= 1
C479: + x61 + x453 <= 1
C480: + x99 + x445 <= 1
C481: + x336 + x442 <= 1
C482: + x70 + x238 <= 1
C483: + x335 + x423 <= 1
C484: + x28 + x465 <= 1
C485: + x1 + x338 <= 1
C486: + x15 + x207 <= 1
C487: + x44 + x89 <= 1
C488: + x154 + x374 <= 1
C489: + x4 + x486 <= 1
C490: + x35 + x177 <= 1
C491: + x138 + x335 <= 1
C492: + x241 + x395 <= 1
C493: + x376 + x402 <= 1
C494: + x23 + x45 <= 1
C495: + x8 + x313 <= 1
C496: + x174 + x209 <= 1
C497: + x41 + x42 <= 1
C498: + x98 + x372 <= 1
C499: + x88 + x481 <= 1
C500: + x100 + x116 <= 1
C501: + x145 + x475 <= 1
C502: + x86 + x498 <= 1
C503: + x131 + x345 <= 1
C504: + x98 + x479 <= 1
C505: + x142 + x278 <= 1
C506: + x26 + x106 <= 1
C507: + x7 + x70 <= 1
C508: + x8 + x330 <= 1
C509: + x244 + x364 <= 1
C510: + x9 + x130 <= 1
C511: + x295 + x449 <= 1
C512: + x5 + x124 <= 1
C513: + x76 + x277 <= 1
C514: + x48 + x200 <= 1
C515: + x341 + x489 <= 1
C516: + x5 + x342 <= 1
C517: + x163 + x390 <= 1
C518: + x146 + x188 <= 1
C519: + x1 + x158 <= 1
C520: + x67 + x114 <= 1
C521: + x14 + x226 <= 1
C522: + x36 + x77 <= 1
C523: + x130 + x408 <= 1
C524: + x41 + x130 <= 1
C525: + x115 + x185 <= 1
C526: + x59 + x312 <= 1
C527: + x107 + x295 <= 1
C528: + x27 + x349 <= 1
C529: + x8 + x403 <= 1
C530: + x94 + x133 <= 1
C531: + x4 + x165 <= 1
C532: + x9 + x58 <= 1
C533: + x8 + x36 <= 1
C534: + x82 + x467 <= 1
C535: + x38 + x224 <= 1
C536: + x77 + x111 <= 1
C537: + x396 + x454 <= 1
C538: + x151 + x348 <= 1
C539: + x8 + x327 <= 1
C540: + x267 + x410 <= 1
C541: + x115 + x411 <= 1
C542: + x51 + x91 <= 1
C543: + x341 + x385 <= 1
C544: + x125 + x438 <= 1
C545: + x9 + x137 <= 1
C546: + x28 + x101 <= 1
C547: + x91 + x198 <= 1
C548: + x110 + x243 <= 1
C549: + x14 + x138 <= 1
C550: + x107 + x161 <= 1
C551: + x27 + x148 <= 1
C552: + x101 + x447 <= 1
C553: + x319 + x462 <= 1
C554: + x41 + x250 <= 1
C555: + x14 + x440 <= 1
C556: + x41 + x492 <= 1
C557: + x232 + x334 <= 1
C558: + x17 + x259 <= 1
C559: + x183 + x229 <= 1
C560: + x139 + x406 <= 1
C561: + x52 + x55 <= 1
C562: + x15 + x431 <= 1
C563: + x82 + x443 <= 1
C564: + x90 + x496 <= 1
C565: + x47 + x163 <= 1
C566: + x105 + x443 <= 1
C567: + x79 + x140 <= 1
C568: + x8 + x303 <= 1
C569: + x47 + x433 <= 1
C570: + x9 + x33 <= 1
C571: + x1 + x78 <= 1
C572: + x219 + x324 <= 1
C573: + x113 + x152 <= 1
C574: + x79 + x315 <= 1
C575: + x335 + x496 <= 1
C576: + x164 + x468 <= 1
C577: + x174 + x393 <= 1
C578: + x4 + x315 <= 1
C579: + x350 + x421 <= 1
C580: + x54 + x436 <= 1
C581: + x265 + x282 <= 1
C582: + x44 + x63 <= 1
C583: + x145 + x389 <= 1
C584: + x222 + x235 <= 1
C585: + x9 + x458 <= 1
C586: + x59 + x101 <= 1
C587: + x34 + x456 <= 1
C588: + x5 + x249 <= 1
C589: + x26 + x291 <= 1
C590: + x61 + x321 <= 1
C591: + x1 + x9 <= 1
C592: + x47 + x73 <= 1
C593: + x112 + x123 <= 1
C594: + x4 + x6 <= 1
C595: + x33 + x226 <= 1
C596: + x8 + x385 <= 1
C597: + x64 + x232 <= 1
C598: + x204 + x329 <= 1
C599: + x6 + x8 <= 1
C600: + x8 + x296 <= 1
C601: + x28 + x500 <= 1
C602: + x12 + x248 <= 1
C603: + x142 + x478 <= 1
C604: + x27 + x210 <= 1
C605: + x210 + x280 <= 1
C606: + x7 + x398 <= 1
C607: + x223 + x371 <= 1
C608: + x61 + x167 <= 1
C609: + x81 + x360 <= 1
C610: + x200 + x373 <= 1
C611: + x11 + x38 <= 1
C612: + x139 + x255 <= 1
C613: + x47 + x299 <= 1
C614: + x60 + x156 <= 1
C615: + x9 + x354 <= 1
C616: + x144 + x319 <= 1
C617: + x115 + x242 <= 1
C618: + x17 + x183 <= 1
C619: + x15 + x365 <= 1
C620: + x91 + x422 <= 1
C621: + x11 + x380 <= 1
C622: + x68 + x359 <= 1
C623: + x342 + x498 <= 1
C624: + x1 + x318 <= 1
C625: + x13 + x131 <= 1
C626: + x352 + x382 <= 1
C627: + x253 + x370 <= 1
C628: + x117 + x218 <= 1
C629: + x84 + x94 <= 1
C630: + x11 + x203 <= 1
C631: + x4 + x11 <= 1
C632: + x102 + x495 <= 1
C633: + x47 + x354 <= 1
C634: + x331 + x399 <= 1
C635: + x97 + x262 <= 1
C636: + x34 + x74 <= 1
C637: + x61 + x207 <= 1
C638: + x6 + x7 + x9 + x27 <= 1
C639: + x19 + x416 <= 1
C640: + x22 + x46 <= 1
C641: + x4 + x156 <= 1
C642: + x14 + x193 <= 1
C643: + x80 + x284 <= 1
C644: + x276 + x340 <= 1
C645: + x33 + x181 <= 1
C646: + x25 + x82 <= 1
C647: + x26 + x70 <= 1
C648: + x7 + x34 <= 1
C649: + x14 + x82 <= 1
C650: + x87 + x197 <= 1
C651: + x154 + x220 <= 1
C652: + x345 + x484 <= 1
C653: + x91 + x268 <= 1
C654: + x52 + x66 <= 1
C655: + x90 + x311 <= 1
C656: + x159 + x467 <= 1
C657: + x62 + x326 <= 1
C658: + x64 + x133 <= 1
C659: + x174 + x431 <= 1
C660: + x29 + x344 <= 1
C661: + x12 + x298 <= 1
C662: + x258 + x412 <= 1
C663: + x32 + x112 <= 1
C664: + x23 + x81 <= 1
C665: + x80 + x98 <= 1
C666: + x143 + x476 <= 1
C667: + x4 + x116 <= 1
C668: + x60 + x127 <= 1
C669: + x251 + x498 <= 1
C670: + x82 + x430 <= 1
C671: + x110 + x437 <= 1
C672: + x92 + x483 <= 1
C673: + x3 + x5 <= 1
C674: + x349 + x500 <= 1
C675: + x14 + x407 <= 1
C676: + x17 + x391 <= 1
C677: + x181 + x280 <= 1
C678: + x6 + x10 <= 1
C679: + x28 + x450 <= 1
C680: + x119 + x120 <= 1
C681: + x63 + x400 <= 1
C682: + x39 + x103 <= 1
C683: + x4 + x129 <= 1
C684: + x5 + x19 <= 1
C685: + x140 + x358 <= 1
C686: + x104 + x173 <= 1
C687: + x7 + x384 <= 1
C688: + x33 + x442 <= 1
C689: + x17 + x292 <= 1
C690: + x36 + x85 <= 1
C691: + x309 + x479 <= 1
C692: + x304 + x460 <= 1
C693: + x33 + x204 <= 1
C694: + x32 + x398 <= 1
C695: + x35 + x164 <= 1
C696: + x13 + x416 <= 1
C697: + x276 + x345 <= 1
C698: + x32 + x33 <= 1
C699: + x14 + x75 <= 1
C700: + x4 + x77 <= 1
C701: + x18 + x43 <= 1
C702: + x39 + x321 <= 1
C703: + x5 + x305 <= 1
C704: + x118 + x458 <= 1
C705: + x28 + x395 <= 1
C706: + x165 + x397 <= 1
C707: + x121 + x462 <= 1
C708: + x93 + x162 <= 1
C709: + x20 + x388 <= 1
C710: + x423 + x444 <= 1
C711: + x15 + x181 <= 1
C712: + x118 + x168 <= 1
C713: + x119 + x224 <= 1
C714: + x233 + x293 <= 1
C715: + x223 + x316 <= 1
C716: + x13 + x22 <= 1
C717: + x104 + x484 <= 1
C718: + x63 + x129 <= 1
C719: + x191 + x257 <= 1
C720: + x130 + x219 <= 1
C721: + x185 + x434 <= 1
C722: + x115 + x454 <= 1
C723: + x65 + x333 <= 1
C724: + x22 + x64 <= 1
C725: + x24 + x219 <= 1
C726: + x45 + x113 <= 1
C727: + x82 + x312 <= 1
C728: + x243 + x354 <= 1
C729: + x56 + x273 <= 1
C730: + x12 + x364 <= 1
C731: + x4 + x279 <= 1
C732: + x71 + x125 <= 1
C733: + x27 + x94 <= 1
C734: + x192 + x272 <= 1
C735: + x287 + x396 <= 1
C736: + x14 + x370 <= 1
C737: + x5 + x78 <= 1
C738: + x64 + x88 <= 1
C739: + x105 + x466 <= 1
C740: + x179 + x406 <= 1
C741: + x17 + x57 <= 1
C742: + x408 + x488 <= 1
C743: + x14 + x56 <= 1
C744: + x308 + x359 <= 1
C745: + x45 + x60 <= 1
C746: + x102 + x167 <= 1
C747: + x5 + x114 <= 1
C748: + x28 + x305 <= 1
C749: + x1 + x434 <= 1
C750: + x173 + x331 <= 1
C751: + x8 + x215 <= 1
C752: + x64 + x310 <= 1
C753: + x264 + x361 <= 1
C754: + x374 + x456 <= 1
C755: + x15 + x204 <= 1
C756: + x118 + x245 <= 1
C757: + x1 + x33 <= 1
C758: + x124 + x214 <= 1
C759: + x115 + x131 <= 1
C760: + x7 + x11 <= 1
C761: + x10 + x311 <= 1
C762: + x46 + x102 <= 1
C763: + x130 + x293 <= 1
C764: + x66 + x178 <= 1
C765: + x27 + x343 <= 1
C766: + x89 + x132 <= 1
C767: + x9 + x286 <= 1
C768: + x28 + x95 <= 1
C769: + x218 + x381 <= 1
C770: + x310 + x495 <= 1
C771: + x12 + x43 <= 1
C772: + x50 + x244 <= 1
C773: + x51 + x196 <= 1
C774: + x12 + x498 <= 1
C775: + x27 + x283 <= 1
C776: + x105 + x374 <= 1
C777: + x132 + x332 <= 1
C778: + x150 + x169 <= 1
C779: + x61 + x356 <= 1
C780: + x223 + x393 <= 1
C781: + x218 + x494 <= 1
C782: + x27 + x105 <= 1
C783: + x9 + x159 <= 1
C784: + x38 + x187 <= 1
C785: + x113 + x246 <= 1
C786: + x241 + x374 <= 1
C787: + x8 + x191 <= 1
C788: + x32 + x250 <= 1
C789: + x130 + x354 <= 1
C790: + x14 + x386 <= 1
C791: + x23 + x469 <= 1
C792: + x8 + x257 <= 1
C793: + x1 + x155 <= 1
C794: + x147 + x154 <= 1
C795: + x77 + x142 <= 1
C796: + x22 + x66 <= 1
C797: + x5 + x16 <= 1
C798: + x95 + x228 <= 1
C799: + x26 + x340 <= 1
C800: + x17 + x265 <= 1
C801: + x159 + x448 <= 1
C802: + x25 + x174 <= 1
C803: + x71 + x206 <= 1
C804: + x19 + x275 <= 1
C805: + x207 + x225 <= 1
C806: + x7 + x14 <= 1
C807: + x12 + x410 <= 1
C808: + x141 + x234 <= 1
C809: + x25 + x459 <= 1
C810: + x6 + x41 <= 1
C811: + x79 + x190 <= 1
C812: + x39 + x72 <= 1
C813: + x5 + x52 <= 1
C814: + x81 + x458 <= 1
C815: + x8 + x39 <= 1
C816: + x98 + x467 <= 1
C817: + x129 + x198 <= 1
C818: + x102 + x118 <= 1
C819: + x130 + x189 <= 1
C820: + x109 + x234 <= 1
C821: + x19 + x53 <= 1
C822: + x154 + x311 <= 1
C823: + x41 + x90 <= 1
C824: + x5 + x104 <= 1
C825: + x89 + x116 <= 1
C826: + x26 + x31 <= 1
C827: + x27 + x149 <= 1
C828: + x7 + x457 <= 1
C829: + x59 + x254 <= 1
C830: + x2 + x6 <= 1
C831: + x14 + x30 <= 1
C832: + x6 + x129 <= 1
C833: + x198 + x321 <= 1
C834: + x35 + x99 <= 1
C835: + x196 + x220 <= 1
C836: + x104 + x451 <= 1
C837: + x4 + x28 <= 1
C838: + x24 + x69 <= 1
C839: + x207 + x236 <= 1
C840: + x1 + x476 <= 1
C841: + x310 + x336 <= 1
C842: + x20 + x29 <= 1
C843: + x10 + x289 <= 1
C844: + x112 + x387 <= 1
C845: + x67 + x253 <= 1
C846: + x141 + x225 <= 1
C847: + x10 + x11 + x16 <= 1
C848: + x7 + x162 <= 1
C849: + x28 + x45 <= 1
C850: + x357 + x380 <= 1
C851: + x39 + x127 <= 1
C852: + x31 + x44 <= 1
C853: + x4 + x169 <= 1
C854: + x26 + x220 <= 1
C855: + x16 + x73 <= 1
C856: + x391 + x430 <= 1
C857: + x33 + x164 <= 1
C858: + x51 + x246 <= 1
C859: + x78 + x216 <= 1
C860: + x150 + x187 <= 1
C861: + x15 + x145 <= 1
C862: + x64 + x468 <= 1
C863: + x50 + x428 <= 1
C864: + x4 + x85 <= 1
C865: + x208 + x221 <= 1
C866: + x82 + x387 <= 1
C867: + x7 + x452 <= 1
C868: + x16 + x29 <= 1
C869: + x2 + x265 <= 1
C870: + x14 + x436 <= 1
C871: + x91 + x113 <= 1
C872: + x11 + x100 <= 1
C873: + x15 + x274 <= 1
C874: + x148 + x327 <= 1
C875: + x191 + x361 <= 1
C876: + x113 + x450 <= 1
C877: + x406 + x427 <= 1
C878: + x110 + x180 <= 1
C879: + x138 + x147 <= 1
C880: + x15 + x233 <= 1
C881: + x15 + x350 <= 1
C882: + x127 + x231 <= 1
C883: + x8 + x21 <= 1
C884: + x10 + x187 <= 1
C885: + x49 + x76 <= 1
C886: + x39 + x211 <= 1
C887: + x41 + x270 <= 1
C888: + x39 + x360 <= 1
C889: + x191 + x252 <= 1
C890: + x34 + x45 <= 1
C891: + x80 + x181 <= 1
C892: + x162 + x472 <= 1
C893: + x109 + x494 <= 1
C894: + x265 + x417 <= 1
C895: + x3 + x76 <= 1
C896: + x14 + x92 <= 1
C897: + x118 + x330 <= 1
C898: + x27 + x70 <= 1
C899: + x10 + x12 <= 1
C900: + x94 + x174 <= 1
C901: + x69 + x473 <= 1
C902: + x14 + x330 <= 1
C903: + x109 + x125 <= 1
C904: + x191 + x296 <= 1
C905: + x11 + x381 <= 1
C906: + x36 + x146 <= 1
C907: + x19 + x332 <= 1
C908: + x252 + x379 <= 1
C909: + x138 + x176 <= 1
C910: + x121 + x445 <= 1
C911: + x432 + x470 <= 1
C912: + x202 + x331 <= 1
C913: + x4 + x10 <= 1
C914: + x25 + x131 <= 1
C915: + x298 + x357 <= 1
C916: + x45 + x241 <= 1
C917: + x201 + x210 <= 1
C918: + x65 + x106 <= 1
C919: + x85 + x101 <= 1
C920: + x212 + x290 <= 1
C921: + x404 + x460 <= 1
C922: + x49 + x313 <= 1
C923: + x343 + x447 <= 1
C924: + x27 + x464 <= 1
C925: + x19 + x110 <= 1
C926: + x69 + x276 <= 1
C927: + x4 + x393 <= 1
C928: + x7 + x35 <= 1
C929: + x66 + x285 <= 1
C930: + x292 + x295 <= 1
C931: + x87 + x194 <= 1
C932: + x57 + x405 <= 1
C933: + x112 + x188 <= 1
C934: + x133 + x477 <= 1
C935: + x34 + x151 <= 1
C936: + x9 + x24 <= 1
C937: + x36 + x151 <= 1
C938: + x30 + x448 <= 1
C939: + x41 + x289 <= 1
C940: + x189 + x420 <= 1
C941: + x27 + x259 <= 1
C942: + x106 + x146 <= 1
C943: + x32 + x99 <= 1
C944: + x15 + x175 <= 1
C945: + x11 + x247 <= 1
C946: + x4 + x15 <= 1
C947: + x13 + x425 <= 1
C948: + x143 + x370 <= 1
C949: + x9 + x68 <= 1
C950: + x6 + x13 <= 1
C951: + x152 + x254 <= 1
C952: + x303 + x380 <= 1
C953: + x184 + x213 <= 1
C954: + x32 + x151 <= 1
C955: + x4 + x160 <= 1
C956: + x60 + x296 <= 1
C957: + x22 + x141 <= 1
C958: + x115 + x351 <= 1
C959: + x7 + x38 <= 1
C960: + x13 + x322 <= 1
C961: + x143 + x404 <= 1
C962: + x1 + x207 <= 1
C963: + x75 + x78 <= 1
C964: + x12 + x221 <= 1
C965: + x13 + x39 <= 1
C966: + x189 + x214 <= 1
C967: + x9 + x31 <= 1
C968: + x8 + x63 <= 1
C969: + x227 + x257 <= 1
C970: + x11 + x367 <= 1
C971: + x247 + x403 <= 1
C972: + x56 + x193 <= 1
C973: + x403 + x490 <= 1
C974: + x386 + x424 <= 1
C975: + x243 + x352 <= 1
C976: + x4 + x446 <= 1
C977: + x8 + x350 <= 1
C978: + x66 + x255 <= 1
C979: + x4 + x217 <= 1
C980: + x34 + x470 <= 1
C981: + x8 + x80 <= 1
C982: + x248 + x434 <= 1
C983: + x16 + x64 <= 1
C984: + x127 + x137 <= 1
C985: + x58 + x238 <= 1
C986: + x59 + x230 <= 1
C987: + x68 + x211 <= 1
C988: + x23 + x456 <= 1
C989: + x1 + x138 <= 1
C990: + x203 + x478 <= 1
C991: + x107 + x221 <= 1
C992: + x15 + x254 <= 1
C993: + x325 + x353 <= 1
C994: + x289 + x477 <= 1
C995: + x189 + x340 <= 1
C996: + x207 + x446 <= 1
C997: + x7 + x372 <= 1
C998: + x21 + x26 <= 1
C999: + x247 + x474 <= 1
C1000: + x85 + x301 <= 1
C1001: + x69 + x423 <= 1
C1002: + x7 + x29 <= 1
C1003: + x16 + x452 <= 1
C1004: + x123 + x490 <= 1
C1005: + x24 + x388 <= 1
C1006: + x92 + x133 <= 1
C1007: + x1 + x198 <= 1
C1008: + x20 + x279 <= 1
C1009: + x32 + x196 <= 1
C1010: + x27 + x244 <= 1
C1011: + x12 + x49 <= 1
C1012: + x41 + x218 <= 1
C1013: + x59 + x153 <= 1
C1014: + x95 + x476 <= 1
C1015: + x15 + x32 <= 1
C1016: + x142 + x227 <= 1
C1017: + x163 + x445 <= 1
C1018: + x66 + x248 <= 1
C1019: + x229 + x262 <= 1
C1020: + x11 + x459 <= 1
C1021: + x59 + x126 <= 1
C1022: + x14 + x59 <= 1
C1023: + x8 + x69 <= 1
C1024: + x11 + x249 <= 1
C1025: + x65 + x466 <= 1
C1026: + x1 + x18 <= 1
C1027: + x33 + x88 <= 1
C1028: + x44 + x369 <= 1
C1029: + x144 + x151 <= 1
C1030: + x95 + x246 <= 1
C1031: + x14 + x239 <= 1
C1032: + x5 + x6 <= 1
C1033: + x116 + x145 <= 1
C1034: + x118 + x248 <= 1
C1035: + x369 + x381 <= 1
C1036: + x304 + x477 <= 1
C1037: + x7 + x24 <= 1
C1038: + x118 + x395 <= 1
C1039: + x9 + x446 <= 1
C1040: + x55 + x62 <= 1
C1041: + x111 + x406 <= 1
C1042: + x78 + x245 <= 1
C1043: + x23 + x43 <= 1
C1044: + x6 + x35 <= 1
C1045: + x25 + x449 <= 1
C1046: + x118 + x153 <= 1
C1047: + x274 + x275 <= 1
C1048: + x9 + x13 <= 1
C1049: + x131 + x140 <= 1
C1050: + x52 + x239 <= 1
C1051: + x53 + x225 <= 1
C1052: + x89 + x304 <= 1
C1053: + x26 + x104 <= 1
C1054: + x7 + x68 <= 1
C1055: + x29 + x418 <= 1
C1056: + x39 + x473 <= 1
C1057: + x167 + x238 <= 1
C1058: + x150 + x172 <= 1
C1059: + x13 + x172 <= 1
C1060: + x109 + x299 <= 1
C1061: + x45 + x56 <= 1
C1062: + x10 + x20 <= 1
C1063: + x27 + x110 <= 1
C1064: + x11 + x228 <= 1
C1065: + x19 + x63 <= 1
C1066: + x272 + x273 <= 1
C1067: + x269 + x342 <= 1
C1068: + x22 + x212 <= 1
C1069: + x78 + x396 <= 1
C1070: + x61 + x115 <= 1
C1071: + x30 + x479 <= 1
C1072: + x42 + x86 <= 1
C1073: + x132 + x216 <= 1
C1074: + x60 + x240 <= 1
C1075: + x10 + x125 <= 1
C1076: + x58 + x91 <= 1
C1077: + x51 + x414 <= 1
C1078: + x88 + x97 <= 1
C1079: + x6 + x155 <= 1
C1080: + x1 + x37 <= 1
C1081: + x8 + x114 <= 1
C1082: + x210 + x376 <= 1
C1083: + x7 + x15 <= 1
C1084: + x139 + x159 <= 1
C1085: + x105 + x334 <= 1
C1086: + x341 + x439 <= 1
C1087: + x168 + x187 <= 1
C1088: + x44 + x294 <= 1
C1089: + x282 + x473 <= 1
C1090: + x5 + x49 <= 1
C1091: + x96 + x461 <= 1
C1092: + x14 + x359 <= 1
C1093: + x9 + x52 <= 1
C1094: + x182 + x192 <= 1
C1095: + x59 + x171 <= 1
C1096: + x49 + x333 <= 1
C1097: + x176 + x188 <= 1
C1098: + x48 + x100 <= 1
C1099: + x124 + x147 <= 1
C1100: + x14 + x347 <= 1
C1101: + x15 + x409 <= 1
C1102: + x128 + x306 <= 1
C1103: + x90 + x117 <= 1
C1104: + x1 + x159 <= 1
C1105: + x291 + x377 <= 1
C1106: + x107 + x202 <= 1
C1107: + x5 + x12 <= 1
C1108: + x371 + x482 <= 1
C1109: + x45 + x99 <= 1
C1110: + x1 + x60 <= 1
C1111: + x54 + x373 <= 1
C1112: + x20 + x189 <= 1
C1113: + x49 + x102 <= 1
C1114: + x342 + x343 <= 1
C1115: + x134 + x205 <= 1
C1116: + x310 + x323 <= 1
C1117: + x94 + x97 <= 1
C1118: + x39 + x287 <= 1
C1119: + x331 + x403 <= 1
C1120: + x155 + x300 <= 1
C1121: + x1 + x171 <= 1
C1122: + x237 + x383 <= 1
C1123: + x31 + x37 <= 1
C1124: + x5 + x64 <= 1
C1125: + x108 + x333 <= 1
C1126: + x9 + x59 <= 1
C1127: + x71 + x337 <= 1
C1128: + x43 + x44 <= 1
C1129: + x1 + x277 <= 1
C1130: + x75 + x241 <= 1
C1131: + x13 + x346 <= 1
C1132: + x7 + x223 <= 1
C1133: + x27 + x128 <= 1
C1134: + x118 + x191 <= 1
C1135: + x134 + x495 <= 1
C1136: + x47 + x123 <= 1
C1137: + x127 + x439 <= 1
C1138: + x39 + x56 <= 1
C1139: + x92 + x451 <= 1
C1140: + x20 + x85 <= 1
C1141: + x103 + x400 <= 1
C1142: + x86 + x121 <= 1
C1143: + x4 + x326 <= 1
C1144: + x55 + x334 + x337 <= 1
C1145: + x54 + x112 <= 1
C1146: + x141 + x270 <= 1
C1147: + x125 + x395 <= 1
C1148: + x6 + x328 <= 1
C1149: + x9 + x246 <= 1
C1150: + x47 + x71 <= 1
C1151: + x68 + x265 <= 1
C1152: + x4 + x32 <= 1
C1153: + x69 + x88 <= 1
C1154: + x61 + x85 <= 1
C1155: + x9 + x83 <= 1
C1156: + x134 + x310 <= 1
C1157: + x76 + x144 <= 1
C1158: + x203 + x321 <= 1
C1159: + x44 + x276 <= 1
C1160: + x19 + x120 <= 1
C1161: + x30 + x136 <= 1
C1162: + x17 + x320 <= 1
C1163: + x8 + x28 <= 1
C1164: + x144 + x388 <= 1
C1165: + x184 + x472 <= 1
C1166: + x142 + x263 <= 1
C1167: + x7 + x53 <= 1
C1168: + x8 + x447 <= 1
C1169: + x147 + x212 <= 1
C1170: + x272 + x457 <= 1
C1171: + x39 + x47 <= 1
C1172: + x242 + x368 <= 1
C1173: + x170 + x353 <= 1
C1174: + x93 + x460 <= 1
C1175: + x29 + x113 <= 1
C1176: + x4 + x331 <= 1
C1177: + x56 + x452 <= 1
C1178: + x168 + x209 <= 1
C1179: + x17 + x208 <= 1
C1180: + x143 + x463 <= 1
C1181: + x111 + x213 <= 1
C1182: + x29 + x232 <= 1
C1183: + x59 + x455 <= 1
C1184: + x4 + x5 <= 1
C1185: + x386 + x450 <= 1
C1186: + x196 + x284 <= 1
C1187: + x84 + x307 <= 1
C1188: + x12 + x396 <= 1
C1189: + x106 + x309 <= 1
C1190: + x14 + x100 <= 1
C1191: + x88 + x253 <= 1
C1192: + x70 + x268 <= 1
C1193: + x7 + x157 <= 1
C1194: + x272 + x417 <= 1
C1195: + x152 + x236 <= 1
C1196: + x10 + x68 <= 1
C1197: + x35 + x385 <= 1
C1198: + x44 + x123 <= 1
C1199: + x9 + x41 <= 1
C1200: + x16 + x94 <= 1
C1201: + x48 + x138 <= 1
C1202: + x31 + x180 <= 1
C1203: + x22 + x306 <= 1
C1204: + x169 + x455 <= 1
C1205: + x17 + x25 <= 1
C1206: + x7 + x48 <= 1
C1207: + x2 + x96 <= 1
C1208: + x12 + x328 <= 1
C1209: + x32 + x62 <= 1
C1210: + x79 + x96 <= 1
C1211: + x207 + x480 <= 1
C1212: + x9 + x184 <= 1
C1213: + x25 + x262 <= 1
C1214: + x179 + x261 <= 1
C1215: + x90 + x301 <= 1
C1216: + x327 + x452 <= 1
C1217: + x6 + x92 <= 1
C1218: + x279 + x295 <= 1
C1219: + x77 + x183 <= 1
C1220: + x104 + x195 <= 1
C1221: + x95 + x217 <= 1
C1222: + x41 + x475 <= 1
C1223: + x44 + x72 <= 1
C1224: + x141 + x481 <= 1
C1225: + x124 + x313 <= 1
C1226: + x7 + x491 <= 1
C1227: + x47 + x174 <= 1
C1228: + x139 + x179 <= 1
C1229: + x68 + x233 <= 1
C1230: + x39 + x260 <= 1
C1231: + x9 + x318 <= 1
C1232: + x19 + x106 <= 1
C1233: + x5 + x21 <= 1
C1234: + x81 + x110 <= 1
C1235: + x279 + x480 <= 1
C1236: + x45 + x132 <= 1
C1237: + x8 + x10 <= 1
C1238: + x11 + x320 <= 1
C1239: + x161 + x233 <= 1
C1240: + x1 + x93 <= 1
C1241: + x13 + x482 <= 1
C1242: + x9 + x397 <= 1
C1243: + x46 + x122 <= 1
C1244: + x57 + x316 <= 1
C1245: + x206 + x401 <= 1
C1246: + x9 + x191 <= 1
C1247: + x172 + x216 <= 1
C1248: + x134 + x474 <= 1
C1249: + x13 + x44 <= 1
C1250: + x224 + x410 <= 1
C1251: + x389 + x448 <= 1
C1252: + x1 + x105 <= 1
C1253: + x20 + x108 <= 1
C1254: + x41 + x240 <= 1
C1255: + x47 + x233 <= 1
C1256: + x48 + x219 <= 1
C1257: + x216 + x319 <= 1
C1258: + x10 + x463 <= 1
C1259: + x265 + x408 <= 1
C1260: + x58 + x128 <= 1
C1261: + x217 + x380 <= 1
C1262: + x197 + x432 <= 1
C1263: + x7 + x256 <= 1
C1264: + x112 + x140 <= 1
C1265: + x142 + x382 <= 1
C1266: + x59 + x231 <= 1
C1267: + x331 + x439 <= 1
C1268: + x127 + x487 <= 1
C1269: + x10 + x443 <= 1
C1270: + x29 + x357 <= 1
C1271: + x22 + x54 <= 1
C1272: + x304 + x376 <= 1
C1273: + x268 + x428 <= 1
C1274: + x27 + x33 <= 1
C1275: + x467 + x476 <= 1
C1276: + x34 + x51 <= 1
C1277: + x216 + x228 <= 1
C1278: + x81 + x343 <= 1
C1279: + x33 + x42 <= 1
C1280: + x5 + x163 <= 1
C1281: + x79 + x170 <= 1
C1282: + x207 + x298 <= 1
C1283: + x9 + x166 <= 1
C1284: + x100 + x229 <= 1
C1285: + x61 + x283 <= 1
C1286: + x16 + x358 <= 1
C1287: + x19 + x21 <= 1
C1288: + x39 + x84 <= 1
C1289: + x34 + x164 <= 1
C1290: + x47 + x244 <= 1
C1291: + x15 + x25 <= 1
C1292: + x7 + x86 <= 1
C1293: + x78 + x307 <= 1
C1294: + x181 + x361 <= 1
C1295: + x9 + x349 <= 1
C1296: + x27 + x104 <= 1
C1297: + x28 + x160 <= 1
C1298: + x130 + x460 <= 1
C1299: + x95 + x360 <= 1
C1300: + x4 + x124 <= 1
C1301: + x115 + x213 <= 1
C1302: + x206 + x236 <= 1
C1303: + x141 + x407 <= 1
C1304: + x9 + x79 <= 1
C1305: + x191 + x258 <= 1
C1306: + x14 + x15 + x26 <= 1
C1307: + x320 + x425 <= 1
C1308: + x28 + x474 <= 1
C1309: + x21 + x38 <= 1
C1310: + x7 + x17 <= 1
C1311: + x128 + x331 <= 1
C1312: + x156 + x318 <= 1
C1313: + x51 + x119 <= 1
C1314: + x14 + x67 <= 1
C1315: + x69 + x157 <= 1
C1316: + x36 + x46 <= 1
C1317: + x28 + x89 <= 1
C1318: + x188 + x231 <= 1
C1319: + x162 + x368 <= 1
C1320: + x9 + x10 <= 1
C1321: + x8 + x52 <= 1
C1322: + x120 + x303 <= 1
C1323: + x44 + x185 <= 1
C1324: + x54 + x77 <= 1
C1325: + x1 + x260 <= 1
C1326: + x19 + x470 <= 1
C1327: + x8 + x65 <= 1
C1328: + x10 + x239 <= 1
C1329: + x4 + x97 <= 1
C1330: + x14 + x154 <= 1
C1331: + x127 + x184 <= 1
C1332: + x131 + x193 <= 1
C1333: + x349 + x451 <= 1
C1334: + x15 + x48 <= 1
C1335: + x27 + x293 <= 1
C1336: + x65 + x325 <= 1
C1337: + x93 + x206 <= 1
C1338: + x157 + x251 <= 1
C1339: + x27 + x51 <= 1
C1340: + x172 + x174 <= 1
C1341: + x11 + x297 <= 1
C1342: + x7 + x367 <= 1
C1343: + x13 + x66 <= 1
C1344: + x70 + x113 <= 1
C1345: + x7 + x12 <= 1
C1346: + x258 + x466 <= 1
C1347: + x48 + x448 <= 1
C1348: + x5 + x145 <= 1
C1349: + x215 + x367 <= 1
C1350: + x27 + x489 <= 1
C1351: + x1 + x209 <= 1
C1352: + x37 + x378 <= 1
C1353: + x53 + x80 <= 1
C1354: + x9 + x49 <= 1
C1355: + x94 + x465 <= 1
C1356: + x12 + x46 <= 1
C1357: + x30 + x92 <= 1
C1358: + x274 + x424 <= 1
C1359: + x139 + x200 <= 1
C1360: + x8 + x186 <= 1
C1361: + x2 + x147 <= 1
C1362: + x56 + x68 <= 1
C1363: + x41 + x84 <= 1
C1364: + x225 + x401 <= 1
C1365: + x53 + x148 <= 1
C1366: + x54 + x199 <= 1
C1367: + x267 + x356 <= 1
C1368: + x4 + x348 <= 1
C1369: + x7 + x116 <= 1
C1370: + x437 + x461 <= 1
C1371: + x58 + x95 <= 1
C1372: + x31 + x118 <= 1
C1373: + x170 + x208 <= 1
C1374: + x33 + x464 <= 1
C1375: + x9 + x204 <= 1
C1376: + x281 + x444 <= 1
C1377: + x16 + x191 <= 1
C1378: + x76 + x484 <= 1
C1379: + x25 + x175 <= 1
C1380: + x67 + x227 <= 1
C1381: + x70 + x285 <= 1
C1382: + x1 + x355 <= 1
C1383: + x212 + x489 <= 1
C1384: + x61 + x389 <= 1
C1385: + x24 + x192 <= 1
C1386: + x21 + x128 <= 1
C1387: + x39 + x363 <= 1
C1388: + x5 + x303 <= 1
C1389: + x1 + x274 <= 1
C1390: + x11 + x54 <= 1
C1391: + x178 + x410 <= 1
C1392: + x350 + x430 <= 1
C1393: + x43 + x450 <= 1
C1394: + x19 + x54 <= 1
C1395: + x202 + x276 <= 1
C1396: + x272 + x358 <= 1
C1397: + x95 + x345 <= 1
C1398: + x52 + x105 <= 1
C1399: + x20 + x84 <= 1
C1400: + x39 + x158 <= 1
C1401: + x12 + x422 <= 1
C1402: + x239 + x273 <= 1
C1403: + x314 + x371 <= 1
C1404: + x96 + x276 <= 1
C1405: + x2 + x5 <= 1
C1406: + x112 + x285 <= 1
C1407: + x32 + x119 <= 1
C1408: + x180 + x282 <= 1
C1409: + x52 + x291 <= 1
C1410: + x82 + x282 <= 1
C1411: + x18 + x389 <= 1
C1412: + x398 + x481 <= 1
C1413: + x6 + x17 <= 1
C1414: + x352 + x403 <= 1
C1415: + x65 + x186 <= 1
C1416: + x54 + x55 <= 1
C1417: + x265 + x300 <= 1
C1418: + x166 + x232 <= 1
C1419: + x12 + x253 <= 1
C1420: + x123 + x370 <= 1
C1421: + x7 + x50 <= 1
C1422: + x62 + x197 <= 1
C1423: + x11 + x61 <= 1
C1424: + x49 + x328 <= 1
C1425: + x32 + x76 <= 1
C1426: + x279 + x442 <= 1
C1427: + x118 + x336 <= 1
C1428: + x7 + x296 <= 1
C1429: + x304 + x420 <= 1
C1430: + x206 + x325 <= 1
C1431: + x6 + x307 <= 1
C1432: + x20 + x89 <= 1
C1433: + x303 + x397 <= 1
C1434: + x68 + x179 <= 1
C1435: + x195 + x366 <= 1
C1436: + x34 + x103 <= 1
C1437: + x168 + x369 <= 1
C1438: + x16 + x435 <= 1
C1439: + x184 + x270 <= 1
C1440: + x50 + x60 <= 1
C1441: + x23 + x65 <= 1
C1442: + x5 + x255 <= 1
C1443: + x13 + x138 <= 1
C1444: + x15 + x222 <= 1
C1445: + x180 + x287 <= 1
C1446: + x305 + x422 <= 1
C1447: + x41 + x142 <= 1
C1448: + x31 + x342 <= 1
C1449: + x61 + x81 <= 1
C1450: + x27 + x161 <= 1
C1451: + x98 + x115 <= 1
C1452: + x114 + x184 <= 1
C1453: + x23 + x157 <= 1
C1454: + x79 + x483 <= 1
C1455: + x1 + x67 <= 1
C1456: + x50 + x230 <= 1
C1457: + x27 + x373 <= 1
C1458: + x46 + x463 <= 1
C1459: + x357 + x499 <= 1
C1460: + x50 + x65 <= 1
C1461: + x163 + x235 <= 1
C1462: + x82 + x352 <= 1
C1463: + x13 + x50 <= 1
C1464: + x189 + x193 <= 1
C1465: + x9 + x18 <= 1
C1466: + x65 + x95 <= 1
C1467: + x12 + x13 <= 1
C1468: + x87 + x319 <= 1
C1469: + x1 + x316 <= 1
C1470: + x136 + x182 <= 1
C1471: + x2 + x23 <= 1
C1472: + x58 + x114 <= 1
C1473: + x59 + x98 <= 1
C1474: + x97 + x149 <= 1
C1475: + x5 + x230 <= 1
C1476: + x4 + x238 <= 1
C1477: + x223 + x431 <= 1
C1478: + x189 + x267 <= 1
C1479: + x12 + x158 <= 1
C1480: + x4 + x9 <= 1
C1481: + x65 + x107 <= 1
C1482: + x131 + x249 <= 1
C1483: + x28 + x62 <= 1
C1484: + x113 + x295 <= 1
C1485: + x5 + x42 <= 1
C1486: + x260 + x365 <= 1
C1487: + x17 + x256 <= 1
C1488: + x5 + x284 <= 1
C1489: + x24 + x42 <= 1
C1490: + x79 + x263 <= 1
C1491: + x10 + x286 <= 1
C1492: + x64 + x215 <= 1
C1493: + x307 + x379 <= 1
C1494: + x90 + x392 <= 1
C1495: + x88 + x205 <= 1
C1496: + x105 + x144 <= 1
C1497: + x13 + x41 <= 1
C1498: + x116 + x201 <= 1
C1499: + x31 + x199 <= 1
C1500: + x151 + x474 <= 1
C1501: + x56 + x203 <= 1
C1502: + x50 + x203 <= 1
C1503: + x403 + x496 <= 1
C1504: + x78 + x90 <= 1
C1505: + x15 + x19 <= 1
C1506: + x22 + x258 <= 1
C1507: + x6 + x72 <= 1
C1508: + x46 + x49 <= 1
C1509: + x2 + x112 <= 1
C1510: + x11 + x19 <= 1
C1511: + x25 + x441 <= 1
C1512: + x273 + x341 <= 1
C1513: + x191 + x284 <= 1
C1514: + x392 + x399 <= 1
C1515: + x85 + x109 <= 1
C1516: + x23 + x462 <= 1
C1517: + x414 + x489 <= 1
C1518: + x142 + x164 <= 1
C1519: + x95 + x265 <= 1
C1520: + x104 + x179 <= 1
C1521: + x5 + x17 <= 1
C1522: + x1 + x81 <= 1
C1523: + x65 + x401 <= 1
C1524: + x27 + x327 <= 1
C1525: + x318 + x411 <= 1
C1526: + x2 + x482 <= 1
C1527: + x6 + x64 <= 1
C1528: + x9 + x366 <= 1
C1529: + x60 + x499 <= 1
C1530: + x13 + x40 <= 1
C1531: + x23 + x304 <= 1
C1532: + x9 + x32 <= 1
C1533: + x7 + x438 <= 1
C1534: + x12 + x59 <= 1
C1535: + x140 + x443 <= 1
C1536: + x15 + x22 <= 1
C1537: + x8 + x349 <= 1
C1538: + x57 + x215 <= 1
C1539: + x147 + x297 <= 1
C1540: + x102 + x386 <= 1
C1541: + x78 + x310 <= 1
C1542: + x150 + x153 <= 1
C1543: + x217 + x384 <= 1
C1544: + x9 + x346 <= 1
C1545: + x364 + x497 <= 1
C1546: + x113 + x198 <= 1
C1547: + x142 + x378 <= 1
C1548: + x24 + x108 <= 1
C1549: + x41 + x341 <= 1
C1550: + x25 + x47 <= 1
C1551: + x62 + x120 <= 1
C1552: + x64 + x259 <= 1
C1553: + x7 + x369 <= 1
C1554: + x14 + x483 <= 1
C1555: + x10 + x272 <= 1
C1556: + x183 + x444 <= 1
C1557: + x12 + x362 <= 1
C1558: + x88 + x195 <= 1
C1559: + x35 + x258 <= 1
C1560: + x6 + x57 <= 1
C1561: + x9 + x277 <= 1
C1562: + x207 + x302 <= 1
C1563: + x8 + x148 <= 1
C1564: + x14 + x169 <= 1
C1565: + x35 + x48 <= 1
C1566: + x131 + x325 <= 1
C1567: + x41 + x304 <= 1
C1568: + x42 + x168 <= 1
C1569: + x25 + x106 <= 1
C1570: + x15 + x29 <= 1
C1571: + x44 + x328 <= 1
C1572: + x54 + x80 <= 1
C1573: + x27 + x278 <= 1
C1574: + x138 + x271 <= 1
C1575: + x42 + x451 <= 1
C1576: + x49 + x61 <= 1
C1577: + x13 + x19 <= 1
C1578: + x214 + x266 <= 1
C1579: + x5 + x461 <= 1
C1580: + x3 + x25 <= 1
C1581: + x13 + x317 <= 1
C1582: + x6 + x126 <= 1
C1583: + x152 + x243 <= 1
C1584: + x38 + x261 <= 1
C1585: + x33 + x438 <= 1
C1586: + x4 + x141 <= 1
C1587: + x5 + x7 <= 1
C1588: + x25 + x339 <= 1
C1589: + x44 + x415 <= 1
C1590: + x1 + x47 <= 1
C1591: + x7 + x364 <= 1
C1592: + x131 + x268 <= 1
C1593: + x13 + x71 <= 1
C1594: + x7 + x21 <= 1
C1595: + x129 + x177 <= 1
C1596: + x47 + x144 <= 1
C1597: + x103 + x472 <= 1
C1598: + x50 + x109 <= 1
C1599: + x58 + x271 <= 1
C1600: + x75 + x335 <= 1
C1601: + x35 + x281 <= 1
C1602: + x39 + x494 <= 1
C1603: + x7 + x178 <= 1
C1604: + x10 + x404 <= 1
C1605: + x202 + x314 <= 1
C1606: + x8 + x137 <= 1
C1607: + x11 + x189 <= 1
C1608: + x5 + x75 <= 1
C1609: + x43 + x134 <= 1
C1610: + x9 + x14 <= 1
C1611: + x16 + x121 <= 1
C1612: + x302 + x324 <= 1
C1613: + x15 + x488 <= 1
C1614: + x27 + x285 <= 1
C1615: + x100 + x428 <= 1
C1616: + x348 + x424 <= 1
C1617: + x12 + x347 <= 1
C1618: + x14 + x51 <= 1
C1619: + x34 + x487 <= 1
C1620: + x9 + x157 <= 1
C1621: + x77 + x317 <= 1
C1622: + x25 + x160 <= 1
C1623: + x98 + x309 <= 1
C1624: + x45 + x214 <= 1
C1625: + x7 + x468 <= 1
C1626: + x41 + x323 <= 1
C1627: + x176 + x291 <= 1
C1628: + x36 + x344 <= 1
C1629: + x16 + x420 <= 1
C1630: + x20 + x348 <= 1
C1631: + x358 + x409 <= 1
C1632: + x15 + x258 <= 1
C1633: + x26 + x129 <= 1
C1634: + x62 + x408 <= 1
C1635: + x113 + x176 <= 1
C1636: + x186 + x240 <= 1
C1637: + x304 + x485 <= 1
C1638: + x124 + x288 <= 1
C1639: + x7 + x16 <= 1
C1640: + x110 + x470 <= 1
C1641: + x70 + x288 <= 1
C1642: + x257 + x335 <= 1
C1643: + x112 + x223 <= 1
C1644: + x22 + x24 <= 1
C1645: + x170 + x247 <= 1
C1646: + x9 + x53 <= 1
C1647: + x10 + x139 <= 1
C1648: + x27 + x195 <= 1
C1649: + x7 + x415 <= 1
C1650: + x111 + x269 <= 1
C1651: + x28 + x416 <= 1
C1652: + x2 + x76 <= 1
C1653: + x27 + x441 <= 1
C1654: + x9 + x132 <= 1
C1655: + x50 + x445 <= 1
C1656: + x14 + x346 <= 1
C1657: + x207 + x218 <= 1
C1658: + x65 + x78 <= 1
C1659: + x29 + x100 <= 1
C1660: + x32 + x471 <= 1
C1661: + x15 + x59 <= 1
C1662: + x7 + x120 <= 1
C1663: + x10 + x466 <= 1
C1664: + x38 + x311 <= 1
C1665: + x184 + x316 <= 1
C1666: + x15 + x216 <= 1
C1667: + x1 + x61 <= 1
C1668: + x92 + x126 <= 1
C1669: + x39 + x234 <= 1
C1670: + x12 + x107 <= 1
C1671: + x48 + x183 <= 1
C1672: + x61 + x95 <= 1
C1673: + x140 + x491 <= 1
C1674: + x27 + x347 <= 1
C1675: + x191 + x356 <= 1
C1676: + x113 + x457 <= 1
C1677: + x33 + x51 <= 1
C1678: + x336 + x364 <= 1
C1679: + x23 + x24 + x28 <= 1
C1680: + x40 + x75 <= 1
C1681: + x35 + x57 <= 1
C1682: + x53 + x83 <= 1
C1683: + x17 + x44 <= 1
C1684: + x24 + x31 <= 1
C1685: + x228 + x237 <= 1
C1686: + x408 + x497 <= 1
C1687: + x264 + x418 <= 1
C1688: + x14 + x37 <= 1
C1689: + x9 + x139 <= 1
C1690: + x19 + x50 <= 1
C1691: + x92 + x167 <= 1
C1692: + x113 + x226 <= 1
C1693: + x21 + x235 <= 1
C1694: + x14 + x136 <= 1
C1695: + x1 + x290 <= 1
C1696: + x24 + x253 <= 1
C1697: + x111 + x211 <= 1
C1698: + x139 + x404 <= 1
C1699: + x59 + x317 <= 1
C1700: + x115 + x379 <= 1
C1701: + x25 + x186 <= 1
C1702: + x9 + x84 <= 1
C1703: + x10 + x300 <= 1
C1704: + x8 + x390 <= 1
C1705: + x155 + x415 <= 1
C1706: + x25 + x471 <= 1
C1707: + x208 + x390 <= 1
C1708: + x65 + x190 <= 1
C1709: + x219 + x429 <= 1
C1710: + x8 + x297 <= 1
C1711: + x11 + x170 <= 1
C1712: + x66 + x405 <= 1
C1713: + x33 + x407 <= 1
C1714: + x25 + x372 <= 1
C1715: + x6 + x192 <= 1
C1716: + x75 + x459 <= 1
C1717: + x20 + x145 <= 1
C1718: + x131 + x150 <= 1
C1719: + x191 + x343 <= 1
C1720: + x37 + x46 <= 1
C1721: + x20 + x419 <= 1
C1722: + x376 + x438 <= 1
C1723: + x108 + x143 <= 1
C1724: + x118 + x135 <= 1
C1725: + x8 + x172 <= 1
C1726: + x13 + x55 <= 1
C1727: + x51 + x309 <= 1
C1728: + x36 + x240 <= 1
C1729: + x1 + x412 <= 1
C1730: + x75 + x447 <= 1
C1731: + x21 + x87 <= 1
C1732: + x107 + x392 <= 1
C1733: + x24 + x492 <= 1
C1734: + x343 + x493 <= 1
C1735: + x143 + x250 <= 1
C1736: + x138 + x279 <= 1
C1737: + x14 + x18 <= 1
C1738: + x32 + x124 <= 1
C1739: + x162 + x308 <= 1
C1740: + x188 + x392 <= 1
C1741: + x6 + x245 <= 1
C1742: + x99 + x280 + x329 <= 1
C1743: + x302 + x500 <= 1
C1744: + x4 + x8 <= 1
C1745: + x51 + x182 <= 1
C1746: + x80 + x368 <= 1
C1747: + x49 + x242 <= 1
C1748: + x418 + x429 <= 1
C1749: + x63 + x79 <= 1
C1750: + x28 + x57 <= 1
C1751: + x10 + x67 <= 1
C1752: + x22 + x35 <= 1
C1753: + x8 + x20 <= 1
C1754: + x28 + x200 <= 1
C1755: + x54 + x266 <= 1
C1756: + x69 + x439 <= 1
C1757: + x93 + x154 <= 1
C1758: + x138 + x231 <= 1
C1759: + x47 + x297 <= 1
C1760: + x132 + x166 <= 1
C1761: + x26 + x286 <= 1
C1762: + x134 + x480 <= 1
C1763: + x36 + x58 <= 1
C1764: + x32 + x212 <= 1
C1765: + x166 + x436 <= 1
C1766: + x77 + x83 <= 1
C1767: + x176 + x455 <= 1
C1768: + x128 + x387 <= 1
C1769: + x339 + x499 <= 1
C1770: + x194 + x286 <= 1
C1771: + x316 + x375 <= 1
C1772: + x85 + x344 <= 1
C1773: + x77 + x277 <= 1
C1774: + x131 + x487 <= 1
C1775: + x196 + x260 <= 1
C1776: + x336 + x420 <= 1
C1777: + x212 + x293 <= 1
C1778: + x29 + x458 <= 1
C1779: + x204 + x324 <= 1
C1780: + x87 + x271 <= 1
C1781: + x4 + x383 <= 1
C1782: + x81 + x194 <= 1
C1783: + x10 + x433 <= 1
C1784: + x95 + x262 <= 1
C1785: + x6 + x381 <= 1
C1786: + x15 + x298 <= 1
C1787: + x130 + x437 <= 1
C1788: + x13 + x86 <= 1
C1789: + x32 + x391 <= 1
C1790: + x20 + x433 <= 1
C1791: + x77 + x251 <= 1
C1792: + x27 + x413 <= 1
C1793: + x237 + x281 <= 1
C1794: + x32 + x217 <= 1
C1795: + x36 + x158 <= 1
C1796: + x128 + x213 <= 1
C1797: + x236 + x310 <= 1
C1798: + x15 + x23 <= 1
C1799: + x345 + x405 <= 1
C1800: + x11 + x31 <= 1
C1801: + x104 + x251 <= 1
C1802: + x69 + x340 <= 1
C1803: + x7 + x322 <= 1
C1804: + x19 + x207 <= 1
C1805: + x4 + x13 + x34 <= 1
C1806: + x41 + x128 <= 1
C1807: + x48 + x75 <= 1
C1808: + x178 + x224 <= 1
C1809: + x43 + x217 <= 1
C1810: + x9 + x73 <= 1
C1811: + x63 + x160 <= 1
C1812: + x19 + x372 <= 1
C1813: + x275 + x339 <= 1
C1814: + x231 + x252 <= 1
C1815: + x41 + x338 <= 1
C1816: + x81 + x185 <= 1
C1817: + x36 + x421 <= 1
C1818: + x182 + x398 <= 1
C1819: + x63 + x121 <= 1
C1820: + x304 + x375 <= 1
C1821: + x61 + x421 <= 1
C1822: + x6 + x171 <= 1
C1823: + x36 + x87 <= 1
C1824: + x109 + x188 <= 1
C1825: + x58 + x422 <= 1
C1826: + x33 + x281 <= 1
C1827: + x69 + x421 <= 1
C1828: + x14 + x486 <= 1
C1829: + x172 + x478 <= 1
C1830: + x2 + x486 <= 1
C1831: + x113 + x417 <= 1
C1832: + x77 + x242 <= 1
C1833: + x14 + x73 <= 1
C1834: + x15 + x111 <= 1
C1835: + x34 + x413 <= 1
C1836: + x21 + x143 <= 1
C1837: + x22 + x249 <= 1
C1838: + x5 + x414 <= 1
C1839: + x307 + x449 <= 1
C1840: + x50 + x317 <= 1
C1841: + x97 + x167 <= 1
C1842: + x1 + x32 <= 1
C1843: + x201 + x360 <= 1
C1844: + x25 + x150 <= 1
C1845: + x35 + x229 <= 1
C1846: + x127 + x142 <= 1
C1847: + x48 + x366 <= 1
C1848: + x14 + x398 <= 1
C1849: + x53 + x292 <= 1
C1850: + x27 + x475 <= 1
C1851: + x128 + x485 <= 1
C1852: + x229 + x336 <= 1
C1853: + x68 + x117 <= 1
C1854: + x23 + x166 <= 1
C1855: + x15 + x199 <= 1
C1856: + x319 + x427 <= 1
C1857: + x36 + x315 <= 1
C1858: + x63 + x243 <= 1
C1859: + x29 + x39 <= 1
C1860: + x178 + x435 <= 1
C1861: + x207 + x306 <= 1
C1862: + x10 + x34 <= 1
C1863: + x185 + x349 <= 1
C1864: + x23 + x315 <= 1
C1865: + x9 + x11 <= 1
C1866: + x7 + x417 <= 1
C1867: + x12 + x56 <= 1
C1868: + x4 + x426 <= 1
C1869: + x5 + x314 <= 1
C1870: + x23 + x392 <= 1
C1871: + x27 + x274 <= 1
C1872: + x8 + x338 <= 1
C1873: + x4 + x197 <= 1
C1874: + x87 + x161 <= 1
C1875: + x9 + x325 <= 1
C1876: + x13 + x15 <= 1
C1877: + x14 + x153 <= 1
C1878: + x32 + x243 <= 1
C1879: + x70 + x497 <= 1
C1880: + x91 + x449 <= 1
C1881: + x47 + x377 <= 1
C1882: + x96 + x301 <= 1
C1883: + x36 + x339 <= 1
C1884: + x74 + x236 <= 1
C1885: + x229 + x375 <= 1
C1886: + x42 + x499 <= 1
C1887: + x88 + x103 <= 1
C1888: + x15 + x202 <= 1
C1889: + x36 + x69 <= 1
C1890: + x183 + x278 <= 1
C1891: + x20 + x182 <= 1
C1892: + x4 + x48 <= 1
C1893: + x15 + x480 <= 1
C1894: + x8 + x411 <= 1
C1895: + x9 + x419 <= 1
C1896: + x49 + x202 <= 1
C1897: + x212 + x264 <= 1
C1898: + x244 + x252 <= 1
C1899: + x205 + x402 <= 1
C1900: + x371 + x477 <= 1
C1901: + x52 + x87 <= 1
C1902: + x126 + x228 <= 1
C1903: + x199 + x220 <= 1
C1904: + x54 + x306 <= 1
C1905: + x121 + x204 <= 1
C1906: + x48 + x241 <= 1
C1907: + x303 + x440 <= 1
C1908: + x31 + x302 <= 1
C1909: + x23 + x415 <= 1
C1910: + x227 + x241 <= 1
C1911: + x58 + x146 <= 1
C1912: + x50 + x93 <= 1
C1913: + x61 + x382 <= 1
C1914: + x91 + x254 <= 1
C1915: + x6 + x210 <= 1
C1916: + x10 + x23 <= 1
C1917: + x435 + x441 <= 1
C1918: + x11 + x237 <= 1
C1919: + x112 + x162 <= 1
C1920: + x12 + x190 <= 1
C1921: + x108 + x386 <= 1
C1922: + x9 + x126 <= 1
C1923: + x312 + x429 <= 1
C1924: + x61 + x237 <= 1
C1925: + x63 + x110 <= 1
C1926: + x13 + x149 <= 1
C1927: + x81 + x416 <= 1
C1928: + x72 + x301 <= 1
C1929: + x13 + x122 <= 1
C1930: + x252 + x455 <= 1
C1931: + x98 + x261 <= 1
C1932: + x24 + x74 <= 1
C1933: + x6 + x500 <= 1
C1934: + x96 + x218 <= 1
C1935: + x265 + x294 <= 1
C1936: + x5 + x62 <= 1
C1937: + x1 + x118 <= 1
C1938: + x78 + x122 <= 1
C1939: + x70 + x173 <= 1
C1940: + x32 + x431 <= 1
C1941: + x16 + x481 <= 1
C1942: + x129 + x269 <= 1
C1943: + x52 + x282 <= 1
C1944: + x35 + x484 <= 1
C1945: + x102 + x215 <= 1
C1946: + x13 + x61 <= 1
C1947: + x5 + x98 <= 1
C1948: + x23 + x257 <= 1
C1949: + x12 + x18 <= 1
C1950: + x52 + x135 <= 1
C1951: + x35 + x339 <= 1
C1952: + x365 + x397 <= 1
C1953: + x245 + x264 <= 1
C1954: + x36 + x115 <= 1
C1955: + x41 + x136 <= 1
C1956: + x18 + x124 <= 1
C1957: + x8 + x393 <= 1

binary
x1 x2 x3 x4 x5 x6 x7 x8 x9 x10 x11 x12 x13 x14 x15 x16 x17 x18 x19 x20 x21 x22 x23 x24 x25 x26 x27 x28 x29 x30 x31 x32 x33 x34 x35 x36 x37 x38 x39 x40 x41 x42 x43 x44 x45 x46 x47 x48 x49 x50 x51 x52 x53 x54 x55 x56 x57 x58 x59 x60 x61 x62 x63 x64 x65 x66 x67 x68 x69 x70 x71 x72 x73 x74 x75 x76 x77 x78 x79 x80 x81 x82 x83 x84 x85 x86 x87 x88 x89 x90 x91 x92 x93 x94 x95 x96 x97 x98 x99 x100 x101 x102 x103 x104 x105 x106 x107 x108 x109 x110 x111 x112 x113 x114 x115 x116 x117 x118 x119 x120 x121 x122 x123 x124 x125 x126 x127 x128 x129 x130 x131 x132 x133 x134 x135 x136 x137 x138 x139 x140 x141 x142 x143 x144 x145 x146 x147 x148 x149 x150 x151 x152 x153 x154 x155 x156 x157 x158 x159 x160 x161 x162 x163 x164 x165 x166 x167 x168 x169 x170 x171 x172 x173 x174 x175 x176 x177 x178 x179 x180 x181 x182 x183 x184 x185 x186 x187 x188 x189 x190 x191 x192 x193 x194 x195 x196 x197 x198 x199 x200 x201 x202 x203 x204 x205 x206 x207 x208 x209 x210 x211 x212 x213 x214 x215 x216 x217 x218 x219 x220 x221 x222 x223 x224 x225 x226 x227 x228 x229 x230 x231 x232 x233 x234 x235 x236 x237 x238 x239 x240 x241 x242 x243 x244 x245 x246 x247 x248 x249 x250 x251 x252 x253 x254 x255 x256 x257 x258 x259 x260 x261 x262 x263 x264 x265 x266 x267 x268 x269 x270 x271 x272 x273 x274 x275 x276 x277 x278 x279 x280 x281 x282 x283 x284 x285 x286 x287 x288 x289 x290 x291 x292 x293 x294 x295 x296 x297 x298 x299 x300 x301 x302 x303 x304 x305 x306 x307 x308 x309 x310 x311 x312 x313 x314 x315 x316 x317 x318 x319 x320 x321 x322 x323 x324 x325 x326 x327 x328 x329 x330 x331 x332 x333 x334 x335 x336 x337 x338 x339 x340 x341 x342 x343 x344 x345 x346 x347 x348 x349 x350 x351 x352 x353 x354 x355 x356 x357 x358 x359 x360 x361 x362 x363 x364 x365 x366 x367 x368 x369 x370 x371 x372 x373 x374 x375 x376 x377 x378 x379 x380 x381 x382 x383 x384 x385 x386 x387 x388 x389 x390 x391 x392 x393 x394 x395 x396 x397 x398 x399 x400 x401 x402 x403 x404 x405 x406 x407 x408 x409 x410 x411 x412 x413 x414 x415 x416 x417 x418 x419 x420 x421 x422 x423 x424 x425 x426 x427 x428 x429 x430 x431 x432 x433 x434 x435 x436 x437 x438 x439 x440 x441 x442 x443 x444 x445 x446 x447 x448 x449 x450 x451 x452 x453 x454 x455 x456 x457 x458 x459 x460 x461 x462 x463 x464 x465 x466 x467 x468 x469 x470 x471 x472 x473 x474 x475 x476 x477 x478 x479 x480 x481 x482 x483 x484 x485 x486 x487 x488 x489 x490 x491 x492 x493 x494 x495 x496 x497 x498 x499 x500
