maximize
OBJ: + 1 x1 + 1 x2 + 1 x3 + 1 x4 + 1 x5 + 1 x6 + 1 x7 + 1 x8 + 1 x9 + 1 x10 + 1 x11 + 1 x12 + 1 x13 + 1 x14 + 1 x15 + 1 x16 + 1 x17 + 1 x18 + 1 x19 + 1 x20 + 1 x21 + 1 x22 + 1 x23 + 1 x24 + 1 x25 + 1 x26 + 1 x27 + 1 x28 + 1 x29 + 1 x30 + 1 x31 + 1 x32 + 1 x33 + 1 x34 + 1 x35 + 1 x36 + 1 x37 + 1 x38 + 1 x39 + 1 x40 + 1 x41 + 1 x42 + 1 x43 + 1 x44 + 1 x45 + 1 x46 + 1 x47 + 1 x48 + 1 x49 + 1 x50 + 1 x51 + 1 x52 + 1 x53 + 1 x54 + 1 x55 + 1 x56 + 1 x57 + 1 x58 + 1 x59 + 1 x60 + 1 x61 + 1 x62 + 1 x63 + 1 x64 + 1 x65 + 1 x66 + 1 x67 + 1 x68 + 1 x69 + 1 x70 + 1 x71 + 1 x72 + 1 x73 + 1 x74 + 1 x75 + 1 x76 + 1 x77 + 1 x78 + 1 x79 + 1 x80 + 1 x81 + 1 x82 + 1 x83 + 1 x84 + 1 x85 + 1 x86 + 1 x87 + 1 x88 + 1 x89 + 1 x90 + 1 x91 + 1 x92 + 1 x93 + 1 x94 + 1 x95 + 1 x96 + 1 x97 + 1 x98 + 1 x99 + 1 x100 + 1 x101 + 1 x102 + 1 x103 + 1 x104 + 1 x105 + 1 x106 + 1 x107 + 1 x108 + 1 x109 + 1 x110 + 1 x111 + 1 x112 + 1 x113 + 1 x114 + 1 x115 + 1 x116 + 1 x117 + 1 x118 + 1 x119 + 1 x120 + 1 x121 + 1 x122 + 1 x123 + 1 x124 + 1 x125 + 1 x126 + 1 x127 + 1 x128 + 1 x129 + 1 x130 + 1 x131 + 1 x132 + 1 x133 + 1 x134 + 1 x135 + 1 x136 + 1 x137 + 1 x138 + 1 x139 + 1 x140 + 1 x141 + 1 x142 + 1 x143 + 1 x144 + 1 x145 + 1 x146 + 1 x147 + 1 x148 + 1 x149 + 1 x150 + 1 x151 + 1 x152 + 1 x153 + 1 x154 + 1 x155 + 1 x156 + 1 x157 + 1 x158 + 1 x159 + 1 x160 + 1 x161 + 1 x162 + 1 x163 + 1 x164 + 1 x165 + 1 x166 + 1 x167 + 1 x168 + 1 x169 + 1 x170 + 1 x171 + 1 x172 + 1 x173 + 1 x174 + 1 x175 + 1 x176 + 1 x177 + 1 x178 + 1 x179 + 1 x180 + 1 x181 + 1 x182 + 1 x183 + 1 x184 + 1 x185 + 1 x186 + 1 x187 + 1 x188 + 1 x189 + 1 x190 + 1 x191 + 1 x192 + 1 x193 + 1 x194 + 1 x195 + 1 x196 + 1 x197 + 1 x198 + 1 x199 + 1 x200 + 1 x201 + 1 x202 + 1 x203 + 1 x204 + 1 x205 + 1 x206 + 1 x207 + 1 x208 + 1 x209 + 1 x210 + 1 x211 + 1 x212 + 1 x213 + 1 x214 + 1 x215 + 1 x216 + 1 x217 + 1 x218 + 1 x219 + 1 x220 + 1 x221 + 1 x222 + 1 x223 + 1 x224 + 1 x225 + 1 x226 + 1 x227 + 1 x228 + 1 x229 + 1 x230 + 1 x231 + 1 x232 + 1 x233 + 1 x234 + 1 x235 + 1 x236 + 1 x237 + 1 x238 + 1 x239 + 1 x240 + 1 x241 + 1 x242 + 1 x243 + 1 x244 + 1 x245 + 1 x246 + 1 x247 + 1 x248 + 1 x249 + 1 x250 + 1 x251 + 1 x252 + 1 x253 + 1 x254 + 1 x255 + 1 x256 + 1 x257 + 1 x258 + 1 x259 + 1 x260 + 1 x261 + 1 x262 + 1 x263 + 1 x264 + 1 x265 + 1 x266 + 1 x267 + 1 x268 + 1 x269 + 1 x270 + 1 x271 + 1 x272 + 1 x273 + 1 x274 + 1 x275 + 1 x276 + 1 x277 + 1 x278 + 1 x279 + 1 x280 + 1 x281 + 1 x282 + 1 x283 + 1 x284 + 1 x285 + 1 x286 + 1 x287 + 1 x288 + 1 x289 + 1 x290 + 1 x291 + 1 x292 + 1 x293 + 1 x294 + 1 x295 + 1 x296 + 1 x297 + 1 x298 + 1 x299 + 1 x300 + 1 x301 + 1 x302 + 1 x303 + 1 x304 + 1 x305 + 1 x306 + 1 x307 + 1 x308 + 1 x309 + 1 x310 + 1 x311 + 1 x312 + 1 x313 + 1 x314 + 1 x315 + 1 x316 + 1 x317 + 1 x318 + 1 x319 + 1 x320 + 1 x321 + 1 x322 + 1 x323 + 1 x324 + 1 x325 + 1 x326 + 1 x327 + 1 x328 + 1 x329 + 1 x330 + 1 x331 + 1 x332 + 1 x333 + 1 x334 + 1 x335 + 1 x336 + 1 x337 + 1 x338 + 1 x339 + 1 x340 + 1 x341 + 1 x342 + 1 x343 + 1 x344 + 1 x345 + 1 x346 + 1 x347 + 1 x348 + 1 x349 + 1 x350 + 1 x351 + 1 x352 + 1 x353 + 1 x354 + 1 x355 + 1 x356 + 1 x357 + 1 x358 + 1 x359 + 1 x360 + 1 x361 + 1 x362 + 1 x363 + 1 x364 + 1 x365 + 1 x366 + 1 x367 + 1 x368 + 1 x369 + 1 x370 + 1 x371 + 1 x372 + 1 x373 + 1 x374 + 1 x375 + 1 x376 + 1 x377 + 1 x378 + 1 x379 + 1 x380 + 1 x381 + 1 x382 + 1 x383 + 1 x384 + 1 x385 + 1 x386 + 1 x387 + 1 x388 + 1 x389 + 1 x390 + 1 x391 + 1 x392 + 1 x393 + 1 x394 + 1 x395 + 1 x396 + 1 x397 + 1 x398 + 1 x399 + 1 x400 + 1 x401 + 1 x402 + 1 x403 + 1 x404 + 1 x405 + 1 x406 + 1 x407 + 1 x408 + 1 x409 + 1 x410 + 1 x411 + 1 x412 + 1 x413 + 1 x414 + 1 x415 + 1 x416 + 1 x417 + 1 x418 + 1 x419 + 1 x420 + 1 x421 + 1 x422 + 1 x423 + 1 x424 + 1 x425 + 1 x426 + 1 x427 + 1 x428 + 1 x429 + 1 x430 + 1 x431 + 1 x432 + 1 x433 + 1 x434 + 1 x435 + 1 x436 + 1 x437 + 1 x438 + 1 x439 + 1 x440 + 1 x441 + 1 x442 + 1 x443 + 1 x444 + 1 x445 + 1 x446 + 1 x447 + 1 x448 + 1 x449 + 1 x450 + 1 x451 + 1 x452 + 1 x453 + 1 x454 + 1 x455 + 1 x456 + 1 x457 + 1 x458 + 1 x459 + 1 x460 + 1 x461 + 1 x462 + 1 x463 + 1 x464 + 1 x465 + 1 x466 + 1 x467 + 1 x468 + 1 x469 + 1 x470 + 1 x471 + 1 x472 + 1 x473 + 1 x474 + 1 x475 + 1 x476 + 1 x477 + 1 x478 + 1 x479 + 1 x480 + 1 x481 + 1 x482 + 1 x483 + 1 x484 + 1 x485 + 1 x486 + 1 x487 + 1 x488 + 1 x489 + 1 x490 + 1 x491 + 1 x492 + 1 x493 + 1 x494 + 1 x495 + 1 x496 + 1 x497 + 1 x498 + 1 x499 + 1 x500

subject to
C1: + x98 + x121 <= 1
C2: + x25 + x468 <= 1
C3: + x16 + x377 <= 1
C4: + x63 + x65 <= 1
C5: + x149 + x291 <= 1
C6: + x40 + x71 <= 1
C7: + x78 + x325 <= 1
C8: + x215 + x475 <= 1
C9: + x190 + x225 <= 1
C10: + x19 + x320 <= 1
C11: + x86 + x147 <= 1
C12: + x178 + x402 <= 1
C13: + x100 + x313 <= 1
C14: + x18 + x166 <= 1
C15: + x381 + x467 <= 1
C16: + x125 + x273 <= 1
C17: + x14 + x335 <= 1
C18: + x36 + x235 <= 1
C19: + x3 + x437 <= 1
C20: + x196 + x393 <= 1
C21: + x101 + x147 + x232 <= 1
C22: + x6 + x85 <= 1
C23: + x136 + x267 <= 1
C24: + x6 + x248 <= 1
C25: + x44 + x77 <= 1
C26: + x135 + x294 <= 1
C27: + x11 + x195 <= 1
C28: + x286 + x349 <= 1
C29: + x107 + x300 <= 1
C30: + x46 + x79 <= 1
C31: + x167 + x352 <= 1
C32: + x23 + x49 <= 1
C33: + x181 + x257 <= 1
C34: + x63 + x76 <= 1
C35: + x173 + x358 <= 1
C36: + x129 + x364 <= 1
C37: + x44 + x438 <= 1
C38: + x403 + x450 <= 1
C39: + x7 + x42 <= 1
C40: + x72 + x246 <= 1
C41: + x9 + x388 <= 1
C42: + x84 + x180 <= 1
C43: + x80 + x385 <= 1
C44: + x280 + x408 <= 1
C45: + x75 + x90 <= 1
C46: + x30 + x215 <= 1
C47: + x41 + x74 <= 1
C48: + x5 + x429 <= 1
C49: + x6 + x315 <= 1
C50: + x36 + x148 <= 1
C51: + x12 + x16 <= 1
C52: + x30 + x122 <= 1
C53: + x18 + x203 <= 1
C54: + x3 + x319 <= 1
C55: + x21 + x194 <= 1
C56: + x65 + x108 <= 1
C57: + x26 + x470 <= 1
C58: + x101 + x130 <= 1
C59: + x84 + x204 <= 1
C60: + x148 + x191 <= 1
C61: + x192 + x299 <= 1
C62: + x8 + x16 <= 1
C63: + x12 + x73 <= 1
C64: + x60 + x400 <= 1
C65: + x169 + x460 <= 1
C66: + x74 + x93 <= 1
C67: + x20 + x432 <= 1
C68: + x30 + x269 <= 1
C69: + x415 + x433 <= 1
C70: + x7 + x206 <= 1
C71: + x9 + x360 <= 1
C72: + x3 + x230 <= 1
C73: + x105 + x241 <= 1
C74: + x223 + x264 <= 1
C75: + x14 + x321 <= 1
C76: + x7 + x436 <= 1
C77: + x247 + x410 <= 1
C78: + x68 + x95 <= 1
C79: + x30 + x321 <= 1
C80: + x60 + x366 <= 1
C81: + x190 + x397 <= 1
C82: + x71 + x387 <= 1
C83: + x280 + x353 <= 1
C84: + x165 + x183 <= 1
C85: + x111 + x225 <= 1
C86: + x59 + x459 <= 1
C87: + x105 + x189 <= 1
C88: + x24 + x110 <= 1
C89: + x17 + x89 <= 1
C90: + x235 + x343 <= 1
C91: + x85 + x110 <= 1
C92: + x194 + x387 <= 1
C93: + x13 + x272 <= 1
C94: + x99 + x116 <= 1
C95: + x7 + x137 <= 1
C96: + x147 + x176 <= 1
C97: + x129 + x378 <= 1
C98: + x77 + x360 <= 1
C99: + x11 + x72 <= 1
C100: + x70 + x403 <= 1
C101: + x6 + x174 <= 1
C102: + x27 + x35 <= 1
C103: + x157 + x272 <= 1
C104: + x40 + x209 <= 1
C105: + x23 + x446 <= 1
C106: + x24 + x34 <= 1
C107: + x19 + x297 <= 1
C108: + x249 + x460 <= 1
C109: + x108 + x113 <= 1
C110: + x9 + x164 <= 1
C111: + x28 + x66 <= 1
C112: + x41 + x56 <= 1
C113: + x40 + x162 <= 1
C114: + x43 + x145 <= 1
C115: + x153 + x316 <= 1
C116: + x29 + x68 <= 1
C117: + x41 + x213 <= 1
C118: + x204 + x257 <= 1
C119: + x189 + x437 <= 1
C120: + x249 + x408 <= 1
C121: + x11 + x27 <= 1
C122: + x27 + x429 <= 1
C123: + x152 + x402 <= 1
C124: + x18 + x104 <= 1
C125: + x330 + x342 <= 1
C126: + x194 + x412 <= 1
C127: + x394 + x439 <= 1
C128: + x106 + x298 <= 1
C129: + x251 + x349 <= 1
C130: + x18 + x259 <= 1
C131: + x375 + x488 <= 1
C132: + x141 + x364 <= 1
C133: + x87 + x103 <= 1
C134: + x6 + x151 <= 1
C135: + x44 + x112 <= 1
C136: + x171 + x216 <= 1
C137: + x6 + x354 <= 1
C138: + x32 + x154 <= 1
C139: + x17 + x282 <= 1
C140: + x12 + x71 <= 1
C141: + x13 + x73 <= 1
C142: + x52 + x462 <= 1
C143: + x325 + x392 <= 1
C144: + x7 + x19 <= 1
C145: + x221 + x236 <= 1
C146: + x94 + x425 <= 1
C147: + x41 + x386 <= 1
C148: + x87 + x210 <= 1
C149: + x81 + x233 <= 1
C150: + x52 + x379 <= 1
C151: + x18 + x130 <= 1
C152: + x246 + x329 <= 1
C153: + x233 + x383 <= 1
C154: + x4 + x179 <= 1
C155: + x160 + x472 <= 1
C156: + x226 + x426 <= 1
C157: + x159 + x377 <= 1
C158: + x192 + x414 <= 1
C159: + x29 + x421 <= 1
C160: + x268 + x492 <= 1
C161: + x439 + x472 <= 1
C162: + x25 + x392 <= 1
C163: + x80 + x117 <= 1
C164: + x19 + x198 <= 1
C165: + x113 + x254 <= 1
C166: + x21 + x223 <= 1
C167: + x118 + x162 <= 1
C168: + x25 + x293 <= 1
C169: + x8 + x71 <= 1
C170: + x154 + x243 <= 1
C171: + x14 + x295 <= 1
C172: + x319 + x480 <= 1
C173: + x51 + x64 <= 1
C174: + x40 + x445 <= 1
C175: + x16 + x422 <= 1
C176: + x21 + x334 <= 1
C177: + x30 + x359 <= 1
C178: + x5 + x8 <= 1
C179: + x13 + x40 + x137 <= 1
C180: + x16 + x184 <= 1
C181: + x18 + x234 <= 1
C182: + x4 + x43 <= 1
C183: + x40 + x199 <= 1
C184: + x107 + x308 <= 1
C185: + x23 + x336 <= 1
C186: + x44 + x132 <= 1
C187: + x22 + x344 <= 1
C188: + x335 + x462 <= 1
C189: + x3 + x481 <= 1
C190: + x29 + x35 <= 1
C191: + x322 + x486 <= 1
C192: + x7 + x183 <= 1
C193: + x33 + x448 <= 1
C194: + x37 + x384 <= 1
C195: + x103 + x251 <= 1
C196: + x43 + x131 <= 1
C197: + x171 + x352 <= 1
C198: + x18 + x38 <= 1
C199: + x7 + x421 <= 1
C200: + x8 + x47 <= 1
C201: + x7 + x66 <= 1
C202: + x11 + x13 <= 1
C203: + x3 + x98 <= 1
C204: + x109 + x242 <= 1
C205: + x67 + x451 <= 1
C206: + x36 + x252 <= 1
C207: + x91 + x461 <= 1
C208: + x166 + x415 <= 1
C209: + x104 + x374 <= 1
C210: + x270 + x334 <= 1
C211: + x6 + x102 <= 1
C212: + x173 + x321 <= 1
C213: + x86 + x216 <= 1
C214: + x5 + x15 <= 1
C215: + x11 + x214 <= 1
C216: + x229 + x472 <= 1
C217: + x76 + x482 <= 1
C218: + x41 + x158 <= 1
C219: + x4 + x20 <= 1
C220: + x28 + x323 <= 1
C221: + x8 + x407 <= 1
C222: + x130 + x319 <= 1
C223: + x30 + x273 <= 1
C224: + x23 + x36 <= 1
C225: + x150 + x239 <= 1
C226: + x15 + x125 <= 1
C227: + x180 + x448 <= 1
C228: + x164 + x346 <= 1
C229: + x257 + x336 <= 1
C230: + x81 + x457 <= 1
C231: + x9 + x54 <= 1
C232: + x19 + x165 <= 1
C233: + x194 + x240 <= 1
C234: + x41 + x287 <= 1
C235: + x33 + x172 <= 1
C236: + x10 + x485 <= 1
C237: + x111 + x495 <= 1
C238: + x58 + x150 <= 1
C239: + x7 + x303 <= 1
C240: + x80 + x434 <= 1
C241: + x39 + x51 <= 1
C242: + x234 + x431 <= 1
C243: + x23 + x217 <= 1
C244: + x371 + x397 <= 1
C245: + x81 + x261 <= 1
C246: + x6 + x460 <= 1
C247: + x61 + x479 <= 1
C248: + x69 + x490 <= 1
C249: + x30 + x107 <= 1
C250: + x164 + x170 <= 1
C251: + x2 + x7 <= 1
C252: + x166 + x182 <= 1
C253: + x136 + x273 <= 1
C254: + x22 + x76 <= 1
C255: + x49 + x443 <= 1
C256: + x117 + x208 <= 1
C257: + x18 + x220 <= 1
C258: + x119 + x256 <= 1
C259: + x20 + x191 <= 1
C260: + x12 + x110 <= 1
C261: + x4 + x25 <= 1
C262: + x142 + x344 <= 1
C263: + x7 + x8 <= 1
C264: + x241 + x389 <= 1
C265: + x130 + x251 <= 1
C266: + x24 + x425 <= 1
C267: + x270 + x315 <= 1
C268: + x164 + x351 <= 1
C269: + x266 + x446 <= 1
C270: + x257 + x327 <= 1
C271: + x114 + x185 <= 1
C272: + x44 + x444 <= 1
C273: + x81 + x464 <= 1
C274: + x7 + x407 <= 1
C275: + x12 + x90 <= 1
C276: + x30 + x411 <= 1
C277: + x6 + x420 <= 1
C278: + x7 + x52 <= 1
C279: + x156 + x347 <= 1
C280: + x105 + x355 <= 1
C281: + x4 + x311 <= 1
C282: + x296 + x354 <= 1
C283: + x6 + x199 <= 1
C284: + x40 + x475 <= 1
C285: + x13 + x57 <= 1
C286: + x170 + x171 <= 1
C287: + x44 + x59 <= 1
C288: + x15 + x354 <= 1
C289: + x166 + x385 <= 1
C290: + x3 + x442 <= 1
C291: + x4 + x328 <= 1
C292: + x6 + x88 <= 1
C293: + x157 + x198 <= 1
C294: + x6 + x139 <= 1
C295: + x134 + x401 <= 1
C296: + x61 + x87 <= 1
C297: + x9 + x85 <= 1
C298: + x347 + x352 <= 1
C299: + x151 + x262 <= 1
C300: + x5 + x495 <= 1
C301: + x6 + x28 <= 1
C302: + x7 + x156 <= 1
C303: + x65 + x191 <= 1
C304: + x246 + x301 <= 1
C305: + x96 + x195 <= 1
C306: + x269 + x428 <= 1
C307: + x3 + x5 + x11 <= 1
C308: + x14 + x204 <= 1
C309: + x108 + x241 <= 1
C310: + x6 + x266 <= 1
C311: + x36 + x163 <= 1
C312: + x81 + x455 <= 1
C313: + x300 + x402 <= 1
C314: + x30 + x41 <= 1
C315: + x78 + x111 <= 1
C316: + x4 + x385 <= 1
C317: + x26 + x121 <= 1
C318: + x6 + x429 <= 1
C319: + x135 + x256 <= 1
C320: + x118 + x440 <= 1
C321: + x108 + x483 <= 1
C322: + x127 + x323 <= 1
C323: + x128 + x337 <= 1
C324: + x399 + x488 <= 1
C325: + x109 + x493 <= 1
C326: + x130 + x144 <= 1
C327: + x16 + x265 <= 1
C328: + x453 + x471 <= 1
C329: + x19 + x42 <= 1
C330: + x381 + x495 <= 1
C331: + x261 + x269 <= 1
C332: + x26 + x284 <= 1
C333: + x4 + x91 <= 1
C334: + x7 + x281 <= 1
C335: + x62 + x494 <= 1
C336: + x32 + x214 <= 1
C337: + x62 + x305 <= 1
C338: + x65 + x93 <= 1
C339: + x72 + x138 <= 1
C340: + x30 + x125 <= 1
C341: + x48 + x215 <= 1
C342: + x13 + x290 <= 1
C343: + x42 + x79 <= 1
C344: + x216 + x299 <= 1
C345: + x301 + x328 <= 1
C346: + x149 + x226 <= 1
C347: + x108 + x190 <= 1
C348: + x154 + x334 <= 1
C349: + x13 + x108 <= 1
C350: + x61 + x110 <= 1
C351: + x290 + x321 <= 1
C352: + x64 + x225 <= 1
C353: + x131 + x251 <= 1
C354: + x132 + x249 <= 1
C355: + x138 + x149 <= 1
C356: + x371 + x454 <= 1
C357: + x81 + x105 <= 1
C358: + x108 + x317 <= 1
C359: + x127 + x233 <= 1
C360: + x119 + x134 <= 1
C361: + x55 + x143 <= 1
C362: + x293 + x398 <= 1
C363: + x39 + x213 <= 1
C364: + x63 + x382 <= 1
C365: + x78 + x104 <= 1
C366: + x194 + x243 <= 1
C367: + x7 + x46 <= 1
C368: + x111 + x388 <= 1
C369: + x125 + x455 <= 1
C370: + x279 + x438 <= 1
C371: + x290 + x419 <= 1
C372: + x7 + x276 <= 1
C373: + x85 + x141 <= 1
C374: + x194 + x356 <= 1
C375: + x268 + x364 <= 1
C376: + x234 + x386 <= 1
C377: + x15 + x372 <= 1
C378: + x142 + x399 <= 1
C379: + x91 + x417 <= 1
C380: + x11 + x359 <= 1
C381: + x41 + x320 <= 1
C382: + x43 + x80 <= 1
C383: + x11 + x21 <= 1
C384: + x21 + x361 <= 1
C385: + x186 + x432 <= 1
C386: + x159 + x165 <= 1
C387: + x154 + x228 <= 1
C388: + x11 + x202 <= 1
C389: + x30 + x231 <= 1
C390: + x207 + x256 <= 1
C391: + x119 + x366 <= 1
C392: + x269 + x283 + x464 <= 1
C393: + x6 + x14 <= 1
C394: + x1 + x178 <= 1
C395: + x285 + x469 <= 1
C396: + x33 + x422 <= 1
C397: + x180 + x311 <= 1
C398: + x119 + x157 <= 1
C399: + x67 + x399 <= 1
C400: + x246 + x466 <= 1
C401: + x196 + x252 <= 1
C402: + x22 + x313 <= 1
C403: + x232 + x408 <= 1
C404: + x6 + x415 <= 1
C405: + x104 + x419 <= 1
C406: + x19 + x302 <= 1
C407: + x164 + x451 <= 1
C408: + x129 + x278 <= 1
C409: + x5 + x166 <= 1
C410: + x7 + x194 <= 1
C411: + x111 + x153 <= 1
C412: + x212 + x463 <= 1
C413: + x30 + x442 <= 1
C414: + x43 + x55 <= 1
C415: + x7 + x81 <= 1
C416: + x283 + x368 <= 1
C417: + x5 + x234 <= 1
C418: + x37 + x307 <= 1
C419: + x86 + x344 <= 1
C420: + x77 + x269 <= 1
C421: + x62 + x279 <= 1
C422: + x26 + x419 <= 1
C423: + x7 + x141 <= 1
C424: + x8 + x279 <= 1
C425: + x85 + x207 <= 1
C426: + x223 + x455 <= 1
C427: + x23 + x164 <= 1
C428: + x35 + x401 <= 1
C429: + x15 + x306 <= 1
C430: + x7 + x371 <= 1
C431: + x21 + x25 <= 1
C432: + x32 + x399 <= 1
C433: + x7 + x32 <= 1
C434: + x47 + x135 <= 1
C435: + x259 + x462 <= 1
C436: + x189 + x450 <= 1
C437: + x7 + x185 <= 1
C438: + x172 + x207 <= 1
C439: + x7 + x270 <= 1
C440: + x129 + x394 <= 1
C441: + x43 + x324 <= 1
C442: + x179 + x309 <= 1
C443: + x267 + x268 <= 1
C444: + x196 + x356 <= 1
C445: + x59 + x156 <= 1
C446: + x83 + x153 <= 1
C447: + x55 + x114 <= 1
C448: + x3 + x108 <= 1
C449: + x168 + x250 <= 1
C450: + x36 + x480 <= 1
C451: + x19 + x199 <= 1
C452: + x48 + x83 <= 1
C453: + x361 + x381 <= 1
C454: + x342 + x370 <= 1
C455: + x63 + x136 <= 1
C456: + x46 + x182 <= 1
C457: + x47 + x375 <= 1
C458: + x6 + x128 <= 1
C459: + x82 + x199 <= 1
C460: + x67 + x128 <= 1
C461: + x158 + x234 <= 1
C462: + x3 + x192 <= 1
C463: + x35 + x85 <= 1
C464: + x11 + x304 <= 1
C465: + x58 + x430 <= 1
C466: + x21 + x40 <= 1
C467: + x344 + x418 <= 1
C468: + x318 + x431 <= 1
C469: + x37 + x67 <= 1
C470: + x130 + x236 <= 1
C471: + x430 + x459 <= 1
C472: + x20 + x450 <= 1
C473: + x4 + x284 <= 1
C474: + x13 + x220 <= 1
C475: + x5 + x73 <= 1
C476: + x62 + x341 <= 1
C477: + x16 + x127 <= 1
C478: + x30 + x65 <= 1
C479: + x98 + x454 <= 1
C480: + x81 + x380 <= 1
C481: + x255 + x384 <= 1
C482: + x3 + x99 <= 1
C483: + x40 + x44 <= 1
C484: + x11 + x227 <= 1
C485: + x13 + x16 <= 1
C486: + x4 + x99 <= 1
C487: + x55 + x252 <= 1
C488: + x85 + x128 <= 1
C489: + x181 + x481 <= 1
C490: + x2 + x9 <= 1
C491: + x48 + x457 <= 1
C492: + x57 + x449 <= 1
C493: + x4 + x47 <= 1
C494: + x4 + x486 <= 1
C495: + x170 + x315 <= 1
C496: + x31 + x174 <= 1
C497: + x69 + x428 <= 1
C498: + x83 + x87 <= 1
C499: + x191 + x379 <= 1
C500: + x32 + x381 <= 1
C501: + x266 + x341 <= 1
C502: + x108 + x456 <= 1
C503: + x33 + x58 <= 1
C504: + x220 + x245 <= 1
C505: + x4 + x257 <= 1
C506: + x6 + x45 <= 1
C507: + x62 + x96 <= 1
C508: + x63 + x88 <= 1
C509: + x65 + x275 <= 1
C510: + x11 + x186 <= 1
C511: + x375 + x399 <= 1
C512: + x78 + x128 <= 1
C513: + x15 + x489 <= 1
C514: + x6 + x446 <= 1
C515: + x7 + x70 <= 1
C516: + x64 + x189 <= 1
C517: + x202 + x398 <= 1
C518: + x3 + x126 <= 1
C519: + x6 + x209 <= 1
C520: + x7 + x300 <= 1
C521: + x11 + x238 <= 1
C522: + x220 + x403 <= 1
C523: + x56 + x94 <= 1
C524: + x214 + x286 <= 1
C525: + x286 + x310 <= 1
C526: + x23 + x271 <= 1
C527: + x202 + x204 <= 1
C528: + x131 + x218 <= 1
C529: + x257 + x312 <= 1
C530: + x434 + x486 <= 1
C531: + x17 + x268 <= 1
C532: + x15 + x267 <= 1
C533: + x236 + x485 <= 1
C534: + x31 + x124 <= 1
C535: + x170 + x206 <= 1
C536: + x185 + x253 <= 1
C537: + x82 + x295 <= 1
C538: + x38 + x79 <= 1
C539: + x3 + x33 <= 1
C540: + x48 + x327 <= 1
C541: + x41 + x372 <= 1
C542: + x8 + x306 <= 1
C543: + x5 + x63 <= 1
C544: + x26 + x216 <= 1
C545: + x7 + x404 <= 1
C546: + x11 + x262 <= 1
C547: + x214 + x225 <= 1
C548: + x15 + x500 <= 1
C549: + x65 + x212 <= 1
C550: + x66 + x220 <= 1
C551: + x95 + x190 <= 1
C552: + x14 + x39 <= 1
C553: + x99 + x161 <= 1
C554: + x10 + x31 <= 1
C555: + x11 + x149 <= 1
C556: + x110 + x243 <= 1
C557: + x124 + x169 <= 1
C558: + x33 + x362 <= 1
C559: + x189 + x205 <= 1
C560: + x46 + x161 <= 1
C561: + x71 + x169 <= 1
C562: + x289 + x488 <= 1
C563: + x8 + x101 <= 1
C564: + x35 + x41 + x67 <= 1
C565: + x4 + x29 <= 1
C566: + x33 + x294 <= 1
C567: + x14 + x265 <= 1
C568: + x16 + x37 <= 1
C569: + x147 + x342 <= 1
C570: + x204 + x340 <= 1
C571: + x352 + x413 <= 1
C572: + x137 + x196 <= 1
C573: + x19 + x119 <= 1
C574: + x173 + x368 <= 1
C575: + x12 + x255 <= 1
C576: + x5 + x38 <= 1
C577: + x180 + x296 <= 1
C578: + x8 + x25 <= 1
C579: + x273 + x286 <= 1
C580: + x78 + x114 <= 1
C581: + x7 + x56 <= 1
C582: + x3 + x80 <= 1
C583: + x47 + x292 <= 1
C584: + x42 + x57 <= 1
C585: + x207 + x472 <= 1
C586: + x9 + x144 <= 1
C587: + x11 + x160 <= 1
C588: + x29 + x211 <= 1
C589: + x177 + x236 <= 1
C590: + x33 + x353 <= 1
C591: + x34 + x343 <= 1
C592: + x238 + x439 <= 1
C593: + x4 + x90 <= 1
C594: + x189 + x204 <= 1
C595: + x72 + x141 <= 1
C596: + x233 + x417 <= 1
C597: + x57 + x196 <= 1
C598: + x3 + x132 <= 1
C599: + x89 + x237 <= 1
C600: + x53 + x422 <= 1
C601: + x188 + x390 <= 1
C602: + x6 + x322 <= 1
C603: + x21 + x60 <= 1
C604: + x39 + x230 <= 1
C605: + x22 + x367 <= 1
C606: + x37 + x103 <= 1
C607: + x165 + x487 <= 1
C608: + x204 + x329 <= 1
C609: + x115 + x473 <= 1
C610: + x217 + x284 <= 1
C611: + x34 + x433 <= 1
C612: + x44 + x266 <= 1
C613: + x110 + x358 <= 1
C614: + x65 + x179 <= 1
C615: + x129 + x365 <= 1
C616: + x217 + x441 <= 1
C617: + x15 + x289 <= 1
C618: + x64 + x117 <= 1
C619: + x108 + x487 <= 1
C620: + x7 + x47 <= 1
C621: + x139 + x255 <= 1
C622: + x217 + x296 <= 1
C623: + x19 + x38 <= 1
C624: + x177 + x227 <= 1
C625: + x23 + x239 <= 1
C626: + x21 + x84 <= 1
C627: + x59 + x338 <= 1
C628: + x227 + x239 <= 1
C629: + x55 + x97 <= 1
C630: + x145 + x267 <= 1
C631: + x4 + x11 <= 1
C632: + x5 + x466 <= 1
C633: + x3 + x14 <= 1
C634: + x155 + x264 <= 1
C635: + x8 + x236 <= 1
C636: + x119 + x396 <= 1
C637: + x38 + x280 <= 1
C638: + x233 + x326 <= 1
C639: + x35 + x72 <= 1
C640: + x19 + x142 <= 1
C641: + x85 + x282 <= 1
C642: + x4 + x55 <= 1
C643: + x115 + x291 <= 1
C644: + x103 + x118 <= 1
C645: + x32 + x60 <= 1
C646: + x6 + x53 <= 1
C647: + x53 + x360 <= 1
C648: + x127 + x427 <= 1
C649: + x59 + x392 <= 1
C650: + x14 + x384 <= 1
C651: + x15 + x376 <= 1
C652: + x29 + x70 <= 1
C653: + x21 + x91 <= 1
C654: + x33 + x129 <= 1
C655: + x31 + x315 <= 1
C656: + x15 + x17 <= 1
C657: + x196 + x378 <= 1
C658: + x344 + x491 <= 1
C659: + x21 + x373 <= 1
C660: + x258 + x412 <= 1
C661: + x23 + x81 <= 1
C662: + x9 + x234 <= 1
C663: + x103 + x259 <= 1
C664: + x248 + x438 <= 1
C665: + x96 + x410 <= 1
C666: + x36 + x200 <= 1
C667: + x112 + x411 <= 1
C668: + x6 + x10 <= 1
C669: + x26 + x478 <= 1
C670: + x347 + x463 <= 1
C671: + x37 + x391 <= 1
C672: + x30 + x148 <= 1
C673: + x10 + x170 <= 1
C674: + x4 + x64 <= 1
C675: + x85 + x246 + x490 <= 1
C676: + x7 + x25 <= 1
C677: + x66 + x168 <= 1
C678: + x32 + x33 <= 1
C679: + x6 + x62 <= 1
C680: + x70 + x291 <= 1
C681: + x7 + x271 <= 1
C682: + x173 + x214 <= 1
C683: + x30 + x168 <= 1
C684: + x51 + x292 <= 1
C685: + x197 + x263 <= 1
C686: + x133 + x455 <= 1
C687: + x15 + x383 <= 1
C688: + x10 + x150 <= 1
C689: + x293 + x357 <= 1
C690: + x21 + x415 <= 1
C691: + x22 + x265 <= 1
C692: + x150 + x324 <= 1
C693: + x123 + x349 <= 1
C694: + x7 + x85 <= 1
C695: + x318 + x365 <= 1
C696: + x28 + x395 <= 1
C697: + x102 + x400 <= 1
C698: + x67 + x173 <= 1
C699: + x12 + x303 <= 1
C700: + x49 + x347 <= 1
C701: + x181 + x459 <= 1
C702: + x40 + x50 <= 1
C703: + x23 + x108 <= 1
C704: + x9 + x145 <= 1
C705: + x119 + x224 <= 1
C706: + x21 + x209 <= 1
C707: + x177 + x205 <= 1
C708: + x51 + x280 <= 1
C709: + x33 + x247 <= 1
C710: + x63 + x129 <= 1
C711: + x10 + x322 <= 1
C712: + x128 + x264 <= 1
C713: + x310 + x417 <= 1
C714: + x3 + x467 <= 1
C715: + x25 + x49 <= 1
C716: + x91 + x157 <= 1
C717: + x36 + x428 <= 1
C718: + x65 + x136 <= 1
C719: + x13 + x229 <= 1
C720: + x6 + x353 <= 1
C721: + x72 + x317 <= 1
C722: + x13 + x74 <= 1
C723: + x4 + x37 <= 1
C724: + x97 + x387 <= 1
C725: + x29 + x402 <= 1
C726: + x194 + x471 <= 1
C727: + x87 + x215 <= 1
C728: + x39 + x86 <= 1
C729: + x21 + x140 <= 1
C730: + x107 + x345 <= 1
C731: + x35 + x46 <= 1
C732: + x127 + x203 <= 1
C733: + x15 + x322 <= 1
C734: + x153 + x260 <= 1
C735: + x6 + x277 <= 1
C736: + x30 + x68 <= 1
C737: + x11 + x458 <= 1
C738: + x7 + x318 <= 1
C739: + x111 + x244 <= 1
C740: + x84 + x113 <= 1
C741: + x158 + x373 <= 1
C742: + x124 + x154 <= 1
C743: + x23 + x208 <= 1
C744: + x3 + x430 <= 1
C745: + x3 + x23 <= 1
C746: + x33 + x107 <= 1
C747: + x6 + x124 <= 1
C748: + x26 + x331 <= 1
C749: + x27 + x54 <= 1
C750: + x2 + x343 <= 1
C751: + x3 + x349 <= 1
C752: + x12 + x127 <= 1
C753: + x4 + x46 <= 1
C754: + x108 + x451 <= 1
C755: + x16 + x470 <= 1
C756: + x8 + x409 <= 1
C757: + x13 + x371 <= 1
C758: + x243 + x254 <= 1
C759: + x6 + x48 <= 1
C760: + x188 + x491 <= 1
C761: + x11 + x187 <= 1
C762: + x39 + x77 <= 1
C763: + x125 + x250 <= 1
C764: + x179 + x300 <= 1
C765: + x11 + x288 <= 1
C766: + x12 + x43 <= 1
C767: + x150 + x342 <= 1
C768: + x64 + x180 <= 1
C769: + x180 + x326 <= 1
C770: + x9 + x330 <= 1
C771: + x10 + x17 <= 1
C772: + x2 + x148 <= 1
C773: + x8 + x191 <= 1
C774: + x66 + x468 <= 1
C775: + x9 + x124 <= 1
C776: + x139 + x285 <= 1
C777: + x103 + x401 <= 1
C778: + x3 + x18 <= 1
C779: + x414 + x498 <= 1
C780: + x6 + x101 <= 1
C781: + x133 + x235 <= 1
C782: + x419 + x426 <= 1
C783: + x37 + x436 <= 1
C784: + x105 + x290 <= 1
C785: + x29 + x59 <= 1
C786: + x340 + x450 <= 1
C787: + x5 + x159 <= 1
C788: + x14 + x118 <= 1
C789: + x91 + x179 <= 1
C790: + x246 + x346 <= 1
C791: + x165 + x232 <= 1
C792: + x129 + x412 <= 1
C793: + x12 + x197 <= 1
C794: + x34 + x184 <= 1
C795: + x125 + x241 <= 1
C796: + x91 + x385 <= 1
C797: + x9 + x55 <= 1
C798: + x8 + x39 <= 1
C799: + x11 + x263 <= 1
C800: + x319 + x387 <= 1
C801: + x5 + x302 <= 1
C802: + x405 + x414 <= 1
C803: + x80 + x167 <= 1
C804: + x30 + x292 <= 1
C805: + x5 + x195 <= 1
C806: + x7 + x219 <= 1
C807: + x7 + x304 <= 1
C808: + x152 + x345 <= 1
C809: + x166 + x292 <= 1
C810: + x105 + x154 <= 1
C811: + x15 + x416 <= 1
C812: + x41 + x332 <= 1
C813: + x5 + x338 <= 1
C814: + x2 + x6 <= 1
C815: + x22 + x75 <= 1
C816: + x9 + x242 <= 1
C817: + x272 + x303 <= 1
C818: + x68 + x261 <= 1
C819: + x4 + x28 <= 1
C820: + x70 + x100 <= 1
C821: + x35 + x200 <= 1
C822: + x26 + x43 <= 1
C823: + x267 + x338 <= 1
C824: + x5 + x134 <= 1
C825: + x6 + x18 <= 1
C826: + x71 + x98 <= 1
C827: + x113 + x312 <= 1
C828: + x104 + x133 <= 1
C829: + x189 + x245 <= 1
C830: + x8 + x32 <= 1
C831: + x93 + x444 <= 1
C832: + x5 + x277 <= 1
C833: + x82 + x114 <= 1
C834: + x337 + x435 <= 1
C835: + x41 + x420 <= 1
C836: + x40 + x470 <= 1
C837: + x79 + x81 <= 1
C838: + x46 + x378 <= 1
C839: + x230 + x493 <= 1
C840: + x105 + x129 <= 1
C841: + x43 + x186 <= 1
C842: + x99 + x331 <= 1
C843: + x167 + x366 <= 1
C844: + x129 + x233 <= 1
C845: + x193 + x414 <= 1
C846: + x158 + x241 <= 1
C847: + x44 + x75 <= 1
C848: + x3 + x298 <= 1
C849: + x48 + x186 <= 1
C850: + x106 + x406 <= 1
C851: + x40 + x316 <= 1
C852: + x399 + x473 <= 1
C853: + x105 + x447 <= 1
C854: + x15 + x80 <= 1
C855: + x11 + x88 <= 1
C856: + x29 + x283 <= 1
C857: + x221 + x475 <= 1
C858: + x225 + x361 <= 1
C859: + x5 + x34 <= 1
C860: + x23 + x160 <= 1
C861: + x170 + x231 <= 1
C862: + x117 + x303 <= 1
C863: + x11 + x265 <= 1
C864: + x156 + x440 <= 1
C865: + x95 + x443 <= 1
C866: + x12 + x82 <= 1
C867: + x108 + x486 <= 1
C868: + x7 + x44 <= 1
C869: + x67 + x140 <= 1
C870: + x107 + x115 <= 1
C871: + x89 + x165 <= 1
C872: + x17 + x322 <= 1
C873: + x136 + x497 <= 1
C874: + x33 + x357 <= 1
C875: + x62 + x336 <= 1
C876: + x12 + x14 <= 1
C877: + x33 + x119 <= 1
C878: + x141 + x163 <= 1
C879: + x53 + x269 <= 1
C880: + x71 + x168 <= 1
C881: + x6 + x96 <= 1
C882: + x75 + x274 <= 1
C883: + x354 + x356 <= 1
C884: + x3 + x160 <= 1
C885: + x185 + x306 <= 1
C886: + x258 + x398 <= 1
C887: + x64 + x147 <= 1
C888: + x11 + x107 <= 1
C889: + x86 + x226 <= 1
C890: + x11 + x466 <= 1
C891: + x33 + x468 <= 1
C892: + x35 + x117 <= 1
C893: + x311 + x421 <= 1
C894: + x4 + x10 <= 1
C895: + x388 + x487 <= 1
C896: + x80 + x362 <= 1
C897: + x19 + x384 <= 1
C898: + x102 + x482 <= 1
C899: + x392 + x407 <= 1
C900: + x59 + x212 <= 1
C901: + x81 + x205 <= 1
C902: + x62 + x103 <= 1
C903: + x6 + x167 <= 1
C904: + x99 + x224 <= 1
C905: + x26 + x371 <= 1
C906: + x30 + x33 <= 1
C907: + x78 + x476 <= 1
C908: + x7 + x35 <= 1
C909: + x74 + x95 <= 1
C910: + x6 + x56 <= 1
C911: + x7 + x208 <= 1
C912: + x9 + x187 <= 1
C913: + x10 + x13 <= 1
C914: + x11 + x131 <= 1
C915: + x278 + x432 <= 1
C916: + x116 + x317 <= 1
C917: + x143 + x294 <= 1
C918: + x103 + x445 <= 1
C919: + x276 + x283 <= 1
C920: + x33 + x142 <= 1
C921: + x163 + x427 <= 1
C922: + x172 + x414 <= 1
C923: + x11 + x22 <= 1
C924: + x12 + x309 <= 1
C925: + x4 + x212 <= 1
C926: + x23 + x94 <= 1
C927: + x5 + x228 <= 1
C928: + x80 + x101 <= 1
C929: + x26 + x304 <= 1
C930: + x78 + x318 <= 1
C931: + x11 + x247 <= 1
C932: + x51 + x445 <= 1
C933: + x24 + x84 <= 1
C934: + x147 + x324 <= 1
C935: + x103 + x489 <= 1
C936: + x3 + x10 <= 1
C937: + x6 + x13 <= 1
C938: + x7 + x139 <= 1
C939: + x127 + x483 <= 1
C940: + x155 + x253 <= 1
C941: + x103 + x159 <= 1
C942: + x3 + x171 <= 1
C943: + x26 + x175 <= 1
C944: + x190 + x337 <= 1
C945: + x219 + x243 <= 1
C946: + x402 + x435 <= 1
C947: + x234 + x239 <= 1
C948: + x234 + x394 <= 1
C949: + x5 + x92 <= 1
C950: + x88 + x469 <= 1
C951: + x154 + x430 <= 1
C952: + x37 + x173 <= 1
C953: + x12 + x60 <= 1
C954: + x59 + x146 <= 1
C955: + x170 + x499 <= 1
C956: + x18 + x465 <= 1
C957: + x10 + x500 <= 1
C958: + x104 + x245 <= 1
C959: + x261 + x296 <= 1
C960: + x270 + x461 <= 1
C961: + x153 + x492 <= 1
C962: + x33 + x335 <= 1
C963: + x33 + x244 <= 1
C964: + x125 + x189 <= 1
C965: + x87 + x443 <= 1
C966: + x127 + x137 <= 1
C967: + x61 + x125 <= 1
C968: + x82 + x418 <= 1
C969: + x2 + x62 <= 1
C970: + x107 + x221 <= 1
C971: + x5 + x31 <= 1
C972: + x1 + x87 <= 1
C973: + x19 + x129 <= 1
C974: + x134 + x210 <= 1
C975: + x55 + x59 <= 1
C976: + x217 + x314 <= 1
C977: + x108 + x120 <= 1
C978: + x246 + x331 <= 1
C979: + x121 + x355 <= 1
C980: + x151 + x491 <= 1
C981: + x386 + x441 <= 1
C982: + x15 + x32 <= 1
C983: + x6 + x75 <= 1
C984: + x249 + x413 <= 1
C985: + x7 + x319 <= 1
C986: + x12 + x130 <= 1
C987: + x233 + x297 <= 1
C988: + x125 + x271 <= 1
C989: + x18 + x91 <= 1
C990: + x127 + x180 <= 1
C991: + x128 + x260 <= 1
C992: + x111 + x330 <= 1
C993: + x49 + x153 <= 1
C994: + x103 + x411 <= 1
C995: + x12 + x436 <= 1
C996: + x23 + x479 <= 1
C997: + x106 + x301 <= 1
C998: + x11 + x76 <= 1
C999: + x60 + x310 <= 1
C1000: + x107 + x200 <= 1
C1001: + x380 + x441 <= 1
C1002: + x5 + x6 <= 1
C1003: + x11 + x301 <= 1
C1004: + x12 + x126 <= 1
C1005: + x22 + x159 <= 1
C1006: + x40 + x197 <= 1
C1007: + x379 + x416 <= 1
C1008: + x125 + x144 <= 1
C1009: + x7 + x24 <= 1
C1010: + x166 + x476 <= 1
C1011: + x29 + x494 <= 1
C1012: + x3 + x48 <= 1
C1013: + x159 + x211 <= 1
C1014: + x7 + x177 <= 1
C1015: + x211 + x280 <= 1
C1016: + x166 + x202 <= 1
C1017: + x20 + x288 <= 1
C1018: + x32 + x201 <= 1
C1019: + x5 + x391 <= 1
C1020: + x289 + x432 <= 1
C1021: + x8 + x45 <= 1
C1022: + x138 + x470 <= 1
C1023: + x59 + x375 <= 1
C1024: + x23 + x390 <= 1
C1025: + x10 + x23 + x337 <= 1
C1026: + x355 + x376 <= 1
C1027: + x19 + x465 <= 1
C1028: + x2 + x393 <= 1
C1029: + x228 + x256 <= 1
C1030: + x58 + x143 <= 1
C1031: + x102 + x437 <= 1
C1032: + x13 + x172 <= 1
C1033: + x282 + x484 <= 1
C1034: + x44 + x203 <= 1
C1035: + x55 + x249 <= 1
C1036: + x138 + x386 <= 1
C1037: + x50 + x171 <= 1
C1038: + x22 + x482 <= 1
C1039: + x161 + x404 <= 1
C1040: + x6 + x104 <= 1
C1041: + x17 + x489 <= 1
C1042: + x83 + x274 <= 1
C1043: + x78 + x285 <= 1
C1044: + x440 + x495 <= 1
C1045: + x83 + x435 <= 1
C1046: + x37 + x278 <= 1
C1047: + x122 + x246 <= 1
C1048: + x7 + x15 <= 1
C1049: + x80 + x146 <= 1
C1050: + x62 + x252 <= 1
C1051: + x215 + x366 <= 1
C1052: + x35 + x275 <= 1
C1053: + x18 + x299 <= 1
C1054: + x72 + x124 <= 1
C1055: + x98 + x109 <= 1
C1056: + x5 + x148 <= 1
C1057: + x159 + x460 <= 1
C1058: + x7 + x410 <= 1
C1059: + x1 + x113 <= 1
C1060: + x59 + x171 <= 1
C1061: + x306 + x334 <= 1
C1062: + x127 + x339 <= 1
C1063: + x119 + x480 <= 1
C1064: + x202 + x397 <= 1
C1065: + x138 + x205 <= 1
C1066: + x26 + x268 <= 1
C1067: + x91 + x309 <= 1
C1068: + x197 + x293 <= 1
C1069: + x478 + x491 <= 1
C1070: + x29 + x99 <= 1
C1071: + x12 + x27 <= 1
C1072: + x30 + x109 <= 1
C1073: + x351 + x465 <= 1
C1074: + x110 + x138 <= 1
C1075: + x47 + x483 <= 1
C1076: + x5 + x12 <= 1
C1077: + x63 + x258 <= 1
C1078: + x135 + x298 <= 1
C1079: + x4 + x23 <= 1
C1080: + x6 + x498 <= 1
C1081: + x88 + x268 <= 1
C1082: + x177 + x477 <= 1
C1083: + x197 + x475 <= 1
C1084: + x6 + x21 <= 1
C1085: + x4 + x6 + x7 <= 1
C1086: + x86 + x295 <= 1
C1087: + x13 + x203 <= 1
C1088: + x9 + x59 <= 1
C1089: + x83 + x482 <= 1
C1090: + x16 + x80 <= 1
C1091: + x114 + x425 <= 1
C1092: + x21 + x440 <= 1
C1093: + x43 + x44 <= 1
C1094: + x7 + x62 <= 1
C1095: + x228 + x238 <= 1
C1096: + x129 + x271 <= 1
C1097: + x221 + x376 <= 1
C1098: + x66 + x270 <= 1
C1099: + x10 + x30 <= 1
C1100: + x120 + x175 <= 1
C1101: + x6 + x311 <= 1
C1102: + x18 + x78 <= 1
C1103: + x30 + x102 <= 1
C1104: + x367 + x382 <= 1
C1105: + x15 + x61 <= 1
C1106: + x221 + x396 <= 1
C1107: + x296 + x348 <= 1
C1108: + x100 + x181 <= 1
C1109: + x211 + x370 <= 1
C1110: + x29 + x233 <= 1
C1111: + x115 + x177 <= 1
C1112: + x80 + x360 <= 1
C1113: + x267 + x350 <= 1
C1114: + x18 + x293 <= 1
C1115: + x75 + x105 <= 1
C1116: + x39 + x115 <= 1
C1117: + x176 + x217 <= 1
C1118: + x296 + x400 <= 1
C1119: + x107 + x229 <= 1
C1120: + x53 + x89 <= 1
C1121: + x10 + x182 <= 1
C1122: + x35 + x152 <= 1
C1123: + x100 + x480 <= 1
C1124: + x5 + x182 <= 1
C1125: + x107 + x169 <= 1
C1126: + x108 + x370 <= 1
C1127: + x91 + x476 <= 1
C1128: + x6 + x320 <= 1
C1129: + x81 + x497 <= 1
C1130: + x222 + x319 <= 1
C1131: + x30 + x426 <= 1
C1132: + x6 + x83 <= 1
C1133: + x27 + x317 <= 1
C1134: + x102 + x404 <= 1
C1135: + x11 + x467 <= 1
C1136: + x14 + x19 <= 1
C1137: + x25 + x430 <= 1
C1138: + x237 + x478 <= 1
C1139: + x441 + x449 <= 1
C1140: + x4 + x5 <= 1
C1141: + x34 + x213 <= 1
C1142: + x26 + x56 <= 1
C1143: + x81 + x301 <= 1
C1144: + x80 + x365 <= 1
C1145: + x339 + x398 <= 1
C1146: + x192 + x457 <= 1
C1147: + x25 + x477 <= 1
C1148: + x208 + x388 <= 1
C1149: + x101 + x133 <= 1
C1150: + x4 + x150 <= 1
C1151: + x33 + x429 <= 1
C1152: + x15 + x237 <= 1
C1153: + x2 + x330 <= 1
C1154: + x241 + x272 <= 1
C1155: + x268 + x281 <= 1
C1156: + x214 + x242 <= 1
C1157: + x234 + x499 <= 1
C1158: + x25 + x76 <= 1
C1159: + x6 + x408 <= 1
C1160: + x275 + x280 <= 1
C1161: + x12 + x328 <= 1
C1162: + x261 + x266 <= 1
C1163: + x426 + x463 <= 1
C1164: + x154 + x261 <= 1
C1165: + x113 + x287 <= 1
C1166: + x12 + x163 <= 1
C1167: + x9 + x21 <= 1
C1168: + x30 + x419 <= 1
C1169: + x394 + x479 <= 1
C1170: + x227 + x240 <= 1
C1171: + x165 + x416 <= 1
C1172: + x67 + x92 <= 1
C1173: + x69 + x364 <= 1
C1174: + x18 + x201 <= 1
C1175: + x19 + x215 <= 1
C1176: + x100 + x163 <= 1
C1177: + x40 + x226 <= 1
C1178: + x14 + x314 <= 1
C1179: + x118 + x120 <= 1
C1180: + x84 + x316 <= 1
C1181: + x414 + x493 <= 1
C1182: + x88 + x246 <= 1
C1183: + x347 + x453 <= 1
C1184: + x19 + x106 <= 1
C1185: + x2 + x40 <= 1
C1186: + x3 + x176 <= 1
C1187: + x86 + x306 <= 1
C1188: + x4 + x155 <= 1
C1189: + x15 + x248 <= 1
C1190: + x15 + x297 <= 1
C1191: + x8 + x10 <= 1
C1192: + x67 + x433 <= 1
C1193: + x20 + x160 <= 1
C1194: + x4 + x58 <= 1
C1195: + x26 + x69 <= 1
C1196: + x7 + x39 <= 1
C1197: + x123 + x484 <= 1
C1198: + x51 + x69 <= 1
C1199: + x82 + x131 <= 1
C1200: + x456 + x497 <= 1
C1201: + x149 + x263 <= 1
C1202: + x89 + x386 <= 1
C1203: + x194 + x426 + x496 <= 1
C1204: + x136 + x176 <= 1
C1205: + x11 + x18 <= 1
C1206: + x67 + x83 <= 1
C1207: + x147 + x250 <= 1
C1208: + x3 + x147 <= 1
C1209: + x59 + x120 <= 1
C1210: + x77 + x174 <= 1
C1211: + x5 + x240 <= 1
C1212: + x419 + x458 <= 1
C1213: + x262 + x435 <= 1
C1214: + x165 + x177 <= 1
C1215: + x154 + x346 <= 1
C1216: + x131 + x481 <= 1
C1217: + x12 + x152 <= 1
C1218: + x17 + x91 <= 1
C1219: + x72 + x178 <= 1
C1220: + x84 + x449 <= 1
C1221: + x399 + x431 <= 1
C1222: + x3 + x6 <= 1
C1223: + x187 + x404 <= 1
C1224: + x179 + x469 <= 1
C1225: + x6 + x9 <= 1
C1226: + x7 + x143 <= 1
C1227: + x8 + x228 <= 1
C1228: + x11 + x70 <= 1
C1229: + x21 + x186 <= 1
C1230: + x297 + x323 <= 1
C1231: + x5 + x20 <= 1
C1232: + x151 + x412 <= 1
C1233: + x281 + x423 <= 1
C1234: + x314 + x456 <= 1
C1235: + x25 + x90 <= 1
C1236: + x44 + x152 <= 1
C1237: + x7 + x26 <= 1
C1238: + x101 + x461 <= 1
C1239: + x100 + x499 <= 1
C1240: + x15 + x106 <= 1
C1241: + x10 + x58 <= 1
C1242: + x11 + x138 <= 1
C1243: + x8 + x152 <= 1
C1244: + x111 + x158 <= 1
C1245: + x43 + x326 <= 1
C1246: + x23 + x291 <= 1
C1247: + x18 + x42 <= 1
C1248: + x309 + x484 <= 1
C1249: + x7 + x425 <= 1
C1250: + x114 + x126 <= 1
C1251: + x12 + x64 <= 1
C1252: + x100 + x447 <= 1
C1253: + x199 + x278 <= 1
C1254: + x84 + x144 <= 1
C1255: + x234 + x287 <= 1
C1256: + x40 + x49 <= 1
C1257: + x79 + x118 <= 1
C1258: + x426 + x485 <= 1
C1259: + x223 + x313 <= 1
C1260: + x89 + x469 <= 1
C1261: + x1 + x444 <= 1
C1262: + x56 + x145 <= 1
C1263: + x3 + x29 <= 1
C1264: + x30 + x457 <= 1
C1265: + x20 + x500 <= 1
C1266: + x70 + x231 <= 1
C1267: + x107 + x424 <= 1
C1268: + x54 + x451 <= 1
C1269: + x66 + x370 <= 1
C1270: + x141 + x358 <= 1
C1271: + x40 + x279 <= 1
C1272: + x72 + x227 <= 1
C1273: + x37 + x65 <= 1
C1274: + x20 + x448 <= 1
C1275: + x12 + x363 <= 1
C1276: + x4 + x282 <= 1
C1277: + x23 + x24 <= 1
C1278: + x6 + x38 <= 1
C1279: + x5 + x170 <= 1
C1280: + x7 + x190 <= 1
C1281: + x91 + x162 <= 1
C1282: + x49 + x452 <= 1
C1283: + x30 + x192 <= 1
C1284: + x40 + x89 <= 1
C1285: + x224 + x400 <= 1
C1286: + x6 + x276 <= 1
C1287: + x134 + x367 <= 1
C1288: + x8 + x52 <= 1
C1289: + x121 + x196 <= 1
C1290: + x77 + x127 <= 1
C1291: + x252 + x262 <= 1
C1292: + x26 + x99 <= 1
C1293: + x176 + x178 <= 1
C1294: + x145 + x369 <= 1
C1295: + x1 + x22 <= 1
C1296: + x21 + x217 <= 1
C1297: + x4 + x97 <= 1
C1298: + x60 + x473 <= 1
C1299: + x5 + x464 <= 1
C1300: + x133 + x499 <= 1
C1301: + x13 + x14 <= 1
C1302: + x47 + x380 <= 1
C1303: + x19 + x29 + x377 <= 1
C1304: + x9 + x467 <= 1
C1305: + x19 + x83 <= 1
C1306: + x23 + x192 <= 1
C1307: + x17 + x275 <= 1
C1308: + x9 + x197 <= 1
C1309: + x10 + x219 <= 1
C1310: + x92 + x97 <= 1
C1311: + x20 + x179 <= 1
C1312: + x38 + x229 <= 1
C1313: + x4 + x45 <= 1
C1314: + x60 + x92 <= 1
C1315: + x42 + x226 <= 1
C1316: + x24 + x50 <= 1
C1317: + x110 + x474 <= 1
C1318: + x38 + x72 <= 1
C1319: + x30 + x278 <= 1
C1320: + x7 + x181 <= 1
C1321: + x144 + x167 <= 1
C1322: + x8 + x134 <= 1
C1323: + x13 + x209 <= 1
C1324: + x107 + x248 <= 1
C1325: + x40 + x82 <= 1
C1326: + x5 + x54 <= 1
C1327: + x16 + x70 <= 1
C1328: + x143 + x259 <= 1
C1329: + x244 + x459 <= 1
C1330: + x249 + x331 <= 1
C1331: + x231 + x367 <= 1
C1332: + x15 + x30 + x48 <= 1
C1333: + x362 + x452 <= 1
C1334: + x15 + x136 <= 1
C1335: + x23 + x123 <= 1
C1336: + x7 + x310 <= 1
C1337: + x80 + x427 <= 1
C1338: + x166 + x314 <= 1
C1339: + x12 + x187 <= 1
C1340: + x116 + x237 <= 1
C1341: + x24 + x123 <= 1
C1342: + x349 + x474 <= 1
C1343: + x61 + x212 <= 1
C1344: + x6 + x100 <= 1
C1345: + x181 + x494 <= 1
C1346: + x7 + x116 <= 1
C1347: + x110 + x141 <= 1
C1348: + x80 + x237 <= 1
C1349: + x64 + x318 <= 1
C1350: + x5 + x9 <= 1
C1351: + x32 + x138 <= 1
C1352: + x14 + x228 <= 1
C1353: + x7 + x354 <= 1
C1354: + x29 + x151 <= 1
C1355: + x3 + x341 <= 1
C1356: + x77 + x500 <= 1
C1357: + x104 + x453 <= 1
C1358: + x108 + x443 <= 1
C1359: + x26 + x33 <= 1
C1360: + x334 + x413 <= 1
C1361: + x56 + x187 <= 1
C1362: + x58 + x277 <= 1
C1363: + x12 + x409 <= 1
C1364: + x278 + x365 <= 1
C1365: + x6 + x24 <= 1
C1366: + x40 + x79 <= 1
C1367: + x235 + x389 <= 1
C1368: + x26 + x210 <= 1
C1369: + x4 + x405 <= 1
C1370: + x1 + x274 <= 1
C1371: + x84 + x368 <= 1
C1372: + x2 + x390 <= 1
C1373: + x3 + x119 <= 1
C1374: + x150 + x177 <= 1
C1375: + x11 + x151 <= 1
C1376: + x120 + x369 <= 1
C1377: + x29 + x127 <= 1
C1378: + x12 + x31 <= 1
C1379: + x33 + x122 <= 1
C1380: + x7 + x107 <= 1
C1381: + x2 + x5 <= 1
C1382: + x58 + x104 <= 1
C1383: + x3 + x139 <= 1
C1384: + x129 + x328 <= 1
C1385: + x25 + x420 <= 1
C1386: + x193 + x392 <= 1
C1387: + x360 + x415 <= 1
C1388: + x18 + x218 <= 1
C1389: + x11 + x219 <= 1
C1390: + x29 + x238 <= 1
C1391: + x3 + x304 <= 1
C1392: + x13 + x120 <= 1
C1393: + x21 + x51 <= 1
C1394: + x87 + x416 <= 1
C1395: + x4 + x27 <= 1
C1396: + x310 + x335 <= 1
C1397: + x67 + x305 <= 1
C1398: + x6 + x17 <= 1
C1399: + x62 + x84 <= 1
C1400: + x99 + x106 <= 1
C1401: + x133 + x263 <= 1
C1402: + x81 + x224 <= 1
C1403: + x26 + x453 <= 1
C1404: + x19 + x121 <= 1
C1405: + x6 + x180 <= 1
C1406: + x15 + x348 <= 1
C1407: + x19 + x158 <= 1
C1408: + x3 + x356 <= 1
C1409: + x78 + x116 <= 1
C1410: + x17 + x47 <= 1
C1411: + x7 + x50 <= 1
C1412: + x10 + x276 <= 1
C1413: + x178 + x403 <= 1
C1414: + x360 + x420 <= 1
C1415: + x6 + x197 <= 1
C1416: + x109 + x277 <= 1
C1417: + x211 + x314 <= 1
C1418: + x140 + x297 <= 1
C1419: + x5 + x112 <= 1
C1420: + x53 + x98 <= 1
C1421: + x16 + x32 <= 1
C1422: + x313 + x410 <= 1
C1423: + x12 + x24 <= 1
C1424: + x41 + x308 <= 1
C1425: + x133 + x218 <= 1
C1426: + x18 + x493 <= 1
C1427: + x156 + x361 <= 1
C1428: + x14 + x22 <= 1
C1429: + x44 + x391 <= 1
C1430: + x15 + x222 <= 1
C1431: + x7 + x340 <= 1
C1432: + x85 + x95 <= 1
C1433: + x61 + x310 <= 1
C1434: + x28 + x498 <= 1
C1435: + x329 + x393 <= 1
C1436: + x28 + x196 <= 1
C1437: + x7 + x41 <= 1
C1438: + x13 + x333 <= 1
C1439: + x10 + x11 <= 1
C1440: + x21 + x253 <= 1
C1441: + x4 + x93 <= 1
C1442: + x25 + x259 <= 1
C1443: + x179 + x266 <= 1
C1444: + x190 + x207 <= 1
C1445: + x62 + x335 <= 1
C1446: + x30 + x123 <= 1
C1447: + x340 + x396 <= 1
C1448: + x113 + x363 <= 1
C1449: + x158 + x201 <= 1
C1450: + x14 + x43 + x105 <= 1
C1451: + x14 + x15 <= 1
C1452: + x4 + x9 <= 1
C1453: + x22 + x362 <= 1
C1454: + x342 + x357 <= 1
C1455: + x79 + x379 <= 1
C1456: + x18 + x119 <= 1
C1457: + x221 + x270 <= 1
C1458: + x4 + x379 <= 1
C1459: + x22 + x461 <= 1
C1460: + x26 + x471 <= 1
C1461: + x11 + x96 <= 1
C1462: + x147 + x184 <= 1
C1463: + x12 + x235 <= 1
C1464: + x21 + x184 <= 1
C1465: + x180 + x231 <= 1
C1466: + x313 + x348 <= 1
C1467: + x460 + x477 <= 1
C1468: + x5 + x284 <= 1
C1469: + x17 + x82 + x132 <= 1
C1470: + x10 + x286 <= 1
C1471: + x1 + x487 <= 1
C1472: + x48 + x424 <= 1
C1473: + x15 + x100 <= 1
C1474: + x6 + x55 <= 1
C1475: + x19 + x31 <= 1
C1476: + x63 + x176 <= 1
C1477: + x21 + x89 <= 1
C1478: + x15 + x19 <= 1
C1479: + x263 + x417 <= 1
C1480: + x55 + x102 <= 1
C1481: + x40 + x63 <= 1
C1482: + x1 + x5 <= 1
C1483: + x13 + x29 <= 1
C1484: + x207 + x254 <= 1
C1485: + x173 + x438 <= 1
C1486: + x3 + x7 <= 1
C1487: + x194 + x388 <= 1
C1488: + x6 + x12 <= 1
C1489: + x172 + x329 <= 1
C1490: + x63 + x117 <= 1
C1491: + x17 + x389 <= 1
C1492: + x87 + x111 <= 1
C1493: + x5 + x17 <= 1
C1494: + x6 + x175 <= 1
C1495: + x26 + x174 <= 1
C1496: + x19 + x135 <= 1
C1497: + x7 + x378 <= 1
C1498: + x26 + x73 <= 1
C1499: + x7 + x27 <= 1
C1500: + x81 + x340 <= 1
C1501: + x6 + x413 <= 1
C1502: + x11 + x42 <= 1
C1503: + x40 + x452 <= 1
C1504: + x14 + x77 <= 1
C1505: + x26 + x492 <= 1
C1506: + x164 + x247 <= 1
C1507: + x5 + x69 <= 1
C1508: + x107 + x340 <= 1
C1509: + x479 + x489 <= 1
C1510: + x18 + x53 <= 1
C1511: + x29 + x67 <= 1
C1512: + x124 + x325 <= 1
C1513: + x15 + x22 <= 1
C1514: + x6 + x65 <= 1
C1515: + x129 + x255 <= 1
C1516: + x11 + x30 <= 1
C1517: + x33 + x483 <= 1
C1518: + x18 + x198 <= 1
C1519: + x28 + x155 <= 1
C1520: + x343 + x458 <= 1
C1521: + x428 + x431 <= 1
C1522: + x4 + x136 <= 1
C1523: + x223 + x453 <= 1
C1524: + x6 + x355 <= 1
C1525: + x154 + x362 <= 1
C1526: + x72 + x323 <= 1
C1527: + x174 + x332 <= 1
C1528: + x30 + x50 <= 1
C1529: + x295 + x394 <= 1
C1530: + x52 + x221 <= 1
C1531: + x24 + x64 <= 1
C1532: + x38 + x82 <= 1
C1533: + x3 + x86 <= 1
C1534: + x181 + x289 <= 1
C1535: + x36 + x41 <= 1
C1536: + x194 + x372 <= 1
C1537: + x242 + x279 <= 1
C1538: + x43 + x155 <= 1
C1539: + x179 + x307 <= 1
C1540: + x67 + x348 <= 1
C1541: + x252 + x257 <= 1
C1542: + x6 + x74 <= 1
C1543: + x143 + x210 <= 1
C1544: + x7 + x74 <= 1
C1545: + x9 + x62 + x188 <= 1
C1546: + x77 + x161 <= 1
C1547: + x4 + x193 <= 1
C1548: + x154 + x244 <= 1
C1549: + x129 + x456 <= 1
C1550: + x48 + x93 <= 1
C1551: + x205 + x339 <= 1
C1552: + x362 + x369 <= 1
C1553: + x116 + x227 <= 1
C1554: + x86 + x109 <= 1
C1555: + x61 + x218 <= 1
C1556: + x6 + x126 <= 1
C1557: + x261 + x447 <= 1
C1558: + x16 + x347 <= 1
C1559: + x280 + x485 <= 1
C1560: + x21 + x333 <= 1
C1561: + x153 + x381 <= 1
C1562: + x48 + x161 <= 1
C1563: + x4 + x44 <= 1
C1564: + x24 + x53 <= 1
C1565: + x3 + x45 <= 1
C1566: + x33 + x37 <= 1
C1567: + x178 + x440 <= 1
C1568: + x108 + x112 <= 1
C1569: + x125 + x494 <= 1
C1570: + x38 + x406 <= 1
C1571: + x20 + x452 <= 1
C1572: + x278 + x359 <= 1
C1573: + x173 + x202 <= 1
C1574: + x30 + x188 <= 1
C1575: + x6 + x288 <= 1
C1576: + x143 + x320 <= 1
C1577: + x114 + x281 <= 1
C1578: + x7 + x238 <= 1
C1579: + x82 + x376 <= 1
C1580: + x2 + x158 <= 1
C1581: + x272 + x276 <= 1
C1582: + x219 + x488 <= 1
C1583: + x33 + x350 <= 1
C1584: + x74 + x339 <= 1
C1585: + x3 + x20 <= 1
C1586: + x139 + x172 <= 1
C1587: + x88 + x157 <= 1
C1588: + x8 + x206 <= 1
C1589: + x6 + x154 <= 1
C1590: + x10 + x223 <= 1
C1591: + x47 + x54 <= 1
C1592: + x7 + x16 <= 1
C1593: + x122 + x395 <= 1
C1594: + x257 + x418 <= 1
C1595: + x5 + x157 <= 1
C1596: + x173 + x380 <= 1
C1597: + x2 + x219 <= 1
C1598: + x30 + x181 <= 1
C1599: + x104 + x142 <= 1
C1600: + x188 + x333 <= 1
C1601: + x86 + x285 <= 1
C1602: + x34 + x178 <= 1
C1603: + x80 + x258 <= 1
C1604: + x16 + x66 <= 1
C1605: + x143 + x166 + x307 <= 1
C1606: + x12 + x34 <= 1
C1607: + x30 + x88 <= 1
C1608: + x41 + x201 <= 1
C1609: + x35 + x131 <= 1
C1610: + x208 + x293 <= 1
C1611: + x66 + x193 <= 1
C1612: + x138 + x244 <= 1
C1613: + x7 + x229 <= 1
C1614: + x7 + x298 <= 1
C1615: + x80 + x439 <= 1
C1616: + x127 + x397 <= 1
C1617: + x268 + x326 <= 1
C1618: + x23 + x220 <= 1
C1619: + x9 + x97 <= 1
C1620: + x65 + x78 <= 1
C1621: + x131 + x363 <= 1
C1622: + x107 + x406 <= 1
C1623: + x27 + x300 <= 1
C1624: + x9 + x478 <= 1
C1625: + x11 + x123 <= 1
C1626: + x35 + x101 <= 1
C1627: + x109 + x164 <= 1
C1628: + x17 + x211 <= 1
C1629: + x7 + x358 <= 1
C1630: + x248 + x468 <= 1
C1631: + x195 + x222 <= 1
C1632: + x33 + x289 <= 1
C1633: + x69 + x106 <= 1
C1634: + x78 + x230 <= 1
C1635: + x6 + x20 <= 1
C1636: + x16 + x381 <= 1
C1637: + x152 + x213 <= 1
C1638: + x172 + x353 <= 1
C1639: + x4 + x167 <= 1
C1640: + x81 + x463 <= 1
C1641: + x108 + x336 <= 1
C1642: + x19 + x159 <= 1
C1643: + x120 + x313 <= 1
C1644: + x87 + x341 <= 1
C1645: + x7 + x51 <= 1
C1646: + x173 + x258 <= 1
C1647: + x28 + x405 <= 1
C1648: + x100 + x474 <= 1
C1649: + x266 + x272 <= 1
C1650: + x14 + x37 <= 1
C1651: + x7 + x224 <= 1
C1652: + x18 + x351 <= 1
C1653: + x300 + x311 <= 1
C1654: + x1 + x232 <= 1
C1655: + x30 + x194 <= 1
C1656: + x131 + x449 <= 1
C1657: + x269 + x325 <= 1
C1658: + x34 + x135 <= 1
C1659: + x16 + x19 <= 1
C1660: + x7 + x462 <= 1
C1661: + x8 + x466 <= 1
C1662: + x48 + x207 <= 1
C1663: + x21 + x389 <= 1
C1664: + x12 + x474 <= 1
C1665: + x64 + x295 <= 1
C1666: + x29 + x325 <= 1
C1667: + x17 + x202 <= 1
C1668: + x2 + x188 <= 1
C1669: + x21 + x63 <= 1
C1670: + x61 + x86 <= 1
C1671: + x162 + x390 <= 1
C1672: + x20 + x36 <= 1
C1673: + x24 + x423 <= 1
C1674: + x7 + x155 <= 1
C1675: + x237 + x375 <= 1
C1676: + x43 + x294 <= 1
C1677: + x7 + x393 <= 1
C1678: + x82 + x458 <= 1
C1679: + x321 + x373 <= 1
C1680: + x91 + x405 <= 1
C1681: + x267 + x302 <= 1
C1682: + x62 + x193 <= 1
C1683: + x347 + x355 <= 1
C1684: + x112 + x350 <= 1
C1685: + x127 + x447 <= 1
C1686: + x75 + x94 <= 1
C1687: + x213 + x434 <= 1
C1688: + x4 + x92 <= 1
C1689: + x25 + x245 <= 1
C1690: + x127 + x173 <= 1
C1691: + x45 + x195 <= 1
C1692: + x191 + x290 <= 1
C1693: + x76 + x261 <= 1
C1694: + x339 + x343 <= 1
C1695: + x78 + x164 <= 1
C1696: + x408 + x478 <= 1
C1697: + x11 + x109 <= 1
C1698: + x257 + x264 <= 1
C1699: + x30 + x332 <= 1
C1700: + x22 + x95 <= 1
C1701: + x5 + x251 <= 1
C1702: + x100 + x189 <= 1
C1703: + x8 + x96 <= 1
C1704: + x299 + x476 <= 1
C1705: + x4 + x8 <= 1
C1706: + x111 + x439 <= 1
C1707: + x58 + x299 <= 1
C1708: + x3 + x49 <= 1
C1709: + x43 + x396 <= 1
C1710: + x15 + x81 <= 1
C1711: + x18 + x285 <= 1
C1712: + x82 + x221 <= 1
C1713: + x9 + x312 <= 1
C1714: + x2 + x46 <= 1
C1715: + x3 + x214 <= 1
C1716: + x21 + x181 <= 1
C1717: + x28 + x57 <= 1
C1718: + x101 + x134 <= 1
C1719: + x104 + x185 <= 1
C1720: + x35 + x75 <= 1
C1721: + x19 + x145 <= 1
C1722: + x17 + x26 <= 1
C1723: + x81 + x346 <= 1
C1724: + x481 + x490 <= 1
C1725: + x84 + x258 <= 1
C1726: + x3 + x69 <= 1
C1727: + x18 + x21 + x36 <= 1
C1728: + x5 + x190 <= 1
C1729: + x32 + x61 <= 1
C1730: + x102 + x198 <= 1
C1731: + x2 + x250 <= 1
C1732: + x276 + x446 <= 1
C1733: + x69 + x454 <= 1
C1734: + x166 + x436 <= 1
C1735: + x40 + x351 <= 1
C1736: + x2 + x424 <= 1
C1737: + x58 + x118 <= 1
C1738: + x3 + x153 <= 1
C1739: + x21 + x368 <= 1
C1740: + x153 + x235 <= 1
C1741: + x18 + x208 <= 1
C1742: + x41 + x121 <= 1
C1743: + x4 + x13 <= 1
C1744: + x13 + x98 <= 1
C1745: + x99 + x403 <= 1
C1746: + x6 + x492 <= 1
C1747: + x285 + x421 <= 1
C1748: + x239 + x371 <= 1
C1749: + x3 + x479 <= 1
C1750: + x86 + x94 <= 1
C1751: + x43 + x115 <= 1
C1752: + x6 + x15 <= 1
C1753: + x8 + x230 <= 1
C1754: + x63 + x395 <= 1
C1755: + x86 + x305 <= 1
C1756: + x68 + x391 <= 1
C1757: + x14 + x255 <= 1
C1758: + x26 + x374 <= 1
C1759: + x26 + x169 <= 1
C1760: + x72 + x329 <= 1
C1761: + x107 + x454 <= 1
C1762: + x155 + x437 <= 1
C1763: + x75 + x338 <= 1
C1764: + x185 + x498 <= 1
C1765: + x47 + x308 <= 1
C1766: + x288 + x369 <= 1
C1767: + x7 + x193 <= 1
C1768: + x227 + x418 <= 1
C1769: + x91 + x221 <= 1
C1770: + x36 + x63 <= 1
C1771: + x77 + x352 <= 1
C1772: + x40 + x166 <= 1
C1773: + x43 + x149 <= 1
C1774: + x333 + x383 <= 1
C1775: + x5 + x407 <= 1
C1776: + x19 + x192 <= 1
C1777: + x8 + x61 <= 1
C1778: + x29 + x72 <= 1
C1779: + x85 + x496 <= 1
C1780: + x66 + x249 <= 1
C1781: + x21 + x375 <= 1
C1782: + x153 + x242 <= 1
C1783: + x18 + x382 <= 1
C1784: + x154 + x345 <= 1
C1785: + x136 + x409 <= 1
C1786: + x25 + x143 <= 1
C1787: + x15 + x35 <= 1
C1788: + x30 + x146 <= 1
C1789: + x30 + x53 <= 1
C1790: + x4 + x34 <= 1
C1791: + x40 + x206 <= 1
C1792: + x35 + x162 <= 1
C1793: + x92 + x433 <= 1
C1794: + x75 + x345 <= 1
C1795: + x3 + x87 <= 1
C1796: + x13 + x383 <= 1
C1797: + x36 + x401 <= 1
C1798: + x36 + x40 <= 1
C1799: + x10 + x57 <= 1
C1800: + x8 + x151 <= 1
C1801: + x211 + x287 <= 1
C1802: + x134 + x357 <= 1
C1803: + x19 + x183 <= 1
C1804: + x10 + x156 <= 1
C1805: + x249 + x318 <= 1
C1806: + x21 + x100 <= 1
C1807: + x2 + x8 + x12 <= 1
C1808: + x40 + x333 <= 1
C1809: + x96 + x372 <= 1
C1810: + x6 + x77 <= 1
C1811: + x159 + x373 <= 1
C1812: + x318 + x363 <= 1
C1813: + x11 + x26 <= 1
C1814: + x12 + x289 <= 1
C1815: + x267 + x496 <= 1
C1816: + x21 + x382 <= 1
C1817: + x150 + x165 <= 1
C1818: + x36 + x477 <= 1
C1819: + x5 + x216 <= 1
C1820: + x82 + x183 <= 1
C1821: + x41 + x103 <= 1
C1822: + x3 + x465 <= 1
C1823: + x67 + x222 <= 1
C1824: + x3 + x30 <= 1
C1825: + x5 + x359 <= 1
C1826: + x7 + x135 <= 1
C1827: + x367 + x456 <= 1
C1828: + x4 + x140 <= 1
C1829: + x104 + x168 <= 1
C1830: + x108 + x222 <= 1
C1831: + x180 + x262 <= 1
C1832: + x15 + x316 <= 1
C1833: + x51 + x330 <= 1
C1834: + x7 + x18 <= 1
C1835: + x128 + x374 <= 1
C1836: + x29 + x39 <= 1
C1837: + x157 + x423 <= 1
C1838: + x48 + x434 <= 1
C1839: + x34 + x406 <= 1
C1840: + x154 + x172 <= 1
C1841: + x82 + x327 <= 1
C1842: + x65 + x283 <= 1
C1843: + x91 + x175 <= 1
C1844: + x29 + x305 <= 1
C1845: + x18 + x308 <= 1
C1846: + x221 + x497 <= 1
C1847: + x6 + x275 <= 1
C1848: + x36 + x140 <= 1
C1849: + x27 + x253 <= 1
C1850: + x8 + x51 <= 1
C1851: + x313 + x442 <= 1
C1852: + x30 + x66 <= 1
C1853: + x351 + x448 <= 1
C1854: + x7 + x78 <= 1
C1855: + x271 + x342 <= 1
C1856: + x55 + x445 <= 1
C1857: + x20 + x395 <= 1
C1858: + x177 + x281 <= 1
C1859: + x22 + x115 <= 1
C1860: + x70 + x350 <= 1
C1861: + x72 + x260 <= 1
C1862: + x134 + x274 <= 1
C1863: + x11 + x327 <= 1
C1864: + x29 + x471 <= 1
C1865: + x25 + x58 <= 1
C1866: + x235 + x249 <= 1
C1867: + x6 + x122 <= 1
C1868: + x7 + x122 <= 1
C1869: + x184 + x290 <= 1
C1870: + x22 + x71 <= 1
C1871: + x254 + x347 <= 1
C1872: + x51 + x142 <= 1
C1873: + x98 + x260 <= 1
C1874: + x18 + x394 <= 1
C1875: + x98 + x111 <= 1
C1876: + x5 + x146 <= 1
C1877: + x100 + x351 <= 1
C1878: + x8 + x133 <= 1
C1879: + x12 + x194 <= 1
C1880: + x158 + x312 <= 1
C1881: + x169 + x254 <= 1
C1882: + x17 + x149 <= 1
C1883: + x21 + x114 <= 1
C1884: + x196 + x367 <= 1
C1885: + x244 + x361 <= 1
C1886: + x28 + x411 <= 1
C1887: + x136 + x150 <= 1
C1888: + x437 + x442 <= 1
C1889: + x15 + x133 <= 1
C1890: + x19 + x60 <= 1
C1891: + x107 + x185 <= 1
C1892: + x26 + x28 <= 1
C1893: + x66 + x125 <= 1
C1894: + x285 + x302 <= 1
C1895: + x233 + x434 <= 1
C1896: + x204 + x217 <= 1
C1897: + x258 + x286 <= 1
C1898: + x279 + x288 <= 1
C1899: + x7 + x113 <= 1
C1900: + x177 + x332 <= 1
C1901: + x36 + x78 <= 1
C1902: + x71 + x423 <= 1
C1903: + x58 + x441 <= 1
C1904: + x123 + x247 <= 1
C1905: + x33 + x211 <= 1
C1906: + x61 + x68 <= 1
C1907: + x136 + x223 <= 1
C1908: + x20 + x26 <= 1
C1909: + x125 + x481 <= 1
C1910: + x6 + x23 <= 1
C1911: + x7 + x173 <= 1
C1912: + x10 + x409 <= 1
C1913: + x15 + x68 <= 1
C1914: + x105 + x240 <= 1
C1915: + x21 + x156 <= 1
C1916: + x90 + x273 <= 1
C1917: + x71 + x339 <= 1
C1918: + x83 + x484 <= 1
C1919: + x30 + x84 <= 1
C1920: + x50 + x296 <= 1
C1921: + x44 + x170 <= 1
C1922: + x6 + x424 <= 1
C1923: + x365 + x473 <= 1
C1924: + x221 + x374 <= 1
C1925: + x12 + x344 <= 1
C1926: + x21 + x267 <= 1
C1927: + x60 + x139 <= 1
C1928: + x261 + x282 <= 1
C1929: + x154 + x309 <= 1
C1930: + x28 + x102 <= 1
C1931: + x66 + x427 <= 1
C1932: + x20 + x248 <= 1
C1933: + x13 + x61 <= 1
C1934: + x304 + x422 <= 1
C1935: + x34 + x130 <= 1
C1936: + x25 + x28 + x52 <= 1
C1937: + x4 + x324 <= 1
C1938: + x8 + x380 <= 1
C1939: + x257 + x270 <= 1
C1940: + x149 + x223 <= 1
C1941: + x283 + x428 <= 1
C1942: + x56 + x112 <= 1
C1943: + x12 + x111 <= 1
C1944: + x69 + x86 <= 1
C1945: + x17 + x116 <= 1
C1946: + x82 + x444 <= 1
C1947: + x49 + x200 <= 1
C1948: + x185 + x405 <= 1

binary
x1 x2 x3 x4 x5 x6 x7 x8 x9 x10 x11 x12 x13 x14 x15 x16 x17 x18 x19 x20 x21 x22 x23 x24 x25 x26 x27 x28 x29 x30 x31 x32 x33 x34 x35 x36 x37 x38 x39 x40 x41 x42 x43 x44 x45 x46 x47 x48 x49 x50 x51 x52 x53 x54 x55 x56 x57 x58 x59 x60 x61 x62 x63 x64 x65 x66 x67 x68 x69 x70 x71 x72 x73 x74 x75 x76 x77 x78 x79 x80 x81 x82 x83 x84 x85 x86 x87 x88 x89 x90 x91 x92 x93 x94 x95 x96 x97 x98 x99 x100 x101 x102 x103 x104 x105 x106 x107 x108 x109 x110 x111 x112 x113 x114 x115 x116 x117 x118 x119 x120 x121 x122 x123 x124 x125 x126 x127 x128 x129 x130 x131 x132 x133 x134 x135 x136 x137 x138 x139 x140 x141 x142 x143 x144 x145 x146 x147 x148 x149 x150 x151 x152 x153 x154 x155 x156 x157 x158 x159 x160 x161 x162 x163 x164 x165 x166 x167 x168 x169 x170 x171 x172 x173 x174 x175 x176 x177 x178 x179 x180 x181 x182 x183 x184 x185 x186 x187 x188 x189 x190 x191 x192 x193 x194 x195 x196 x197 x198 x199 x200 x201 x202 x203 x204 x205 x206 x207 x208 x209 x210 x211 x212 x213 x214 x215 x216 x217 x218 x219 x220 x221 x222 x223 x224 x225 x226 x227 x228 x229 x230 x231 x232 x233 x234 x235 x236 x237 x238 x239 x240 x241 x242 x243 x244 x245 x246 x247 x248 x249 x250 x251 x252 x253 x254 x255 x256 x257 x258 x259 x260 x261 x262 x263 x264 x265 x266 x267 x268 x269 x270 x271 x272 x273 x274 x275 x276 x277 x278 x279 x280 x281 x282 x283 x284 x285 x286 x287 x288 x289 x290 x291 x292 x293 x294 x295 x296 x297 x298 x299 x300 x301 x302 x303 x304 x305 x306 x307 x308 x309 x310 x311 x312 x313 x314 x315 x316 x317 x318 x319 x320 x321 x322 x323 x324 x325 x326 x327 x328 x329 x330 x331 x332 x333 x334 x335 x336 x337 x338 x339 x340 x341 x342 x343 x344 x345 x346 x347 x348 x349 x350 x351 x352 x353 x354 x355 x356 x357 x358 x359 x360 x361 x362 x363 x364 x365 x366 x367 x368 x369 x370 x371 x372 x373 x374 x375 x376 x377 x378 x379 x380 x381 x382 x383 x384 x385 x386 x387 x388 x389 x390 x391 x392 x393 x394 x395 x396 x397 x398 x399 x400 x401 x402 x403 x404 x405 x406 x407 x408 x409 x410 x411 x412 x413 x414 x415 x416 x417 x418 x419 x420 x421 x422 x423 x424 x425 x426 x427 x428 x429 x430 x431 x432 x433 x434 x435 x436 x437 x438 x439 x440 x441 x442 x443 x444 x445 x446 x447 x448 x449 x450 x451 x452 x453 x454 x455 x456 x457 x458 x459 x460 x461 x462 x463 x464 x465 x466 x467 x468 x469 x470 x471 x472 x473 x474 x475 x476 x477 x478 x479 x480 x481 x482 x483 x484 x485 x486 x487 x488 x489 x490 x491 x492 x493 x494 x495 x496 x497 x498 x499 x500
