maximize
OBJ: + 1 x1 + 1 x2 + 1 x3 + 1 x4 + 1 x5 + 1 x6 + 1 x7 + 1 x8 + 1 x9 + 1 x10 + 1 x11 + 1 x12 + 1 x13 + 1 x14 + 1 x15 + 1 x16 + 1 x17 + 1 x18 + 1 x19 + 1 x20 + 1 x21 + 1 x22 + 1 x23 + 1 x24 + 1 x25 + 1 x26 + 1 x27 + 1 x28 + 1 x29 + 1 x30 + 1 x31 + 1 x32 + 1 x33 + 1 x34 + 1 x35 + 1 x36 + 1 x37 + 1 x38 + 1 x39 + 1 x40 + 1 x41 + 1 x42 + 1 x43 + 1 x44 + 1 x45 + 1 x46 + 1 x47 + 1 x48 + 1 x49 + 1 x50 + 1 x51 + 1 x52 + 1 x53 + 1 x54 + 1 x55 + 1 x56 + 1 x57 + 1 x58 + 1 x59 + 1 x60 + 1 x61 + 1 x62 + 1 x63 + 1 x64 + 1 x65 + 1 x66 + 1 x67 + 1 x68 + 1 x69 + 1 x70 + 1 x71 + 1 x72 + 1 x73 + 1 x74 + 1 x75 + 1 x76 + 1 x77 + 1 x78 + 1 x79 + 1 x80 + 1 x81 + 1 x82 + 1 x83 + 1 x84 + 1 x85 + 1 x86 + 1 x87 + 1 x88 + 1 x89 + 1 x90 + 1 x91 + 1 x92 + 1 x93 + 1 x94 + 1 x95 + 1 x96 + 1 x97 + 1 x98 + 1 x99 + 1 x100 + 1 x101 + 1 x102 + 1 x103 + 1 x104 + 1 x105 + 1 x106 + 1 x107 + 1 x108 + 1 x109 + 1 x110 + 1 x111 + 1 x112 + 1 x113 + 1 x114 + 1 x115 + 1 x116 + 1 x117 + 1 x118 + 1 x119 + 1 x120 + 1 x121 + 1 x122 + 1 x123 + 1 x124 + 1 x125 + 1 x126 + 1 x127 + 1 x128 + 1 x129 + 1 x130 + 1 x131 + 1 x132 + 1 x133 + 1 x134 + 1 x135 + 1 x136 + 1 x137 + 1 x138 + 1 x139 + 1 x140 + 1 x141 + 1 x142 + 1 x143 + 1 x144 + 1 x145 + 1 x146 + 1 x147 + 1 x148 + 1 x149 + 1 x150 + 1 x151 + 1 x152 + 1 x153 + 1 x154 + 1 x155 + 1 x156 + 1 x157 + 1 x158 + 1 x159 + 1 x160 + 1 x161 + 1 x162 + 1 x163 + 1 x164 + 1 x165 + 1 x166 + 1 x167 + 1 x168 + 1 x169 + 1 x170 + 1 x171 + 1 x172 + 1 x173 + 1 x174 + 1 x175 + 1 x176 + 1 x177 + 1 x178 + 1 x179 + 1 x180 + 1 x181 + 1 x182 + 1 x183 + 1 x184 + 1 x185 + 1 x186 + 1 x187 + 1 x188 + 1 x189 + 1 x190 + 1 x191 + 1 x192 + 1 x193 + 1 x194 + 1 x195 + 1 x196 + 1 x197 + 1 x198 + 1 x199 + 1 x200 + 1 x201 + 1 x202 + 1 x203 + 1 x204 + 1 x205 + 1 x206 + 1 x207 + 1 x208 + 1 x209 + 1 x210 + 1 x211 + 1 x212 + 1 x213 + 1 x214 + 1 x215 + 1 x216 + 1 x217 + 1 x218 + 1 x219 + 1 x220 + 1 x221 + 1 x222 + 1 x223 + 1 x224 + 1 x225 + 1 x226 + 1 x227 + 1 x228 + 1 x229 + 1 x230 + 1 x231 + 1 x232 + 1 x233 + 1 x234 + 1 x235 + 1 x236 + 1 x237 + 1 x238 + 1 x239 + 1 x240 + 1 x241 + 1 x242 + 1 x243 + 1 x244 + 1 x245 + 1 x246 + 1 x247 + 1 x248 + 1 x249 + 1 x250 + 1 x251 + 1 x252 + 1 x253 + 1 x254 + 1 x255 + 1 x256 + 1 x257 + 1 x258 + 1 x259 + 1 x260 + 1 x261 + 1 x262 + 1 x263 + 1 x264 + 1 x265 + 1 x266 + 1 x267 + 1 x268 + 1 x269 + 1 x270 + 1 x271 + 1 x272 + 1 x273 + 1 x274 + 1 x275 + 1 x276 + 1 x277 + 1 x278 + 1 x279 + 1 x280 + 1 x281 + 1 x282 + 1 x283 + 1 x284 + 1 x285 + 1 x286 + 1 x287 + 1 x288 + 1 x289 + 1 x290 + 1 x291 + 1 x292 + 1 x293 + 1 x294 + 1 x295 + 1 x296 + 1 x297 + 1 x298 + 1 x299 + 1 x300 + 1 x301 + 1 x302 + 1 x303 + 1 x304 + 1 x305 + 1 x306 + 1 x307 + 1 x308 + 1 x309 + 1 x310 + 1 x311 + 1 x312 + 1 x313 + 1 x314 + 1 x315 + 1 x316 + 1 x317 + 1 x318 + 1 x319 + 1 x320 + 1 x321 + 1 x322 + 1 x323 + 1 x324 + 1 x325 + 1 x326 + 1 x327 + 1 x328 + 1 x329 + 1 x330 + 1 x331 + 1 x332 + 1 x333 + 1 x334 + 1 x335 + 1 x336 + 1 x337 + 1 x338 + 1 x339 + 1 x340 + 1 x341 + 1 x342 + 1 x343 + 1 x344 + 1 x345 + 1 x346 + 1 x347 + 1 x348 + 1 x349 + 1 x350 + 1 x351 + 1 x352 + 1 x353 + 1 x354 + 1 x355 + 1 x356 + 1 x357 + 1 x358 + 1 x359 + 1 x360 + 1 x361 + 1 x362 + 1 x363 + 1 x364 + 1 x365 + 1 x366 + 1 x367 + 1 x368 + 1 x369 + 1 x370 + 1 x371 + 1 x372 + 1 x373 + 1 x374 + 1 x375 + 1 x376 + 1 x377 + 1 x378 + 1 x379 + 1 x380 + 1 x381 + 1 x382 + 1 x383 + 1 x384 + 1 x385 + 1 x386 + 1 x387 + 1 x388 + 1 x389 + 1 x390 + 1 x391 + 1 x392 + 1 x393 + 1 x394 + 1 x395 + 1 x396 + 1 x397 + 1 x398 + 1 x399 + 1 x400 + 1 x401 + 1 x402 + 1 x403 + 1 x404 + 1 x405 + 1 x406 + 1 x407 + 1 x408 + 1 x409 + 1 x410 + 1 x411 + 1 x412 + 1 x413 + 1 x414 + 1 x415 + 1 x416 + 1 x417 + 1 x418 + 1 x419 + 1 x420 + 1 x421 + 1 x422 + 1 x423 + 1 x424 + 1 x425 + 1 x426 + 1 x427 + 1 x428 + 1 x429 + 1 x430 + 1 x431 + 1 x432 + 1 x433 + 1 x434 + 1 x435 + 1 x436 + 1 x437 + 1 x438 + 1 x439 + 1 x440 + 1 x441 + 1 x442 + 1 x443 + 1 x444 + 1 x445 + 1 x446 + 1 x447 + 1 x448 + 1 x449 + 1 x450 + 1 x451 + 1 x452 + 1 x453 + 1 x454 + 1 x455 + 1 x456 + 1 x457 + 1 x458 + 1 x459 + 1 x460 + 1 x461 + 1 x462 + 1 x463 + 1 x464 + 1 x465 + 1 x466 + 1 x467 + 1 x468 + 1 x469 + 1 x470 + 1 x471 + 1 x472 + 1 x473 + 1 x474 + 1 x475 + 1 x476 + 1 x477 + 1 x478 + 1 x479 + 1 x480 + 1 x481 + 1 x482 + 1 x483 + 1 x484 + 1 x485 + 1 x486 + 1 x487 + 1 x488 + 1 x489 + 1 x490 + 1 x491 + 1 x492 + 1 x493 + 1 x494 + 1 x495 + 1 x496 + 1 x497 + 1 x498 + 1 x499 + 1 x500

subject to
C1: + x72 + x112 <= 1
C2: + x148 + x177 <= 1
C3: + x5 + x37 <= 1
C4: + x43 + x295 <= 1
C5: + x108 + x324 <= 1
C6: + x82 + x469 <= 1
C7: + x101 + x113 <= 1
C8: + x2 + x65 <= 1
C9: + x14 + x33 <= 1
C10: + x6 + x196 <= 1
C11: + x32 + x75 <= 1
C12: + x118 + x186 <= 1
C13: + x231 + x489 <= 1
C14: + x104 + x123 <= 1
C15: + x44 + x64 <= 1
C16: + x86 + x457 <= 1
C17: + x43 + x89 <= 1
C18: + x44 + x347 <= 1
C19: + x55 + x105 <= 1
C20: + x1 + x294 <= 1
C21: + x3 + x131 <= 1
C22: + x104 + x204 <= 1
C23: + x198 + x312 <= 1
C24: + x186 + x254 <= 1
C25: + x78 + x493 <= 1
C26: + x28 + x342 <= 1
C27: + x20 + x475 <= 1
C28: + x112 + x406 <= 1
C29: + x40 + x409 <= 1
C30: + x279 + x358 <= 1
C31: + x1 + x370 <= 1
C32: + x19 + x113 <= 1
C33: + x1 + x167 <= 1
C34: + x292 + x339 <= 1
C35: + x37 + x408 <= 1
C36: + x338 + x419 <= 1
C37: + x32 + x163 <= 1
C38: + x161 + x224 <= 1
C39: + x10 + x185 <= 1
C40: + x11 + x311 <= 1
C41: + x241 + x270 <= 1
C42: + x12 + x84 <= 1
C43: + x305 + x403 <= 1
C44: + x33 + x189 <= 1
C45: + x5 + x286 <= 1
C46: + x44 + x168 <= 1
C47: + x93 + x338 <= 1
C48: + x3 + x74 <= 1
C49: + x132 + x161 <= 1
C50: + x78 + x207 <= 1
C51: + x62 + x64 <= 1
C52: + x268 + x376 <= 1
C53: + x232 + x500 <= 1
C54: + x5 + x88 <= 1
C55: + x43 + x175 <= 1
C56: + x1 + x416 <= 1
C57: + x131 + x377 <= 1
C58: + x333 + x426 <= 1
C59: + x49 + x428 <= 1
C60: + x21 + x365 <= 1
C61: + x32 + x104 <= 1
C62: + x12 + x157 <= 1
C63: + x4 + x479 <= 1
C64: + x1 + x428 <= 1
C65: + x20 + x45 <= 1
C66: + x3 + x13 <= 1
C67: + x146 + x220 <= 1
C68: + x375 + x406 <= 1
C69: + x4 + x153 <= 1
C70: + x13 + x246 <= 1
C71: + x6 + x384 <= 1
C72: + x190 + x243 <= 1
C73: + x8 + x16 <= 1
C74: + x28 + x220 <= 1
C75: + x322 + x376 <= 1
C76: + x30 + x63 <= 1
C77: + x7 + x392 <= 1
C78: + x25 + x81 <= 1
C79: + x134 + x238 <= 1
C80: + x1 + x488 <= 1
C81: + x114 + x313 <= 1
C82: + x78 + x200 <= 1
C83: + x150 + x203 <= 1
C84: + x13 + x325 <= 1
C85: + x7 + x206 <= 1
C86: + x7 + x279 <= 1
C87: + x80 + x394 <= 1
C88: + x190 + x441 <= 1
C89: + x215 + x328 <= 1
C90: + x180 + x420 <= 1
C91: + x126 + x462 <= 1
C92: + x269 + x375 <= 1
C93: + x89 + x448 <= 1
C94: + x19 + x32 <= 1
C95: + x5 + x95 <= 1
C96: + x5 + x428 <= 1
C97: + x62 + x327 <= 1
C98: + x20 + x106 <= 1
C99: + x285 + x306 <= 1
C100: + x68 + x365 <= 1
C101: + x34 + x120 <= 1
C102: + x6 + x71 <= 1
C103: + x7 + x93 <= 1
C104: + x11 + x455 <= 1
C105: + x171 + x185 <= 1
C106: + x199 + x442 <= 1
C107: + x27 + x422 <= 1
C108: + x28 + x133 <= 1
C109: + x3 + x314 <= 1
C110: + x41 + x125 <= 1
C111: + x16 + x49 <= 1
C112: + x72 + x184 <= 1
C113: + x20 + x54 <= 1
C114: + x132 + x227 <= 1
C115: + x97 + x284 <= 1
C116: + x6 + x11 <= 1
C117: + x16 + x344 <= 1
C118: + x7 + x137 <= 1
C119: + x8 + x226 <= 1
C120: + x85 + x195 <= 1
C121: + x5 + x18 <= 1
C122: + x31 + x369 <= 1
C123: + x182 + x306 <= 1
C124: + x156 + x291 <= 1
C125: + x348 + x413 <= 1
C126: + x163 + x254 <= 1
C127: + x19 + x23 <= 1
C128: + x103 + x201 <= 1
C129: + x217 + x466 <= 1
C130: + x43 + x145 <= 1
C131: + x53 + x128 <= 1
C132: + x11 + x365 <= 1
C133: + x114 + x128 <= 1
C134: + x33 + x135 <= 1
C135: + x7 + x88 <= 1
C136: + x59 + x113 <= 1
C137: + x33 + x484 <= 1
C138: + x16 + x304 <= 1
C139: + x163 + x178 <= 1
C140: + x3 + x305 <= 1
C141: + x51 + x279 <= 1
C142: + x9 + x77 <= 1
C143: + x390 + x487 <= 1
C144: + x84 + x456 <= 1
C145: + x34 + x69 <= 1
C146: + x15 + x39 <= 1
C147: + x1 + x140 <= 1
C148: + x59 + x69 <= 1
C149: + x39 + x409 <= 1
C150: + x5 + x25 <= 1
C151: + x24 + x301 <= 1
C152: + x27 + x46 <= 1
C153: + x82 + x305 <= 1
C154: + x21 + x28 <= 1
C155: + x347 + x380 <= 1
C156: + x130 + x152 <= 1
C157: + x48 + x437 <= 1
C158: + x16 + x353 <= 1
C159: + x7 + x257 <= 1
C160: + x2 + x208 <= 1
C161: + x375 + x436 <= 1
C162: + x5 + x77 <= 1
C163: + x18 + x45 <= 1
C164: + x16 + x115 <= 1
C165: + x326 + x417 <= 1
C166: + x239 + x309 <= 1
C167: + x67 + x345 <= 1
C168: + x12 + x51 <= 1
C169: + x6 + x73 <= 1
C170: + x1 + x258 <= 1
C171: + x149 + x250 <= 1
C172: + x9 + x322 <= 1
C173: + x49 + x62 <= 1
C174: + x222 + x438 <= 1
C175: + x43 + x371 <= 1
C176: + x45 + x224 <= 1
C177: + x10 + x332 <= 1
C178: + x102 + x283 <= 1
C179: + x7 + x474 <= 1
C180: + x182 + x384 <= 1
C181: + x57 + x78 <= 1
C182: + x232 + x253 <= 1
C183: + x60 + x233 <= 1
C184: + x8 + x216 <= 1
C185: + x257 + x317 <= 1
C186: + x86 + x207 <= 1
C187: + x5 + x8 <= 1
C188: + x18 + x234 <= 1
C189: + x1 + x48 <= 1
C190: + x128 + x147 <= 1
C191: + x49 + x106 <= 1
C192: + x50 + x382 <= 1
C193: + x348 + x471 <= 1
C194: + x1 + x461 <= 1
C195: + x239 + x333 <= 1
C196: + x29 + x35 <= 1
C197: + x22 + x427 <= 1
C198: + x62 + x68 <= 1
C199: + x309 + x339 <= 1
C200: + x29 + x269 <= 1
C201: + x375 + x395 <= 1
C202: + x33 + x387 <= 1
C203: + x40 + x88 <= 1
C204: + x5 + x76 <= 1
C205: + x1 + x124 <= 1
C206: + x203 + x236 <= 1
C207: + x3 + x404 <= 1
C208: + x29 + x82 <= 1
C209: + x12 + x44 <= 1
C210: + x104 + x386 <= 1
C211: + x6 + x434 <= 1
C212: + x91 + x94 <= 1
C213: + x8 + x334 <= 1
C214: + x28 + x410 <= 1
C215: + x421 + x465 <= 1
C216: + x6 + x213 <= 1
C217: + x80 + x126 <= 1
C218: + x426 + x465 <= 1
C219: + x164 + x212 <= 1
C220: + x146 + x378 <= 1
C221: + x95 + x340 <= 1
C222: + x43 + x183 <= 1
C223: + x22 + x496 <= 1
C224: + x5 + x362 <= 1
C225: + x92 + x278 <= 1
C226: + x347 + x475 <= 1
C227: + x2 + x14 <= 1
C228: + x440 + x489 <= 1
C229: + x5 + x15 <= 1
C230: + x25 + x347 <= 1
C231: + x92 + x104 <= 1
C232: + x464 + x487 <= 1
C233: + x85 + x317 <= 1
C234: + x97 + x416 <= 1
C235: + x84 + x290 <= 1
C236: + x79 + x189 <= 1
C237: + x7 + x170 <= 1
C238: + x83 + x247 <= 1
C239: + x8 + x129 <= 1
C240: + x144 + x174 <= 1
C241: + x182 + x432 <= 1
C242: + x268 + x393 <= 1
C243: + x14 + x218 <= 1
C244: + x107 + x241 <= 1
C245: + x5 + x51 <= 1
C246: + x5 + x400 <= 1
C247: + x219 + x381 <= 1
C248: + x401 + x464 <= 1
C249: + x86 + x141 <= 1
C250: + x233 + x252 <= 1
C251: + x14 + x43 <= 1
C252: + x108 + x148 <= 1
C253: + x23 + x128 <= 1
C254: + x39 + x51 <= 1
C255: + x30 + x200 <= 1
C256: + x208 + x213 <= 1
C257: + x79 + x351 <= 1
C258: + x43 + x83 <= 1
C259: + x6 + x111 <= 1
C260: + x62 + x130 <= 1
C261: + x406 + x479 <= 1
C262: + x2 + x7 <= 1
C263: + x56 + x464 <= 1
C264: + x77 + x140 <= 1
C265: + x192 + x376 <= 1
C266: + x35 + x102 <= 1
C267: + x25 + x180 <= 1
C268: + x7 + x8 <= 1
C269: + x33 + x52 <= 1
C270: + x150 + x248 <= 1
C271: + x81 + x222 <= 1
C272: + x136 + x453 <= 1
C273: + x105 + x212 <= 1
C274: + x39 + x122 <= 1
C275: + x132 + x298 <= 1
C276: + x24 + x272 <= 1
C277: + x24 + x187 <= 1
C278: + x190 + x228 <= 1
C279: + x194 + x225 <= 1
C280: + x86 + x392 <= 1
C281: + x8 + x324 <= 1
C282: + x198 + x263 <= 1
C283: + x163 + x214 <= 1
C284: + x74 + x324 <= 1
C285: + x143 + x442 <= 1
C286: + x238 + x443 <= 1
C287: + x21 + x236 <= 1
C288: + x40 + x186 <= 1
C289: + x30 + x193 <= 1
C290: + x117 + x168 <= 1
C291: + x37 + x183 <= 1
C292: + x2 + x266 <= 1
C293: + x59 + x136 <= 1
C294: + x53 + x261 <= 1
C295: + x19 + x66 <= 1
C296: + x65 + x344 <= 1
C297: + x63 + x430 <= 1
C298: + x25 + x425 <= 1
C299: + x163 + x170 <= 1
C300: + x8 + x98 <= 1
C301: + x13 + x109 <= 1
C302: + x51 + x188 <= 1
C303: + x97 + x121 <= 1
C304: + x71 + x319 <= 1
C305: + x57 + x175 <= 1
C306: + x50 + x151 <= 1
C307: + x91 + x136 <= 1
C308: + x11 + x87 <= 1
C309: + x34 + x288 <= 1
C310: + x96 + x98 <= 1
C311: + x15 + x349 <= 1
C312: + x389 + x392 <= 1
C313: + x321 + x374 <= 1
C314: + x129 + x264 <= 1
C315: + x20 + x422 <= 1
C316: + x198 + x272 <= 1
C317: + x1 + x256 <= 1
C318: + x129 + x421 <= 1
C319: + x3 + x240 <= 1
C320: + x29 + x302 <= 1
C321: + x12 + x176 <= 1
C322: + x68 + x456 <= 1
C323: + x52 + x117 <= 1
C324: + x189 + x199 <= 1
C325: + x197 + x226 <= 1
C326: + x58 + x350 <= 1
C327: + x35 + x362 <= 1
C328: + x136 + x263 <= 1
C329: + x64 + x303 <= 1
C330: + x215 + x262 <= 1
C331: + x26 + x155 <= 1
C332: + x118 + x202 <= 1
C333: + x1 + x12 <= 1
C334: + x47 + x80 <= 1
C335: + x115 + x170 <= 1
C336: + x16 + x47 <= 1
C337: + x12 + x398 <= 1
C338: + x13 + x278 <= 1
C339: + x163 + x359 <= 1
C340: + x72 + x97 <= 1
C341: + x5 + x48 <= 1
C342: + x88 + x94 <= 1
C343: + x216 + x478 <= 1
C344: + x16 + x96 <= 1
C345: + x237 + x404 <= 1
C346: + x171 + x231 <= 1
C347: + x26 + x372 <= 1
C348: + x30 + x34 <= 1
C349: + x116 + x397 <= 1
C350: + x80 + x179 <= 1
C351: + x134 + x225 <= 1
C352: + x8 + x434 <= 1
C353: + x46 + x458 <= 1
C354: + x16 + x205 <= 1
C355: + x8 + x164 <= 1
C356: + x94 + x168 <= 1
C357: + x149 + x378 <= 1
C358: + x5 + x84 <= 1
C359: + x470 + x471 <= 1
C360: + x190 + x202 <= 1
C361: + x131 + x162 <= 1
C362: + x324 + x329 <= 1
C363: + x53 + x267 <= 1
C364: + x227 + x238 <= 1
C365: + x33 + x490 <= 1
C366: + x7 + x336 <= 1
C367: + x58 + x472 <= 1
C368: + x144 + x233 + x248 <= 1
C369: + x295 + x421 <= 1
C370: + x93 + x273 <= 1
C371: + x212 + x241 <= 1
C372: + x25 + x38 <= 1
C373: + x6 + x14 <= 1
C374: + x63 + x119 <= 1
C375: + x65 + x141 <= 1
C376: + x72 + x90 <= 1
C377: + x212 + x387 <= 1
C378: + x375 + x490 <= 1
C379: + x2 + x38 <= 1
C380: + x75 + x153 <= 1
C381: + x39 + x99 <= 1
C382: + x40 + x113 <= 1
C383: + x5 + x23 <= 1
C384: + x81 + x112 <= 1
C385: + x24 + x194 <= 1
C386: + x148 + x290 <= 1
C387: + x9 + x210 <= 1
C388: + x8 + x12 <= 1
C389: + x44 + x145 <= 1
C390: + x93 + x146 <= 1
C391: + x113 + x427 <= 1
C392: + x195 + x458 <= 1
C393: + x6 + x50 <= 1
C394: + x27 + x414 <= 1
C395: + x154 + x276 <= 1
C396: + x273 + x414 <= 1
C397: + x20 + x271 <= 1
C398: + x40 + x165 <= 1
C399: + x32 + x220 <= 1
C400: + x43 + x150 <= 1
C401: + x52 + x67 <= 1
C402: + x17 + x161 <= 1
C403: + x16 + x105 <= 1
C404: + x11 + x354 <= 1
C405: + x253 + x277 <= 1
C406: + x12 + x57 <= 1
C407: + x202 + x229 <= 1
C408: + x20 + x110 <= 1
C409: + x93 + x476 <= 1
C410: + x137 + x144 <= 1
C411: + x104 + x246 <= 1
C412: + x1 + x26 <= 1
C413: + x85 + x352 <= 1
C414: + x12 + x138 <= 1
C415: + x114 + x204 <= 1
C416: + x31 + x329 <= 1
C417: + x25 + x144 <= 1
C418: + x244 + x262 <= 1
C419: + x45 + x230 <= 1
C420: + x200 + x308 <= 1
C421: + x111 + x322 <= 1
C422: + x75 + x406 <= 1
C423: + x322 + x468 <= 1
C424: + x59 + x229 <= 1
C425: + x48 + x360 <= 1
C426: + x163 + x377 <= 1
C427: + x65 + x132 <= 1
C428: + x418 + x446 <= 1
C429: + x2 + x63 <= 1
C430: + x58 + x74 <= 1
C431: + x231 + x422 <= 1
C432: + x93 + x250 <= 1
C433: + x270 + x386 <= 1
C434: + x24 + x223 <= 1
C435: + x36 + x90 <= 1
C436: + x210 + x263 <= 1
C437: + x319 + x417 <= 1
C438: + x85 + x292 <= 1
C439: + x30 + x52 <= 1
C440: + x3 + x16 + x25 <= 1
C441: + x155 + x445 <= 1
C442: + x29 + x41 <= 1
C443: + x47 + x135 <= 1
C444: + x167 + x314 <= 1
C445: + x53 + x362 <= 1
C446: + x25 + x278 <= 1
C447: + x190 + x220 <= 1
C448: + x250 + x433 <= 1
C449: + x25 + x104 <= 1
C450: + x15 + x31 <= 1
C451: + x79 + x223 <= 1
C452: + x49 + x350 <= 1
C453: + x77 + x167 <= 1
C454: + x91 + x294 <= 1
C455: + x38 + x182 <= 1
C456: + x95 + x358 <= 1
C457: + x14 + x159 <= 1
C458: + x14 + x298 <= 1
C459: + x5 + x118 <= 1
C460: + x43 + x376 <= 1
C461: + x3 + x27 <= 1
C462: + x359 + x389 <= 1
C463: + x25 + x52 <= 1
C464: + x150 + x277 <= 1
C465: + x16 + x345 <= 1
C466: + x119 + x409 <= 1
C467: + x75 + x139 <= 1
C468: + x149 + x195 <= 1
C469: + x13 + x232 <= 1
C470: + x112 + x260 <= 1
C471: + x114 + x350 <= 1
C472: + x44 + x100 <= 1
C473: + x26 + x186 <= 1
C474: + x7 + x374 <= 1
C475: + x20 + x176 <= 1
C476: + x115 + x135 <= 1
C477: + x47 + x138 <= 1
C478: + x244 + x246 <= 1
C479: + x18 + x134 <= 1
C480: + x28 + x91 <= 1
C481: + x111 + x171 <= 1
C482: + x94 + x179 <= 1
C483: + x46 + x344 <= 1
C484: + x69 + x308 <= 1
C485: + x254 + x405 <= 1
C486: + x63 + x323 <= 1
C487: + x74 + x452 <= 1
C488: + x3 + x405 <= 1
C489: + x30 + x396 <= 1
C490: + x77 + x121 <= 1
C491: + x5 + x315 <= 1
C492: + x318 + x355 <= 1
C493: + x138 + x306 <= 1
C494: + x265 + x392 <= 1
C495: + x3 + x99 <= 1
C496: + x106 + x134 <= 1
C497: + x14 + x53 <= 1
C498: + x27 + x109 <= 1
C499: + x3 + x264 <= 1
C500: + x68 + x496 <= 1
C501: + x20 + x72 <= 1
C502: + x3 + x22 <= 1
C503: + x221 + x280 <= 1
C504: + x47 + x197 <= 1
C505: + x25 + x59 <= 1
C506: + x51 + x60 <= 1
C507: + x13 + x314 <= 1
C508: + x11 + x118 <= 1
C509: + x80 + x500 <= 1
C510: + x33 + x280 <= 1
C511: + x178 + x336 <= 1
C512: + x44 + x136 <= 1
C513: + x7 + x10 <= 1
C514: + x190 + x381 <= 1
C515: + x118 + x405 <= 1
C516: + x9 + x420 <= 1
C517: + x73 + x100 <= 1
C518: + x114 + x296 <= 1
C519: + x28 + x40 + x159 <= 1
C520: + x81 + x228 <= 1
C521: + x102 + x249 <= 1
C522: + x5 + x56 <= 1
C523: + x307 + x341 <= 1
C524: + x65 + x221 <= 1
C525: + x114 + x276 <= 1
C526: + x186 + x460 <= 1
C527: + x104 + x225 <= 1
C528: + x26 + x261 <= 1
C529: + x14 + x46 <= 1
C530: + x232 + x353 <= 1
C531: + x41 + x86 <= 1
C532: + x5 + x124 <= 1
C533: + x6 + x463 <= 1
C534: + x9 + x127 <= 1
C535: + x1 + x396 <= 1
C536: + x47 + x208 <= 1
C537: + x50 + x173 <= 1
C538: + x333 + x446 <= 1
C539: + x252 + x361 <= 1
C540: + x5 + x11 <= 1
C541: + x1 + x59 <= 1
C542: + x33 + x303 <= 1
C543: + x22 + x349 <= 1
C544: + x108 + x445 <= 1
C545: + x135 + x214 <= 1
C546: + x49 + x194 <= 1
C547: + x49 + x279 <= 1
C548: + x20 + x25 <= 1
C549: + x94 + x439 <= 1
C550: + x40 + x486 <= 1
C551: + x26 + x450 <= 1
C552: + x7 + x174 <= 1
C553: + x63 + x95 <= 1
C554: + x10 + x83 <= 1
C555: + x154 + x181 <= 1
C556: + x23 + x129 <= 1
C557: + x25 + x363 <= 1
C558: + x14 + x214 <= 1
C559: + x32 + x267 <= 1
C560: + x8 + x36 <= 1
C561: + x3 + x359 <= 1
C562: + x50 + x234 <= 1
C563: + x7 + x61 <= 1
C564: + x114 + x277 <= 1
C565: + x50 + x85 <= 1
C566: + x52 + x281 <= 1
C567: + x190 + x429 <= 1
C568: + x302 + x457 <= 1
C569: + x5 + x99 <= 1
C570: + x25 + x236 <= 1
C571: + x53 + x101 <= 1
C572: + x25 + x311 <= 1
C573: + x1 + x387 <= 1
C574: + x240 + x397 <= 1
C575: + x6 + x107 <= 1
C576: + x114 + x321 <= 1
C577: + x14 + x27 <= 1
C578: + x44 + x388 <= 1
C579: + x24 + x227 <= 1
C580: + x3 + x302 <= 1
C581: + x9 + x82 <= 1
C582: + x216 + x357 <= 1
C583: + x16 + x380 <= 1
C584: + x127 + x461 <= 1
C585: + x10 + x92 <= 1
C586: + x155 + x239 <= 1
C587: + x300 + x370 <= 1
C588: + x21 + x164 <= 1
C589: + x40 + x66 <= 1
C590: + x25 + x370 <= 1
C591: + x81 + x452 <= 1
C592: + x68 + x310 <= 1
C593: + x17 + x33 <= 1
C594: + x73 + x94 <= 1
C595: + x7 + x209 <= 1
C596: + x9 + x144 <= 1
C597: + x94 + x338 <= 1
C598: + x39 + x42 <= 1
C599: + x14 + x131 <= 1
C600: + x5 + x423 <= 1
C601: + x69 + x92 + x492 <= 1
C602: + x21 + x85 <= 1
C603: + x28 + x424 <= 1
C604: + x77 + x191 <= 1
C605: + x9 + x252 <= 1
C606: + x1 + x9 <= 1
C607: + x60 + x97 <= 1
C608: + x14 + x258 <= 1
C609: + x6 + x485 <= 1
C610: + x71 + x307 <= 1
C611: + x56 + x139 <= 1
C612: + x148 + x423 <= 1
C613: + x12 + x393 <= 1
C614: + x106 + x310 <= 1
C615: + x288 + x326 <= 1
C616: + x118 + x259 <= 1
C617: + x22 + x37 <= 1
C618: + x25 + x377 <= 1
C619: + x106 + x209 <= 1
C620: + x8 + x18 <= 1
C621: + x138 + x499 <= 1
C622: + x1 + x69 <= 1
C623: + x5 + x287 <= 1
C624: + x26 + x125 <= 1
C625: + x27 + x371 <= 1
C626: + x283 + x342 <= 1
C627: + x62 + x63 <= 1
C628: + x118 + x343 <= 1
C629: + x13 + x52 <= 1
C630: + x217 + x453 <= 1
C631: + x5 + x81 <= 1
C632: + x24 + x132 <= 1
C633: + x9 + x20 <= 1
C634: + x1 + x401 <= 1
C635: + x120 + x321 <= 1
C636: + x20 + x100 <= 1
C637: + x30 + x121 <= 1
C638: + x187 + x328 <= 1
C639: + x34 + x126 <= 1
C640: + x6 + x93 <= 1
C641: + x2 + x21 <= 1
C642: + x194 + x288 <= 1
C643: + x185 + x309 <= 1
C644: + x14 + x315 <= 1
C645: + x79 + x377 <= 1
C646: + x32 + x337 <= 1
C647: + x101 + x401 <= 1
C648: + x114 + x452 <= 1
C649: + x156 + x227 <= 1
C650: + x21 + x178 <= 1
C651: + x5 + x44 <= 1
C652: + x81 + x109 <= 1
C653: + x244 + x425 <= 1
C654: + x217 + x448 <= 1
C655: + x37 + x253 <= 1
C656: + x20 + x157 <= 1
C657: + x5 + x262 <= 1
C658: + x66 + x274 <= 1
C659: + x50 + x128 <= 1
C660: + x6 + x53 <= 1
C661: + x9 + x361 <= 1
C662: + x73 + x169 <= 1
C663: + x85 + x137 <= 1
C664: + x105 + x242 <= 1
C665: + x124 + x192 <= 1
C666: + x33 + x383 <= 1
C667: + x45 + x183 <= 1
C668: + x7 + x433 <= 1
C669: + x120 + x346 <= 1
C670: + x6 + x70 <= 1
C671: + x81 + x139 <= 1
C672: + x15 + x17 <= 1
C673: + x249 + x402 <= 1
C674: + x138 + x214 <= 1
C675: + x356 + x472 <= 1
C676: + x5 + x239 <= 1
C677: + x6 + x249 <= 1
C678: + x261 + x316 <= 1
C679: + x8 + x84 <= 1
C680: + x293 + x461 <= 1
C681: + x86 + x331 <= 1
C682: + x167 + x494 <= 1
C683: + x28 + x291 <= 1
C684: + x329 + x348 <= 1
C685: + x20 + x53 <= 1
C686: + x3 + x5 <= 1
C687: + x15 + x93 <= 1
C688: + x119 + x120 <= 1
C689: + x40 + x109 <= 1
C690: + x5 + x19 <= 1
C691: + x78 + x466 <= 1
C692: + x26 + x79 <= 1
C693: + x142 + x150 <= 1
C694: + x73 + x176 <= 1
C695: + x8 + x149 <= 1
C696: + x159 + x470 <= 1
C697: + x198 + x236 <= 1
C698: + x6 + x300 <= 1
C699: + x311 + x438 <= 1
C700: + x47 + x94 <= 1
C701: + x33 + x247 <= 1
C702: + x43 + x198 <= 1
C703: + x88 + x294 <= 1
C704: + x266 + x355 <= 1
C705: + x3 + x32 <= 1
C706: + x40 + x391 <= 1
C707: + x6 + x115 <= 1
C708: + x8 + x218 <= 1
C709: + x5 + x26 <= 1
C710: + x15 + x193 <= 1
C711: + x16 + x170 <= 1
C712: + x63 + x276 <= 1
C713: + x5 + x268 <= 1
C714: + x24 + x58 <= 1
C715: + x7 + x20 <= 1
C716: + x10 + x270 <= 1
C717: + x55 + x58 <= 1
C718: + x29 + x37 <= 1
C719: + x33 + x48 <= 1
C720: + x70 + x300 <= 1
C721: + x7 + x189 <= 1
C722: + x3 + x245 <= 1
C723: + x203 + x397 <= 1
C724: + x70 + x463 <= 1
C725: + x87 + x485 <= 1
C726: + x5 + x78 <= 1
C727: + x25 + x282 <= 1
C728: + x174 + x382 <= 1
C729: + x12 + x54 <= 1
C730: + x22 + x274 <= 1
C731: + x25 + x108 <= 1
C732: + x6 + x440 <= 1
C733: + x109 + x394 <= 1
C734: + x114 + x358 <= 1
C735: + x278 + x304 <= 1
C736: + x7 + x318 <= 1
C737: + x120 + x221 <= 1
C738: + x29 + x203 <= 1
C739: + x369 + x388 <= 1
C740: + x115 + x207 <= 1
C741: + x22 + x216 <= 1
C742: + x14 + x155 <= 1
C743: + x18 + x96 <= 1
C744: + x128 + x269 <= 1
C745: + x110 + x423 <= 1
C746: + x267 + x380 <= 1
C747: + x258 + x263 <= 1
C748: + x87 + x286 <= 1
C749: + x398 + x415 <= 1
C750: + x2 + x12 <= 1
C751: + x93 + x205 <= 1
C752: + x88 + x101 <= 1
C753: + x153 + x383 <= 1
C754: + x72 + x310 <= 1
C755: + x22 + x156 <= 1
C756: + x5 + x499 <= 1
C757: + x7 + x11 <= 1
C758: + x45 + x269 <= 1
C759: + x47 + x142 <= 1
C760: + x149 + x190 <= 1
C761: + x132 + x160 <= 1
C762: + x114 + x291 <= 1
C763: + x427 + x444 <= 1
C764: + x137 + x211 <= 1
C765: + x10 + x402 <= 1
C766: + x2 + x200 <= 1
C767: + x304 + x335 <= 1
C768: + x189 + x231 <= 1
C769: + x50 + x244 <= 1
C770: + x90 + x421 <= 1
C771: + x147 + x230 <= 1
C772: + x26 + x264 <= 1
C773: + x178 + x205 <= 1
C774: + x127 + x186 <= 1
C775: + x3 + x18 <= 1
C776: + x59 + x243 <= 1
C777: + x33 + x98 <= 1
C778: + x40 + x437 <= 1
C779: + x25 + x63 <= 1
C780: + x43 + x105 <= 1
C781: + x7 + x115 <= 1
C782: + x243 + x257 <= 1
C783: + x5 + x363 <= 1
C784: + x189 + x416 <= 1
C785: + x31 + x146 <= 1
C786: + x395 + x399 <= 1
C787: + x115 + x327 <= 1
C788: + x162 + x394 <= 1
C789: + x26 + x34 <= 1
C790: + x92 + x390 <= 1
C791: + x111 + x420 <= 1
C792: + x115 + x428 <= 1
C793: + x23 + x33 <= 1
C794: + x24 + x403 <= 1
C795: + x63 + x493 <= 1
C796: + x170 + x245 <= 1
C797: + x253 + x318 <= 1
C798: + x74 + x457 <= 1
C799: + x52 + x249 <= 1
C800: + x235 + x313 <= 1
C801: + x80 + x167 <= 1
C802: + x249 + x430 <= 1
C803: + x22 + x391 <= 1
C804: + x5 + x195 <= 1
C805: + x418 + x492 <= 1
C806: + x8 + x184 <= 1
C807: + x130 + x480 <= 1
C808: + x361 + x367 <= 1
C809: + x34 + x132 <= 1
C810: + x397 + x418 <= 1
C811: + x72 + x155 <= 1
C812: + x165 + x265 <= 1
C813: + x311 + x316 <= 1
C814: + x77 + x411 <= 1
C815: + x74 + x152 <= 1
C816: + x1 + x301 <= 1
C817: + x2 + x6 <= 1
C818: + x373 + x478 <= 1
C819: + x266 + x497 <= 1
C820: + x25 + x419 <= 1
C821: + x44 + x86 <= 1
C822: + x96 + x114 + x275 <= 1
C823: + x90 + x491 <= 1
C824: + x26 + x43 <= 1
C825: + x20 + x29 <= 1
C826: + x166 + x459 <= 1
C827: + x266 + x322 <= 1
C828: + x97 + x373 <= 1
C829: + x271 + x442 <= 1
C830: + x8 + x302 <= 1
C831: + x28 + x45 <= 1
C832: + x10 + x87 <= 1
C833: + x10 + x388 <= 1
C834: + x222 + x460 <= 1
C835: + x368 + x413 <= 1
C836: + x91 + x396 <= 1
C837: + x93 + x444 <= 1
C838: + x113 + x149 <= 1
C839: + x302 + x436 <= 1
C840: + x97 + x484 <= 1
C841: + x178 + x305 <= 1
C842: + x71 + x241 <= 1
C843: + x65 + x216 <= 1
C844: + x74 + x173 <= 1
C845: + x123 + x470 <= 1
C846: + x73 + x333 <= 1
C847: + x7 + x295 <= 1
C848: + x246 + x375 <= 1
C849: + x5 + x111 <= 1
C850: + x114 + x410 <= 1
C851: + x22 + x497 <= 1
C852: + x6 + x87 <= 1
C853: + x27 + x305 <= 1
C854: + x22 + x84 <= 1
C855: + x45 + x85 <= 1
C856: + x8 + x97 <= 1
C857: + x16 + x142 <= 1
C858: + x47 + x70 <= 1
C859: + x68 + x270 <= 1
C860: + x254 + x360 <= 1
C861: + x108 + x426 <= 1
C862: + x5 + x141 <= 1
C863: + x6 + x27 <= 1
C864: + x146 + x312 <= 1
C865: + x72 + x434 <= 1
C866: + x94 + x154 <= 1
C867: + x114 + x177 <= 1
C868: + x22 + x40 <= 1
C869: + x4 + x146 <= 1
C870: + x3 + x217 <= 1
C871: + x147 + x481 <= 1
C872: + x29 + x192 <= 1
C873: + x33 + x187 <= 1
C874: + x334 + x452 <= 1
C875: + x26 + x32 + x283 <= 1
C876: + x55 + x411 <= 1
C877: + x14 + x92 <= 1
C878: + x91 + x201 <= 1
C879: + x145 + x348 <= 1
C880: + x24 + x373 <= 1
C881: + x114 + x237 <= 1
C882: + x5 + x86 <= 1
C883: + x116 + x312 <= 1
C884: + x307 + x470 <= 1
C885: + x9 + x17 <= 1
C886: + x7 + x443 <= 1
C887: + x201 + x230 <= 1
C888: + x39 + x143 <= 1
C889: + x33 + x119 <= 1
C890: + x150 + x309 <= 1
C891: + x7 + x104 <= 1
C892: + x9 + x462 <= 1
C893: + x11 + x107 <= 1
C894: + x103 + x172 <= 1
C895: + x352 + x369 <= 1
C896: + x1 + x13 <= 1
C897: + x324 + x468 <= 1
C898: + x387 + x461 <= 1
C899: + x171 + x418 <= 1
C900: + x135 + x188 <= 1
C901: + x7 + x148 <= 1
C902: + x3 + x212 <= 1
C903: + x72 + x334 <= 1
C904: + x166 + x334 <= 1
C905: + x30 + x33 <= 1
C906: + x342 + x426 <= 1
C907: + x7 + x35 <= 1
C908: + x195 + x464 <= 1
C909: + x123 + x488 <= 1
C910: + x444 + x484 <= 1
C911: + x2 + x256 <= 1
C912: + x76 + x81 <= 1
C913: + x9 + x24 <= 1
C914: + x29 + x75 <= 1
C915: + x30 + x117 <= 1
C916: + x62 + x172 <= 1
C917: + x8 + x357 <= 1
C918: + x66 + x297 <= 1
C919: + x59 + x108 <= 1
C920: + x30 + x323 <= 1
C921: + x15 + x175 <= 1
C922: + x7 + x333 <= 1
C923: + x143 + x469 <= 1
C924: + x20 + x213 <= 1
C925: + x3 + x316 <= 1
C926: + x107 + x288 <= 1
C927: + x17 + x103 <= 1
C928: + x9 + x68 <= 1
C929: + x1 + x417 <= 1
C930: + x59 + x219 <= 1
C931: + x6 + x13 <= 1
C932: + x216 + x375 <= 1
C933: + x16 + x342 <= 1
C934: + x8 + x232 <= 1
C935: + x110 + x166 <= 1
C936: + x93 + x228 <= 1
C937: + x146 + x290 <= 1
C938: + x34 + x297 <= 1
C939: + x5 + x24 <= 1
C940: + x44 + x117 <= 1
C941: + x7 + x38 <= 1
C942: + x83 + x107 <= 1
C943: + x62 + x209 <= 1
C944: + x93 + x147 <= 1
C945: + x57 + x319 <= 1
C946: + x40 + x449 <= 1
C947: + x32 + x40 <= 1
C948: + x25 + x499 <= 1
C949: + x222 + x491 <= 1
C950: + x51 + x293 <= 1
C951: + x32 + x219 <= 1
C952: + x232 + x488 <= 1
C953: + x6 + x303 <= 1
C954: + x326 + x442 <= 1
C955: + x41 + x296 <= 1
C956: + x74 + x190 + x239 <= 1
C957: + x81 + x143 <= 1
C958: + x7 + x82 <= 1
C959: + x103 + x166 <= 1
C960: + x114 + x368 <= 1
C961: + x25 + x447 <= 1
C962: + x84 + x175 + x232 <= 1
C963: + x9 + x345 <= 1
C964: + x62 + x435 <= 1
C965: + x46 + x281 <= 1
C966: + x30 + x255 <= 1
C967: + x33 + x335 <= 1
C968: + x59 + x472 <= 1
C969: + x46 + x188 <= 1
C970: + x33 + x81 <= 1
C971: + x93 + x251 <= 1
C972: + x113 + x340 <= 1
C973: + x238 + x362 <= 1
C974: + x13 + x79 <= 1
C975: + x5 + x265 <= 1
C976: + x120 + x446 <= 1
C977: + x29 + x42 <= 1
C978: + x322 + x495 <= 1
C979: + x124 + x494 <= 1
C980: + x362 + x427 <= 1
C981: + x108 + x120 <= 1
C982: + x16 + x222 <= 1
C983: + x1 + x198 <= 1
C984: + x7 + x259 <= 1
C985: + x105 + x495 <= 1
C986: + x51 + x206 <= 1
C987: + x106 + x481 <= 1
C988: + x17 + x454 <= 1
C989: + x7 + x73 <= 1
C990: + x35 + x49 + x180 <= 1
C991: + x40 + x46 <= 1
C992: + x14 + x59 <= 1
C993: + x108 + x164 <= 1
C994: + x73 + x160 <= 1
C995: + x45 + x57 <= 1
C996: + x15 + x185 <= 1
C997: + x1 + x18 <= 1
C998: + x18 + x192 <= 1
C999: + x114 + x196 <= 1
C1000: + x380 + x460 <= 1
C1001: + x143 + x324 <= 1
C1002: + x28 + x320 <= 1
C1003: + x187 + x410 <= 1
C1004: + x150 + x276 <= 1
C1005: + x96 + x290 <= 1
C1006: + x5 + x353 <= 1
C1007: + x87 + x287 <= 1
C1008: + x74 + x225 <= 1
C1009: + x367 + x454 <= 1
C1010: + x22 + x60 <= 1
C1011: + x24 + x300 <= 1
C1012: + x227 + x479 <= 1
C1013: + x135 + x320 <= 1
C1014: + x322 + x325 <= 1
C1015: + x230 + x441 <= 1
C1016: + x78 + x455 <= 1
C1017: + x13 + x70 <= 1
C1018: + x72 + x224 <= 1
C1019: + x3 + x483 <= 1
C1020: + x429 + x446 <= 1
C1021: + x33 + x36 <= 1
C1022: + x88 + x217 <= 1
C1023: + x135 + x463 <= 1
C1024: + x129 + x386 <= 1
C1025: + x166 + x202 <= 1
C1026: + x203 + x393 <= 1
C1027: + x43 + x332 <= 1
C1028: + x24 + x171 <= 1
C1029: + x53 + x68 <= 1
C1030: + x74 + x451 <= 1
C1031: + x306 + x341 <= 1
C1032: + x142 + x284 <= 1
C1033: + x58 + x143 <= 1
C1034: + x32 + x90 <= 1
C1035: + x16 + x308 <= 1
C1036: + x163 + x198 <= 1
C1037: + x149 + x348 <= 1
C1038: + x5 + x126 <= 1
C1039: + x43 + x201 <= 1
C1040: + x5 + x368 <= 1
C1041: + x209 + x297 <= 1
C1042: + x32 + x495 <= 1
C1043: + x155 + x285 <= 1
C1044: + x10 + x125 <= 1
C1045: + x280 + x483 <= 1
C1046: + x5 + x13 <= 1
C1047: + x53 + x458 <= 1
C1048: + x24 + x240 <= 1
C1049: + x8 + x114 <= 1
C1050: + x383 + x404 <= 1
C1051: + x285 + x328 <= 1
C1052: + x33 + x222 <= 1
C1053: + x64 + x204 <= 1
C1054: + x30 + x275 <= 1
C1055: + x15 + x127 <= 1
C1056: + x109 + x366 <= 1
C1057: + x110 + x197 <= 1
C1058: + x39 + x65 <= 1
C1059: + x387 + x408 <= 1
C1060: + x197 + x206 <= 1
C1061: + x16 + x71 <= 1
C1062: + x219 + x383 <= 1
C1063: + x88 + x327 <= 1
C1064: + x50 + x83 <= 1
C1065: + x189 + x293 <= 1
C1066: + x91 + x309 <= 1
C1067: + x10 + x21 <= 1
C1068: + x71 + x489 <= 1
C1069: + x85 + x374 <= 1
C1070: + x124 + x147 <= 1
C1071: + x150 + x451 <= 1
C1072: + x17 + x67 <= 1
C1073: + x1 + x397 <= 1
C1074: + x28 + x270 <= 1
C1075: + x156 + x497 <= 1
C1076: + x123 + x134 <= 1
C1077: + x6 + x97 <= 1
C1078: + x7 + x119 <= 1
C1079: + x189 + x412 <= 1
C1080: + x21 + x338 <= 1
C1081: + x5 + x12 <= 1
C1082: + x15 + x215 <= 1
C1083: + x15 + x268 <= 1
C1084: + x98 + x245 <= 1
C1085: + x24 + x229 <= 1
C1086: + x2 + x164 <= 1
C1087: + x166 + x363 <= 1
C1088: + x21 + x55 <= 1
C1089: + x99 + x296 <= 1
C1090: + x14 + x271 <= 1
C1091: + x6 + x498 <= 1
C1092: + x20 + x28 <= 1
C1093: + x114 + x480 <= 1
C1094: + x33 + x50 <= 1
C1095: + x101 + x151 <= 1
C1096: + x4 + x168 <= 1
C1097: + x108 + x250 <= 1
C1098: + x3 + x360 <= 1
C1099: + x33 + x161 <= 1
C1100: + x52 + x253 <= 1
C1101: + x32 + x425 <= 1
C1102: + x209 + x235 <= 1
C1103: + x74 + x176 <= 1
C1104: + x40 + x473 <= 1
C1105: + x96 + x144 <= 1
C1106: + x68 + x477 <= 1
C1107: + x141 + x447 <= 1
C1108: + x39 + x56 <= 1
C1109: + x242 + x375 <= 1
C1110: + x148 + x469 <= 1
C1111: + x1 + x289 <= 1
C1112: + x92 + x354 <= 1
C1113: + x29 + x332 <= 1
C1114: + x97 + x154 <= 1
C1115: + x217 + x359 <= 1
C1116: + x5 + x243 <= 1
C1117: + x184 + x306 <= 1
C1118: + x153 + x337 <= 1
C1119: + x195 + x294 <= 1
C1120: + x6 + x30 <= 1
C1121: + x155 + x307 <= 1
C1122: + x4 + x173 <= 1
C1123: + x5 + x39 <= 1
C1124: + x43 + x293 <= 1
C1125: + x6 + x268 <= 1
C1126: + x189 + x332 <= 1
C1127: + x7 + x396 <= 1
C1128: + x16 + x85 <= 1
C1129: + x3 + x383 <= 1
C1130: + x30 + x43 <= 1
C1131: + x97 + x488 <= 1
C1132: + x5 + x273 <= 1
C1133: + x47 + x289 <= 1
C1134: + x175 + x342 <= 1
C1135: + x13 + x337 <= 1
C1136: + x5 + x182 <= 1
C1137: + x6 + x194 <= 1
C1138: + x7 + x210 <= 1
C1139: + x44 + x464 <= 1
C1140: + x31 + x447 <= 1
C1141: + x129 + x419 <= 1
C1142: + x12 + x174 <= 1
C1143: + x39 + x47 <= 1
C1144: + x336 + x408 <= 1
C1145: + x5 + x325 <= 1
C1146: + x6 + x83 <= 1
C1147: + x116 + x466 <= 1
C1148: + x10 + x477 <= 1
C1149: + x11 + x467 <= 1
C1150: + x14 + x432 <= 1
C1151: + x345 + x390 <= 1
C1152: + x14 + x19 <= 1
C1153: + x23 + x72 <= 1
C1154: + x17 + x208 <= 1
C1155: + x91 + x331 <= 1
C1156: + x1 + x10 <= 1
C1157: + x462 + x500 <= 1
C1158: + x4 + x5 <= 1
C1159: + x115 + x373 <= 1
C1160: + x4 + x476 <= 1
C1161: + x318 + x434 <= 1
C1162: + x186 + x274 <= 1
C1163: + x5 + x137 <= 1
C1164: + x10 + x393 <= 1
C1165: + x94 + x150 <= 1
C1166: + x30 + x129 <= 1
C1167: + x97 + x237 <= 1
C1168: + x69 + x273 <= 1
C1169: + x6 + x373 <= 1
C1170: + x319 + x433 <= 1
C1171: + x71 + x240 <= 1
C1172: + x7 + x48 <= 1
C1173: + x156 + x343 <= 1
C1174: + x75 + x227 <= 1
C1175: + x46 + x460 <= 1
C1176: + x132 + x163 <= 1
C1177: + x32 + x62 <= 1
C1178: + x27 + x66 <= 1
C1179: + x9 + x184 <= 1
C1180: + x36 + x55 <= 1
C1181: + x19 + x35 <= 1
C1182: + x16 + x195 <= 1
C1183: + x104 + x110 <= 1
C1184: + x20 + x264 <= 1
C1185: + x32 + x304 <= 1
C1186: + x87 + x465 <= 1
C1187: + x223 + x259 <= 1
C1188: + x353 + x366 <= 1
C1189: + x44 + x55 <= 1
C1190: + x9 + x21 <= 1
C1191: + x10 + x363 <= 1
C1192: + x24 + x482 <= 1
C1193: + x227 + x240 <= 1
C1194: + x127 + x308 <= 1
C1195: + x138 + x281 <= 1
C1196: + x138 + x212 <= 1
C1197: + x400 + x431 <= 1
C1198: + x6 + x255 <= 1
C1199: + x15 + x285 <= 1
C1200: + x16 + x151 <= 1
C1201: + x26 + x158 <= 1
C1202: + x24 + x325 <= 1
C1203: + x28 + x130 <= 1
C1204: + x96 + x404 <= 1
C1205: + x9 + x65 <= 1
C1206: + x80 + x374 <= 1
C1207: + x317 + x477 <= 1
C1208: + x3 + x11 <= 1
C1209: + x413 + x483 <= 1
C1210: + x6 + x16 <= 1
C1211: + x4 + x30 <= 1
C1212: + x83 + x221 <= 1
C1213: + x222 + x474 <= 1
C1214: + x5 + x21 <= 1
C1215: + x44 + x429 <= 1
C1216: + x82 + x453 <= 1
C1217: + x127 + x238 <= 1
C1218: + x34 + x58 <= 1
C1219: + x25 + x496 <= 1
C1220: + x190 + x439 <= 1
C1221: + x18 + x323 <= 1
C1222: + x92 + x139 <= 1
C1223: + x211 + x295 <= 1
C1224: + x5 + x89 <= 1
C1225: + x26 + x246 <= 1
C1226: + x9 + x28 <= 1
C1227: + x8 + x62 <= 1
C1228: + x2 + x287 <= 1
C1229: + x28 + x234 <= 1
C1230: + x120 + x345 <= 1
C1231: + x12 + x462 <= 1
C1232: + x4 + x441 <= 1
C1233: + x43 + x73 <= 1
C1234: + x5 + x331 <= 1
C1235: + x178 + x275 <= 1
C1236: + x32 + x111 <= 1
C1237: + x180 + x370 <= 1
C1238: + x36 + x108 <= 1
C1239: + x1 + x8 <= 1
C1240: + x69 + x77 <= 1
C1241: + x27 + x178 <= 1
C1242: + x3 + x6 <= 1
C1243: + x414 + x486 <= 1
C1244: + x6 + x9 <= 1
C1245: + x24 + x435 <= 1
C1246: + x51 + x493 <= 1
C1247: + x5 + x20 <= 1
C1248: + x125 + x364 <= 1
C1249: + x307 + x400 <= 1
C1250: + x45 + x123 <= 1
C1251: + x137 + x492 <= 1
C1252: + x120 + x286 <= 1
C1253: + x30 + x54 <= 1
C1254: + x213 + x351 <= 1
C1255: + x21 + x31 <= 1
C1256: + x169 + x437 <= 1
C1257: + x190 + x365 <= 1
C1258: + x192 + x419 <= 1
C1259: + x5 + x163 <= 1
C1260: + x26 + x489 <= 1
C1261: + x7 + x187 <= 1
C1262: + x7 + x272 <= 1
C1263: + x208 + x422 <= 1
C1264: + x32 + x36 <= 1
C1265: + x264 + x298 <= 1
C1266: + x14 + x74 <= 1
C1267: + x168 + x438 <= 1
C1268: + x26 + x255 <= 1
C1269: + x308 + x500 <= 1
C1270: + x200 + x251 <= 1
C1271: + x8 + x346 <= 1
C1272: + x5 + x449 <= 1
C1273: + x244 + x265 <= 1
C1274: + x7 + x485 <= 1
C1275: + x3 + x29 <= 1
C1276: + x105 + x408 <= 1
C1277: + x70 + x231 <= 1
C1278: + x1 + x142 <= 1
C1279: + x367 + x455 <= 1
C1280: + x5 + x27 <= 1
C1281: + x125 + x355 <= 1
C1282: + x26 + x188 <= 1
C1283: + x217 + x399 <= 1
C1284: + x15 + x315 <= 1
C1285: + x160 + x430 <= 1
C1286: + x37 + x228 <= 1
C1287: + x60 + x67 <= 1
C1288: + x306 + x412 <= 1
C1289: + x7 + x17 <= 1
C1290: + x335 + x457 <= 1
C1291: + x156 + x318 <= 1
C1292: + x20 + x448 <= 1
C1293: + x22 + x432 <= 1
C1294: + x212 + x475 <= 1
C1295: + x184 + x254 <= 1
C1296: + x13 + x218 <= 1
C1297: + x43 + x333 <= 1
C1298: + x21 + x106 <= 1
C1299: + x149 + x490 <= 1
C1300: + x7 + x77 <= 1
C1301: + x156 + x189 <= 1
C1302: + x75 + x196 <= 1
C1303: + x348 + x420 <= 1
C1304: + x22 + x116 <= 1
C1305: + x96 + x157 <= 1
C1306: + x1 + x22 <= 1
C1307: + x246 + x411 <= 1
C1308: + x84 + x116 <= 1
C1309: + x286 + x319 <= 1
C1310: + x5 + x115 <= 1
C1311: + x25 + x295 <= 1
C1312: + x15 + x403 <= 1
C1313: + x124 + x427 <= 1
C1314: + x92 + x287 <= 1
C1315: + x8 + x210 <= 1
C1316: + x136 + x285 <= 1
C1317: + x21 + x336 <= 1
C1318: + x33 + x278 <= 1
C1319: + x5 + x145 <= 1
C1320: + x44 + x289 <= 1
C1321: + x6 + x47 <= 1
C1322: + x7 + x181 <= 1
C1323: + x133 + x273 <= 1
C1324: + x120 + x129 <= 1
C1325: + x15 + x124 <= 1
C1326: + x91 + x169 <= 1
C1327: + x144 + x286 <= 1
C1328: + x114 + x141 <= 1
C1329: + x40 + x82 <= 1
C1330: + x126 + x229 <= 1
C1331: + x308 + x450 <= 1
C1332: + x200 + x233 <= 1
C1333: + x9 + x49 <= 1
C1334: + x281 + x321 <= 1
C1335: + x317 + x429 <= 1
C1336: + x41 + x282 <= 1
C1337: + x114 + x435 <= 1
C1338: + x150 + x341 <= 1
C1339: + x70 + x165 <= 1
C1340: + x53 + x237 <= 1
C1341: + x32 + x70 <= 1
C1342: + x6 + x211 <= 1
C1343: + x254 + x257 <= 1
C1344: + x76 + x440 <= 1
C1345: + x192 + x252 <= 1
C1346: + x213 + x424 <= 1
C1347: + x5 + x122 <= 1
C1348: + x17 + x80 <= 1
C1349: + x65 + x74 <= 1
C1350: + x476 + x483 <= 1
C1351: + x305 + x473 <= 1
C1352: + x25 + x64 <= 1
C1353: + x26 + x440 <= 1
C1354: + x1 + x156 <= 1
C1355: + x193 + x385 <= 1
C1356: + x225 + x272 <= 1
C1357: + x5 + x9 <= 1
C1358: + x217 + x413 <= 1
C1359: + x79 + x453 <= 1
C1360: + x16 + x191 <= 1
C1361: + x8 + x110 <= 1
C1362: + x71 + x418 <= 1
C1363: + x93 + x106 <= 1
C1364: + x115 + x187 <= 1
C1365: + x40 + x250 <= 1
C1366: + x35 + x206 <= 1
C1367: + x20 + x23 <= 1
C1368: + x115 + x425 <= 1
C1369: + x5 + x160 <= 1
C1370: + x6 + x24 <= 1
C1371: + x101 + x351 <= 1
C1372: + x28 + x87 <= 1
C1373: + x120 + x154 <= 1
C1374: + x64 + x482 <= 1
C1375: + x220 + x478 <= 1
C1376: + x5 + x61 <= 1
C1377: + x14 + x355 <= 1
C1378: + x43 + x319 <= 1
C1379: + x16 + x67 <= 1
C1380: + x45 + x156 <= 1
C1381: + x8 + x34 <= 1
C1382: + x120 + x317 <= 1
C1383: + x238 + x285 <= 1
C1384: + x413 + x431 <= 1
C1385: + x16 + x244 <= 1
C1386: + x28 + x99 <= 1
C1387: + x155 + x174 <= 1
C1388: + x135 + x498 <= 1
C1389: + x22 + x217 <= 1
C1390: + x17 + x71 <= 1
C1391: + x1 + x385 <= 1
C1392: + x24 + x471 <= 1
C1393: + x91 + x119 <= 1
C1394: + x2 + x5 <= 1
C1395: + x46 + x401 <= 1
C1396: + x103 + x191 <= 1
C1397: + x33 + x455 <= 1
C1398: + x1 + x64 <= 1
C1399: + x193 + x293 <= 1
C1400: + x315 + x468 <= 1
C1401: + x159 + x193 <= 1
C1402: + x205 + x391 <= 1
C1403: + x5 + x60 <= 1
C1404: + x321 + x369 <= 1
C1405: + x3 + x356 <= 1
C1406: + x59 + x178 <= 1
C1407: + x50 + x237 <= 1
C1408: + x153 + x439 <= 1
C1409: + x62 + x197 <= 1
C1410: + x118 + x429 <= 1
C1411: + x397 + x459 <= 1
C1412: + x32 + x76 <= 1
C1413: + x44 + x459 <= 1
C1414: + x104 + x124 <= 1
C1415: + x5 + x112 <= 1
C1416: + x34 + x337 <= 1
C1417: + x44 + x61 <= 1
C1418: + x18 + x66 <= 1
C1419: + x72 + x147 <= 1
C1420: + x59 + x329 <= 1
C1421: + x2 + x30 <= 1
C1422: + x89 + x235 <= 1
C1423: + x26 + x349 <= 1
C1424: + x288 + x459 <= 1
C1425: + x26 + x51 <= 1
C1426: + x135 + x194 <= 1
C1427: + x30 + x481 <= 1
C1428: + x78 + x156 <= 1
C1429: + x6 + x26 <= 1
C1430: + x144 + x190 <= 1
C1431: + x72 + x433 <= 1
C1432: + x86 + x300 <= 1
C1433: + x40 + x125 <= 1
C1434: + x44 + x122 <= 1
C1435: + x37 + x204 <= 1
C1436: + x403 + x449 <= 1
C1437: + x32 + x414 <= 1
C1438: + x7 + x41 <= 1
C1439: + x102 + x103 <= 1
C1440: + x147 + x208 <= 1
C1441: + x40 + x462 <= 1
C1442: + x14 + x91 <= 1
C1443: + x257 + x364 <= 1
C1444: + x203 + x406 <= 1
C1445: + x115 + x244 <= 1
C1446: + x244 + x494 <= 1
C1447: + x10 + x358 <= 1
C1448: + x68 + x357 <= 1
C1449: + x142 + x247 <= 1
C1450: + x7 + x101 <= 1
C1451: + x92 + x379 <= 1
C1452: + x141 + x257 <= 1
C1453: + x150 + x151 <= 1
C1454: + x6 + x242 <= 1
C1455: + x14 + x15 <= 1
C1456: + x7 + x331 <= 1
C1457: + x381 + x445 <= 1
C1458: + x54 + x323 <= 1
C1459: + x149 + x321 <= 1
C1460: + x69 + x91 <= 1
C1461: + x26 + x60 <= 1
C1462: + x16 + x41 <= 1
C1463: + x4 + x379 <= 1
C1464: + x178 + x465 <= 1
C1465: + x44 + x269 <= 1
C1466: + x137 + x261 <= 1
C1467: + x220 + x289 <= 1
C1468: + x12 + x235 <= 1
C1469: + x114 + x169 <= 1
C1470: + x167 + x179 <= 1
C1471: + x15 + x241 <= 1
C1472: + x117 + x311 <= 1
C1473: + x4 + x53 <= 1
C1474: + x40 + x217 <= 1
C1475: + x26 + x72 <= 1
C1476: + x199 + x356 <= 1
C1477: + x356 + x490 <= 1
C1478: + x57 + x313 <= 1
C1479: + x366 + x467 <= 1
C1480: + x5 + x185 <= 1
C1481: + x127 + x421 <= 1
C1482: + x37 + x322 <= 1
C1483: + x56 + x424 <= 1
C1484: + x3 + x394 <= 1
C1485: + x105 + x482 <= 1
C1486: + x33 + x143 <= 1
C1487: + x13 + x475 <= 1
C1488: + x6 + x72 <= 1
C1489: + x7 + x96 <= 1
C1490: + x85 + x254 <= 1
C1491: + x61 + x341 <= 1
C1492: + x45 + x76 <= 1
C1493: + x10 + x256 <= 1
C1494: + x7 + x334 <= 1
C1495: + x8 + x9 + x326 <= 1
C1496: + x40 + x297 <= 1
C1497: + x22 + x371 <= 1
C1498: + x169 + x390 <= 1
C1499: + x124 + x412 <= 1
C1500: + x396 + x415 <= 1
C1501: + x26 + x480 <= 1
C1502: + x18 + x267 <= 1
C1503: + x1 + x335 <= 1
C1504: + x1 + x180 <= 1
C1505: + x441 + x443 <= 1
C1506: + x22 + x41 <= 1
C1507: + x5 + x17 <= 1
C1508: + x24 + x196 <= 1
C1509: + x196 + x222 <= 1
C1510: + x156 + x389 <= 1
C1511: + x148 + x292 <= 1
C1512: + x194 + x202 <= 1
C1513: + x22 + x140 <= 1
C1514: + x30 + x57 <= 1
C1515: + x5 + x259 <= 1
C1516: + x322 + x330 <= 1
C1517: + x28 + x381 <= 1
C1518: + x47 + x311 <= 1
C1519: + x3 + x91 <= 1
C1520: + x32 + x39 <= 1
C1521: + x45 + x450 <= 1
C1522: + x9 + x163 <= 1
C1523: + x2 + x248 <= 1
C1524: + x113 + x266 <= 1
C1525: + x24 + x152 <= 1
C1526: + x190 + x193 <= 1
C1527: + x79 + x441 <= 1
C1528: + x250 + x430 <= 1
C1529: + x12 + x59 <= 1
C1530: + x239 + x301 <= 1
C1531: + x15 + x22 <= 1
C1532: + x44 + x335 <= 1
C1533: + x42 + x474 <= 1
C1534: + x188 + x407 <= 1
C1535: + x109 + x310 <= 1
C1536: + x154 + x350 <= 1
C1537: + x28 + x155 <= 1
C1538: + x182 + x213 <= 1
C1539: + x213 + x407 <= 1
C1540: + x33 + x336 <= 1
C1541: + x11 + x65 + x199 <= 1
C1542: + x96 + x389 <= 1
C1543: + x17 + x95 <= 1
C1544: + x388 + x472 <= 1
C1545: + x208 + x255 <= 1
C1546: + x202 + x215 <= 1
C1547: + x385 + x467 <= 1
C1548: + x7 + x131 <= 1
C1549: + x140 + x153 <= 1
C1550: + x40 + x108 <= 1
C1551: + x5 + x32 <= 1
C1552: + x24 + x302 <= 1
C1553: + x26 + x183 <= 1
C1554: + x30 + x50 <= 1
C1555: + x226 + x314 <= 1
C1556: + x56 + x172 <= 1
C1557: + x3 + x86 <= 1
C1558: + x7 + x191 <= 1
C1559: + x148 + x154 <= 1
C1560: + x3 + x247 <= 1
C1561: + x60 + x268 <= 1
C1562: + x5 + x68 <= 1
C1563: + x50 + x471 <= 1
C1564: + x219 + x366 <= 1
C1565: + x123 + x173 <= 1
C1566: + x50 + x197 <= 1
C1567: + x16 + x407 <= 1
C1568: + x9 + x484 <= 1
C1569: + x189 + x280 <= 1
C1570: + x355 + x479 <= 1
C1571: + x55 + x326 <= 1
C1572: + x13 + x19 <= 1
C1573: + x5 + x120 <= 1
C1574: + x14 + x296 <= 1
C1575: + x53 + x138 <= 1
C1576: + x25 + x153 <= 1
C1577: + x43 + x207 <= 1
C1578: + x27 + x133 <= 1
C1579: + x203 + x216 <= 1
C1580: + x4 + x338 <= 1
C1581: + x314 + x356 <= 1
C1582: + x209 + x307 <= 1
C1583: + x45 + x388 <= 1
C1584: + x288 + x320 <= 1
C1585: + x16 + x347 <= 1
C1586: + x1 + x130 <= 1
C1587: + x147 + x161 <= 1
C1588: + x32 + x136 <= 1
C1589: + x44 + x102 <= 1
C1590: + x151 + x407 <= 1
C1591: + x42 + x253 <= 1
C1592: + x397 + x486 <= 1
C1593: + x8 + x415 <= 1
C1594: + x92 + x395 <= 1
C1595: + x139 + x149 <= 1
C1596: + x40 + x498 <= 1
C1597: + x296 + x317 <= 1
C1598: + x1 + x361 <= 1
C1599: + x3 + x242 <= 1
C1600: + x39 + x79 <= 1
C1601: + x153 + x265 <= 1
C1602: + x9 + x14 <= 1
C1603: + x6 + x288 <= 1
C1604: + x88 + x486 <= 1
C1605: + x470 + x496 <= 1
C1606: + x50 + x299 <= 1
C1607: + x124 + x339 <= 1
C1608: + x40 + x327 <= 1
C1609: + x30 + x301 <= 1
C1610: + x97 + x177 <= 1
C1611: + x13 + x165 <= 1
C1612: + x28 + x105 <= 1
C1613: + x114 + x252 <= 1
C1614: + x379 + x468 <= 1
C1615: + x22 + x211 <= 1
C1616: + x207 + x215 <= 1
C1617: + x298 + x328 <= 1
C1618: + x207 + x372 <= 1
C1619: + x2 + x15 <= 1
C1620: + x3 + x181 <= 1
C1621: + x5 + x14 <= 1
C1622: + x45 + x101 <= 1
C1623: + x211 + x381 <= 1
C1624: + x59 + x299 <= 1
C1625: + x77 + x497 <= 1
C1626: + x296 + x348 + x352 <= 1
C1627: + x19 + x277 <= 1
C1628: + x37 + x76 <= 1
C1629: + x29 + x57 <= 1
C1630: + x50 + x102 <= 1
C1631: + x5 + x157 <= 1
C1632: + x6 + x43 <= 1
C1633: + x238 + x399 <= 1
C1634: + x22 + x24 <= 1
C1635: + x60 + x282 <= 1
C1636: + x14 + x219 <= 1
C1637: + x34 + x271 <= 1
C1638: + x5 + x292 <= 1
C1639: + x110 + x266 <= 1
C1640: + x43 + x451 <= 1
C1641: + x14 + x44 <= 1
C1642: + x108 + x145 <= 1
C1643: + x181 + x184 <= 1
C1644: + x10 + x28 <= 1
C1645: + x39 + x62 <= 1
C1646: + x215 + x412 <= 1
C1647: + x5 + x102 <= 1
C1648: + x16 + x22 <= 1
C1649: + x1 + x398 <= 1
C1650: + x41 + x330 <= 1
C1651: + x40 + x436 <= 1
C1652: + x44 + x354 <= 1
C1653: + x8 + x384 <= 1
C1654: + x28 + x31 <= 1
C1655: + x2 + x8 <= 1
C1656: + x88 + x121 <= 1
C1657: + x108 + x205 <= 1
C1658: + x6 + x131 <= 1
C1659: + x28 + x190 <= 1
C1660: + x13 + x117 <= 1
C1661: + x4 + x493 <= 1
C1662: + x51 + x132 <= 1
C1663: + x24 + x75 <= 1
C1664: + x81 + x320 <= 1
C1665: + x334 + x409 <= 1
C1666: + x192 + x454 <= 1
C1667: + x6 + x20 <= 1
C1668: + x26 + x456 <= 1
C1669: + x101 + x152 <= 1
C1670: + x29 + x258 <= 1
C1671: + x234 + x357 <= 1
C1672: + x46 + x235 <= 1
C1673: + x293 + x415 <= 1
C1674: + x12 + x39 <= 1
C1675: + x267 + x291 <= 1
C1676: + x242 + x485 <= 1
C1677: + x118 + x432 <= 1
C1678: + x173 + x258 <= 1
C1679: + x10 + x495 <= 1
C1680: + x4 + x312 <= 1
C1681: + x14 + x37 <= 1
C1682: + x77 + x307 <= 1
C1683: + x34 + x340 <= 1
C1684: + x16 + x19 <= 1
C1685: + x1 + x389 <= 1
C1686: + x28 + x262 <= 1
C1687: + x29 + x123 <= 1
C1688: + x22 + x499 <= 1
C1689: + x190 + x284 <= 1
C1690: + x94 + x200 <= 1
C1691: + x244 + x401 <= 1
C1692: + x7 + x349 <= 1
C1693: + x28 + x179 <= 1
C1694: + x111 + x211 <= 1
C1695: + x48 + x192 <= 1
C1696: + x4 + x31 <= 1
C1697: + x170 + x299 <= 1
C1698: + x334 + x402 <= 1
C1699: + x70 + x111 <= 1
C1700: + x136 + x209 <= 1
C1701: + x330 + x447 <= 1
C1702: + x3 + x58 <= 1
C1703: + x6 + x29 <= 1
C1704: + x72 + x440 <= 1
C1705: + x28 + x36 <= 1
C1706: + x95 + x284 <= 1
C1707: + x5 + x40 <= 1
C1708: + x61 + x416 <= 1
C1709: + x87 + x90 <= 1
C1710: + x30 + x42 <= 1
C1711: + x86 + x386 <= 1
C1712: + x5 + x274 <= 1
C1713: + x17 + x35 <= 1
C1714: + x16 + x491 <= 1
C1715: + x37 + x46 <= 1
C1716: + x413 + x418 <= 1
C1717: + x87 + x201 <= 1
C1718: + x15 + x150 <= 1
C1719: + x145 + x346 <= 1
C1720: + x103 + x219 <= 1
C1721: + x264 + x318 <= 1
C1722: + x47 + x387 <= 1
C1723: + x145 + x391 <= 1
C1724: + x44 + x352 <= 1
C1725: + x7 + x98 <= 1
C1726: + x127 + x266 <= 1
C1727: + x1 + x313 <= 1
C1728: + x111 + x456 <= 1
C1729: + x47 + x494 <= 1
C1730: + x93 + x215 <= 1
C1731: + x268 + x449 <= 1
C1732: + x34 + x454 <= 1
C1733: + x185 + x304 <= 1
C1734: + x307 + x423 <= 1
C1735: + x326 + x347 <= 1
C1736: + x22 + x95 <= 1
C1737: + x6 + x245 <= 1
C1738: + x8 + x96 <= 1
C1739: + x222 + x431 <= 1
C1740: + x97 + x127 <= 1
C1741: + x115 + x169 <= 1
C1742: + x120 + x251 <= 1
C1743: + x3 + x49 <= 1
C1744: + x24 + x448 <= 1
C1745: + x129 + x367 <= 1
C1746: + x5 + x47 <= 1
C1747: + x261 + x380 <= 1
C1748: + x126 + x140 <= 1
C1749: + x9 + x42 <= 1
C1750: + x281 + x346 <= 1
C1751: + x7 + x45 <= 1
C1752: + x153 + x223 <= 1
C1753: + x3 + x234 <= 1
C1754: + x89 + x444 <= 1
C1755: + x24 + x158 <= 1
C1756: + x57 + x112 <= 1
C1757: + x22 + x261 <= 1
C1758: + x24 + x481 <= 1
C1759: + x7 + x89 <= 1
C1760: + x15 + x16 <= 1
C1761: + x74 + x133 <= 1
C1762: + x2 + x424 <= 1
C1763: + x362 + x487 <= 1
C1764: + x5 + x226 <= 1
C1765: + x16 + x146 <= 1
C1766: + x74 + x443 <= 1
C1767: + x2 + x182 <= 1
C1768: + x238 + x482 <= 1
C1769: + x299 + x451 <= 1
C1770: + x69 + x71 <= 1
C1771: + x43 + x210 <= 1
C1772: + x44 + x230 <= 1
C1773: + x45 + x238 <= 1
C1774: + x1 + x431 <= 1
C1775: + x203 + x372 <= 1
C1776: + x52 + x166 <= 1
C1777: + x6 + x15 <= 1
C1778: + x144 + x382 <= 1
C1779: + x28 + x50 <= 1
C1780: + x40 + x114 <= 1
C1781: + x207 + x437 <= 1
C1782: + x24 + x199 <= 1
C1783: + x7 + x379 <= 1
C1784: + x243 + x366 <= 1
C1785: + x244 + x330 <= 1
C1786: + x82 + x103 <= 1
C1787: + x9 + x398 <= 1
C1788: + x156 + x303 <= 1
C1789: + x238 + x260 <= 1
C1790: + x113 + x426 <= 1
C1791: + x5 + x165 <= 1
C1792: + x26 + x487 <= 1
C1793: + x27 + x413 <= 1
C1794: + x32 + x38 <= 1
C1795: + x73 + x171 <= 1
C1796: + x120 + x181 <= 1
C1797: + x16 + x203 <= 1
C1798: + x76 + x88 <= 1
C1799: + x43 + x149 <= 1
C1800: + x53 + x116 <= 1
C1801: + x18 + x56 <= 1
C1802: + x151 + x478 <= 1
C1803: + x7 + x439 <= 1
C1804: + x46 + x138 <= 1
C1805: + x59 + x148 <= 1
C1806: + x223 + x249 <= 1
C1807: + x119 + x172 <= 1
C1808: + x2 + x100 <= 1
C1809: + x43 + x491 <= 1
C1810: + x9 + x343 <= 1
C1811: + x309 + x405 <= 1
C1812: + x58 + x474 <= 1
C1813: + x276 + x399 <= 1
C1814: + x259 + x280 <= 1
C1815: + x5 + x384 <= 1
C1816: + x94 + x231 <= 1
C1817: + x1 + x5 + x6 + x7 <= 1
C1818: + x5 + x29 <= 1
C1819: + x126 + x339 <= 1
C1820: + x24 + x224 <= 1
C1821: + x7 + x382 <= 1
C1822: + x144 + x410 <= 1
C1823: + x291 + x435 <= 1
C1824: + x38 + x242 <= 1
C1825: + x104 + x473 <= 1
C1826: + x159 + x329 <= 1
C1827: + x153 + x400 <= 1
C1828: + x71 + x223 <= 1
C1829: + x16 + x450 <= 1
C1830: + x105 + x251 <= 1
C1831: + x78 + x417 <= 1
C1832: + x190 + x221 <= 1
C1833: + x11 + x364 <= 1
C1834: + x78 + x79 <= 1
C1835: + x25 + x103 <= 1
C1836: + x15 + x26 <= 1
C1837: + x60 + x360 <= 1
C1838: + x180 + x378 <= 1
C1839: + x79 + x123 <= 1
C1840: + x26 + x316 <= 1
C1841: + x84 + x110 <= 1
C1842: + x65 + x480 <= 1
C1843: + x14 + x160 <= 1
C1844: + x37 + x158 <= 1
C1845: + x139 + x166 <= 1
C1846: + x3 + x30 <= 1
C1847: + x259 + x436 <= 1
C1848: + x5 + x359 <= 1
C1849: + x7 + x135 <= 1
C1850: + x45 + x385 <= 1
C1851: + x28 + x473 <= 1
C1852: + x6 + x148 <= 1
C1853: + x24 + x298 <= 1
C1854: + x153 + x378 <= 1
C1855: + x1 + x44 <= 1
C1856: + x187 + x267 <= 1
C1857: + x46 + x107 <= 1
C1858: + x241 + x403 <= 1
C1859: + x33 + x34 <= 1
C1860: + x5 + x171 <= 1
C1861: + x150 + x218 <= 1
C1862: + x82 + x244 <= 1
C1863: + x381 + x498 <= 1
C1864: + x74 + x354 <= 1
C1865: + x40 + x92 <= 1
C1866: + x5 + x80 <= 1
C1867: + x49 + x162 <= 1
C1868: + x114 + x118 <= 1
C1869: + x61 + x130 <= 1
C1870: + x7 + x78 <= 1
C1871: + x71 + x142 <= 1
C1872: + x66 + x203 <= 1
C1873: + x2 + x395 <= 1
C1874: + x14 + x54 <= 1
C1875: + x73 + x133 <= 1
C1876: + x1 + x23 <= 1
C1877: + x219 + x281 <= 1
C1878: + x248 + x390 <= 1
C1879: + x32 + x243 <= 1
C1880: + x14 + x292 <= 1
C1881: + x215 + x398 <= 1
C1882: + x7 + x477 <= 1
C1883: + x130 + x367 <= 1
C1884: + x6 + x122 <= 1
C1885: + x1 + x134 <= 1
C1886: + x2 + x10 <= 1
C1887: + x255 + x256 <= 1
C1888: + x221 + x444 <= 1
C1889: + x132 + x369 <= 1
C1890: + x10 + x127 <= 1
C1891: + x30 + x356 <= 1
C1892: + x137 + x411 <= 1
C1893: + x102 + x361 <= 1
C1894: + x304 + x476 <= 1
C1895: + x179 + x343 <= 1
C1896: + x330 + x400 <= 1
C1897: + x239 + x340 <= 1
C1898: + x58 + x198 <= 1
C1899: + x216 + x344 <= 1
C1900: + x7 + x182 <= 1
C1901: + x71 + x118 <= 1
C1902: + x105 + x233 <= 1
C1903: + x95 + x299 <= 1
C1904: + x70 + x438 <= 1
C1905: + x5 + x55 <= 1
C1906: + x45 + x158 <= 1
C1907: + x3 + x367 <= 1
C1908: + x7 + x69 <= 1
C1909: + x36 + x368 <= 1
C1910: + x165 + x445 <= 1
C1911: + x37 + x458 <= 1
C1912: + x21 + x260 <= 1
C1913: + x7 + x226 <= 1
C1914: + x68 + x470 <= 1
C1915: + x34 + x137 <= 1
C1916: + x244 + x282 <= 1
C1917: + x9 + x126 <= 1
C1918: + x65 + x75 <= 1
C1919: + x134 + x283 <= 1
C1920: + x42 + x89 <= 1
C1921: + x15 + x56 <= 1
C1922: + x92 + x279 <= 1
C1923: + x3 + x177 <= 1
C1924: + x29 + x371 <= 1
C1925: + x268 + x466 <= 1
C1926: + x5 + x10 <= 1
C1927: + x63 + x260 <= 1
C1928: + x69 + x402 <= 1
C1929: + x341 + x351 <= 1
C1930: + x279 + x364 <= 1
C1931: + x213 + x476 <= 1
C1932: + x5 + x395 <= 1
C1933: + x74 + x463 <= 1
C1934: + x187 + x353 <= 1
C1935: + x102 + x116 <= 1
C1936: + x32 + x78 <= 1
C1937: + x305 + x372 <= 1
C1938: + x13 + x61 <= 1
C1939: + x235 + x330 <= 1
C1940: + x10 + x379 <= 1
C1941: + x46 + x162 <= 1
C1942: + x8 + x469 <= 1
C1943: + x71 + x271 <= 1
C1944: + x50 + x167 <= 1
C1945: + x15 + x414 <= 1
C1946: + x32 + x467 <= 1
C1947: + x97 + x315 <= 1
C1948: + x18 + x80 <= 1
C1949: + x92 + x368 <= 1
C1950: + x59 + x93 <= 1
C1951: + x22 + x73 <= 1
C1952: + x32 + x114 <= 1
C1953: + x44 + x385 <= 1
C1954: + x126 + x162 <= 1
C1955: + x31 + x159 <= 1

binary
x1 x2 x3 x4 x5 x6 x7 x8 x9 x10 x11 x12 x13 x14 x15 x16 x17 x18 x19 x20 x21 x22 x23 x24 x25 x26 x27 x28 x29 x30 x31 x32 x33 x34 x35 x36 x37 x38 x39 x40 x41 x42 x43 x44 x45 x46 x47 x48 x49 x50 x51 x52 x53 x54 x55 x56 x57 x58 x59 x60 x61 x62 x63 x64 x65 x66 x67 x68 x69 x70 x71 x72 x73 x74 x75 x76 x77 x78 x79 x80 x81 x82 x83 x84 x85 x86 x87 x88 x89 x90 x91 x92 x93 x94 x95 x96 x97 x98 x99 x100 x101 x102 x103 x104 x105 x106 x107 x108 x109 x110 x111 x112 x113 x114 x115 x116 x117 x118 x119 x120 x121 x122 x123 x124 x125 x126 x127 x128 x129 x130 x131 x132 x133 x134 x135 x136 x137 x138 x139 x140 x141 x142 x143 x144 x145 x146 x147 x148 x149 x150 x151 x152 x153 x154 x155 x156 x157 x158 x159 x160 x161 x162 x163 x164 x165 x166 x167 x168 x169 x170 x171 x172 x173 x174 x175 x176 x177 x178 x179 x180 x181 x182 x183 x184 x185 x186 x187 x188 x189 x190 x191 x192 x193 x194 x195 x196 x197 x198 x199 x200 x201 x202 x203 x204 x205 x206 x207 x208 x209 x210 x211 x212 x213 x214 x215 x216 x217 x218 x219 x220 x221 x222 x223 x224 x225 x226 x227 x228 x229 x230 x231 x232 x233 x234 x235 x236 x237 x238 x239 x240 x241 x242 x243 x244 x245 x246 x247 x248 x249 x250 x251 x252 x253 x254 x255 x256 x257 x258 x259 x260 x261 x262 x263 x264 x265 x266 x267 x268 x269 x270 x271 x272 x273 x274 x275 x276 x277 x278 x279 x280 x281 x282 x283 x284 x285 x286 x287 x288 x289 x290 x291 x292 x293 x294 x295 x296 x297 x298 x299 x300 x301 x302 x303 x304 x305 x306 x307 x308 x309 x310 x311 x312 x313 x314 x315 x316 x317 x318 x319 x320 x321 x322 x323 x324 x325 x326 x327 x328 x329 x330 x331 x332 x333 x334 x335 x336 x337 x338 x339 x340 x341 x342 x343 x344 x345 x346 x347 x348 x349 x350 x351 x352 x353 x354 x355 x356 x357 x358 x359 x360 x361 x362 x363 x364 x365 x366 x367 x368 x369 x370 x371 x372 x373 x374 x375 x376 x377 x378 x379 x380 x381 x382 x383 x384 x385 x386 x387 x388 x389 x390 x391 x392 x393 x394 x395 x396 x397 x398 x399 x400 x401 x402 x403 x404 x405 x406 x407 x408 x409 x410 x411 x412 x413 x414 x415 x416 x417 x418 x419 x420 x421 x422 x423 x424 x425 x426 x427 x428 x429 x430 x431 x432 x433 x434 x435 x436 x437 x438 x439 x440 x441 x442 x443 x444 x445 x446 x447 x448 x449 x450 x451 x452 x453 x454 x455 x456 x457 x458 x459 x460 x461 x462 x463 x464 x465 x466 x467 x468 x469 x470 x471 x472 x473 x474 x475 x476 x477 x478 x479 x480 x481 x482 x483 x484 x485 x486 x487 x488 x489 x490 x491 x492 x493 x494 x495 x496 x497 x498 x499 x500
