maximize
OBJ: + 1 x1 + 1 x2 + 1 x3 + 1 x4 + 1 x5 + 1 x6 + 1 x7 + 1 x8 + 1 x9 + 1 x10 + 1 x11 + 1 x12 + 1 x13 + 1 x14 + 1 x15 + 1 x16 + 1 x17 + 1 x18 + 1 x19 + 1 x20 + 1 x21 + 1 x22 + 1 x23 + 1 x24 + 1 x25 + 1 x26 + 1 x27 + 1 x28 + 1 x29 + 1 x30 + 1 x31 + 1 x32 + 1 x33 + 1 x34 + 1 x35 + 1 x36 + 1 x37 + 1 x38 + 1 x39 + 1 x40 + 1 x41 + 1 x42 + 1 x43 + 1 x44 + 1 x45 + 1 x46 + 1 x47 + 1 x48 + 1 x49 + 1 x50 + 1 x51 + 1 x52 + 1 x53 + 1 x54 + 1 x55 + 1 x56 + 1 x57 + 1 x58 + 1 x59 + 1 x60 + 1 x61 + 1 x62 + 1 x63 + 1 x64 + 1 x65 + 1 x66 + 1 x67 + 1 x68 + 1 x69 + 1 x70 + 1 x71 + 1 x72 + 1 x73 + 1 x74 + 1 x75 + 1 x76 + 1 x77 + 1 x78 + 1 x79 + 1 x80 + 1 x81 + 1 x82 + 1 x83 + 1 x84 + 1 x85 + 1 x86 + 1 x87 + 1 x88 + 1 x89 + 1 x90 + 1 x91 + 1 x92 + 1 x93 + 1 x94 + 1 x95 + 1 x96 + 1 x97 + 1 x98 + 1 x99 + 1 x100 + 1 x101 + 1 x102 + 1 x103 + 1 x104 + 1 x105 + 1 x106 + 1 x107 + 1 x108 + 1 x109 + 1 x110 + 1 x111 + 1 x112 + 1 x113 + 1 x114 + 1 x115 + 1 x116 + 1 x117 + 1 x118 + 1 x119 + 1 x120 + 1 x121 + 1 x122 + 1 x123 + 1 x124 + 1 x125 + 1 x126 + 1 x127 + 1 x128 + 1 x129 + 1 x130 + 1 x131 + 1 x132 + 1 x133 + 1 x134 + 1 x135 + 1 x136 + 1 x137 + 1 x138 + 1 x139 + 1 x140 + 1 x141 + 1 x142 + 1 x143 + 1 x144 + 1 x145 + 1 x146 + 1 x147 + 1 x148 + 1 x149 + 1 x150 + 1 x151 + 1 x152 + 1 x153 + 1 x154 + 1 x155 + 1 x156 + 1 x157 + 1 x158 + 1 x159 + 1 x160 + 1 x161 + 1 x162 + 1 x163 + 1 x164 + 1 x165 + 1 x166 + 1 x167 + 1 x168 + 1 x169 + 1 x170 + 1 x171 + 1 x172 + 1 x173 + 1 x174 + 1 x175 + 1 x176 + 1 x177 + 1 x178 + 1 x179 + 1 x180 + 1 x181 + 1 x182 + 1 x183 + 1 x184 + 1 x185 + 1 x186 + 1 x187 + 1 x188 + 1 x189 + 1 x190 + 1 x191 + 1 x192 + 1 x193 + 1 x194 + 1 x195 + 1 x196 + 1 x197 + 1 x198 + 1 x199 + 1 x200 + 1 x201 + 1 x202 + 1 x203 + 1 x204 + 1 x205 + 1 x206 + 1 x207 + 1 x208 + 1 x209 + 1 x210 + 1 x211 + 1 x212 + 1 x213 + 1 x214 + 1 x215 + 1 x216 + 1 x217 + 1 x218 + 1 x219 + 1 x220 + 1 x221 + 1 x222 + 1 x223 + 1 x224 + 1 x225 + 1 x226 + 1 x227 + 1 x228 + 1 x229 + 1 x230 + 1 x231 + 1 x232 + 1 x233 + 1 x234 + 1 x235 + 1 x236 + 1 x237 + 1 x238 + 1 x239 + 1 x240 + 1 x241 + 1 x242 + 1 x243 + 1 x244 + 1 x245 + 1 x246 + 1 x247 + 1 x248 + 1 x249 + 1 x250 + 1 x251 + 1 x252 + 1 x253 + 1 x254 + 1 x255 + 1 x256 + 1 x257 + 1 x258 + 1 x259 + 1 x260 + 1 x261 + 1 x262 + 1 x263 + 1 x264 + 1 x265 + 1 x266 + 1 x267 + 1 x268 + 1 x269 + 1 x270 + 1 x271 + 1 x272 + 1 x273 + 1 x274 + 1 x275 + 1 x276 + 1 x277 + 1 x278 + 1 x279 + 1 x280 + 1 x281 + 1 x282 + 1 x283 + 1 x284 + 1 x285 + 1 x286 + 1 x287 + 1 x288 + 1 x289 + 1 x290 + 1 x291 + 1 x292 + 1 x293 + 1 x294 + 1 x295 + 1 x296 + 1 x297 + 1 x298 + 1 x299 + 1 x300 + 1 x301 + 1 x302 + 1 x303 + 1 x304 + 1 x305 + 1 x306 + 1 x307 + 1 x308 + 1 x309 + 1 x310 + 1 x311 + 1 x312 + 1 x313 + 1 x314 + 1 x315 + 1 x316 + 1 x317 + 1 x318 + 1 x319 + 1 x320 + 1 x321 + 1 x322 + 1 x323 + 1 x324 + 1 x325 + 1 x326 + 1 x327 + 1 x328 + 1 x329 + 1 x330 + 1 x331 + 1 x332 + 1 x333 + 1 x334 + 1 x335 + 1 x336 + 1 x337 + 1 x338 + 1 x339 + 1 x340 + 1 x341 + 1 x342 + 1 x343 + 1 x344 + 1 x345 + 1 x346 + 1 x347 + 1 x348 + 1 x349 + 1 x350 + 1 x351 + 1 x352 + 1 x353 + 1 x354 + 1 x355 + 1 x356 + 1 x357 + 1 x358 + 1 x359 + 1 x360 + 1 x361 + 1 x362 + 1 x363 + 1 x364 + 1 x365 + 1 x366 + 1 x367 + 1 x368 + 1 x369 + 1 x370 + 1 x371 + 1 x372 + 1 x373 + 1 x374 + 1 x375 + 1 x376 + 1 x377 + 1 x378 + 1 x379 + 1 x380 + 1 x381 + 1 x382 + 1 x383 + 1 x384 + 1 x385 + 1 x386 + 1 x387 + 1 x388 + 1 x389 + 1 x390 + 1 x391 + 1 x392 + 1 x393 + 1 x394 + 1 x395 + 1 x396 + 1 x397 + 1 x398 + 1 x399 + 1 x400 + 1 x401 + 1 x402 + 1 x403 + 1 x404 + 1 x405 + 1 x406 + 1 x407 + 1 x408 + 1 x409 + 1 x410 + 1 x411 + 1 x412 + 1 x413 + 1 x414 + 1 x415 + 1 x416 + 1 x417 + 1 x418 + 1 x419 + 1 x420 + 1 x421 + 1 x422 + 1 x423 + 1 x424 + 1 x425 + 1 x426 + 1 x427 + 1 x428 + 1 x429 + 1 x430 + 1 x431 + 1 x432 + 1 x433 + 1 x434 + 1 x435 + 1 x436 + 1 x437 + 1 x438 + 1 x439 + 1 x440 + 1 x441 + 1 x442 + 1 x443 + 1 x444 + 1 x445 + 1 x446 + 1 x447 + 1 x448 + 1 x449 + 1 x450 + 1 x451 + 1 x452 + 1 x453 + 1 x454 + 1 x455 + 1 x456 + 1 x457 + 1 x458 + 1 x459 + 1 x460 + 1 x461 + 1 x462 + 1 x463 + 1 x464 + 1 x465 + 1 x466 + 1 x467 + 1 x468 + 1 x469 + 1 x470 + 1 x471 + 1 x472 + 1 x473 + 1 x474 + 1 x475 + 1 x476 + 1 x477 + 1 x478 + 1 x479 + 1 x480 + 1 x481 + 1 x482 + 1 x483 + 1 x484 + 1 x485 + 1 x486 + 1 x487 + 1 x488 + 1 x489 + 1 x490 + 1 x491 + 1 x492 + 1 x493 + 1 x494 + 1 x495 + 1 x496 + 1 x497 + 1 x498 + 1 x499 + 1 x500

subject to
C1: + x10 + x85 <= 1
C2: + x174 + x196 <= 1
C3: + x21 + x163 <= 1
C4: + x169 + x236 <= 1
C5: + x170 + x228 <= 1
C6: + x108 + x253 <= 1
C7: + x24 + x184 <= 1
C8: + x134 + x345 <= 1
C9: + x36 + x286 <= 1
C10: + x7 + x55 <= 1
C11: + x101 + x470 <= 1
C12: + x11 + x62 <= 1
C13: + x284 + x330 <= 1
C14: + x12 + x333 <= 1
C15: + x42 + x58 <= 1
C16: + x32 + x75 <= 1
C17: + x26 + x280 <= 1
C18: + x7 + x212 <= 1
C19: + x109 + x278 <= 1
C20: + x56 + x81 <= 1
C21: + x98 + x152 <= 1
C22: + x116 + x254 <= 1
C23: + x26 + x230 <= 1
C24: + x5 + x422 <= 1
C25: + x96 + x485 <= 1
C26: + x103 + x385 <= 1
C27: + x131 + x354 <= 1
C28: + x209 + x284 <= 1
C29: + x87 + x130 <= 1
C30: + x5 + x256 <= 1
C31: + x54 + x377 <= 1
C32: + x50 + x358 <= 1
C33: + x124 + x251 <= 1
C34: + x42 + x220 <= 1
C35: + x243 + x388 <= 1
C36: + x70 + x107 <= 1
C37: + x46 + x79 <= 1
C38: + x174 + x463 <= 1
C39: + x6 + x25 <= 1
C40: + x8 + x293 <= 1
C41: + x117 + x230 <= 1
C42: + x9 + x39 <= 1
C43: + x8 + x23 <= 1
C44: + x101 + x128 <= 1
C45: + x183 + x267 <= 1
C46: + x30 + x38 <= 1
C47: + x8 + x438 <= 1
C48: + x2 + x90 <= 1
C49: + x64 + x360 <= 1
C50: + x41 + x429 <= 1
C51: + x86 + x156 <= 1
C52: + x96 + x244 <= 1
C53: + x27 + x407 <= 1
C54: + x19 + x37 <= 1
C55: + x11 + x154 <= 1
C56: + x188 + x299 <= 1
C57: + x52 + x122 <= 1
C58: + x7 + x441 <= 1
C59: + x43 + x68 <= 1
C60: + x36 + x335 <= 1
C61: + x8 + x362 <= 1
C62: + x255 + x327 <= 1
C63: + x356 + x432 <= 1
C64: + x2 + x22 <= 1
C65: + x52 + x308 <= 1
C66: + x432 + x472 <= 1
C67: + x137 + x439 <= 1
C68: + x30 + x235 <= 1
C69: + x140 + x285 <= 1
C70: + x86 + x323 <= 1
C71: + x14 + x316 <= 1
C72: + x26 + x59 <= 1
C73: + x143 + x365 <= 1
C74: + x473 + x495 <= 1
C75: + x64 + x238 <= 1
C76: + x43 + x120 <= 1
C77: + x18 + x273 <= 1
C78: + x210 + x495 <= 1
C79: + x64 + x288 <= 1
C80: + x23 + x149 <= 1
C81: + x206 + x258 <= 1
C82: + x6 + x384 <= 1
C83: + x9 + x46 <= 1
C84: + x8 + x16 <= 1
C85: + x372 + x499 <= 1
C86: + x158 + x447 <= 1
C87: + x41 + x162 <= 1
C88: + x323 + x406 <= 1
C89: + x17 + x30 <= 1
C90: + x7 + x33 <= 1
C91: + x258 + x457 <= 1
C92: + x89 + x174 <= 1
C93: + x7 + x206 <= 1
C94: + x9 + x360 <= 1
C95: + x28 + x73 <= 1
C96: + x2 + x254 <= 1
C97: + x44 + x46 <= 1
C98: + x18 + x51 <= 1
C99: + x84 + x499 <= 1
C100: + x123 + x341 <= 1
C101: + x43 + x75 <= 1
C102: + x26 + x403 <= 1
C103: + x54 + x125 <= 1
C104: + x284 + x404 <= 1
C105: + x79 + x109 <= 1
C106: + x6 + x250 <= 1
C107: + x1 + x6 <= 1
C108: + x60 + x128 <= 1
C109: + x51 + x169 <= 1
C110: + x1 + x419 <= 1
C111: + x67 + x200 <= 1
C112: + x50 + x134 <= 1
C113: + x68 + x240 <= 1
C114: + x34 + x68 <= 1
C115: + x107 + x447 <= 1
C116: + x18 + x266 <= 1
C117: + x26 + x173 <= 1
C118: + x16 + x162 <= 1
C119: + x115 + x148 <= 1
C120: + x151 + x359 <= 1
C121: + x80 + x133 <= 1
C122: + x219 + x241 <= 1
C123: + x27 + x328 <= 1
C124: + x56 + x281 <= 1
C125: + x12 + x372 <= 1
C126: + x7 + x197 <= 1
C127: + x73 + x175 <= 1
C128: + x47 + x238 <= 1
C129: + x89 + x292 <= 1
C130: + x15 + x27 <= 1
C131: + x272 + x490 <= 1
C132: + x58 + x131 <= 1
C133: + x106 + x153 <= 1
C134: + x216 + x409 <= 1
C135: + x35 + x476 <= 1
C136: + x363 + x484 <= 1
C137: + x140 + x267 <= 1
C138: + x4 + x461 <= 1
C139: + x104 + x481 <= 1
C140: + x162 + x429 <= 1
C141: + x202 + x214 <= 1
C142: + x18 + x259 <= 1
C143: + x93 + x245 <= 1
C144: + x38 + x283 <= 1
C145: + x64 + x270 <= 1
C146: + x6 + x151 <= 1
C147: + x363 + x408 <= 1
C148: + x88 + x412 <= 1
C149: + x8 + x126 <= 1
C150: + x37 + x226 <= 1
C151: + x243 + x353 <= 1
C152: + x160 + x327 <= 1
C153: + x7 + x19 <= 1
C154: + x110 + x483 <= 1
C155: + x93 + x319 <= 1
C156: + x47 + x134 <= 1
C157: + x4 + x280 <= 1
C158: + x32 + x47 <= 1
C159: + x14 + x69 <= 1
C160: + x173 + x212 <= 1
C161: + x272 + x322 <= 1
C162: + x161 + x177 <= 1
C163: + x52 + x410 <= 1
C164: + x43 + x61 <= 1
C165: + x2 + x121 <= 1
C166: + x38 + x480 <= 1
C167: + x59 + x124 <= 1
C168: + x353 + x496 <= 1
C169: + x306 + x419 <= 1
C170: + x2 + x295 <= 1
C171: + x411 + x466 <= 1
C172: + x3 + x26 <= 1
C173: + x88 + x135 <= 1
C174: + x110 + x331 <= 1
C175: + x194 + x320 <= 1
C176: + x5 + x8 <= 1
C177: + x27 + x53 <= 1
C178: + x64 + x106 <= 1
C179: + x167 + x459 <= 1
C180: + x26 + x90 <= 1
C181: + x81 + x323 <= 1
C182: + x37 + x78 <= 1
C183: + x330 + x395 <= 1
C184: + x86 + x192 <= 1
C185: + x4 + x285 <= 1
C186: + x217 + x259 <= 1
C187: + x12 + x205 <= 1
C188: + x369 + x462 <= 1
C189: + x40 + x88 <= 1
C190: + x14 + x364 <= 1
C191: + x5 + x76 <= 1
C192: + x60 + x260 <= 1
C193: + x134 + x362 <= 1
C194: + x12 + x44 <= 1
C195: + x267 + x306 <= 1
C196: + x33 + x149 <= 1
C197: + x2 + x114 <= 1
C198: + x429 + x500 <= 1
C199: + x13 + x166 <= 1
C200: + x207 + x450 <= 1
C201: + x9 + x158 <= 1
C202: + x299 + x444 <= 1
C203: + x29 + x193 <= 1
C204: + x4 + x104 <= 1
C205: + x31 + x229 <= 1
C206: + x44 + x205 <= 1
C207: + x6 + x451 <= 1
C208: + x28 + x311 <= 1
C209: + x235 + x324 <= 1
C210: + x1 + x440 <= 1
C211: + x262 + x305 <= 1
C212: + x137 + x237 <= 1
C213: + x200 + x450 <= 1
C214: + x172 + x447 <= 1
C215: + x39 + x395 <= 1
C216: + x104 + x217 <= 1
C217: + x81 + x88 <= 1
C218: + x15 + x206 <= 1
C219: + x9 + x202 <= 1
C220: + x8 + x116 <= 1
C221: + x174 + x189 <= 1
C222: + x16 + x189 <= 1
C223: + x20 + x186 <= 1
C224: + x16 + x18 + x104 <= 1
C225: + x187 + x274 <= 1
C226: + x56 + x185 <= 1
C227: + x5 + x6 + x9 + x10 <= 1
C228: + x6 + x42 <= 1
C229: + x10 + x47 <= 1
C230: + x28 + x85 <= 1
C231: + x6 + x264 <= 1
C232: + x18 + x31 <= 1
C233: + x27 + x196 <= 1
C234: + x20 + x134 <= 1
C235: + x267 + x313 <= 1
C236: + x5 + x301 <= 1
C237: + x6 + x443 <= 1
C238: + x14 + x456 <= 1
C239: + x229 + x249 <= 1
C240: + x11 + x56 <= 1
C241: + x183 + x455 <= 1
C242: + x2 + x75 <= 1
C243: + x284 + x318 <= 1
C244: + x92 + x161 <= 1
C245: + x383 + x429 <= 1
C246: + x94 + x349 <= 1
C247: + x95 + x347 <= 1
C248: + x11 + x233 <= 1
C249: + x296 + x464 <= 1
C250: + x5 + x436 <= 1
C251: + x12 + x178 <= 1
C252: + x67 + x383 <= 1
C253: + x41 + x246 <= 1
C254: + x232 + x243 <= 1
C255: + x100 + x416 <= 1
C256: + x1 + x300 <= 1
C257: + x72 + x390 <= 1
C258: + x272 + x393 <= 1
C259: + x246 + x288 <= 1
C260: + x140 + x143 <= 1
C261: + x23 + x76 <= 1
C262: + x6 + x130 <= 1
C263: + x28 + x189 <= 1
C264: + x113 + x168 <= 1
C265: + x4 + x25 <= 1
C266: + x9 + x430 <= 1
C267: + x165 + x500 <= 1
C268: + x38 + x76 <= 1
C269: + x59 + x193 <= 1
C270: + x6 + x19 <= 1
C271: + x131 + x398 <= 1
C272: + x40 + x70 <= 1
C273: + x269 + x274 <= 1
C274: + x24 + x272 <= 1
C275: + x11 + x486 <= 1
C276: + x162 + x187 <= 1
C277: + x208 + x452 <= 1
C278: + x254 + x277 <= 1
C279: + x2 + x239 <= 1
C280: + x39 + x54 <= 1
C281: + x174 + x286 <= 1
C282: + x230 + x321 <= 1
C283: + x12 + x22 <= 1
C284: + x39 + x151 <= 1
C285: + x10 + x109 <= 1
C286: + x166 + x191 <= 1
C287: + x26 + x146 <= 1
C288: + x17 + x120 <= 1
C289: + x56 + x143 <= 1
C290: + x94 + x397 <= 1
C291: + x6 + x28 <= 1
C292: + x15 + x79 <= 1
C293: + x193 + x425 <= 1
C294: + x5 + x33 <= 1
C295: + x24 + x261 <= 1
C296: + x199 + x202 <= 1
C297: + x228 + x442 <= 1
C298: + x459 + x466 <= 1
C299: + x12 + x486 <= 1
C300: + x13 + x494 <= 1
C301: + x61 + x171 <= 1
C302: + x79 + x314 <= 1
C303: + x27 + x375 <= 1
C304: + x32 + x404 <= 1
C305: + x11 + x493 <= 1
C306: + x54 + x163 <= 1
C307: + x56 + x266 <= 1
C308: + x4 + x320 <= 1
C309: + x15 + x155 <= 1
C310: + x363 + x463 <= 1
C311: + x7 + x216 <= 1
C312: + x266 + x403 <= 1
C313: + x39 + x45 <= 1
C314: + x442 + x489 <= 1
C315: + x104 + x119 <= 1
C316: + x14 + x192 <= 1
C317: + x34 + x364 <= 1
C318: + x134 + x265 <= 1
C319: + x8 + x458 <= 1
C320: + x253 + x263 <= 1
C321: + x103 + x389 <= 1
C322: + x69 + x202 <= 1
C323: + x28 + x441 <= 1
C324: + x2 + x17 <= 1
C325: + x11 + x110 <= 1
C326: + x225 + x275 <= 1
C327: + x277 + x415 <= 1
C328: + x26 + x296 <= 1
C329: + x14 + x17 <= 1
C330: + x234 + x298 <= 1
C331: + x46 + x296 <= 1
C332: + x12 + x156 <= 1
C333: + x268 + x303 <= 1
C334: + x4 + x7 <= 1
C335: + x200 + x318 <= 1
C336: + x28 + x298 <= 1
C337: + x78 + x151 <= 1
C338: + x289 + x462 <= 1
C339: + x36 + x172 <= 1
C340: + x9 + x43 <= 1
C341: + x83 + x466 <= 1
C342: + x247 + x463 <= 1
C343: + x5 + x282 <= 1
C344: + x23 + x424 <= 1
C345: + x255 + x415 <= 1
C346: + x112 + x358 <= 1
C347: + x6 + x201 <= 1
C348: + x18 + x336 <= 1
C349: + x82 + x144 <= 1
C350: + x55 + x314 <= 1
C351: + x175 + x192 <= 1
C352: + x188 + x303 <= 1
C353: + x14 + x185 <= 1
C354: + x9 + x23 <= 1
C355: + x222 + x225 <= 1
C356: + x68 + x94 <= 1
C357: + x89 + x247 <= 1
C358: + x27 + x423 <= 1
C359: + x64 + x395 <= 1
C360: + x20 + x214 <= 1
C361: + x4 + x16 <= 1
C362: + x162 + x407 <= 1
C363: + x143 + x369 <= 1
C364: + x15 + x448 <= 1
C365: + x9 + x67 <= 1
C366: + x210 + x253 <= 1
C367: + x47 + x357 <= 1
C368: + x115 + x463 <= 1
C369: + x43 + x116 <= 1
C370: + x23 + x464 <= 1
C371: + x3 + x174 <= 1
C372: + x26 + x373 <= 1
C373: + x16 + x165 <= 1
C374: + x282 + x342 <= 1
C375: + x319 + x442 <= 1
C376: + x4 + x60 <= 1
C377: + x42 + x314 <= 1
C378: + x190 + x338 <= 1
C379: + x255 + x386 <= 1
C380: + x42 + x48 <= 1
C381: + x27 + x87 <= 1
C382: + x10 + x55 <= 1
C383: + x9 + x30 <= 1
C384: + x191 + x209 <= 1
C385: + x256 + x483 <= 1
C386: + x12 + x57 <= 1
C387: + x21 + x403 <= 1
C388: + x98 + x460 <= 1
C389: + x15 + x24 <= 1
C390: + x11 + x32 <= 1
C391: + x349 + x352 <= 1
C392: + x12 + x299 <= 1
C393: + x5 + x234 <= 1
C394: + x9 + x344 <= 1
C395: + x16 + x291 <= 1
C396: + x122 + x153 <= 1
C397: + x139 + x398 <= 1
C398: + x442 + x455 <= 1
C399: + x88 + x298 <= 1
C400: + x87 + x263 <= 1
C401: + x6 + x170 <= 1
C402: + x26 + x177 <= 1
C403: + x128 + x233 <= 1
C404: + x30 + x52 <= 1
C405: + x46 + x113 <= 1
C406: + x3 + x88 <= 1
C407: + x113 + x418 <= 1
C408: + x4 + x275 <= 1
C409: + x14 + x72 <= 1
C410: + x7 + x185 <= 1
C411: + x9 + x275 <= 1
C412: + x112 + x207 <= 1
C413: + x353 + x382 <= 1
C414: + x23 + x289 <= 1
C415: + x1 + x98 <= 1
C416: + x131 + x327 <= 1
C417: + x5 + x308 <= 1
C418: + x136 + x167 <= 1
C419: + x201 + x361 <= 1
C420: + x250 + x290 <= 1
C421: + x12 + x143 <= 1
C422: + x113 + x251 <= 1
C423: + x166 + x310 <= 1
C424: + x22 + x204 <= 1
C425: + x23 + x204 <= 1
C426: + x73 + x433 <= 1
C427: + x255 + x456 <= 1
C428: + x202 + x218 <= 1
C429: + x94 + x401 <= 1
C430: + x147 + x437 <= 1
C431: + x84 + x460 <= 1
C432: + x69 + x235 <= 1
C433: + x44 + x370 <= 1
C434: + x170 + x196 <= 1
C435: + x15 + x200 <= 1
C436: + x133 + x389 <= 1
C437: + x6 + x366 <= 1
C438: + x4 + x42 <= 1
C439: + x7 + x23 <= 1
C440: + x34 + x405 <= 1
C441: + x9 + x175 <= 1
C442: + x240 + x344 <= 1
C443: + x9 + x12 <= 1
C444: + x10 + x132 <= 1
C445: + x62 + x341 <= 1
C446: + x26 + x97 <= 1
C447: + x16 + x240 <= 1
C448: + x8 + x67 <= 1
C449: + x46 + x268 <= 1
C450: + x76 + x433 <= 1
C451: + x79 + x337 <= 1
C452: + x80 + x323 <= 1
C453: + x57 + x82 <= 1
C454: + x3 + x22 <= 1
C455: + x207 + x366 <= 1
C456: + x9 + x469 <= 1
C457: + x10 + x126 <= 1
C458: + x2 + x9 <= 1
C459: + x384 + x398 <= 1
C460: + x44 + x89 <= 1
C461: + x27 + x49 <= 1
C462: + x144 + x495 <= 1
C463: + x55 + x363 <= 1
C464: + x252 + x449 <= 1
C465: + x53 + x219 <= 1
C466: + x9 + x420 <= 1
C467: + x46 + x99 <= 1
C468: + x11 + x396 <= 1
C469: + x266 + x341 <= 1
C470: + x5 + x147 <= 1
C471: + x154 + x180 <= 1
C472: + x146 + x255 <= 1
C473: + x83 + x252 <= 1
C474: + x8 + x313 <= 1
C475: + x221 + x457 <= 1
C476: + x112 + x221 <= 1
C477: + x104 + x148 <= 1
C478: + x14 + x221 <= 1
C479: + x5 + x397 <= 1
C480: + x189 + x226 <= 1
C481: + x14 + x360 <= 1
C482: + x29 + x174 <= 1
C483: + x294 + x354 <= 1
C484: + x153 + x427 <= 1
C485: + x182 + x468 <= 1
C486: + x84 + x160 <= 1
C487: + x23 + x121 <= 1
C488: + x9 + x130 <= 1
C489: + x7 + x300 <= 1
C490: + x143 + x436 <= 1
C491: + x20 + x242 <= 1
C492: + x324 + x438 <= 1
C493: + x24 + x117 <= 1
C494: + x62 + x290 <= 1
C495: + x4 + x350 <= 1
C496: + x9 + x476 <= 1
C497: + x143 + x234 <= 1
C498: + x39 + x399 <= 1
C499: + x370 + x403 <= 1
C500: + x32 + x140 <= 1
C501: + x15 + x210 <= 1
C502: + x6 + x352 <= 1
C503: + x91 + x380 <= 1
C504: + x1 + x59 <= 1
C505: + x79 + x459 <= 1
C506: + x28 + x188 <= 1
C507: + x12 + x105 <= 1
C508: + x370 + x382 <= 1
C509: + x26 + x39 <= 1
C510: + x38 + x79 <= 1
C511: + x12 + x411 <= 1
C512: + x59 + x198 <= 1
C513: + x28 + x41 <= 1
C514: + x83 + x320 <= 1
C515: + x285 + x461 <= 1
C516: + x304 + x337 <= 1
C517: + x5 + x63 <= 1
C518: + x206 + x278 <= 1
C519: + x117 + x145 <= 1
C520: + x6 + x260 <= 1
C521: + x5 + x396 <= 1
C522: + x123 + x373 <= 1
C523: + x168 + x258 <= 1
C524: + x26 + x115 <= 1
C525: + x2 + x79 <= 1
C526: + x11 + x52 <= 1
C527: + x14 + x39 <= 1
C528: + x9 + x372 <= 1
C529: + x111 + x129 <= 1
C530: + x56 + x91 <= 1
C531: + x41 + x93 <= 1
C532: + x20 + x247 <= 1
C533: + x179 + x201 <= 1
C534: + x30 + x103 <= 1
C535: + x43 + x95 <= 1
C536: + x12 + x259 <= 1
C537: + x31 + x99 <= 1
C538: + x14 + x27 <= 1
C539: + x51 + x399 <= 1
C540: + x180 + x207 <= 1
C541: + x5 + x242 <= 1
C542: + x44 + x388 <= 1
C543: + x11 + x217 <= 1
C544: + x39 + x227 <= 1
C545: + x12 + x98 <= 1
C546: + x213 + x381 <= 1
C547: + x1 + x479 <= 1
C548: + x136 + x215 <= 1
C549: + x46 + x85 <= 1
C550: + x20 + x34 <= 1
C551: + x175 + x393 <= 1
C552: + x94 + x123 <= 1
C553: + x159 + x199 <= 1
C554: + x119 + x442 <= 1
C555: + x28 + x34 <= 1
C556: + x2 + x215 <= 1
C557: + x11 + x172 <= 1
C558: + x21 + x164 <= 1
C559: + x5 + x38 <= 1
C560: + x16 + x86 <= 1
C561: + x46 + x230 <= 1
C562: + x77 + x102 <= 1
C563: + x115 + x305 <= 1
C564: + x6 + x432 <= 1
C565: + x328 + x331 <= 1
C566: + x11 + x59 <= 1
C567: + x84 + x174 <= 1
C568: + x5 + x181 <= 1
C569: + x26 + x279 <= 1
C570: + x43 + x439 <= 1
C571: + x9 + x144 <= 1
C572: + x32 + x54 <= 1
C573: + x165 + x222 <= 1
C574: + x122 + x190 <= 1
C575: + x68 + x451 <= 1
C576: + x39 + x42 <= 1
C577: + x36 + x238 <= 1
C578: + x21 + x386 <= 1
C579: + x6 + x84 <= 1
C580: + x2 + x20 <= 1
C581: + x35 + x121 <= 1
C582: + x6 + x322 <= 1
C583: + x272 + x305 <= 1
C584: + x265 + x326 <= 1
C585: + x285 + x340 <= 1
C586: + x4 + x6 <= 1
C587: + x42 + x264 <= 1
C588: + x206 + x421 <= 1
C589: + x142 + x176 <= 1
C590: + x270 + x304 <= 1
C591: + x6 + x8 <= 1
C592: + x188 + x499 <= 1
C593: + x57 + x325 <= 1
C594: + x6 + x187 <= 1
C595: + x6 + x374 <= 1
C596: + x27 + x210 <= 1
C597: + x16 + x83 <= 1
C598: + x466 + x475 <= 1
C599: + x1 + x69 <= 1
C600: + x62 + x220 <= 1
C601: + x359 + x457 <= 1
C602: + x14 + x89 <= 1
C603: + x172 + x224 <= 1
C604: + x155 + x190 <= 1
C605: + x1 + x401 <= 1
C606: + x149 + x468 <= 1
C607: + x123 + x146 <= 1
C608: + x80 + x198 <= 1
C609: + x9 + x497 <= 1
C610: + x2 + x21 <= 1
C611: + x129 + x344 <= 1
C612: + x270 + x472 <= 1
C613: + x9 + x227 <= 1
C614: + x1 + x16 <= 1
C615: + x10 + x245 <= 1
C616: + x69 + x400 <= 1
C617: + x26 + x58 <= 1
C618: + x3 + x14 <= 1
C619: + x59 + x223 <= 1
C620: + x52 + x164 <= 1
C621: + x27 + x459 <= 1
C622: + x86 + x307 <= 1
C623: + x40 + x120 <= 1
C624: + x42 + x410 <= 1
C625: + x6 + x164 <= 1
C626: + x8 + x15 <= 1
C627: + x46 + x216 <= 1
C628: + x11 + x319 <= 1
C629: + x1 + x92 <= 1
C630: + x32 + x389 <= 1
C631: + x17 + x31 <= 1
C632: + x263 + x363 <= 1
C633: + x75 + x340 <= 1
C634: + x12 + x382 <= 1
C635: + x42 + x43 <= 1
C636: + x178 + x387 <= 1
C637: + x8 + x160 <= 1
C638: + x77 + x350 <= 1
C639: + x32 + x223 <= 1
C640: + x70 + x477 <= 1
C641: + x6 + x291 <= 1
C642: + x27 + x237 <= 1
C643: + x54 + x217 <= 1
C644: + x196 + x378 <= 1
C645: + x5 + x330 <= 1
C646: + x6 + x70 <= 1
C647: + x11 + x17 <= 1
C648: + x69 + x338 <= 1
C649: + x1 + x7 <= 1
C650: + x27 + x54 + x136 <= 1
C651: + x4 + x455 <= 1
C652: + x30 + x44 + x48 <= 1
C653: + x9 + x71 <= 1
C654: + x3 + x5 <= 1
C655: + x39 + x262 <= 1
C656: + x210 + x487 <= 1
C657: + x78 + x367 <= 1
C658: + x32 + x148 <= 1
C659: + x27 + x36 <= 1
C660: + x319 + x446 <= 1
C661: + x4 + x64 <= 1
C662: + x243 + x359 <= 1
C663: + x7 + x25 <= 1
C664: + x9 + x435 <= 1
C665: + x2 + x488 <= 1
C666: + x46 + x116 <= 1
C667: + x64 + x218 <= 1
C668: + x39 + x498 <= 1
C669: + x91 + x275 <= 1
C670: + x83 + x344 <= 1
C671: + x57 + x415 <= 1
C672: + x21 + x141 <= 1
C673: + x5 + x71 <= 1
C674: + x23 + x249 <= 1
C675: + x68 + x341 <= 1
C676: + x243 + x347 <= 1
C677: + x414 + x428 <= 1
C678: + x84 + x141 <= 1
C679: + x100 + x210 <= 1
C680: + x1 + x30 <= 1
C681: + x165 + x191 <= 1
C682: + x54 + x339 <= 1
C683: + x201 + x358 <= 1
C684: + x192 + x203 <= 1
C685: + x48 + x82 <= 1
C686: + x150 + x437 <= 1
C687: + x105 + x165 <= 1
C688: + x27 + x188 <= 1
C689: + x33 + x84 <= 1
C690: + x43 + x103 <= 1
C691: + x6 + x115 <= 1
C692: + x45 + x391 <= 1
C693: + x269 + x306 <= 1
C694: + x16 + x170 <= 1
C695: + x12 + x122 <= 1
C696: + x132 + x421 <= 1
C697: + x344 + x421 <= 1
C698: + x7 + x20 <= 1
C699: + x132 + x151 <= 1
C700: + x24 + x413 <= 1
C701: + x38 + x334 <= 1
C702: + x89 + x90 <= 1
C703: + x315 + x425 <= 1
C704: + x198 + x213 <= 1
C705: + x16 + x126 <= 1
C706: + x11 + x277 <= 1
C707: + x21 + x105 <= 1
C708: + x161 + x452 <= 1
C709: + x244 + x354 <= 1
C710: + x31 + x66 <= 1
C711: + x6 + x235 <= 1
C712: + x41 + x108 <= 1
C713: + x114 + x193 <= 1
C714: + x224 + x433 <= 1
C715: + x2 + x294 <= 1
C716: + x5 + x356 <= 1
C717: + x216 + x258 <= 1
C718: + x7 + x124 <= 1
C719: + x407 + x460 <= 1
C720: + x64 + x310 <= 1
C721: + x171 + x224 <= 1
C722: + x1 + x33 <= 1
C723: + x12 + x127 <= 1
C724: + x14 + x282 <= 1
C725: + x59 + x64 <= 1
C726: + x6 + x48 <= 1
C727: + x10 + x37 <= 1
C728: + x92 + x159 <= 1
C729: + x140 + x336 <= 1
C730: + x294 + x386 <= 1
C731: + x37 + x222 <= 1
C732: + x123 + x182 <= 1
C733: + x42 + x175 <= 1
C734: + x22 + x283 <= 1
C735: + x5 + x295 <= 1
C736: + x1 + x282 <= 1
C737: + x93 + x331 <= 1
C738: + x268 + x484 <= 1
C739: + x432 + x491 <= 1
C740: + x26 + x264 <= 1
C741: + x16 + x317 <= 1
C742: + x73 + x351 <= 1
C743: + x9 + x330 <= 1
C744: + x173 + x256 <= 1
C745: + x39 + x57 <= 1
C746: + x40 + x139 <= 1
C747: + x25 + x301 <= 1
C748: + x132 + x487 <= 1
C749: + x12 + x188 <= 1
C750: + x9 + x124 <= 1
C751: + x125 + x257 <= 1
C752: + x88 + x316 <= 1
C753: + x110 + x416 <= 1
C754: + x166 + x414 <= 1
C755: + x124 + x417 <= 1
C756: + x329 + x430 <= 1
C757: + x54 + x470 <= 1
C758: + x2 + x13 <= 1
C759: + x147 + x154 <= 1
C760: + x349 + x382 <= 1
C761: + x46 + x409 <= 1
C762: + x299 + x493 <= 1
C763: + x54 + x361 <= 1
C764: + x76 + x481 <= 1
C765: + x13 + x128 <= 1
C766: + x61 + x66 <= 1
C767: + x27 + x338 <= 1
C768: + x46 + x95 <= 1
C769: + x5 + x159 <= 1
C770: + x6 + x41 <= 1
C771: + x25 + x459 <= 1
C772: + x14 + x118 <= 1
C773: + x10 + x46 <= 1
C774: + x18 + x304 <= 1
C775: + x56 + x390 <= 1
C776: + x162 + x379 <= 1
C777: + x146 + x481 <= 1
C778: + x64 + x70 <= 1
C779: + x322 + x367 <= 1
C780: + x44 + x184 <= 1
C781: + x136 + x145 <= 1
C782: + x11 + x53 <= 1
C783: + x120 + x449 <= 1
C784: + x292 + x308 <= 1
C785: + x196 + x497 <= 1
C786: + x70 + x322 <= 1
C787: + x168 + x236 <= 1
C788: + x3 + x283 <= 1
C789: + x39 + x52 <= 1
C790: + x95 + x348 <= 1
C791: + x12 + x177 <= 1
C792: + x174 + x292 <= 1
C793: + x37 + x137 <= 1
C794: + x323 + x351 <= 1
C795: + x134 + x210 + x281 <= 1
C796: + x80 + x235 <= 1
C797: + x262 + x313 <= 1
C798: + x10 + x107 <= 1
C799: + x2 + x6 <= 1
C800: + x210 + x451 <= 1
C801: + x10 + x472 <= 1
C802: + x4 + x253 <= 1
C803: + x198 + x321 <= 1
C804: + x9 + x242 <= 1
C805: + x54 + x370 <= 1
C806: + x77 + x490 <= 1
C807: + x4 + x28 <= 1
C808: + x15 + x428 <= 1
C809: + x36 + x304 <= 1
C810: + x96 + x197 <= 1
C811: + x89 + x146 <= 1
C812: + x7 + x162 <= 1
C813: + x9 + x268 <= 1
C814: + x146 + x319 <= 1
C815: + x3 + x194 <= 1
C816: + x20 + x303 <= 1
C817: + x38 + x377 <= 1
C818: + x23 + x133 <= 1
C819: + x26 + x220 <= 1
C820: + x16 + x73 <= 1
C821: + x27 + x204 <= 1
C822: + x10 + x178 <= 1
C823: + x244 + x474 <= 1
C824: + x186 + x195 <= 1
C825: + x1 + x12 + x15 <= 1
C826: + x243 + x383 <= 1
C827: + x26 + x119 <= 1
C828: + x32 + x406 <= 1
C829: + x358 + x453 <= 1
C830: + x21 + x280 <= 1
C831: + x42 + x60 <= 1
C832: + x41 + x420 <= 1
C833: + x6 + x198 <= 1
C834: + x26 + x274 <= 1
C835: + x117 + x343 <= 1
C836: + x40 + x470 <= 1
C837: + x42 + x343 <= 1
C838: + x5 + x111 <= 1
C839: + x61 + x471 <= 1
C840: + x44 + x62 <= 1
C841: + x442 + x487 <= 1
C842: + x31 + x216 <= 1
C843: + x143 + x348 <= 1
C844: + x52 + x142 <= 1
C845: + x396 + x438 <= 1
C846: + x6 + x87 <= 1
C847: + x100 + x392 <= 1
C848: + x111 + x451 <= 1
C849: + x24 + x493 <= 1
C850: + x6 + x138 <= 1
C851: + x24 + x255 <= 1
C852: + x18 + x212 <= 1
C853: + x1 + x54 <= 1
C854: + x76 + x415 <= 1
C855: + x281 + x294 <= 1
C856: + x219 + x221 <= 1
C857: + x37 + x124 <= 1
C858: + x299 + x372 <= 1
C859: + x76 + x129 <= 1
C860: + x113 + x450 <= 1
C861: + x314 + x321 <= 1
C862: + x8 + x392 <= 1
C863: + x193 + x426 <= 1
C864: + x2 + x43 <= 1
C865: + x76 + x112 <= 1
C866: + x272 + x421 <= 1
C867: + x44 + x436 <= 1
C868: + x5 + x276 <= 1
C869: + x168 + x315 <= 1
C870: + x2 + x401 <= 1
C871: + x75 + x231 <= 1
C872: + x5 + x177 <= 1
C873: + x423 + x479 <= 1
C874: + x10 + x12 <= 1
C875: + x2 + x231 <= 1
C876: + x21 + x244 <= 1
C877: + x53 + x112 <= 1
C878: + x17 + x180 <= 1
C879: + x65 + x94 <= 1
C880: + x1 + x414 <= 1
C881: + x3 + x434 <= 1
C882: + x33 + x119 <= 1
C883: + x40 + x420 <= 1
C884: + x6 + x96 <= 1
C885: + x56 + x477 <= 1
C886: + x277 + x416 <= 1
C887: + x31 + x106 <= 1
C888: + x26 + x295 <= 1
C889: + x59 + x454 <= 1
C890: + x147 + x329 <= 1
C891: + x181 + x270 <= 1
C892: + x191 + x461 <= 1
C893: + x255 + x269 <= 1
C894: + x92 + x251 <= 1
C895: + x2 + x36 <= 1
C896: + x58 + x63 <= 1
C897: + x5 + x41 <= 1
C898: + x9 + x44 <= 1
C899: + x51 + x347 <= 1
C900: + x4 + x393 <= 1
C901: + x53 + x200 <= 1
C902: + x90 + x385 <= 1
C903: + x138 + x229 <= 1
C904: + x30 + x271 <= 1
C905: + x12 + x377 <= 1
C906: + x413 + x443 <= 1
C907: + x6 + x56 <= 1
C908: + x10 + x13 <= 1
C909: + x23 + x227 <= 1
C910: + x6 + x294 <= 1
C911: + x9 + x24 <= 1
C912: + x7 + x446 <= 1
C913: + x253 + x287 <= 1
C914: + x2 + x7 + x14 <= 1
C915: + x41 + x289 <= 1
C916: + x143 + x199 <= 1
C917: + x45 + x345 <= 1
C918: + x368 + x488 <= 1
C919: + x270 + x468 <= 1
C920: + x48 + x80 <= 1
C921: + x251 + x499 <= 1
C922: + x53 + x187 <= 1
C923: + x26 + x62 <= 1
C924: + x6 + x13 <= 1
C925: + x16 + x342 <= 1
C926: + x182 + x387 <= 1
C927: + x37 + x412 <= 1
C928: + x35 + x407 <= 1
C929: + x6 + x176 <= 1
C930: + x171 + x316 <= 1
C931: + x9 + x211 <= 1
C932: + x8 + x11 <= 1
C933: + x12 + x80 <= 1
C934: + x7 + x38 <= 1
C935: + x184 + x326 <= 1
C936: + x125 + x479 <= 1
C937: + x6 + x49 <= 1
C938: + x164 + x248 <= 1
C939: + x2 + x241 <= 1
C940: + x456 + x494 <= 1
C941: + x103 + x203 <= 1
C942: + x12 + x221 <= 1
C943: + x5 + x92 <= 1
C944: + x179 + x242 <= 1
C945: + x6 + x303 <= 1
C946: + x14 + x380 <= 1
C947: + x15 + x380 <= 1
C948: + x159 + x372 <= 1
C949: + x113 + x360 <= 1
C950: + x39 + x431 <= 1
C951: + x22 + x111 <= 1
C952: + x122 + x317 <= 1
C953: + x26 + x305 <= 1
C954: + x137 + x419 <= 1
C955: + x2 + x141 <= 1
C956: + x315 + x332 <= 1
C957: + x10 + x115 <= 1
C958: + x258 + x428 <= 1
C959: + x51 + x492 <= 1
C960: + x22 + x51 <= 1
C961: + x23 + x161 <= 1
C962: + x26 + x381 <= 1
C963: + x26 + x184 <= 1
C964: + x278 + x494 <= 1
C965: + x7 + x29 <= 1
C966: + x10 + x265 <= 1
C967: + x18 + x414 <= 1
C968: + x76 + x228 <= 1
C969: + x6 + x58 <= 1
C970: + x36 + x42 <= 1
C971: + x39 + x87 <= 1
C972: + x23 + x290 <= 1
C973: + x39 + x180 <= 1
C974: + x59 + x153 <= 1
C975: + x115 + x270 <= 1
C976: + x5 + x317 <= 1
C977: + x146 + x157 <= 1
C978: + x164 + x311 <= 1
C979: + x255 + x374 <= 1
C980: + x28 + x399 <= 1
C981: + x123 + x446 <= 1
C982: + x9 + x352 <= 1
C983: + x1 + x18 <= 1
C984: + x111 + x237 <= 1
C985: + x4 + x125 <= 1
C986: + x116 + x228 <= 1
C987: + x37 + x160 <= 1
C988: + x46 + x181 <= 1
C989: + x3 + x28 <= 1
C990: + x17 + x498 <= 1
C991: + x64 + x265 <= 1
C992: + x32 + x133 <= 1
C993: + x10 + x215 <= 1
C994: + x57 + x59 <= 1
C995: + x21 + x33 <= 1
C996: + x41 + x149 <= 1
C997: + x6 + x400 <= 1
C998: + x7 + x24 <= 1
C999: + x318 + x430 <= 1
C1000: + x129 + x192 <= 1
C1001: + x94 + x420 <= 1
C1002: + x47 + x324 <= 1
C1003: + x122 + x387 <= 1
C1004: + x167 + x306 <= 1
C1005: + x6 + x35 <= 1
C1006: + x206 + x355 <= 1
C1007: + x151 + x494 <= 1
C1008: + x293 + x368 <= 1
C1009: + x231 + x363 <= 1
C1010: + x14 + x465 <= 1
C1011: + x30 + x302 <= 1
C1012: + x27 + x110 <= 1
C1013: + x47 + x105 <= 1
C1014: + x379 + x467 <= 1
C1015: + x170 + x270 <= 1
C1016: + x7 + x467 <= 1
C1017: + x201 + x206 <= 1
C1018: + x139 + x171 <= 1
C1019: + x67 + x211 <= 1
C1020: + x31 + x469 <= 1
C1021: + x16 + x417 <= 1
C1022: + x10 + x125 <= 1
C1023: + x4 + x243 <= 1
C1024: + x6 + x155 <= 1
C1025: + x6 + x342 <= 1
C1026: + x36 + x71 <= 1
C1027: + x92 + x102 <= 1
C1028: + x201 + x349 <= 1
C1029: + x169 + x422 <= 1
C1030: + x73 + x101 <= 1
C1031: + x37 + x75 <= 1
C1032: + x48 + x441 <= 1
C1033: + x4 + x260 <= 1
C1034: + x14 + x121 <= 1
C1035: + x96 + x211 <= 1
C1036: + x40 + x496 <= 1
C1037: + x100 + x321 <= 1
C1038: + x433 + x472 <= 1
C1039: + x81 + x471 <= 1
C1040: + x82 + x473 <= 1
C1041: + x471 + x490 <= 1
C1042: + x37 + x218 <= 1
C1043: + x42 + x147 <= 1
C1044: + x44 + x179 <= 1
C1045: + x309 + x356 <= 1
C1046: + x48 + x100 <= 1
C1047: + x21 + x227 <= 1
C1048: + x338 + x352 <= 1
C1049: + x12 + x27 <= 1
C1050: + x59 + x255 <= 1
C1051: + x169 + x286 <= 1
C1052: + x196 + x413 <= 1
C1053: + x6 + x97 <= 1
C1054: + x151 + x158 <= 1
C1055: + x89 + x323 <= 1
C1056: + x347 + x424 <= 1
C1057: + x94 + x208 <= 1
C1058: + x4 + x252 <= 1
C1059: + x26 + x139 <= 1
C1060: + x7 + x357 <= 1
C1061: + x139 + x492 <= 1
C1062: + x341 + x345 <= 1
C1063: + x19 + x271 <= 1
C1064: + x14 + x114 <= 1
C1065: + x6 + x21 <= 1
C1066: + x10 + x82 <= 1
C1067: + x373 + x487 <= 1
C1068: + x94 + x132 <= 1
C1069: + x5 + x64 <= 1
C1070: + x23 + x130 <= 1
C1071: + x6 + x259 <= 1
C1072: + x35 + x60 <= 1
C1073: + x8 + x35 <= 1
C1074: + x64 + x66 <= 1
C1075: + x147 + x491 <= 1
C1076: + x39 + x165 <= 1
C1077: + x213 + x248 <= 1
C1078: + x359 + x371 <= 1
C1079: + x35 + x157 <= 1
C1080: + x24 + x32 <= 1
C1081: + x75 + x241 <= 1
C1082: + x47 + x282 <= 1
C1083: + x86 + x152 <= 1
C1084: + x23 + x113 <= 1
C1085: + x24 + x355 <= 1
C1086: + x270 + x497 <= 1
C1087: + x9 + x138 <= 1
C1088: + x10 + x30 <= 1
C1089: + x60 + x492 <= 1
C1090: + x9 + x103 <= 1
C1091: + x1 + x388 <= 1
C1092: + x85 + x466 <= 1
C1093: + x48 + x208 <= 1
C1094: + x6 + x106 <= 1
C1095: + x1 + x289 <= 1
C1096: + x164 + x173 <= 1
C1097: + x2 + x26 <= 1
C1098: + x95 + x239 <= 1
C1099: + x1 + x51 <= 1
C1100: + x241 + x349 <= 1
C1101: + x77 + x486 <= 1
C1102: + x277 + x363 <= 1
C1103: + x24 + x65 <= 1
C1104: + x147 + x339 <= 1
C1105: + x68 + x251 <= 1
C1106: + x184 + x423 <= 1
C1107: + x14 + x107 <= 1
C1108: + x35 + x293 <= 1
C1109: + x7 + x166 <= 1
C1110: + x436 + x489 <= 1
C1111: + x94 + x157 <= 1
C1112: + x188 + x348 <= 1
C1113: + x9 + x34 <= 1
C1114: + x36 + x161 <= 1
C1115: + x276 + x325 <= 1
C1116: + x89 + x261 <= 1
C1117: + x17 + x34 <= 1
C1118: + x87 + x367 <= 1
C1119: + x1 + x492 <= 1
C1120: + x44 + x161 <= 1
C1121: + x262 + x378 <= 1
C1122: + x339 + x455 <= 1
C1123: + x13 + x337 <= 1
C1124: + x32 + x53 <= 1
C1125: + x271 + x458 <= 1
C1126: + x38 + x169 <= 1
C1127: + x39 + x47 <= 1
C1128: + x43 + x166 <= 1
C1129: + x26 + x236 <= 1
C1130: + x128 + x296 <= 1
C1131: + x11 + x370 <= 1
C1132: + x131 + x384 <= 1
C1133: + x42 + x73 <= 1
C1134: + x6 + x83 <= 1
C1135: + x35 + x364 <= 1
C1136: + x54 + x105 <= 1
C1137: + x59 + x102 <= 1
C1138: + x6 + x246 <= 1
C1139: + x74 + x435 <= 1
C1140: + x2 + x190 <= 1
C1141: + x122 + x137 <= 1
C1142: + x12 + x154 <= 1
C1143: + x4 + x5 <= 1
C1144: + x14 + x257 <= 1
C1145: + x191 + x365 <= 1
C1146: + x136 + x207 <= 1
C1147: + x113 + x454 <= 1
C1148: + x24 + x445 <= 1
C1149: + x36 + x440 <= 1
C1150: + x28 + x58 <= 1
C1151: + x156 + x237 <= 1
C1152: + x4 + x150 <= 1
C1153: + x6 + x186 <= 1
C1154: + x15 + x290 <= 1
C1155: + x28 + x197 <= 1
C1156: + x55 + x137 <= 1
C1157: + x30 + x36 <= 1
C1158: + x276 + x334 <= 1
C1159: + x4 + x49 <= 1
C1160: + x5 + x288 <= 1
C1161: + x2 + x96 <= 1
C1162: + x3 + x72 <= 1
C1163: + x58 + x171 <= 1
C1164: + x113 + x434 <= 1
C1165: + x12 + x328 <= 1
C1166: + x251 + x278 <= 1
C1167: + x181 + x343 <= 1
C1168: + x12 + x163 <= 1
C1169: + x13 + x45 <= 1
C1170: + x9 + x21 <= 1
C1171: + x201 + x234 <= 1
C1172: + x28 + x273 <= 1
C1173: + x76 + x315 <= 1
C1174: + x21 + x93 <= 1
C1175: + x131 + x375 <= 1
C1176: + x299 + x307 <= 1
C1177: + x5 + x324 <= 1
C1178: + x6 + x92 <= 1
C1179: + x173 + x390 <= 1
C1180: + x83 + x169 <= 1
C1181: + x11 + x478 <= 1
C1182: + x70 + x193 <= 1
C1183: + x122 + x311 <= 1
C1184: + x20 + x373 <= 1
C1185: + x56 + x473 <= 1
C1186: + x6 + x255 <= 1
C1187: + x2 + x183 <= 1
C1188: + x222 + x425 <= 1
C1189: + x22 + x188 <= 1
C1190: + x42 + x272 <= 1
C1191: + x3 + x11 <= 1
C1192: + x21 + x478 <= 1
C1193: + x40 + x404 <= 1
C1194: + x259 + x417 <= 1
C1195: + x62 + x99 <= 1
C1196: + x10 + x69 <= 1
C1197: + x30 + x154 <= 1
C1198: + x8 + x10 <= 1
C1199: + x201 + x293 <= 1
C1200: + x132 + x442 <= 1
C1201: + x107 + x453 <= 1
C1202: + x17 + x32 <= 1
C1203: + x388 + x407 <= 1
C1204: + x30 + x267 <= 1
C1205: + x346 + x411 <= 1
C1206: + x18 + x150 <= 1
C1207: + x113 + x278 <= 1
C1208: + x21 + x135 <= 1
C1209: + x185 + x334 <= 1
C1210: + x387 + x400 <= 1
C1211: + x9 + x28 <= 1
C1212: + x26 + x246 <= 1
C1213: + x2 + x287 <= 1
C1214: + x50 + x261 <= 1
C1215: + x1 + x310 <= 1
C1216: + x15 + x179 <= 1
C1217: + x6 + x232 <= 1
C1218: + x18 + x194 <= 1
C1219: + x1 + x8 <= 1
C1220: + x61 + x98 <= 1
C1221: + x6 + x470 <= 1
C1222: + x152 + x411 <= 1
C1223: + x157 + x411 <= 1
C1224: + x366 + x405 <= 1
C1225: + x39 + x315 <= 1
C1226: + x259 + x444 <= 1
C1227: + x345 + x480 <= 1
C1228: + x7 + x381 <= 1
C1229: + x10 + x169 <= 1
C1230: + x12 + x68 <= 1
C1231: + x285 + x375 <= 1
C1232: + x4 + x63 <= 1
C1233: + x26 + x78 <= 1
C1234: + x18 + x409 <= 1
C1235: + x32 + x36 <= 1
C1236: + x89 + x183 <= 1
C1237: + x9 + x273 <= 1
C1238: + x180 + x427 <= 1
C1239: + x22 + x250 <= 1
C1240: + x43 + x159 <= 1
C1241: + x254 + x414 <= 1
C1242: + x74 + x469 <= 1
C1243: + x49 + x170 <= 1
C1244: + x213 + x224 <= 1
C1245: + x14 + x475 <= 1
C1246: + x31 + x96 <= 1
C1247: + x40 + x49 <= 1
C1248: + x5 + x215 <= 1
C1249: + x18 + x376 <= 1
C1250: + x249 + x265 <= 1
C1251: + x76 + x357 <= 1
C1252: + x207 + x357 <= 1
C1253: + x18 + x257 <= 1
C1254: + x272 + x448 <= 1
C1255: + x87 + x101 <= 1
C1256: + x6 + x149 <= 1
C1257: + x6 + x368 <= 1
C1258: + x9 + x222 <= 1
C1259: + x288 + x471 <= 1
C1260: + x131 + x272 <= 1
C1261: + x4 + x40 <= 1
C1262: + x242 + x443 <= 1
C1263: + x107 + x311 <= 1
C1264: + x26 + x87 <= 1
C1265: + x10 + x269 <= 1
C1266: + x23 + x24 <= 1
C1267: + x9 + x280 <= 1
C1268: + x18 + x317 <= 1
C1269: + x37 + x371 <= 1
C1270: + x157 + x184 <= 1
C1271: + x4 + x181 <= 1
C1272: + x20 + x122 <= 1
C1273: + x35 + x144 <= 1
C1274: + x37 + x53 <= 1
C1275: + x328 + x350 <= 1
C1276: + x2 + x396 <= 1
C1277: + x217 + x330 <= 1
C1278: + x25 + x394 <= 1
C1279: + x160 + x262 <= 1
C1280: + x203 + x368 <= 1
C1281: + x12 + x440 <= 1
C1282: + x6 + x123 <= 1
C1283: + x301 + x350 <= 1
C1284: + x15 + x318 <= 1
C1285: + x83 + x440 <= 1
C1286: + x11 + x297 <= 1
C1287: + x102 + x362 <= 1
C1288: + x249 + x383 <= 1
C1289: + x69 + x426 <= 1
C1290: + x140 + x498 <= 1
C1291: + x40 + x272 <= 1
C1292: + x24 + x50 <= 1
C1293: + x199 + x332 <= 1
C1294: + x18 + x310 <= 1
C1295: + x446 + x483 <= 1
C1296: + x12 + x207 <= 1
C1297: + x35 + x38 <= 1
C1298: + x45 + x157 <= 1
C1299: + x54 + x307 <= 1
C1300: + x27 + x199 <= 1
C1301: + x313 + x448 <= 1
C1302: + x121 + x203 <= 1
C1303: + x49 + x168 <= 1
C1304: + x46 + x246 <= 1
C1305: + x54 + x86 <= 1
C1306: + x37 + x52 <= 1
C1307: + x37 + x457 <= 1
C1308: + x31 + x74 <= 1
C1309: + x7 + x225 <= 1
C1310: + x113 + x247 <= 1
C1311: + x25 + x302 <= 1
C1312: + x14 + x147 <= 1
C1313: + x18 + x88 <= 1
C1314: + x1 + x394 <= 1
C1315: + x29 + x104 <= 1
C1316: + x39 + x155 <= 1
C1317: + x176 + x304 <= 1
C1318: + x14 + x385 <= 1
C1319: + x15 + x55 <= 1
C1320: + x42 + x90 <= 1
C1321: + x6 + x100 <= 1
C1322: + x47 + x480 <= 1
C1323: + x186 + x402 <= 1
C1324: + x6 + x338 <= 1
C1325: + x76 + x150 <= 1
C1326: + x352 + x406 <= 1
C1327: + x26 + x452 <= 1
C1328: + x8 + x312 <= 1
C1329: + x10 + x45 <= 1
C1330: + x46 + x332 <= 1
C1331: + x137 + x368 <= 1
C1332: + x91 + x180 <= 1
C1333: + x16 + x369 <= 1
C1334: + x1 + x216 <= 1
C1335: + x41 + x47 <= 1
C1336: + x39 + x69 <= 1
C1337: + x18 + x29 <= 1
C1338: + x5 + x61 <= 1
C1339: + x43 + x140 <= 1
C1340: + x113 + x159 <= 1
C1341: + x9 + x56 <= 1
C1342: + x12 + x490 <= 1
C1343: + x235 + x314 <= 1
C1344: + x86 + x139 <= 1
C1345: + x13 + x351 <= 1
C1346: + x9 + x370 <= 1
C1347: + x7 + x301 <= 1
C1348: + x227 + x409 <= 1
C1349: + x59 + x493 <= 1
C1350: + x225 + x408 <= 1
C1351: + x14 + x343 <= 1
C1352: + x151 + x309 <= 1
C1353: + x55 + x248 <= 1
C1354: + x183 + x376 <= 1
C1355: + x12 + x31 <= 1
C1356: + x48 + x195 <= 1
C1357: + x240 + x387 <= 1
C1358: + x166 + x390 <= 1
C1359: + x1 + x302 <= 1
C1360: + x2 + x5 <= 1
C1361: + x167 + x213 <= 1
C1362: + x354 + x436 <= 1
C1363: + x83 + x426 <= 1
C1364: + x64 + x410 <= 1
C1365: + x47 + x68 <= 1
C1366: + x56 + x109 <= 1
C1367: + x225 + x484 <= 1
C1368: + x31 + x339 <= 1
C1369: + x27 + x346 <= 1
C1370: + x29 + x51 <= 1
C1371: + x76 + x139 <= 1
C1372: + x12 + x402 <= 1
C1373: + x14 + x110 <= 1
C1374: + x6 + x17 <= 1
C1375: + x9 + x269 <= 1
C1376: + x160 + x211 <= 1
C1377: + x92 + x240 <= 1
C1378: + x51 + x453 <= 1
C1379: + x5 + x60 <= 1
C1380: + x27 + x201 <= 1
C1381: + x146 + x473 <= 1
C1382: + x37 + x205 <= 1
C1383: + x256 + x398 <= 1
C1384: + x26 + x118 <= 1
C1385: + x100 + x475 <= 1
C1386: + x211 + x405 <= 1
C1387: + x93 + x135 <= 1
C1388: + x95 + x167 <= 1
C1389: + x69 + x190 <= 1
C1390: + x5 + x203 <= 1
C1391: + x320 + x362 <= 1
C1392: + x69 + x467 <= 1
C1393: + x5 + x112 <= 1
C1394: + x7 + x449 <= 1
C1395: + x39 + x346 <= 1
C1396: + x106 + x268 <= 1
C1397: + x14 + x435 <= 1
C1398: + x28 + x422 <= 1
C1399: + x10 + x480 <= 1
C1400: + x9 + x250 <= 1
C1401: + x83 + x417 <= 1
C1402: + x122 + x140 <= 1
C1403: + x20 + x202 <= 1
C1404: + x13 + x111 <= 1
C1405: + x31 + x129 <= 1
C1406: + x69 + x391 <= 1
C1407: + x22 + x182 <= 1
C1408: + x5 + x489 <= 1
C1409: + x136 + x206 <= 1
C1410: + x20 + x37 <= 1
C1411: + x22 + x452 <= 1
C1412: + x432 + x445 <= 1
C1413: + x62 + x109 <= 1
C1414: + x10 + x396 <= 1
C1415: + x54 + x64 <= 1
C1416: + x5 + x35 <= 1
C1417: + x6 + x376 <= 1
C1418: + x7 + x400 <= 1
C1419: + x76 + x462 <= 1
C1420: + x50 + x230 <= 1
C1421: + x267 + x297 <= 1
C1422: + x155 + x418 <= 1
C1423: + x8 + x443 <= 1
C1424: + x11 + x40 <= 1
C1425: + x37 + x41 <= 1
C1426: + x21 + x288 <= 1
C1427: + x24 + x376 <= 1
C1428: + x7 + x214 <= 1
C1429: + x27 + x67 <= 1
C1430: + x10 + x11 <= 1
C1431: + x76 + x91 <= 1
C1432: + x113 + x284 <= 1
C1433: + x95 + x331 <= 1
C1434: + x13 + x50 <= 1
C1435: + x23 + x286 <= 1
C1436: + x9 + x18 <= 1
C1437: + x7 + x444 <= 1
C1438: + x6 + x95 <= 1
C1439: + x7 + x101 <= 1
C1440: + x54 + x117 <= 1
C1441: + x24 + x485 <= 1
C1442: + x11 + x108 <= 1
C1443: + x384 + x424 <= 1
C1444: + x39 + x446 <= 1
C1445: + x6 + x333 <= 1
C1446: + x126 + x181 <= 1
C1447: + x8 + x89 <= 1
C1448: + x6 + x496 <= 1
C1449: + x76 + x185 <= 1
C1450: + x112 + x404 <= 1
C1451: + x216 + x377 <= 1
C1452: + x7 + x145 <= 1
C1453: + x2 + x35 <= 1
C1454: + x26 + x165 <= 1
C1455: + x6 + x369 <= 1
C1456: + x20 + x155 <= 1
C1457: + x42 + x138 <= 1
C1458: + x244 + x326 <= 1
C1459: + x73 + x74 <= 1
C1460: + x110 + x498 <= 1
C1461: + x139 + x252 <= 1
C1462: + x284 + x325 <= 1
C1463: + x12 + x380 <= 1
C1464: + x1 + x201 <= 1
C1465: + x29 + x295 <= 1
C1466: + x5 + x94 <= 1
C1467: + x164 + x429 <= 1
C1468: + x84 + x500 <= 1
C1469: + x105 + x482 <= 1
C1470: + x6 + x72 <= 1
C1471: + x54 + x126 <= 1
C1472: + x37 + x465 <= 1
C1473: + x77 + x179 <= 1
C1474: + x40 + x63 <= 1
C1475: + x125 + x405 <= 1
C1476: + x15 + x176 <= 1
C1477: + x7 + x249 <= 1
C1478: + x245 + x276 <= 1
C1479: + x8 + x82 <= 1
C1480: + x1 + x5 <= 1
C1481: + x165 + x182 <= 1
C1482: + x51 + x287 <= 1
C1483: + x104 + x489 <= 1
C1484: + x125 + x167 <= 1
C1485: + x160 + x299 <= 1
C1486: + x56 + x326 <= 1
C1487: + x23 + x462 <= 1
C1488: + x6 + x12 <= 1
C1489: + x62 + x127 <= 1
C1490: + x8 + x284 <= 1
C1491: + x343 + x439 <= 1
C1492: + x163 + x384 <= 1
C1493: + x58 + x71 <= 1
C1494: + x59 + x445 <= 1
C1495: + x256 + x441 <= 1
C1496: + x121 + x238 <= 1
C1497: + x41 + x168 <= 1
C1498: + x319 + x448 <= 1
C1499: + x4 + x497 <= 1
C1500: + x170 + x454 <= 1
C1501: + x87 + x381 <= 1
C1502: + x7 + x27 <= 1
C1503: + x80 + x134 <= 1
C1504: + x247 + x353 <= 1
C1505: + x37 + x95 <= 1
C1506: + x51 + x65 <= 1
C1507: + x159 + x226 <= 1
C1508: + x39 + x93 <= 1
C1509: + x21 + x131 <= 1
C1510: + x77 + x347 <= 1
C1511: + x294 + x402 <= 1
C1512: + x7 + x438 <= 1
C1513: + x30 + x77 <= 1
C1514: + x15 + x22 <= 1
C1515: + x16 + x394 <= 1
C1516: + x6 + x65 <= 1
C1517: + x256 + x324 <= 1
C1518: + x44 + x335 <= 1
C1519: + x136 + x375 <= 1
C1520: + x132 + x348 <= 1
C1521: + x116 + x127 <= 1
C1522: + x6 + x228 <= 1
C1523: + x91 + x345 <= 1
C1524: + x65 + x476 <= 1
C1525: + x58 + x479 <= 1
C1526: + x12 + x140 <= 1
C1527: + x69 + x500 <= 1
C1528: + x95 + x353 <= 1
C1529: + x185 + x432 <= 1
C1530: + x139 + x186 <= 1
C1531: + x341 + x478 <= 1
C1532: + x61 + x195 <= 1
C1533: + x6 + x117 <= 1
C1534: + x44 + x379 <= 1
C1535: + x342 + x458 <= 1
C1536: + x10 + x114 <= 1
C1537: + x72 + x81 <= 1
C1538: + x2 + x61 <= 1
C1539: + x59 + x72 <= 1
C1540: + x296 + x439 <= 1
C1541: + x108 + x218 <= 1
C1542: + x88 + x110 <= 1
C1543: + x91 + x365 <= 1
C1544: + x6 + x355 <= 1
C1545: + x119 + x150 <= 1
C1546: + x49 + x114 <= 1
C1547: + x39 + x197 <= 1
C1548: + x30 + x50 <= 1
C1549: + x13 + x80 <= 1
C1550: + x48 + x156 <= 1
C1551: + x82 + x93 <= 1
C1552: + x66 + x187 <= 1
C1553: + x194 + x465 <= 1
C1554: + x159 + x233 <= 1
C1555: + x11 + x182 <= 1
C1556: + x113 + x257 <= 1
C1557: + x33 + x395 <= 1
C1558: + x6 + x279 <= 1
C1559: + x53 + x70 <= 1
C1560: + x20 + x117 <= 1
C1561: + x6 + x74 <= 1
C1562: + x66 + x247 <= 1
C1563: + x76 + x223 <= 1
C1564: + x184 + x274 <= 1
C1565: + x56 + x299 <= 1
C1566: + x188 + x432 <= 1
C1567: + x12 + x294 <= 1
C1568: + x1 + x19 <= 1
C1569: + x37 + x316 <= 1
C1570: + x122 + x168 <= 1
C1571: + x12 + x129 <= 1
C1572: + x115 + x209 <= 1
C1573: + x34 + x244 <= 1
C1574: + x207 + x208 <= 1
C1575: + x255 + x454 <= 1
C1576: + x2 + x296 <= 1
C1577: + x26 + x426 <= 1
C1578: + x8 + x266 <= 1
C1579: + x1 + x349 <= 1
C1580: + x69 + x266 <= 1
C1581: + x5 + x7 <= 1
C1582: + x55 + x146 <= 1
C1583: + x22 + x329 <= 1
C1584: + x26 + x91 <= 1
C1585: + x7 + x21 <= 1
C1586: + x49 + x283 <= 1
C1587: + x1 + x222 <= 1
C1588: + x10 + x39 <= 1
C1589: + x34 + x374 <= 1
C1590: + x52 + x416 <= 1
C1591: + x9 + x14 <= 1
C1592: + x156 + x431 <= 1
C1593: + x29 + x81 <= 1
C1594: + x22 + x285 <= 1
C1595: + x54 + x73 <= 1
C1596: + x6 + x214 <= 1
C1597: + x27 + x434 <= 1
C1598: + x54 + x423 <= 1
C1599: + x31 + x232 <= 1
C1600: + x52 + x428 <= 1
C1601: + x161 + x312 <= 1
C1602: + x27 + x144 <= 1
C1603: + x7 + x468 <= 1
C1604: + x38 + x427 <= 1
C1605: + x86 + x118 <= 1
C1606: + x104 + x379 <= 1
C1607: + x134 + x178 <= 1
C1608: + x143 + x229 <= 1
C1609: + x10 + x100 <= 1
C1610: + x95 + x254 <= 1
C1611: + x14 + x231 <= 1
C1612: + x126 + x354 <= 1
C1613: + x125 + x374 <= 1
C1614: + x10 + x223 <= 1
C1615: + x129 + x491 <= 1
C1616: + x20 + x183 <= 1
C1617: + x463 + x496 <= 1
C1618: + x103 + x366 <= 1
C1619: + x4 + x488 <= 1
C1620: + x96 + x447 <= 1
C1621: + x14 + x277 <= 1
C1622: + x7 + x16 <= 1
C1623: + x27 + x340 <= 1
C1624: + x9 + x422 <= 1
C1625: + x148 + x406 <= 1
C1626: + x3 + x40 <= 1
C1627: + x35 + x276 <= 1
C1628: + x24 + x401 <= 1
C1629: + x262 + x486 <= 1
C1630: + x28 + x86 <= 1
C1631: + x4 + x162 <= 1
C1632: + x52 + x485 <= 1
C1633: + x20 + x131 <= 1
C1634: + x76 + x475 <= 1
C1635: + x131 + x132 <= 1
C1636: + x6 + x444 <= 1
C1637: + x203 + x260 <= 1
C1638: + x225 + x312 <= 1
C1639: + x89 + x213 <= 1
C1640: + x453 + x488 <= 1
C1641: + x149 + x356 <= 1
C1642: + x161 + x335 <= 1
C1643: + x325 + x464 <= 1
C1644: + x18 + x76 <= 1
C1645: + x37 + x143 <= 1
C1646: + x3 + x418 <= 1
C1647: + x60 + x232 <= 1
C1648: + x6 + x112 <= 1
C1649: + x10 + x101 <= 1
C1650: + x1 + x160 <= 1
C1651: + x59 + x81 <= 1
C1652: + x14 + x32 <= 1
C1653: + x126 + x379 <= 1
C1654: + x69 + x413 <= 1
C1655: + x10 + x291 <= 1
C1656: + x390 + x391 <= 1
C1657: + x203 + x327 <= 1
C1658: + x6 + x20 <= 1
C1659: + x7 + x164 <= 1
C1660: + x46 + x328 <= 1
C1661: + x184 + x208 <= 1
C1662: + x4 + x167 <= 1
C1663: + x5 + x57 <= 1
C1664: + x6 + x183 <= 1
C1665: + x426 + x435 <= 1
C1666: + x37 + x194 <= 1
C1667: + x134 + x256 <= 1
C1668: + x2 + x77 <= 1
C1669: + x11 + x50 <= 1
C1670: + x6 + x200 <= 1
C1671: + x10 + x29 <= 1
C1672: + x101 + x220 <= 1
C1673: + x233 + x287 <= 1
C1674: + x112 + x172 <= 1
C1675: + x1 + x389 <= 1
C1676: + x63 + x191 <= 1
C1677: + x29 + x123 <= 1
C1678: + x59 + x334 <= 1
C1679: + x12 + x19 <= 1
C1680: + x44 + x359 <= 1
C1681: + x8 + x373 <= 1
C1682: + x92 + x353 <= 1
C1683: + x382 + x434 <= 1
C1684: + x21 + x346 <= 1
C1685: + x232 + x336 <= 1
C1686: + x14 + x25 <= 1
C1687: + x168 + x219 <= 1
C1688: + x16 + x132 <= 1
C1689: + x292 + x450 <= 1
C1690: + x112 + x128 <= 1
C1691: + x124 + x302 <= 1
C1692: + x14 + x263 <= 1
C1693: + x26 + x46 <= 1
C1694: + x9 + x84 <= 1
C1695: + x287 + x325 <= 1
C1696: + x8 + x248 <= 1
C1697: + x202 + x301 <= 1
C1698: + x210 + x285 <= 1
C1699: + x256 + x394 <= 1
C1700: + x20 + x145 <= 1
C1701: + x89 + x262 <= 1
C1702: + x83 + x123 <= 1
C1703: + x147 + x264 <= 1
C1704: + x103 + x122 <= 1
C1705: + x30 + x312 <= 1
C1706: + x60 + x133 <= 1
C1707: + x89 + x163 <= 1
C1708: + x73 + x431 <= 1
C1709: + x1 + x412 <= 1
C1710: + x46 + x152 <= 1
C1711: + x57 + x198 <= 1
C1712: + x12 + x318 <= 1
C1713: + x30 + x332 <= 1
C1714: + x242 + x256 <= 1
C1715: + x169 + x170 <= 1
C1716: + x368 + x477 <= 1
C1717: + x26 + x289 <= 1
C1718: + x1 + x11 <= 1
C1719: + x44 + x66 <= 1
C1720: + x311 + x423 <= 1
C1721: + x26 + x156 <= 1
C1722: + x4 + x8 <= 1
C1723: + x22 + x365 <= 1
C1724: + x6 + x336 <= 1
C1725: + x37 + x97 <= 1
C1726: + x131 + x254 <= 1
C1727: + x5 + x138 <= 1
C1728: + x277 + x482 <= 1
C1729: + x188 + x340 <= 1
C1730: + x8 + x20 <= 1
C1731: + x12 + x85 <= 1
C1732: + x276 + x333 <= 1
C1733: + x37 + x482 <= 1
C1734: + x32 + x61 <= 1
C1735: + x164 + x205 <= 1
C1736: + x64 + x456 <= 1
C1737: + x41 + x77 <= 1
C1738: + x4 + x65 <= 1
C1739: + x24 + x158 <= 1
C1740: + x308 + x485 <= 1
C1741: + x47 + x231 <= 1
C1742: + x468 + x473 <= 1
C1743: + x59 + x137 <= 1
C1744: + x6 + x91 <= 1
C1745: + x7 + x89 <= 1
C1746: + x117 + x458 <= 1
C1747: + x54 + x113 <= 1
C1748: + x2 + x424 <= 1
C1749: + x2 + x107 <= 1
C1750: + x41 + x476 <= 1
C1751: + x134 + x388 <= 1
C1752: + x201 + x378 <= 1
C1753: + x238 + x482 <= 1
C1754: + x4 + x13 <= 1
C1755: + x51 + x356 <= 1
C1756: + x65 + x111 <= 1
C1757: + x484 + x491 <= 1
C1758: + x345 + x474 <= 1
C1759: + x6 + x15 <= 1
C1760: + x3 + x173 <= 1
C1761: + x203 + x469 <= 1
C1762: + x23 + x172 <= 1
C1763: + x188 + x361 <= 1
C1764: + x44 + x115 <= 1
C1765: + x24 + x199 <= 1
C1766: + x9 + x209 <= 1
C1767: + x108 + x307 <= 1
C1768: + x51 + x225 <= 1
C1769: + x215 + x250 <= 1
C1770: + x388 + x410 <= 1
C1771: + x365 + x449 <= 1
C1772: + x3 + x96 <= 1
C1773: + x11 + x43 <= 1
C1774: + x14 + x80 <= 1
C1775: + x117 + x418 <= 1
C1776: + x264 + x308 <= 1
C1777: + x214 + x320 <= 1
C1778: + x32 + x217 <= 1
C1779: + x4 + x74 <= 1
C1780: + x17 + x176 <= 1
C1781: + x26 + x245 <= 1
C1782: + x9 + x29 <= 1
C1783: + x147 + x393 <= 1
C1784: + x10 + x147 <= 1
C1785: + x42 + x186 <= 1
C1786: + x26 + x408 <= 1
C1787: + x7 + x84 <= 1
C1788: + x93 + x384 <= 1
C1789: + x2 + x100 <= 1
C1790: + x58 + x127 <= 1
C1791: + x202 + x412 <= 1
C1792: + x13 + x40 + x142 <= 1
C1793: + x89 + x253 <= 1
C1794: + x5 + x233 <= 1
C1795: + x134 + x397 <= 1
C1796: + x27 + x191 <= 1
C1797: + x10 + x351 <= 1
C1798: + x86 + x103 <= 1
C1799: + x42 + x102 <= 1
C1800: + x6 + x120 <= 1
C1801: + x172 + x333 <= 1
C1802: + x20 + x329 <= 1
C1803: + x4 + x131 <= 1
C1804: + x32 + x158 <= 1
C1805: + x44 + x108 <= 1
C1806: + x54 + x284 <= 1
C1807: + x102 + x359 <= 1
C1808: + x105 + x108 <= 1
C1809: + x70 + x142 <= 1
C1810: + x87 + x369 <= 1
C1811: + x7 + x31 <= 1
C1812: + x72 + x229 <= 1
C1813: + x9 + x437 <= 1
C1814: + x10 + x57 <= 1
C1815: + x28 + x67 <= 1
C1816: + x83 + x342 <= 1
C1817: + x30 + x166 <= 1
C1818: + x12 + x212 <= 1
C1819: + x188 + x225 <= 1
C1820: + x23 + x292 <= 1
C1821: + x387 + x392 <= 1
C1822: + x2 + x279 <= 1
C1823: + x14 + x474 <= 1
C1824: + x126 + x437 <= 1
C1825: + x28 + x397 <= 1
C1826: + x67 + x171 <= 1
C1827: + x284 + x366 <= 1
C1828: + x23 + x106 <= 1
C1829: + x35 + x471 <= 1
C1830: + x16 + x232 <= 1
C1831: + x2 + x136 <= 1
C1832: + x89 + x97 <= 1
C1833: + x43 + x196 <= 1
C1834: + x210 + x240 <= 1
C1835: + x122 + x433 <= 1
C1836: + x13 + x258 <= 1
C1837: + x6 + x113 <= 1
C1838: + x7 + x135 <= 1
C1839: + x318 + x319 <= 1
C1840: + x10 + x118 <= 1
C1841: + x64 + x271 <= 1
C1842: + x22 + x62 <= 1
C1843: + x6 + x148 <= 1
C1844: + x193 + x209 <= 1
C1845: + x285 + x335 <= 1
C1846: + x379 + x402 <= 1
C1847: + x131 + x269 <= 1
C1848: + x7 + x18 <= 1
C1849: + x79 + x277 <= 1
C1850: + x63 + x243 <= 1
C1851: + x6 + x386 <= 1
C1852: + x139 + x234 <= 1
C1853: + x192 + x427 <= 1
C1854: + x6 + x37 <= 1
C1855: + x9 + x281 <= 1
C1856: + x27 + x92 <= 1
C1857: + x165 + x244 <= 1
C1858: + x86 + x279 <= 1
C1859: + x35 + x44 <= 1
C1860: + x54 + x297 <= 1
C1861: + x72 + x371 <= 1
C1862: + x3 + x408 <= 1
C1863: + x12 + x56 <= 1
C1864: + x13 + x453 <= 1
C1865: + x87 + x328 <= 1
C1866: + x235 + x309 <= 1
C1867: + x7 + x78 <= 1
C1868: + x190 + x313 <= 1
C1869: + x118 + x465 <= 1
C1870: + x253 + x399 <= 1
C1871: + x1 + x261 <= 1
C1872: + x176 + x478 <= 1
C1873: + x4 + x26 + x83 <= 1
C1874: + x7 + x239 <= 1
C1875: + x119 + x213 <= 1
C1876: + x2 + x153 <= 1
C1877: + x3 + x263 <= 1
C1878: + x32 + x243 <= 1
C1879: + x14 + x292 <= 1
C1880: + x62 + x298 <= 1
C1881: + x201 + x204 <= 1
C1882: + x250 + x391 <= 1
C1883: + x139 + x173 <= 1
C1884: + x411 + x477 <= 1
C1885: + x130 + x367 <= 1
C1886: + x38 + x430 <= 1
C1887: + x138 + x178 <= 1
C1888: + x21 + x329 <= 1
C1889: + x297 + x306 <= 1
C1890: + x116 + x152 <= 1
C1891: + x162 + x300 <= 1
C1892: + x18 + x239 <= 1
C1893: + x86 + x431 <= 1
C1894: + x233 + x474 <= 1
C1895: + x196 + x291 <= 1
C1896: + x7 + x9 <= 1
C1897: + x10 + x309 <= 1
C1898: + x9 + x419 <= 1
C1899: + x12 + x355 <= 1
C1900: + x225 + x249 <= 1
C1901: + x228 + x297 <= 1
C1902: + x94 + x141 <= 1
C1903: + x232 + x273 <= 1
C1904: + x4 + x189 <= 1
C1905: + x5 + x55 <= 1
C1906: + x72 + x364 <= 1
C1907: + x37 + x224 <= 1
C1908: + x95 + x456 <= 1
C1909: + x242 + x495 <= 1
C1910: + x12 + x45 <= 1
C1911: + x14 + x460 <= 1
C1912: + x7 + x226 <= 1
C1913: + x100 + x194 <= 1
C1914: + x146 + x383 <= 1
C1915: + x165 + x175 <= 1
C1916: + x31 + x236 <= 1
C1917: + x32 + x252 <= 1
C1918: + x203 + x219 <= 1
C1919: + x132 + x219 <= 1
C1920: + x90 + x119 <= 1
C1921: + x6 + x99 <= 1
C1922: + x137 + x293 <= 1
C1923: + x129 + x322 <= 1
C1924: + x59 + x86 <= 1
C1925: + x132 + x378 <= 1
C1926: + x6 + x337 <= 1
C1927: + x36 + x78 <= 1
C1928: + x10 + x195 <= 1
C1929: + x20 + x26 <= 1
C1930: + x112 + x392 <= 1
C1931: + x6 + x23 <= 1
C1932: + x211 + x268 <= 1
C1933: + x47 + x425 <= 1
C1934: + x455 + x464 <= 1
C1935: + x96 + x125 <= 1
C1936: + x54 + x315 <= 1
C1937: + x249 + x339 <= 1
C1938: + x160 + x358 <= 1
C1939: + x16 + x481 <= 1
C1940: + x54 + x94 <= 1
C1941: + x247 + x262 <= 1
C1942: + x102 + x116 <= 1
C1943: + x266 + x267 <= 1
C1944: + x193 + x461 <= 1
C1945: + x56 + x309 <= 1
C1946: + x26 + x271 <= 1
C1947: + x9 + x371 <= 1
C1948: + x9 + x136 <= 1
C1949: + x201 + x413 <= 1
C1950: + x55 + x300 <= 1
C1951: + x12 + x179 <= 1
C1952: + x442 + x484 <= 1
C1953: + x70 + x483 <= 1
C1954: + x55 + x245 <= 1
C1955: + x21 + x77 <= 1
C1956: + x30 + x467 <= 1
C1957: + x167 + x361 <= 1
C1958: + x54 + x98 <= 1
C1959: + x39 + x385 <= 1
C1960: + x141 + x276 <= 1
C1961: + x5 + x241 <= 1
C1962: + x7 + x346 <= 1
C1963: + x257 + x445 <= 1

binary
x1 x2 x3 x4 x5 x6 x7 x8 x9 x10 x11 x12 x13 x14 x15 x16 x17 x18 x19 x20 x21 x22 x23 x24 x25 x26 x27 x28 x29 x30 x31 x32 x33 x34 x35 x36 x37 x38 x39 x40 x41 x42 x43 x44 x45 x46 x47 x48 x49 x50 x51 x52 x53 x54 x55 x56 x57 x58 x59 x60 x61 x62 x63 x64 x65 x66 x67 x68 x69 x70 x71 x72 x73 x74 x75 x76 x77 x78 x79 x80 x81 x82 x83 x84 x85 x86 x87 x88 x89 x90 x91 x92 x93 x94 x95 x96 x97 x98 x99 x100 x101 x102 x103 x104 x105 x106 x107 x108 x109 x110 x111 x112 x113 x114 x115 x116 x117 x118 x119 x120 x121 x122 x123 x124 x125 x126 x127 x128 x129 x130 x131 x132 x133 x134 x135 x136 x137 x138 x139 x140 x141 x142 x143 x144 x145 x146 x147 x148 x149 x150 x151 x152 x153 x154 x155 x156 x157 x158 x159 x160 x161 x162 x163 x164 x165 x166 x167 x168 x169 x170 x171 x172 x173 x174 x175 x176 x177 x178 x179 x180 x181 x182 x183 x184 x185 x186 x187 x188 x189 x190 x191 x192 x193 x194 x195 x196 x197 x198 x199 x200 x201 x202 x203 x204 x205 x206 x207 x208 x209 x210 x211 x212 x213 x214 x215 x216 x217 x218 x219 x220 x221 x222 x223 x224 x225 x226 x227 x228 x229 x230 x231 x232 x233 x234 x235 x236 x237 x238 x239 x240 x241 x242 x243 x244 x245 x246 x247 x248 x249 x250 x251 x252 x253 x254 x255 x256 x257 x258 x259 x260 x261 x262 x263 x264 x265 x266 x267 x268 x269 x270 x271 x272 x273 x274 x275 x276 x277 x278 x279 x280 x281 x282 x283 x284 x285 x286 x287 x288 x289 x290 x291 x292 x293 x294 x295 x296 x297 x298 x299 x300 x301 x302 x303 x304 x305 x306 x307 x308 x309 x310 x311 x312 x313 x314 x315 x316 x317 x318 x319 x320 x321 x322 x323 x324 x325 x326 x327 x328 x329 x330 x331 x332 x333 x334 x335 x336 x337 x338 x339 x340 x341 x342 x343 x344 x345 x346 x347 x348 x349 x350 x351 x352 x353 x354 x355 x356 x357 x358 x359 x360 x361 x362 x363 x364 x365 x366 x367 x368 x369 x370 x371 x372 x373 x374 x375 x376 x377 x378 x379 x380 x381 x382 x383 x384 x385 x386 x387 x388 x389 x390 x391 x392 x393 x394 x395 x396 x397 x398 x399 x400 x401 x402 x403 x404 x405 x406 x407 x408 x409 x410 x411 x412 x413 x414 x415 x416 x417 x418 x419 x420 x421 x422 x423 x424 x425 x426 x427 x428 x429 x430 x431 x432 x433 x434 x435 x436 x437 x438 x439 x440 x441 x442 x443 x444 x445 x446 x447 x448 x449 x450 x451 x452 x453 x454 x455 x456 x457 x458 x459 x460 x461 x462 x463 x464 x465 x466 x467 x468 x469 x470 x471 x472 x473 x474 x475 x476 x477 x478 x479 x480 x481 x482 x483 x484 x485 x486 x487 x488 x489 x490 x491 x492 x493 x494 x495 x496 x497 x498 x499 x500
