maximize
OBJ: + 1 x1 + 1 x2 + 1 x3 + 1 x4 + 1 x5 + 1 x6 + 1 x7 + 1 x8 + 1 x9 + 1 x10 + 1 x11 + 1 x12 + 1 x13 + 1 x14 + 1 x15 + 1 x16 + 1 x17 + 1 x18 + 1 x19 + 1 x20 + 1 x21 + 1 x22 + 1 x23 + 1 x24 + 1 x25 + 1 x26 + 1 x27 + 1 x28 + 1 x29 + 1 x30 + 1 x31 + 1 x32 + 1 x33 + 1 x34 + 1 x35 + 1 x36 + 1 x37 + 1 x38 + 1 x39 + 1 x40 + 1 x41 + 1 x42 + 1 x43 + 1 x44 + 1 x45 + 1 x46 + 1 x47 + 1 x48 + 1 x49 + 1 x50 + 1 x51 + 1 x52 + 1 x53 + 1 x54 + 1 x55 + 1 x56 + 1 x57 + 1 x58 + 1 x59 + 1 x60 + 1 x61 + 1 x62 + 1 x63 + 1 x64 + 1 x65 + 1 x66 + 1 x67 + 1 x68 + 1 x69 + 1 x70 + 1 x71 + 1 x72 + 1 x73 + 1 x74 + 1 x75 + 1 x76 + 1 x77 + 1 x78 + 1 x79 + 1 x80 + 1 x81 + 1 x82 + 1 x83 + 1 x84 + 1 x85 + 1 x86 + 1 x87 + 1 x88 + 1 x89 + 1 x90 + 1 x91 + 1 x92 + 1 x93 + 1 x94 + 1 x95 + 1 x96 + 1 x97 + 1 x98 + 1 x99 + 1 x100 + 1 x101 + 1 x102 + 1 x103 + 1 x104 + 1 x105 + 1 x106 + 1 x107 + 1 x108 + 1 x109 + 1 x110 + 1 x111 + 1 x112 + 1 x113 + 1 x114 + 1 x115 + 1 x116 + 1 x117 + 1 x118 + 1 x119 + 1 x120 + 1 x121 + 1 x122 + 1 x123 + 1 x124 + 1 x125 + 1 x126 + 1 x127 + 1 x128 + 1 x129 + 1 x130 + 1 x131 + 1 x132 + 1 x133 + 1 x134 + 1 x135 + 1 x136 + 1 x137 + 1 x138 + 1 x139 + 1 x140 + 1 x141 + 1 x142 + 1 x143 + 1 x144 + 1 x145 + 1 x146 + 1 x147 + 1 x148 + 1 x149 + 1 x150 + 1 x151 + 1 x152 + 1 x153 + 1 x154 + 1 x155 + 1 x156 + 1 x157 + 1 x158 + 1 x159 + 1 x160 + 1 x161 + 1 x162 + 1 x163 + 1 x164 + 1 x165 + 1 x166 + 1 x167 + 1 x168 + 1 x169 + 1 x170 + 1 x171 + 1 x172 + 1 x173 + 1 x174 + 1 x175 + 1 x176 + 1 x177 + 1 x178 + 1 x179 + 1 x180 + 1 x181 + 1 x182 + 1 x183 + 1 x184 + 1 x185 + 1 x186 + 1 x187 + 1 x188 + 1 x189 + 1 x190 + 1 x191 + 1 x192 + 1 x193 + 1 x194 + 1 x195 + 1 x196 + 1 x197 + 1 x198 + 1 x199 + 1 x200 + 1 x201 + 1 x202 + 1 x203 + 1 x204 + 1 x205 + 1 x206 + 1 x207 + 1 x208 + 1 x209 + 1 x210 + 1 x211 + 1 x212 + 1 x213 + 1 x214 + 1 x215 + 1 x216 + 1 x217 + 1 x218 + 1 x219 + 1 x220 + 1 x221 + 1 x222 + 1 x223 + 1 x224 + 1 x225 + 1 x226 + 1 x227 + 1 x228 + 1 x229 + 1 x230 + 1 x231 + 1 x232 + 1 x233 + 1 x234 + 1 x235 + 1 x236 + 1 x237 + 1 x238 + 1 x239 + 1 x240 + 1 x241 + 1 x242 + 1 x243 + 1 x244 + 1 x245 + 1 x246 + 1 x247 + 1 x248 + 1 x249 + 1 x250 + 1 x251 + 1 x252 + 1 x253 + 1 x254 + 1 x255 + 1 x256 + 1 x257 + 1 x258 + 1 x259 + 1 x260 + 1 x261 + 1 x262 + 1 x263 + 1 x264 + 1 x265 + 1 x266 + 1 x267 + 1 x268 + 1 x269 + 1 x270 + 1 x271 + 1 x272 + 1 x273 + 1 x274 + 1 x275 + 1 x276 + 1 x277 + 1 x278 + 1 x279 + 1 x280 + 1 x281 + 1 x282 + 1 x283 + 1 x284 + 1 x285 + 1 x286 + 1 x287 + 1 x288 + 1 x289 + 1 x290 + 1 x291 + 1 x292 + 1 x293 + 1 x294 + 1 x295 + 1 x296 + 1 x297 + 1 x298 + 1 x299 + 1 x300 + 1 x301 + 1 x302 + 1 x303 + 1 x304 + 1 x305 + 1 x306 + 1 x307 + 1 x308 + 1 x309 + 1 x310 + 1 x311 + 1 x312 + 1 x313 + 1 x314 + 1 x315 + 1 x316 + 1 x317 + 1 x318 + 1 x319 + 1 x320 + 1 x321 + 1 x322 + 1 x323 + 1 x324 + 1 x325 + 1 x326 + 1 x327 + 1 x328 + 1 x329 + 1 x330 + 1 x331 + 1 x332 + 1 x333 + 1 x334 + 1 x335 + 1 x336 + 1 x337 + 1 x338 + 1 x339 + 1 x340 + 1 x341 + 1 x342 + 1 x343 + 1 x344 + 1 x345 + 1 x346 + 1 x347 + 1 x348 + 1 x349 + 1 x350 + 1 x351 + 1 x352 + 1 x353 + 1 x354 + 1 x355 + 1 x356 + 1 x357 + 1 x358 + 1 x359 + 1 x360 + 1 x361 + 1 x362 + 1 x363 + 1 x364 + 1 x365 + 1 x366 + 1 x367 + 1 x368 + 1 x369 + 1 x370 + 1 x371 + 1 x372 + 1 x373 + 1 x374 + 1 x375 + 1 x376 + 1 x377 + 1 x378 + 1 x379 + 1 x380 + 1 x381 + 1 x382 + 1 x383 + 1 x384 + 1 x385 + 1 x386 + 1 x387 + 1 x388 + 1 x389 + 1 x390 + 1 x391 + 1 x392 + 1 x393 + 1 x394 + 1 x395 + 1 x396 + 1 x397 + 1 x398 + 1 x399 + 1 x400 + 1 x401 + 1 x402 + 1 x403 + 1 x404 + 1 x405 + 1 x406 + 1 x407 + 1 x408 + 1 x409 + 1 x410 + 1 x411 + 1 x412 + 1 x413 + 1 x414 + 1 x415 + 1 x416 + 1 x417 + 1 x418 + 1 x419 + 1 x420 + 1 x421 + 1 x422 + 1 x423 + 1 x424 + 1 x425 + 1 x426 + 1 x427 + 1 x428 + 1 x429 + 1 x430 + 1 x431 + 1 x432 + 1 x433 + 1 x434 + 1 x435 + 1 x436 + 1 x437 + 1 x438 + 1 x439 + 1 x440 + 1 x441 + 1 x442 + 1 x443 + 1 x444 + 1 x445 + 1 x446 + 1 x447 + 1 x448 + 1 x449 + 1 x450 + 1 x451 + 1 x452 + 1 x453 + 1 x454 + 1 x455 + 1 x456 + 1 x457 + 1 x458 + 1 x459 + 1 x460 + 1 x461 + 1 x462 + 1 x463 + 1 x464 + 1 x465 + 1 x466 + 1 x467 + 1 x468 + 1 x469 + 1 x470 + 1 x471 + 1 x472 + 1 x473 + 1 x474 + 1 x475 + 1 x476 + 1 x477 + 1 x478 + 1 x479 + 1 x480 + 1 x481 + 1 x482 + 1 x483 + 1 x484 + 1 x485 + 1 x486 + 1 x487 + 1 x488 + 1 x489 + 1 x490 + 1 x491 + 1 x492 + 1 x493 + 1 x494 + 1 x495 + 1 x496 + 1 x497 + 1 x498 + 1 x499 + 1 x500

subject to
C1: + x33 + x55 <= 1
C2: + x132 + x144 <= 1
C3: + x23 + x58 <= 1
C4: + x133 + x264 <= 1
C5: + x7 + x168 <= 1
C6: + x8 + x304 <= 1
C7: + x30 + x138 <= 1
C8: + x12 + x256 <= 1
C9: + x5 + x37 <= 1
C10: + x380 + x410 <= 1
C11: + x11 + x272 <= 1
C12: + x258 + x340 <= 1
C13: + x61 + x175 <= 1
C14: + x81 + x368 <= 1
C15: + x73 + x93 <= 1
C16: + x143 + x175 <= 1
C17: + x265 + x444 <= 1
C18: + x22 + x398 <= 1
C19: + x150 + x185 <= 1
C20: + x18 + x339 <= 1
C21: + x27 + x121 <= 1
C22: + x137 + x324 <= 1
C23: + x121 + x329 <= 1
C24: + x62 + x466 <= 1
C25: + x48 + x120 <= 1
C26: + x4 + x87 <= 1
C27: + x6 + x306 <= 1
C28: + x18 + x65 <= 1
C29: + x19 + x335 <= 1
C30: + x28 + x282 <= 1
C31: + x123 + x323 <= 1
C32: + x6 + x85 <= 1
C33: + x189 + x432 <= 1
C34: + x9 + x457 <= 1
C35: + x319 + x337 <= 1
C36: + x159 + x285 <= 1
C37: + x2 + x426 <= 1
C38: + x2 + x29 <= 1
C39: + x111 + x118 <= 1
C40: + x5 + x256 <= 1
C41: + x88 + x441 <= 1
C42: + x275 + x467 <= 1
C43: + x8 + x99 <= 1
C44: + x11 + x14 + x214 <= 1
C45: + x7 + x159 <= 1
C46: + x23 + x158 <= 1
C47: + x15 + x239 <= 1
C48: + x108 + x313 <= 1
C49: + x8 + x23 <= 1
C50: + x111 + x291 <= 1
C51: + x29 + x186 <= 1
C52: + x56 + x57 <= 1
C53: + x11 + x37 <= 1
C54: + x3 + x74 <= 1
C55: + x62 + x64 <= 1
C56: + x121 + x336 <= 1
C57: + x166 + x212 <= 1
C58: + x234 + x414 <= 1
C59: + x6 + x315 <= 1
C60: + x199 + x249 <= 1
C61: + x9 + x19 <= 1
C62: + x37 + x185 <= 1
C63: + x38 + x55 <= 1
C64: + x56 + x205 <= 1
C65: + x63 + x166 <= 1
C66: + x27 + x229 <= 1
C67: + x70 + x195 <= 1
C68: + x6 + x94 <= 1
C69: + x7 + x102 <= 1
C70: + x190 + x273 <= 1
C71: + x17 + x467 <= 1
C72: + x42 + x495 <= 1
C73: + x5 + x231 <= 1
C74: + x36 + x97 <= 1
C75: + x334 + x391 <= 1
C76: + x293 + x314 <= 1
C77: + x35 + x313 <= 1
C78: + x28 + x61 <= 1
C79: + x8 + x233 <= 1
C80: + x12 + x238 <= 1
C81: + x261 + x360 <= 1
C82: + x244 + x426 <= 1
C83: + x200 + x208 <= 1
C84: + x54 + x278 <= 1
C85: + x289 + x302 <= 1
C86: + x56 + x260 <= 1
C87: + x257 + x455 <= 1
C88: + x6 + x54 <= 1
C89: + x143 + x399 <= 1
C90: + x2 + x254 <= 1
C91: + x272 + x372 <= 1
C92: + x161 + x163 <= 1
C93: + x269 + x375 <= 1
C94: + x142 + x396 <= 1
C95: + x99 + x347 <= 1
C96: + x13 + x476 <= 1
C97: + x25 + x29 <= 1
C98: + x35 + x449 <= 1
C99: + x16 + x295 <= 1
C100: + x28 + x133 <= 1
C101: + x102 + x182 <= 1
C102: + x187 + x305 <= 1
C103: + x46 + x65 <= 1
C104: + x38 + x100 <= 1
C105: + x52 + x170 <= 1
C106: + x161 + x385 <= 1
C107: + x18 + x266 <= 1
C108: + x418 + x442 <= 1
C109: + x6 + x11 <= 1
C110: + x8 + x283 <= 1
C111: + x66 + x379 <= 1
C112: + x119 + x148 <= 1
C113: + x12 + x66 <= 1
C114: + x199 + x348 <= 1
C115: + x182 + x306 <= 1
C116: + x2 + x481 <= 1
C117: + x239 + x323 <= 1
C118: + x302 + x320 <= 1
C119: + x132 + x465 <= 1
C120: + x13 + x324 <= 1
C121: + x54 + x400 <= 1
C122: + x5 + x70 <= 1
C123: + x43 + x328 <= 1
C124: + x20 + x111 <= 1
C125: + x331 + x464 <= 1
C126: + x23 + x394 <= 1
C127: + x116 + x419 <= 1
C128: + x109 + x402 <= 1
C129: + x2 + x104 <= 1
C130: + x257 + x490 <= 1
C131: + x13 + x184 <= 1
C132: + x32 + x86 <= 1
C133: + x6 + x227 <= 1
C134: + x254 + x369 <= 1
C135: + x120 + x197 <= 1
C136: + x13 + x418 <= 1
C137: + x8 + x493 <= 1
C138: + x1 + x442 <= 1
C139: + x25 + x333 <= 1
C140: + x44 + x409 <= 1
C141: + x29 + x135 <= 1
C142: + x32 + x396 <= 1
C143: + x160 + x327 <= 1
C144: + x6 + x389 <= 1
C145: + x7 + x19 <= 1
C146: + x27 + x335 <= 1
C147: + x56 + x171 <= 1
C148: + x3 + x83 <= 1
C149: + x41 + x386 <= 1
C150: + x348 + x406 <= 1
C151: + x22 + x418 <= 1
C152: + x366 + x452 <= 1
C153: + x104 + x316 <= 1
C154: + x10 + x61 <= 1
C155: + x292 + x438 <= 1
C156: + x31 + x50 <= 1
C157: + x53 + x71 <= 1
C158: + x253 + x303 <= 1
C159: + x8 + x50 <= 1
C160: + x55 + x172 <= 1
C161: + x258 + x332 <= 1
C162: + x23 + x385 <= 1
C163: + x8 + x341 <= 1
C164: + x19 + x472 <= 1
C165: + x147 + x238 <= 1
C166: + x4 + x196 <= 1
C167: + x15 + x191 <= 1
C168: + x7 + x236 <= 1
C169: + x72 + x263 <= 1
C170: + x2 + x156 <= 1
C171: + x22 + x201 <= 1
C172: + x150 + x447 <= 1
C173: + x87 + x436 <= 1
C174: + x249 + x270 <= 1
C175: + x2 + x295 <= 1
C176: + x3 + x26 <= 1
C177: + x5 + x355 <= 1
C178: + x91 + x103 <= 1
C179: + x164 + x357 <= 1
C180: + x148 + x214 <= 1
C181: + x5 + x8 <= 1
C182: + x52 + x467 <= 1
C183: + x231 + x317 <= 1
C184: + x69 + x432 <= 1
C185: + x4 + x43 <= 1
C186: + x46 + x103 <= 1
C187: + x3 + x46 <= 1
C188: + x4 + x285 <= 1
C189: + x23 + x41 <= 1
C190: + x6 + x33 <= 1
C191: + x14 + x126 <= 1
C192: + x10 + x403 <= 1
C193: + x10 + x38 <= 1
C194: + x28 + x489 <= 1
C195: + x2 + x193 <= 1
C196: + x142 + x182 + x491 <= 1
C197: + x14 + x161 <= 1
C198: + x116 + x278 <= 1
C199: + x117 + x142 <= 1
C200: + x134 + x362 <= 1
C201: + x121 + x201 <= 1
C202: + x395 + x459 <= 1
C203: + x7 + x66 <= 1
C204: + x137 + x161 <= 1
C205: + x155 + x343 <= 1
C206: + x2 + x114 <= 1
C207: + x123 + x451 <= 1
C208: + x14 + x50 <= 1
C209: + x202 + x357 <= 1
C210: + x23 + x194 <= 1
C211: + x150 + x456 <= 1
C212: + x35 + x252 <= 1
C213: + x54 + x249 <= 1
C214: + x22 + x496 <= 1
C215: + x14 + x387 <= 1
C216: + x19 + x80 <= 1
C217: + x2 + x14 <= 1
C218: + x169 + x182 <= 1
C219: + x23 + x177 <= 1
C220: + x1 + x39 <= 1
C221: + x4 + x20 <= 1
C222: + x70 + x124 <= 1
C223: + x2 + x460 <= 1
C224: + x20 + x21 <= 1
C225: + x21 + x316 <= 1
C226: + x12 + x359 <= 1
C227: + x376 + x403 <= 1
C228: + x88 + x212 <= 1
C229: + x73 + x196 <= 1
C230: + x8 + x310 <= 1
C231: + x40 + x77 <= 1
C232: + x90 + x276 <= 1
C233: + x16 + x65 <= 1
C234: + x9 + x54 <= 1
C235: + x7 + x416 <= 1
C236: + x94 + x300 <= 1
C237: + x64 + x91 <= 1
C238: + x199 + x377 <= 1
C239: + x321 + x389 <= 1
C240: + x138 + x243 <= 1
C241: + x2 + x75 <= 1
C242: + x6 + x222 <= 1
C243: + x10 + x27 <= 1
C244: + x37 + x299 <= 1
C245: + x98 + x333 <= 1
C246: + x218 + x275 <= 1
C247: + x311 + x315 <= 1
C248: + x22 + x46 + x108 <= 1
C249: + x27 + x297 <= 1
C250: + x110 + x317 <= 1
C251: + x2 + x7 <= 1
C252: + x221 + x399 <= 1
C253: + x6 + x130 <= 1
C254: + x6 + x349 <= 1
C255: + x8 + x105 <= 1
C256: + x1 + x62 <= 1
C257: + x214 + x367 <= 1
C258: + x4 + x25 <= 1
C259: + x187 + x281 <= 1
C260: + x23 + x346 <= 1
C261: + x5 + x488 <= 1
C262: + x128 + x360 <= 1
C263: + x7 + x8 <= 1
C264: + x311 + x375 <= 1
C265: + x141 + x232 <= 1
C266: + x15 + x72 <= 1
C267: + x38 + x378 <= 1
C268: + x9 + x61 <= 1
C269: + x1 + x74 <= 1
C270: + x224 + x235 <= 1
C271: + x73 + x90 <= 1
C272: + x83 + x129 <= 1
C273: + x339 + x462 <= 1
C274: + x274 + x404 <= 1
C275: + x12 + x183 <= 1
C276: + x9 + x105 <= 1
C277: + x261 + x405 <= 1
C278: + x80 + x241 <= 1
C279: + x280 + x499 <= 1
C280: + x95 + x237 <= 1
C281: + x14 + x24 <= 1
C282: + x88 + x113 <= 1
C283: + x44 + x76 <= 1
C284: + x1 + x53 <= 1
C285: + x2 + x187 <= 1
C286: + x12 + x99 <= 1
C287: + x39 + x226 <= 1
C288: + x294 + x301 <= 1
C289: + x223 + x323 <= 1
C290: + x97 + x430 <= 1
C291: + x71 + x319 <= 1
C292: + x255 + x428 <= 1
C293: + x70 + x257 <= 1
C294: + x53 + x329 <= 1
C295: + x126 + x484 <= 1
C296: + x10 + x89 <= 1
C297: + x11 + x87 <= 1
C298: + x8 + x247 <= 1
C299: + x31 + x46 <= 1
C300: + x143 + x274 <= 1
C301: + x7 + x394 <= 1
C302: + x147 + x484 <= 1
C303: + x64 + x73 <= 1
C304: + x174 + x355 <= 1
C305: + x82 + x108 <= 1
C306: + x45 + x301 <= 1
C307: + x229 + x239 <= 1
C308: + x407 + x411 <= 1
C309: + x9 + x382 <= 1
C310: + x165 + x217 <= 1
C311: + x11 + x155 <= 1
C312: + x116 + x194 <= 1
C313: + x43 + x164 <= 1
C314: + x188 + x221 <= 1
C315: + x9 + x112 <= 1
C316: + x252 + x413 <= 1
C317: + x49 + x135 <= 1
C318: + x130 + x374 <= 1
C319: + x69 + x202 <= 1
C320: + x133 + x199 <= 1
C321: + x134 + x172 <= 1
C322: + x11 + x110 <= 1
C323: + x26 + x155 <= 1
C324: + x298 + x459 <= 1
C325: + x1 + x12 <= 1
C326: + x11 + x207 <= 1
C327: + x4 + x478 <= 1
C328: + x25 + x130 <= 1
C329: + x98 + x299 <= 1
C330: + x6 + x482 <= 1
C331: + x38 + x126 <= 1
C332: + x54 + x59 <= 1
C333: + x2 + x45 <= 1
C334: + x147 + x186 <= 1
C335: + x22 + x34 <= 1
C336: + x108 + x317 <= 1
C337: + x253 + x330 <= 1
C338: + x6 + x371 <= 1
C339: + x8 + x19 <= 1
C340: + x64 + x114 <= 1
C341: + x33 + x177 <= 1
C342: + x133 + x154 <= 1
C343: + x104 + x422 <= 1
C344: + x28 + x358 <= 1
C345: + x111 + x388 <= 1
C346: + x269 + x407 <= 1
C347: + x117 + x348 <= 1
C348: + x82 + x144 <= 1
C349: + x36 + x57 <= 1
C350: + x8 + x164 <= 1
C351: + x20 + x266 <= 1
C352: + x27 + x225 <= 1
C353: + x155 + x478 <= 1
C354: + x27 + x262 <= 1
C355: + x355 + x366 <= 1
C356: + x11 + x21 <= 1
C357: + x91 + x231 <= 1
C358: + x9 + x230 <= 1
C359: + x8 + x88 <= 1
C360: + x7 + x336 <= 1
C361: + x31 + x141 <= 1
C362: + x14 + x312 <= 1
C363: + x5 + x477 <= 1
C364: + x10 + x341 <= 1
C365: + x11 + x427 <= 1
C366: + x38 + x103 <= 1
C367: + x56 + x157 <= 1
C368: + x341 + x469 <= 1
C369: + x142 + x166 <= 1
C370: + x82 + x213 <= 1
C371: + x9 + x320 <= 1
C372: + x141 + x370 <= 1
C373: + x169 + x222 <= 1
C374: + x116 + x132 <= 1
C375: + x61 + x431 <= 1
C376: + x143 + x484 <= 1
C377: + x81 + x437 <= 1
C378: + x27 + x40 <= 1
C379: + x157 + x269 <= 1
C380: + x13 + x87 <= 1
C381: + x7 + x37 <= 1
C382: + x11 + x44 <= 1
C383: + x49 + x363 <= 1
C384: + x38 + x486 <= 1
C385: + x27 + x414 <= 1
C386: + x7 + x267 <= 1
C387: + x8 + x153 <= 1
C388: + x111 + x153 <= 1
C389: + x446 + x470 <= 1
C390: + x12 + x57 <= 1
C391: + x41 + x210 <= 1
C392: + x65 + x248 <= 1
C393: + x111 + x471 <= 1
C394: + x10 + x461 <= 1
C395: + x66 + x291 <= 1
C396: + x225 + x289 <= 1
C397: + x79 + x113 <= 1
C398: + x163 + x179 <= 1
C399: + x8 + x77 <= 1
C400: + x69 + x79 <= 1
C401: + x4 + x460 <= 1
C402: + x53 + x129 <= 1
C403: + x62 + x279 <= 1
C404: + x20 + x58 <= 1
C405: + x56 + x150 <= 1
C406: + x38 + x443 <= 1
C407: + x69 + x228 <= 1
C408: + x5 + x377 <= 1
C409: + x217 + x237 <= 1
C410: + x142 + x223 <= 1
C411: + x10 + x116 <= 1
C412: + x283 + x308 <= 1
C413: + x291 + x367 <= 1
C414: + x56 + x488 <= 1
C415: + x14 + x247 <= 1
C416: + x5 + x30 <= 1
C417: + x88 + x415 <= 1
C418: + x326 + x384 <= 1
C419: + x236 + x498 <= 1
C420: + x111 + x305 <= 1
C421: + x2 + x346 <= 1
C422: + x310 + x470 <= 1
C423: + x6 + x170 <= 1
C424: + x27 + x47 <= 1
C425: + x69 + x115 <= 1
C426: + x7 + x32 <= 1
C427: + x139 + x339 <= 1
C428: + x60 + x171 <= 1
C429: + x82 + x250 <= 1
C430: + x7 + x270 <= 1
C431: + x10 + x64 <= 1
C432: + x8 + x146 <= 1
C433: + x86 + x269 <= 1
C434: + x5 + x66 <= 1
C435: + x25 + x203 <= 1
C436: + x117 + x188 <= 1
C437: + x18 + x48 <= 1
C438: + x30 + x72 <= 1
C439: + x12 + x453 <= 1
C440: + x222 + x264 <= 1
C441: + x21 + x383 <= 1
C442: + x213 + x404 <= 1
C443: + x22 + x204 <= 1
C444: + x43 + x193 <= 1
C445: + x116 + x344 <= 1
C446: + x9 + x113 <= 1
C447: + x10 + x327 <= 1
C448: + x57 + x75 <= 1
C449: + x42 + x110 <= 1
C450: + x43 + x102 <= 1
C451: + x81 + x177 <= 1
C452: + x160 + x190 <= 1
C453: + x109 + x322 <= 1
C454: + x8 + x219 <= 1
C455: + x11 + x75 <= 1
C456: + x253 + x343 <= 1
C457: + x7 + x374 <= 1
C458: + x8 + x122 <= 1
C459: + x161 + x267 <= 1
C460: + x322 + x481 <= 1
C461: + x9 + x282 <= 1
C462: + x27 + x496 <= 1
C463: + x8 + x143 <= 1
C464: + x240 + x344 <= 1
C465: + x105 + x227 <= 1
C466: + x9 + x12 <= 1
C467: + x88 + x335 <= 1
C468: + x6 + x437 <= 1
C469: + x118 + x480 <= 1
C470: + x2 + x125 <= 1
C471: + x272 + x499 <= 1
C472: + x90 + x196 <= 1
C473: + x355 + x476 <= 1
C474: + x11 + x227 <= 1
C475: + x2 + x160 <= 1
C476: + x13 + x16 <= 1
C477: + x60 + x475 <= 1
C478: + x191 + x271 <= 1
C479: + x104 + x377 <= 1
C480: + x168 + x328 <= 1
C481: + x28 + x465 <= 1
C482: + x10 + x126 <= 1
C483: + x149 + x202 <= 1
C484: + x4 + x244 <= 1
C485: + x180 + x193 <= 1
C486: + x44 + x89 <= 1
C487: + x26 + x131 <= 1
C488: + x46 + x320 <= 1
C489: + x11 + x396 <= 1
C490: + x20 + x455 <= 1
C491: + x181 + x309 <= 1
C492: + x82 + x236 <= 1
C493: + x9 + x257 <= 1
C494: + x28 + x493 <= 1
C495: + x174 + x209 <= 1
C496: + x192 + x306 <= 1
C497: + x229 + x444 <= 1
C498: + x5 + x56 <= 1
C499: + x96 + x119 <= 1
C500: + x253 + x290 <= 1
C501: + x4 + x402 <= 1
C502: + x89 + x310 <= 1
C503: + x15 + x489 <= 1
C504: + x147 + x280 <= 1
C505: + x2 + x118 <= 1
C506: + x372 + x391 <= 1
C507: + x15 + x134 <= 1
C508: + x10 + x22 <= 1
C509: + x46 + x261 <= 1
C510: + x23 + x198 <= 1
C511: + x89 + x421 <= 1
C512: + x43 + x179 <= 1
C513: + x91 + x457 <= 1
C514: + x188 + x206 <= 1
C515: + x25 + x304 <= 1
C516: + x333 + x345 <= 1
C517: + x8 + x479 <= 1
C518: + x112 + x435 <= 1
C519: + x12 + x28 <= 1
C520: + x7 + x114 <= 1
C521: + x10 + x468 <= 1
C522: + x236 + x243 <= 1
C523: + x164 + x274 <= 1
C524: + x58 + x93 <= 1
C525: + x158 + x252 <= 1
C526: + x32 + x140 <= 1
C527: + x26 + x140 <= 1
C528: + x36 + x77 <= 1
C529: + x10 + x194 <= 1
C530: + x69 + x112 <= 1
C531: + x5 + x485 <= 1
C532: + x44 + x253 <= 1
C533: + x46 + x92 <= 1
C534: + x75 + x371 <= 1
C535: + x239 + x348 <= 1
C536: + x19 + x41 + x230 <= 1
C537: + x19 + x128 <= 1
C538: + x12 + x250 <= 1
C539: + x80 + x269 <= 1
C540: + x8 + x36 <= 1
C541: + x38 + x224 <= 1
C542: + x33 + x176 <= 1
C543: + x45 + x315 <= 1
C544: + x8 + x327 <= 1
C545: + x2 + x79 <= 1
C546: + x55 + x400 <= 1
C547: + x31 + x439 <= 1
C548: + x87 + x180 <= 1
C549: + x215 + x308 <= 1
C550: + x8 + x177 <= 1
C551: + x11 + x149 <= 1
C552: + x94 + x345 <= 1
C553: + x39 + x55 <= 1
C554: + x5 + x99 <= 1
C555: + x23 + x258 <= 1
C556: + x188 + x288 <= 1
C557: + x5 + x448 <= 1
C558: + x7 + x464 <= 1
C559: + x2 + x309 <= 1
C560: + x319 + x462 <= 1
C561: + x39 + x148 <= 1
C562: + x131 + x209 <= 1
C563: + x6 + x107 <= 1
C564: + x134 + x166 <= 1
C565: + x80 + x248 <= 1
C566: + x301 + x334 <= 1
C567: + x192 + x372 <= 1
C568: + x59 + x94 <= 1
C569: + x5 + x242 <= 1
C570: + x7 + x351 <= 1
C571: + x11 + x217 <= 1
C572: + x150 + x401 <= 1
C573: + x26 + x48 <= 1
C574: + x18 + x123 <= 1
C575: + x63 + x229 <= 1
C576: + x38 + x120 <= 1
C577: + x4 + x271 <= 1
C578: + x61 + x313 <= 1
C579: + x15 + x76 <= 1
C580: + x6 + x31 <= 1
C581: + x8 + x303 <= 1
C582: + x155 + x239 <= 1
C583: + x119 + x442 <= 1
C584: + x20 + x308 <= 1
C585: + x297 + x365 <= 1
C586: + x33 + x405 <= 1
C587: + x34 + x283 <= 1
C588: + x162 + x206 <= 1
C589: + x17 + x132 <= 1
C590: + x8 + x25 <= 1
C591: + x35 + x393 <= 1
C592: + x25 + x68 <= 1
C593: + x6 + x432 <= 1
C594: + x335 + x496 <= 1
C595: + x74 + x82 <= 1
C596: + x247 + x286 <= 1
C597: + x140 + x208 <= 1
C598: + x153 + x214 <= 1
C599: + x7 + x294 <= 1
C600: + x131 + x478 <= 1
C601: + x5 + x106 <= 1
C602: + x15 + x358 <= 1
C603: + x16 + x26 <= 1
C604: + x44 + x63 <= 1
C605: + x10 + x355 <= 1
C606: + x138 + x438 <= 1
C607: + x41 + x225 <= 1
C608: + x28 + x424 <= 1
C609: + x2 + x425 <= 1
C610: + x22 + x81 <= 1
C611: + x52 + x302 <= 1
C612: + x16 + x143 <= 1
C613: + x56 + x104 <= 1
C614: + x41 + x144 <= 1
C615: + x4 + x6 <= 1
C616: + x51 + x363 <= 1
C617: + x26 + x49 <= 1
C618: + x10 + x303 <= 1
C619: + x56 + x139 <= 1
C620: + x33 + x79 <= 1
C621: + x7 + x160 <= 1
C622: + x1 + x168 <= 1
C623: + x365 + x441 <= 1
C624: + x4 + x147 <= 1
C625: + x8 + x18 <= 1
C626: + x309 + x457 <= 1
C627: + x2 + x331 <= 1
C628: + x56 + x60 <= 1
C629: + x13 + x93 <= 1
C630: + x141 + x477 <= 1
C631: + x41 + x188 <= 1
C632: + x42 + x135 <= 1
C633: + x11 + x38 <= 1
C634: + x64 + x359 <= 1
C635: + x105 + x366 <= 1
C636: + x32 + x51 <= 1
C637: + x14 + x89 <= 1
C638: + x7 + x204 <= 1
C639: + x87 + x206 <= 1
C640: + x198 + x250 <= 1
C641: + x10 + x364 <= 1
C642: + x250 + x418 <= 1
C643: + x26 + x393 <= 1
C644: + x144 + x241 <= 1
C645: + x2 + x418 <= 1
C646: + x11 + x106 <= 1
C647: + x2 + x21 <= 1
C648: + x56 + x474 <= 1
C649: + x4 + x240 <= 1
C650: + x8 + x91 <= 1
C651: + x47 + x84 <= 1
C652: + x250 + x275 <= 1
C653: + x104 + x494 <= 1
C654: + x136 + x197 <= 1
C655: + x52 + x164 <= 1
C656: + x270 + x297 <= 1
C657: + x35 + x314 <= 1
C658: + x74 + x262 <= 1
C659: + x2 + x33 <= 1
C660: + x23 + x150 <= 1
C661: + x10 + x161 <= 1
C662: + x120 + x262 <= 1
C663: + x151 + x365 <= 1
C664: + x269 + x403 <= 1
C665: + x15 + x98 <= 1
C666: + x45 + x453 <= 1
C667: + x18 + x324 <= 1
C668: + x109 + x210 <= 1
C669: + x264 + x306 <= 1
C670: + x107 + x158 <= 1
C671: + x9 + x16 + x23 <= 1
C672: + x326 + x446 <= 1
C673: + x80 + x304 <= 1
C674: + x8 + x451 <= 1
C675: + x102 + x292 <= 1
C676: + x51 + x215 <= 1
C677: + x137 + x141 <= 1
C678: + x22 + x99 <= 1
C679: + x89 + x251 <= 1
C680: + x269 + x455 <= 1
C681: + x6 + x249 <= 1
C682: + x186 + x436 <= 1
C683: + x7 + x255 <= 1
C684: + x2 + x137 <= 1
C685: + x82 + x259 <= 1
C686: + x441 + x462 <= 1
C687: + x13 + x31 <= 1
C688: + x2 + x300 <= 1
C689: + x49 + x238 <= 1
C690: + x20 + x53 <= 1
C691: + x3 + x5 <= 1
C692: + x144 + x377 <= 1
C693: + x6 + x360 <= 1
C694: + x27 + x36 <= 1
C695: + x10 + x170 <= 1
C696: + x46 + x209 <= 1
C697: + x15 + x307 <= 1
C698: + x54 + x286 <= 1
C699: + x4 + x499 <= 1
C700: + x96 + x334 <= 1
C701: + x307 + x372 <= 1
C702: + x118 + x390 <= 1
C703: + x56 + x284 <= 1
C704: + x95 + x154 <= 1
C705: + x8 + x149 <= 1
C706: + x102 + x202 <= 1
C707: + x19 + x24 <= 1
C708: + x165 + x203 <= 1
C709: + x69 + x458 <= 1
C710: + x74 + x379 <= 1
C711: + x252 + x431 <= 1
C712: + x257 + x380 <= 1
C713: + x28 + x240 <= 1
C714: + x111 + x378 <= 1
C715: + x328 + x455 <= 1
C716: + x46 + x133 <= 1
C717: + x116 + x422 <= 1
C718: + x6 + x79 <= 1
C719: + x88 + x181 <= 1
C720: + x156 + x165 <= 1
C721: + x86 + x241 <= 1
C722: + x337 + x372 <= 1
C723: + x128 + x161 <= 1
C724: + x105 + x165 <= 1
C725: + x30 + x252 <= 1
C726: + x17 + x81 <= 1
C727: + x9 + x78 <= 1
C728: + x8 + x496 <= 1
C729: + x248 + x338 <= 1
C730: + x20 + x62 <= 1
C731: + x7 + x129 <= 1
C732: + x83 + x210 <= 1
C733: + x101 + x380 <= 1
C734: + x2 + x51 <= 1
C735: + x4 + x138 <= 1
C736: + x17 + x283 <= 1
C737: + x44 + x111 <= 1
C738: + x126 + x153 <= 1
C739: + x8 + x125 <= 1
C740: + x128 + x149 <= 1
C741: + x41 + x145 <= 1
C742: + x277 + x338 <= 1
C743: + x70 + x137 <= 1
C744: + x407 + x420 <= 1
C745: + x28 + x376 <= 1
C746: + x260 + x494 <= 1
C747: + x44 + x297 <= 1
C748: + x208 + x420 <= 1
C749: + x52 + x382 <= 1
C750: + x23 + x244 <= 1
C751: + x161 + x359 <= 1
C752: + x15 + x322 <= 1
C753: + x25 + x207 <= 1
C754: + x43 + x336 <= 1
C755: + x11 + x277 <= 1
C756: + x58 + x373 <= 1
C757: + x30 + x399 <= 1
C758: + x340 + x417 <= 1
C759: + x43 + x62 <= 1
C760: + x64 + x139 <= 1
C761: + x22 + x117 <= 1
C762: + x38 + x178 <= 1
C763: + x239 + x421 <= 1
C764: + x287 + x440 <= 1
C765: + x70 + x78 <= 1
C766: + x69 + x215 <= 1
C767: + x132 + x212 <= 1
C768: + x407 + x460 <= 1
C769: + x2 + x12 <= 1
C770: + x20 + x341 <= 1
C771: + x4 + x143 <= 1
C772: + x33 + x440 <= 1
C773: + x194 + x218 <= 1
C774: + x240 + x483 <= 1
C775: + x223 + x367 <= 1
C776: + x181 + x405 <= 1
C777: + x7 + x11 <= 1
C778: + x49 + x216 <= 1
C779: + x220 + x454 <= 1
C780: + x18 + x37 <= 1
C781: + x28 + x254 <= 1
C782: + x38 + x42 <= 1
C783: + x7 + x422 <= 1
C784: + x12 + x43 <= 1
C785: + x5 + x295 <= 1
C786: + x18 + x456 <= 1
C787: + x10 + x483 <= 1
C788: + x182 + x471 <= 1
C789: + x4 + x204 <= 1
C790: + x14 + x49 <= 1
C791: + x90 + x200 <= 1
C792: + x2 + x148 <= 1
C793: + x28 + x107 <= 1
C794: + x77 + x319 <= 1
C795: + x132 + x487 <= 1
C796: + x85 + x463 <= 1
C797: + x12 + x430 <= 1
C798: + x5 + x363 <= 1
C799: + x16 + x430 <= 1
C800: + x134 + x192 <= 1
C801: + x10 + x98 <= 1
C802: + x2 + x13 <= 1
C803: + x228 + x356 <= 1
C804: + x5 + x16 <= 1
C805: + x91 + x381 <= 1
C806: + x8 + x115 <= 1
C807: + x39 + x245 <= 1
C808: + x60 + x427 <= 1
C809: + x79 + x353 <= 1
C810: + x80 + x147 <= 1
C811: + x20 + x459 <= 1
C812: + x88 + x211 <= 1
C813: + x18 + x304 <= 1
C814: + x74 + x219 <= 1
C815: + x5 + x52 <= 1
C816: + x26 + x211 <= 1
C817: + x6 + x263 <= 1
C818: + x8 + x39 <= 1
C819: + x51 + x96 <= 1
C820: + x13 + x350 <= 1
C821: + x380 + x384 <= 1
C822: + x27 + x391 <= 1
C823: + x80 + x433 <= 1
C824: + x74 + x346 <= 1
C825: + x63 + x473 <= 1
C826: + x46 + x257 <= 1
C827: + x122 + x184 <= 1
C828: + x1 + x400 <= 1
C829: + x76 + x265 <= 1
C830: + x126 + x406 <= 1
C831: + x8 + x197 <= 1
C832: + x23 + x73 <= 1
C833: + x71 + x412 <= 1
C834: + x33 + x216 <= 1
C835: + x71 + x83 + x145 <= 1
C836: + x6 + x18 <= 1
C837: + x60 + x273 <= 1
C838: + x6 + x181 <= 1
C839: + x26 + x353 <= 1
C840: + x2 + x381 <= 1
C841: + x38 + x220 <= 1
C842: + x41 + x178 <= 1
C843: + x12 + x89 <= 1
C844: + x70 + x152 <= 1
C845: + x143 + x169 <= 1
C846: + x10 + x493 <= 1
C847: + x2 + x67 <= 1
C848: + x5 + x202 <= 1
C849: + x133 + x330 <= 1
C850: + x100 + x206 <= 1
C851: + x166 + x283 + x398 <= 1
C852: + x233 + x257 <= 1
C853: + x133 + x495 <= 1
C854: + x2 + x265 <= 1
C855: + x204 + x284 <= 1
C856: + x78 + x169 <= 1
C857: + x39 + x345 <= 1
C858: + x71 + x173 <= 1
C859: + x2 + x31 <= 1
C860: + x93 + x218 <= 1
C861: + x113 + x371 <= 1
C862: + x11 + x100 <= 1
C863: + x5 + x254 <= 1
C864: + x99 + x318 <= 1
C865: + x145 + x273 <= 1
C866: + x47 + x70 <= 1
C867: + x286 + x351 <= 1
C868: + x310 + x329 <= 1
C869: + x269 + x421 <= 1
C870: + x6 + x27 <= 1
C871: + x9 + x307 <= 1
C872: + x424 + x497 <= 1
C873: + x72 + x434 <= 1
C874: + x65 + x386 <= 1
C875: + x37 + x203 <= 1
C876: + x147 + x481 <= 1
C877: + x11 + x265 <= 1
C878: + x158 + x424 <= 1
C879: + x62 + x223 <= 1
C880: + x27 + x376 <= 1
C881: + x17 + x322 <= 1
C882: + x82 + x150 <= 1
C883: + x10 + x12 <= 1
C884: + x23 + x236 <= 1
C885: + x102 + x318 <= 1
C886: + x91 + x124 <= 1
C887: + x36 + x333 <= 1
C888: + x129 + x240 <= 1
C889: + x2 + x24 <= 1
C890: + x10 + x450 <= 1
C891: + x184 + x268 <= 1
C892: + x25 + x433 <= 1
C893: + x298 + x458 <= 1
C894: + x8 + x90 <= 1
C895: + x20 + x208 <= 1
C896: + x69 + x397 <= 1
C897: + x99 + x410 <= 1
C898: + x27 + x171 <= 1
C899: + x39 + x272 <= 1
C900: + x79 + x151 <= 1
C901: + x27 + x464 <= 1
C902: + x8 + x292 <= 1
C903: + x10 + x65 <= 1
C904: + x110 + x173 <= 1
C905: + x309 + x312 <= 1
C906: + x158 + x286 <= 1
C907: + x4 + x151 <= 1
C908: + x5 + x41 <= 1
C909: + x35 + x416 <= 1
C910: + x117 + x310 <= 1
C911: + x309 + x469 <= 1
C912: + x280 + x318 <= 1
C913: + x174 + x347 <= 1
C914: + x84 + x421 <= 1
C915: + x30 + x33 <= 1
C916: + x10 + x287 <= 1
C917: + x30 + x271 <= 1
C918: + x4 + x296 <= 1
C919: + x43 + x446 <= 1
C920: + x6 + x56 <= 1
C921: + x80 + x81 <= 1
C922: + x254 + x294 <= 1
C923: + x9 + x187 <= 1
C924: + x8 + x163 <= 1
C925: + x280 + x403 <= 1
C926: + x40 + x175 <= 1
C927: + x88 + x480 <= 1
C928: + x28 + x278 <= 1
C929: + x49 + x191 <= 1
C930: + x30 + x117 <= 1
C931: + x39 + x331 <= 1
C932: + x223 + x248 <= 1
C933: + x25 + x27 <= 1
C934: + x4 + x437 <= 1
C935: + x407 + x495 <= 1
C936: + x136 + x180 <= 1
C937: + x11 + x22 <= 1
C938: + x51 + x445 <= 1
C939: + x80 + x101 <= 1
C940: + x181 + x358 <= 1
C941: + x292 + x498 <= 1
C942: + x9 + x68 <= 1
C943: + x11 + x428 <= 1
C944: + x3 + x10 <= 1
C945: + x39 + x263 <= 1
C946: + x41 + x365 <= 1
C947: + x185 + x424 <= 1
C948: + x6 + x13 <= 1
C949: + x62 + x128 <= 1
C950: + x420 + x439 <= 1
C951: + x73 + x225 <= 1
C952: + x1 + x179 <= 1
C953: + x21 + x190 <= 1
C954: + x80 + x488 <= 1
C955: + x1 + x96 <= 1
C956: + x2 + x328 <= 1
C957: + x321 + x325 <= 1
C958: + x30 + x58 <= 1
C959: + x5 + x258 <= 1
C960: + x134 + x233 <= 1
C961: + x8 + x426 <= 1
C962: + x64 + x364 <= 1
C963: + x20 + x435 <= 1
C964: + x5 + x167 <= 1
C965: + x6 + x49 <= 1
C966: + x18 + x139 <= 1
C967: + x21 + x130 <= 1
C968: + x40 + x168 <= 1
C969: + x13 + x39 <= 1
C970: + x32 + x274 <= 1
C971: + x2 + x276 <= 1
C972: + x39 + x185 <= 1
C973: + x31 + x319 <= 1
C974: + x88 + x188 <= 1
C975: + x416 + x479 <= 1
C976: + x6 + x66 <= 1
C977: + x7 + x82 <= 1
C978: + x11 + x29 <= 1
C979: + x32 + x326 <= 1
C980: + x11 + x339 <= 1
C981: + x86 + x101 <= 1
C982: + x150 + x267 <= 1
C983: + x170 + x447 <= 1
C984: + x73 + x232 <= 1
C985: + x63 + x127 <= 1
C986: + x141 + x362 <= 1
C987: + x40 + x105 <= 1
C988: + x6 + x169 <= 1
C989: + x26 + x184 <= 1
C990: + x239 + x491 <= 1
C991: + x4 + x36 <= 1
C992: + x8 + x423 <= 1
C993: + x37 + x69 <= 1
C994: + x132 + x150 <= 1
C995: + x32 + x45 <= 1
C996: + x14 + x71 <= 1
C997: + x150 + x223 <= 1
C998: + x19 + x20 <= 1
C999: + x102 + x246 <= 1
C1000: + x50 + x472 <= 1
C1001: + x219 + x365 <= 1
C1002: + x85 + x497 <= 1
C1003: + x50 + x307 <= 1
C1004: + x81 + x134 <= 1
C1005: + x16 + x408 <= 1
C1006: + x2 + x440 <= 1
C1007: + x14 + x59 <= 1
C1008: + x83 + x392 <= 1
C1009: + x136 + x404 <= 1
C1010: + x43 + x373 <= 1
C1011: + x10 + x326 <= 1
C1012: + x66 + x97 <= 1
C1013: + x168 + x330 <= 1
C1014: + x6 + x127 <= 1
C1015: + x10 + x124 <= 1
C1016: + x155 + x207 <= 1
C1017: + x164 + x186 <= 1
C1018: + x5 + x6 <= 1
C1019: + x81 + x420 <= 1
C1020: + x118 + x248 <= 1
C1021: + x58 + x429 <= 1
C1022: + x29 + x132 <= 1
C1023: + x8 + x416 <= 1
C1024: + x64 + x195 <= 1
C1025: + x104 + x311 <= 1
C1026: + x23 + x43 <= 1
C1027: + x154 + x170 <= 1
C1028: + x10 + x40 <= 1
C1029: + x2 + x195 <= 1
C1030: + x28 + x94 <= 1
C1031: + x46 + x343 <= 1
C1032: + x116 + x276 <= 1
C1033: + x2 + x366 <= 1
C1034: + x49 + x164 <= 1
C1035: + x47 + x250 <= 1
C1036: + x332 + x452 <= 1
C1037: + x66 + x201 <= 1
C1038: + x221 + x354 <= 1
C1039: + x204 + x412 <= 1
C1040: + x154 + x297 <= 1
C1041: + x110 + x256 <= 1
C1042: + x84 + x117 <= 1
C1043: + x58 + x490 <= 1
C1044: + x71 + x275 <= 1
C1045: + x19 + x356 <= 1
C1046: + x28 + x309 <= 1
C1047: + x39 + x300 <= 1
C1048: + x33 + x111 <= 1
C1049: + x398 + x411 <= 1
C1050: + x8 + x264 <= 1
C1051: + x2 + x16 <= 1
C1052: + x68 + x128 <= 1
C1053: + x125 + x373 <= 1
C1054: + x6 + x155 <= 1
C1055: + x189 + x354 <= 1
C1056: + x9 + x200 <= 1
C1057: + x10 + x224 <= 1
C1058: + x222 + x325 <= 1
C1059: + x42 + x276 <= 1
C1060: + x97 + x414 <= 1
C1061: + x61 + x71 <= 1
C1062: + x240 + x495 <= 1
C1063: + x7 + x15 <= 1
C1064: + x14 + x121 <= 1
C1065: + x199 + x492 <= 1
C1066: + x7 + x172 <= 1
C1067: + x76 + x125 <= 1
C1068: + x5 + x49 <= 1
C1069: + x289 + x423 <= 1
C1070: + x19 + x167 <= 1
C1071: + x160 + x383 <= 1
C1072: + x6 + x445 <= 1
C1073: + x57 + x235 <= 1
C1074: + x55 + x438 <= 1
C1075: + x198 + x288 <= 1
C1076: + x8 + x187 <= 1
C1077: + x219 + x482 <= 1
C1078: + x148 + x369 <= 1
C1079: + x39 + x61 <= 1
C1080: + x41 + x87 <= 1
C1081: + x200 + x282 <= 1
C1082: + x204 + x219 <= 1
C1083: + x187 + x428 <= 1
C1084: + x8 + x204 <= 1
C1085: + x1 + x60 <= 1
C1086: + x131 + x285 <= 1
C1087: + x71 + x194 <= 1
C1088: + x20 + x28 <= 1
C1089: + x91 + x191 <= 1
C1090: + x148 + x174 <= 1
C1091: + x117 + x146 <= 1
C1092: + x145 + x467 <= 1
C1093: + x83 + x482 <= 1
C1094: + x7 + x62 <= 1
C1095: + x185 + x476 <= 1
C1096: + x50 + x76 <= 1
C1097: + x178 + x415 <= 1
C1098: + x189 + x292 <= 1
C1099: + x90 + x205 <= 1
C1100: + x9 + x138 <= 1
C1101: + x18 + x352 <= 1
C1102: + x274 + x313 <= 1
C1103: + x250 + x316 <= 1
C1104: + x56 + x86 <= 1
C1105: + x69 + x471 <= 1
C1106: + x4 + x84 <= 1
C1107: + x53 + x102 <= 1
C1108: + x16 + x20 <= 1
C1109: + x19 + x342 <= 1
C1110: + x479 + x500 <= 1
C1111: + x191 + x314 <= 1
C1112: + x4 + x326 <= 1
C1113: + x43 + x96 <= 1
C1114: + x232 + x234 <= 1
C1115: + x359 + x431 <= 1
C1116: + x54 + x112 <= 1
C1117: + x46 + x398 <= 1
C1118: + x257 + x272 <= 1
C1119: + x77 + x129 <= 1
C1120: + x13 + x142 <= 1
C1121: + x32 + x116 <= 1
C1122: + x51 + x400 <= 1
C1123: + x21 + x345 <= 1
C1124: + x211 + x370 <= 1
C1125: + x283 + x426 <= 1
C1126: + x168 + x468 <= 1
C1127: + x80 + x360 <= 1
C1128: + x58 + x291 <= 1
C1129: + x99 + x101 <= 1
C1130: + x74 + x200 <= 1
C1131: + x10 + x91 <= 1
C1132: + x43 + x293 <= 1
C1133: + x45 + x142 <= 1
C1134: + x8 + x28 <= 1
C1135: + x131 + x300 <= 1
C1136: + x70 + x148 <= 1
C1137: + x108 + x481 <= 1
C1138: + x7 + x53 <= 1
C1139: + x190 + x322 <= 1
C1140: + x37 + x45 <= 1
C1141: + x426 + x454 <= 1
C1142: + x152 + x167 <= 1
C1143: + x19 + x44 <= 1
C1144: + x2 + x226 <= 1
C1145: + x40 + x181 <= 1
C1146: + x76 + x262 <= 1
C1147: + x6 + x83 <= 1
C1148: + x137 + x160 <= 1
C1149: + x182 + x489 <= 1
C1150: + x241 + x247 <= 1
C1151: + x4 + x234 <= 1
C1152: + x117 + x359 <= 1
C1153: + x35 + x122 <= 1
C1154: + x9 + x253 <= 1
C1155: + x285 + x429 <= 1
C1156: + x51 + x181 <= 1
C1157: + x61 + x84 <= 1
C1158: + x26 + x56 <= 1
C1159: + x28 + x344 <= 1
C1160: + x138 + x353 <= 1
C1161: + x129 + x156 <= 1
C1162: + x314 + x325 <= 1
C1163: + x115 + x474 <= 1
C1164: + x6 + x7 <= 1
C1165: + x2 + x47 <= 1
C1166: + x428 + x445 <= 1
C1167: + x213 + x492 <= 1
C1168: + x35 + x385 <= 1
C1169: + x63 + x384 <= 1
C1170: + x2 + x330 <= 1
C1171: + x56 + x59 <= 1
C1172: + x74 + x90 <= 1
C1173: + x104 + x271 <= 1
C1174: + x8 + x162 <= 1
C1175: + x452 + x469 <= 1
C1176: + x179 + x261 <= 1
C1177: + x90 + x301 <= 1
C1178: + x89 + x443 <= 1
C1179: + x306 + x450 <= 1
C1180: + x23 + x273 <= 1
C1181: + x5 + x324 <= 1
C1182: + x58 + x119 <= 1
C1183: + x204 + x500 <= 1
C1184: + x41 + x120 <= 1
C1185: + x6 + x493 <= 1
C1186: + x80 + x374 <= 1
C1187: + x399 + x424 <= 1
C1188: + x11 + x429 <= 1
C1189: + x204 + x321 <= 1
C1190: + x69 + x251 <= 1
C1191: + x61 + x208 <= 1
C1192: + x137 + x243 <= 1
C1193: + x2 + x40 <= 1
C1194: + x4 + x155 <= 1
C1195: + x5 + x21 <= 1
C1196: + x9 + x48 <= 1
C1197: + x10 + x168 <= 1
C1198: + x309 + x465 <= 1
C1199: + x125 + x127 <= 1
C1200: + x26 + x69 <= 1
C1201: + x36 + x270 <= 1
C1202: + x66 + x174 <= 1
C1203: + x138 + x342 <= 1
C1204: + x3 + x95 <= 1
C1205: + x359 + x449 <= 1
C1206: + x6 + x52 <= 1
C1207: + x19 + x30 <= 1
C1208: + x11 + x143 <= 1
C1209: + x54 + x389 <= 1
C1210: + x14 + x383 <= 1
C1211: + x43 + x152 <= 1
C1212: + x66 + x95 <= 1
C1213: + x34 + x118 <= 1
C1214: + x54 + x123 <= 1
C1215: + x11 + x18 <= 1
C1216: + x90 + x244 <= 1
C1217: + x35 + x479 <= 1
C1218: + x36 + x108 <= 1
C1219: + x152 + x312 <= 1
C1220: + x4 + x115 <= 1
C1221: + x40 + x159 <= 1
C1222: + x78 + x413 <= 1
C1223: + x44 + x220 <= 1
C1224: + x150 + x427 <= 1
C1225: + x254 + x473 <= 1
C1226: + x75 + x408 <= 1
C1227: + x311 + x349 <= 1
C1228: + x3 + x6 <= 1
C1229: + x251 + x340 <= 1
C1230: + x14 + x406 <= 1
C1231: + x178 + x463 <= 1
C1232: + x16 + x338 <= 1
C1233: + x6 + x9 <= 1
C1234: + x2 + x57 <= 1
C1235: + x38 + x288 <= 1
C1236: + x12 + x229 <= 1
C1237: + x53 + x54 <= 1
C1238: + x9 + x215 <= 1
C1239: + x83 + x454 <= 1
C1240: + x319 + x419 <= 1
C1241: + x322 + x335 <= 1
C1242: + x130 + x399 <= 1
C1243: + x33 + x264 <= 1
C1244: + x4 + x63 <= 1
C1245: + x40 + x282 <= 1
C1246: + x15 + x461 <= 1
C1247: + x23 + x436 <= 1
C1248: + x54 + x192 <= 1
C1249: + x2 + x487 <= 1
C1250: + x23 + x29 <= 1
C1251: + x14 + x74 <= 1
C1252: + x7 + x187 <= 1
C1253: + x28 + x68 <= 1
C1254: + x8 + x152 <= 1
C1255: + x26 + x255 <= 1
C1256: + x73 + x451 <= 1
C1257: + x66 + x88 <= 1
C1258: + x29 + x94 <= 1
C1259: + x81 + x131 <= 1
C1260: + x7 + x86 <= 1
C1261: + x25 + x387 <= 1
C1262: + x92 + x96 <= 1
C1263: + x37 + x320 <= 1
C1264: + x30 + x251 <= 1
C1265: + x235 + x352 <= 1
C1266: + x299 + x361 <= 1
C1267: + x319 + x475 <= 1
C1268: + x40 + x386 <= 1
C1269: + x5 + x358 <= 1
C1270: + x164 + x354 <= 1
C1271: + x219 + x388 <= 1
C1272: + x2 + x50 <= 1
C1273: + x23 + x165 <= 1
C1274: + x161 + x231 <= 1
C1275: + x131 + x272 <= 1
C1276: + x28 + x375 <= 1
C1277: + x248 + x357 <= 1
C1278: + x106 + x348 <= 1
C1279: + x14 + x67 <= 1
C1280: + x6 + x38 <= 1
C1281: + x172 + x383 <= 1
C1282: + x18 + x317 <= 1
C1283: + x37 + x371 <= 1
C1284: + x18 + x35 <= 1
C1285: + x254 + x407 <= 1
C1286: + x104 + x395 <= 1
C1287: + x318 + x357 <= 1
C1288: + x28 + x387 <= 1
C1289: + x2 + x127 <= 1
C1290: + x51 + x427 <= 1
C1291: + x23 + x100 <= 1
C1292: + x6 + x234 <= 1
C1293: + x317 + x490 <= 1
C1294: + x2 + x293 <= 1
C1295: + x475 + x490 <= 1
C1296: + x122 + x443 <= 1
C1297: + x112 + x428 <= 1
C1298: + x144 + x147 <= 1
C1299: + x19 + x394 <= 1
C1300: + x2 + x11 <= 1
C1301: + x132 + x370 <= 1
C1302: + x69 + x373 <= 1
C1303: + x14 + x235 <= 1
C1304: + x125 + x378 <= 1
C1305: + x21 + x45 <= 1
C1306: + x28 + x336 <= 1
C1307: + x12 + x356 <= 1
C1308: + x4 + x287 <= 1
C1309: + x89 + x133 <= 1
C1310: + x6 + x47 <= 1
C1311: + x79 + x188 <= 1
C1312: + x10 + x44 <= 1
C1313: + x28 + x82 <= 1
C1314: + x8 + x134 <= 1
C1315: + x2 + x199 <= 1
C1316: + x234 + x384 <= 1
C1317: + x117 + x144 <= 1
C1318: + x19 + x172 <= 1
C1319: + x8 + x41 <= 1
C1320: + x374 + x444 <= 1
C1321: + x23 + x123 <= 1
C1322: + x35 + x492 <= 1
C1323: + x260 + x386 <= 1
C1324: + x27 + x106 <= 1
C1325: + x10 + x24 <= 1
C1326: + x56 + x68 <= 1
C1327: + x21 + x232 <= 1
C1328: + x277 + x285 <= 1
C1329: + x89 + x110 <= 1
C1330: + x338 + x347 <= 1
C1331: + x111 + x341 <= 1
C1332: + x94 + x485 <= 1
C1333: + x96 + x299 <= 1
C1334: + x80 + x237 <= 1
C1335: + x101 + x363 <= 1
C1336: + x112 + x280 <= 1
C1337: + x41 + x483 <= 1
C1338: + x5 + x9 <= 1
C1339: + x23 + x183 <= 1
C1340: + x51 + x410 <= 1
C1341: + x102 + x147 <= 1
C1342: + x4 + x22 <= 1
C1343: + x13 + x390 <= 1
C1344: + x116 + x368 <= 1
C1345: + x207 + x226 <= 1
C1346: + x71 + x195 <= 1
C1347: + x27 + x351 <= 1
C1348: + x8 + x401 <= 1
C1349: + x9 + x425 <= 1
C1350: + x3 + x35 <= 1
C1351: + x348 + x486 <= 1
C1352: + x67 + x314 <= 1
C1353: + x23 + x34 <= 1
C1354: + x483 + x484 <= 1
C1355: + x119 + x417 <= 1
C1356: + x8 + x131 <= 1
C1357: + x2 + x224 <= 1
C1358: + x148 + x169 <= 1
C1359: + x39 + x69 <= 1
C1360: + x188 + x245 <= 1
C1361: + x8 + x34 <= 1
C1362: + x122 + x198 <= 1
C1363: + x61 + x151 <= 1
C1364: + x26 + x109 <= 1
C1365: + x7 + x63 <= 1
C1366: + x10 + x491 <= 1
C1367: + x54 + x95 <= 1
C1368: + x46 + x477 <= 1
C1369: + x129 + x199 <= 1
C1370: + x2 + x73 <= 1
C1371: + x261 + x281 <= 1
C1372: + x190 + x431 <= 1
C1373: + x18 + x174 <= 1
C1374: + x67 + x476 <= 1
C1375: + x112 + x176 <= 1
C1376: + x14 + x343 <= 1
C1377: + x17 + x71 <= 1
C1378: + x9 + x100 <= 1
C1379: + x11 + x332 <= 1
C1380: + x131 + x362 <= 1
C1381: + x251 + x376 <= 1
C1382: + x6 + x109 <= 1
C1383: + x19 + x69 <= 1
C1384: + x2 + x5 <= 1
C1385: + x220 + x263 <= 1
C1386: + x23 + x74 <= 1
C1387: + x244 + x397 <= 1
C1388: + x461 + x498 <= 1
C1389: + x18 + x218 <= 1
C1390: + x46 + x308 <= 1
C1391: + x21 + x51 <= 1
C1392: + x16 + x475 <= 1
C1393: + x4 + x269 <= 1
C1394: + x69 + x138 <= 1
C1395: + x10 + x86 <= 1
C1396: + x17 + x130 <= 1
C1397: + x80 + x268 <= 1
C1398: + x7 + x405 <= 1
C1399: + x147 + x487 <= 1
C1400: + x240 + x456 <= 1
C1401: + x114 + x429 <= 1
C1402: + x18 + x433 <= 1
C1403: + x136 + x137 <= 1
C1404: + x350 + x423 <= 1
C1405: + x14 + x34 <= 1
C1406: + x269 + x483 <= 1
C1407: + x80 + x441 <= 1
C1408: + x20 + x254 <= 1
C1409: + x13 + x59 <= 1
C1410: + x29 + x118 <= 1
C1411: + x39 + x346 <= 1
C1412: + x43 + x92 <= 1
C1413: + x199 + x302 <= 1
C1414: + x9 + x456 <= 1
C1415: + x168 + x216 <= 1
C1416: + x140 + x485 <= 1
C1417: + x314 + x485 <= 1
C1418: + x73 + x407 <= 1
C1419: + x400 + x470 <= 1
C1420: + x392 + x409 <= 1
C1421: + x359 + x415 <= 1
C1422: + x6 + x26 <= 1
C1423: + x7 + x154 <= 1
C1424: + x2 + x42 <= 1
C1425: + x43 + x289 <= 1
C1426: + x198 + x381 <= 1
C1427: + x134 + x323 <= 1
C1428: + x281 + x342 <= 1
C1429: + x185 + x213 <= 1
C1430: + x195 + x232 <= 1
C1431: + x8 + x443 <= 1
C1432: + x66 + x216 <= 1
C1433: + x55 + x412 <= 1
C1434: + x221 + x331 <= 1
C1435: + x60 + x154 <= 1
C1436: + x70 + x307 <= 1
C1437: + x10 + x11 <= 1
C1438: + x111 + x141 <= 1
C1439: + x41 + x73 <= 1
C1440: + x4 + x93 <= 1
C1441: + x25 + x259 <= 1
C1442: + x116 + x311 <= 1
C1443: + x12 + x162 <= 1
C1444: + x161 + x171 <= 1
C1445: + x8 + x460 <= 1
C1446: + x88 + x450 <= 1
C1447: + x12 + x13 <= 1
C1448: + x39 + x337 <= 1
C1449: + x9 + x463 <= 1
C1450: + x338 + x489 <= 1
C1451: + x150 + x151 <= 1
C1452: + x5 + x230 <= 1
C1453: + x6 + x242 <= 1
C1454: + x82 + x268 <= 1
C1455: + x10 + x247 <= 1
C1456: + x32 + x101 <= 1
C1457: + x1 + x14 <= 1
C1458: + x305 + x349 <= 1
C1459: + x78 + x487 <= 1
C1460: + x22 + x362 <= 1
C1461: + x18 + x119 <= 1
C1462: + x73 + x414 <= 1
C1463: + x45 + x242 <= 1
C1464: + x20 + x25 + x277 <= 1
C1465: + x359 + x402 <= 1
C1466: + x10 + x72 <= 1
C1467: + x1 + x189 <= 1
C1468: + x126 + x137 <= 1
C1469: + x6 + x369 <= 1
C1470: + x8 + x13 <= 1
C1471: + x147 + x473 <= 1
C1472: + x121 + x231 <= 1
C1473: + x4 + x53 <= 1
C1474: + x199 + x356 <= 1
C1475: + x292 + x298 <= 1
C1476: + x185 + x494 <= 1
C1477: + x4 + x295 <= 1
C1478: + x423 + x471 <= 1
C1479: + x7 + x205 <= 1
C1480: + x2 + x255 <= 1
C1481: + x240 + x315 <= 1
C1482: + x161 + x162 <= 1
C1483: + x23 + x277 <= 1
C1484: + x14 + x183 <= 1
C1485: + x126 + x221 <= 1
C1486: + x254 + x392 <= 1
C1487: + x66 + x90 <= 1
C1488: + x37 + x167 <= 1
C1489: + x27 + x260 <= 1
C1490: + x10 + x458 <= 1
C1491: + x111 + x462 <= 1
C1492: + x75 + x211 <= 1
C1493: + x95 + x221 <= 1
C1494: + x41 + x479 <= 1
C1495: + x116 + x122 <= 1
C1496: + x80 + x104 <= 1
C1497: + x62 + x441 <= 1
C1498: + x1 + x5 <= 1
C1499: + x94 + x413 <= 1
C1500: + x76 + x178 <= 1
C1501: + x81 + x197 <= 1
C1502: + x7 + x140 <= 1
C1503: + x117 + x409 <= 1
C1504: + x27 + x472 <= 1
C1505: + x15 + x95 <= 1
C1506: + x12 + x228 <= 1
C1507: + x39 + x97 <= 1
C1508: + x4 + x159 <= 1
C1509: + x15 + x252 <= 1
C1510: + x17 + x290 <= 1
C1511: + x95 + x265 <= 1
C1512: + x154 + x353 <= 1
C1513: + x391 + x408 <= 1
C1514: + x22 + x140 <= 1
C1515: + x5 + x259 <= 1
C1516: + x11 + x42 <= 1
C1517: + x2 + x85 <= 1
C1518: + x6 + x302 <= 1
C1519: + x27 + x234 <= 1
C1520: + x41 + x212 <= 1
C1521: + x151 + x190 <= 1
C1522: + x127 + x319 <= 1
C1523: + x19 + x480 <= 1
C1524: + x129 + x292 <= 1
C1525: + x11 + x30 <= 1
C1526: + x97 + x163 <= 1
C1527: + x188 + x407 <= 1
C1528: + x80 + x109 <= 1
C1529: + x16 + x156 <= 1
C1530: + x165 + x189 <= 1
C1531: + x56 + x113 <= 1
C1532: + x116 + x337 <= 1
C1533: + x56 + x152 <= 1
C1534: + x78 + x135 <= 1
C1535: + x169 + x298 <= 1
C1536: + x98 + x390 <= 1
C1537: + x31 + x492 <= 1
C1538: + x135 + x409 <= 1
C1539: + x20 + x334 <= 1
C1540: + x112 + x261 <= 1
C1541: + x4 + x136 <= 1
C1542: + x5 + x32 <= 1
C1543: + x223 + x453 <= 1
C1544: + x6 + x390 <= 1
C1545: + x14 + x70 <= 1
C1546: + x288 + x379 <= 1
C1547: + x39 + x88 <= 1
C1548: + x4 + x180 <= 1
C1549: + x12 + x213 <= 1
C1550: + x116 + x270 <= 1
C1551: + x70 + x449 <= 1
C1552: + x8 + x55 <= 1
C1553: + x11 + x279 <= 1
C1554: + x248 + x281 <= 1
C1555: + x56 + x217 <= 1
C1556: + x58 + x375 <= 1
C1557: + x77 + x439 <= 1
C1558: + x142 + x226 <= 1
C1559: + x199 + x266 <= 1
C1560: + x54 + x80 <= 1
C1561: + x226 + x246 <= 1
C1562: + x20 + x391 <= 1
C1563: + x18 + x364 <= 1
C1564: + x41 + x106 <= 1
C1565: + x4 + x128 <= 1
C1566: + x10 + x325 <= 1
C1567: + x6 + x145 <= 1
C1568: + x6 + x364 <= 1
C1569: + x27 + x56 <= 1
C1570: + x8 + x124 <= 1
C1571: + x28 + x176 <= 1
C1572: + x71 + x213 <= 1
C1573: + x63 + x242 <= 1
C1574: + x28 + x331 <= 1
C1575: + x120 + x438 <= 1
C1576: + x327 + x410 <= 1
C1577: + x376 + x411 <= 1
C1578: + x27 + x494 <= 1
C1579: + x266 + x397 <= 1
C1580: + x70 + x458 <= 1
C1581: + x6 + x288 <= 1
C1582: + x9 + x14 <= 1
C1583: + x8 + x48 <= 1
C1584: + x19 + x173 <= 1
C1585: + x41 + x279 <= 1
C1586: + x44 + x189 <= 1
C1587: + x174 + x412 <= 1
C1588: + x118 + x369 <= 1
C1589: + x27 + x107 <= 1
C1590: + x8 + x189 <= 1
C1591: + x109 + x241 <= 1
C1592: + x49 + x52 <= 1
C1593: + x381 + x449 <= 1
C1594: + x59 + x245 <= 1
C1595: + x43 + x107 <= 1
C1596: + x6 + x103 <= 1
C1597: + x5 + x361 <= 1
C1598: + x98 + x408 <= 1
C1599: + x10 + x425 <= 1
C1600: + x373 + x469 <= 1
C1601: + x2 + x15 <= 1
C1602: + x12 + x279 <= 1
C1603: + x4 + x246 <= 1
C1604: + x297 + x309 <= 1
C1605: + x10 + x223 <= 1
C1606: + x194 + x221 <= 1
C1607: + x341 + x440 <= 1
C1608: + x74 + x368 <= 1
C1609: + x21 + x160 <= 1
C1610: + x80 + x258 <= 1
C1611: + x18 + x32 <= 1
C1612: + x74 + x459 <= 1
C1613: + x41 + x201 <= 1
C1614: + x68 + x157 <= 1
C1615: + x22 + x294 <= 1
C1616: + x252 + x287 <= 1
C1617: + x89 + x312 <= 1
C1618: + x199 + x380 <= 1
C1619: + x80 + x165 <= 1
C1620: + x263 + x397 <= 1
C1621: + x203 + x260 <= 1
C1622: + x22 + x121 <= 1
C1623: + x43 + x451 <= 1
C1624: + x69 + x332 <= 1
C1625: + x87 + x191 <= 1
C1626: + x17 + x338 <= 1
C1627: + x1 + x225 <= 1
C1628: + x111 + x256 <= 1
C1629: + x4 + x110 <= 1
C1630: + x18 + x76 <= 1
C1631: + x103 + x406 <= 1
C1632: + x69 + x219 <= 1
C1633: + x6 + x112 <= 1
C1634: + x200 + x448 <= 1
C1635: + x8 + x203 <= 1
C1636: + x93 + x193 <= 1
C1637: + x168 + x222 <= 1
C1638: + x25 + x417 <= 1
C1639: + x145 + x296 <= 1
C1640: + x74 + x392 <= 1
C1641: + x4 + x5 + x7 <= 1
C1642: + x70 + x102 <= 1
C1643: + x6 + x497 <= 1
C1644: + x101 + x486 <= 1
C1645: + x224 + x347 <= 1
C1646: + x44 + x286 <= 1
C1647: + x18 + x291 <= 1
C1648: + x164 + x352 <= 1
C1649: + x110 + x370 <= 1
C1650: + x272 + x350 <= 1
C1651: + x76 + x117 <= 1
C1652: + x36 + x393 <= 1
C1653: + x280 + x463 <= 1
C1654: + x174 + x200 <= 1
C1655: + x233 + x339 <= 1
C1656: + x104 + x139 <= 1
C1657: + x9 + x60 <= 1
C1658: + x137 + x497 <= 1
C1659: + x90 + x163 <= 1
C1660: + x214 + x239 <= 1
C1661: + x168 + x260 <= 1
C1662: + x35 + x158 <= 1
C1663: + x74 + x175 <= 1
C1664: + x93 + x351 <= 1
C1665: + x19 + x452 <= 1
C1666: + x69 + x179 <= 1
C1667: + x188 + x435 <= 1
C1668: + x18 + x162 <= 1
C1669: + x56 + x85 <= 1
C1670: + x185 + x186 <= 1
C1671: + x4 + x83 <= 1
C1672: + x21 + x235 <= 1
C1673: + x277 + x296 <= 1
C1674: + x235 + x437 <= 1
C1675: + x6 + x310 <= 1
C1676: + x8 + x466 <= 1
C1677: + x2 + x6 + x8 + x10 + x17 <= 1
C1678: + x222 + x293 <= 1
C1679: + x12 + x19 <= 1
C1680: + x436 + x480 <= 1
C1681: + x14 + x25 <= 1
C1682: + x35 + x435 <= 1
C1683: + x6 + x327 <= 1
C1684: + x4 + x31 <= 1
C1685: + x4 + x470 <= 1
C1686: + x141 + x500 <= 1
C1687: + x119 + x275 <= 1
C1688: + x11 + x444 <= 1
C1689: + x94 + x121 <= 1
C1690: + x63 + x72 <= 1
C1691: + x301 + x388 <= 1
C1692: + x5 + x40 <= 1
C1693: + x6 + x192 <= 1
C1694: + x17 + x305 <= 1
C1695: + x9 + x35 <= 1
C1696: + x186 + x198 <= 1
C1697: + x25 + x70 <= 1
C1698: + x26 + x122 <= 1
C1699: + x83 + x123 <= 1
C1700: + x348 + x395 <= 1
C1701: + x41 + x425 <= 1
C1702: + x42 + x63 <= 1
C1703: + x269 + x415 <= 1
C1704: + x18 + x344 <= 1
C1705: + x7 + x284 <= 1
C1706: + x308 + x321 <= 1
C1707: + x115 + x404 <= 1
C1708: + x129 + x420 <= 1
C1709: + x14 + x332 <= 1
C1710: + x324 + x422 <= 1
C1711: + x16 + x28 <= 1
C1712: + x399 + x402 <= 1
C1713: + x25 + x245 <= 1
C1714: + x30 + x126 <= 1
C1715: + x6 + x82 <= 1
C1716: + x7 + x98 <= 1
C1717: + x10 + x452 <= 1
C1718: + x406 + x482 <= 1
C1719: + x74 + x132 <= 1
C1720: + x147 + x316 <= 1
C1721: + x2 + x18 <= 1
C1722: + x55 + x465 <= 1
C1723: + x160 + x289 <= 1
C1724: + x80 + x368 <= 1
C1725: + x8 + x387 <= 1
C1726: + x74 + x109 <= 1
C1727: + x85 + x91 <= 1
C1728: + x7 + x158 <= 1
C1729: + x2 + x46 <= 1
C1730: + x11 + x81 <= 1
C1731: + x192 + x303 <= 1
C1732: + x32 + x176 <= 1
C1733: + x119 + x133 <= 1
C1734: + x64 + x119 <= 1
C1735: + x2 + x329 <= 1
C1736: + x158 + x419 <= 1
C1737: + x51 + x349 <= 1
C1738: + x4 + x52 <= 1
C1739: + x70 + x156 <= 1
C1740: + x115 + x298 <= 1
C1741: + x23 + x423 <= 1
C1742: + x164 + x475 <= 1
C1743: + x119 + x290 <= 1
C1744: + x8 + x439 <= 1
C1745: + x4 + x294 <= 1
C1746: + x280 + x401 <= 1
C1747: + x19 + x36 <= 1
C1748: + x6 + x296 <= 1
C1749: + x7 + x448 <= 1
C1750: + x170 + x396 <= 1
C1751: + x116 + x474 <= 1
C1752: + x161 + x433 <= 1
C1753: + x28 + x447 <= 1
C1754: + x199 + x281 <= 1
C1755: + x38 + x290 <= 1
C1756: + x117 + x367 <= 1
C1757: + x8 + x85 <= 1
C1758: + x95 + x379 <= 1
C1759: + x5 + x468 <= 1
C1760: + x15 + x92 <= 1
C1761: + x6 + x15 <= 1
C1762: + x62 + x98 <= 1
C1763: + x83 + x222 <= 1
C1764: + x8 + x287 <= 1
C1765: + x3 + x173 <= 1
C1766: + x5 + x22 <= 1
C1767: + x81 + x111 <= 1
C1768: + x8 + x9 <= 1
C1769: + x309 + x466 <= 1
C1770: + x39 + x207 <= 1
C1771: + x304 + x461 <= 1
C1772: + x33 + x183 <= 1
C1773: + x44 + x146 <= 1
C1774: + x8 + x432 <= 1
C1775: + x2 + x88 <= 1
C1776: + x11 + x43 <= 1
C1777: + x4 + x299 <= 1
C1778: + x6 + x51 <= 1
C1779: + x108 + x125 <= 1
C1780: + x80 + x298 <= 1
C1781: + x19 + x192 <= 1
C1782: + x75 + x417 <= 1
C1783: + x56 + x199 <= 1
C1784: + x294 + x376 <= 1
C1785: + x168 + x355 <= 1
C1786: + x52 + x159 <= 1
C1787: + x74 + x142 <= 1
C1788: + x11 + x454 <= 1
C1789: + x433 + x448 <= 1
C1790: + x4 + x215 <= 1
C1791: + x190 + x394 <= 1
C1792: + x109 + x136 <= 1
C1793: + x20 + x220 <= 1
C1794: + x58 + x474 <= 1
C1795: + x268 + x350 <= 1
C1796: + x40 + x293 <= 1
C1797: + x69 + x78 <= 1
C1798: + x108 + x411 <= 1
C1799: + x62 + x280 <= 1
C1800: + x107 + x446 <= 1
C1801: + x164 + x380 <= 1
C1802: + x11 + x67 <= 1
C1803: + x158 + x274 <= 1
C1804: + x169 + x196 <= 1
C1805: + x15 + x305 <= 1
C1806: + x54 + x284 <= 1
C1807: + x10 + x267 <= 1
C1808: + x64 + x220 <= 1
C1809: + x56 + x278 <= 1
C1810: + x27 + x488 <= 1
C1811: + x30 + x166 <= 1
C1812: + x222 + x486 <= 1
C1813: + x23 + x255 <= 1
C1814: + x8 + x54 <= 1
C1815: + x46 + x131 <= 1
C1816: + x11 + x461 <= 1
C1817: + x11 + x26 <= 1
C1818: + x38 + x468 <= 1
C1819: + x21 + x382 <= 1
C1820: + x6 + x240 <= 1
C1821: + x10 + x229 <= 1
C1822: + x2 + x136 <= 1
C1823: + x64 + x442 <= 1
C1824: + x49 + x58 <= 1
C1825: + x170 + x180 <= 1
C1826: + x5 + x450 <= 1
C1827: + x6 + x478 <= 1
C1828: + x45 + x228 <= 1
C1829: + x1 + x445 <= 1
C1830: + x112 + x430 <= 1
C1831: + x23 + x473 <= 1
C1832: + x73 + x237 <= 1
C1833: + x219 + x385 <= 1
C1834: + x29 + x381 <= 1
C1835: + x107 + x218 <= 1
C1836: + x38 + x251 <= 1
C1837: + x4 + x39 <= 1
C1838: + x243 + x416 <= 1
C1839: + x27 + x334 <= 1
C1840: + x200 + x350 <= 1
C1841: + x55 + x64 <= 1
C1842: + x129 + x190 <= 1
C1843: + x76 + x340 <= 1
C1844: + x21 + x35 + x233 <= 1
C1845: + x81 + x236 <= 1
C1846: + x83 + x333 <= 1
C1847: + x11 + x178 <= 1
C1848: + x5 + x80 <= 1
C1849: + x27 + x253 <= 1
C1850: + x10 + x157 <= 1
C1851: + x165 + x337 <= 1
C1852: + x43 + x60 <= 1
C1853: + x226 + x266 <= 1
C1854: + x7 + x78 <= 1
C1855: + x79 + x289 <= 1
C1856: + x1 + x261 <= 1
C1857: + x23 + x97 <= 1
C1858: + x109 + x246 <= 1
C1859: + x77 + x258 <= 1
C1860: + x42 + x354 <= 1
C1861: + x13 + x15 <= 1
C1862: + x14 + x153 <= 1
C1863: + x7 + x477 <= 1
C1864: + x96 + x301 <= 1
C1865: + x5 + x366 <= 1
C1866: + x147 + x157 <= 1
C1867: + x15 + x259 <= 1
C1868: + x8 + x120 <= 1
C1869: + x6 + x395 <= 1
C1870: + x7 + x9 <= 1
C1871: + x208 + x280 <= 1
C1872: + x11 + x395 <= 1
C1873: + x101 + x500 <= 1
C1874: + x36 + x105 + x321 <= 1
C1875: + x404 + x434 <= 1
C1876: + x79 + x185 <= 1
C1877: + x7 + x182 <= 1
C1878: + x81 + x227 <= 1
C1879: + x192 + x311 <= 1
C1880: + x39 + x67 <= 1
C1881: + x23 + x318 <= 1
C1882: + x18 + x27 <= 1
C1883: + x127 + x244 <= 1
C1884: + x8 + x44 <= 1
C1885: + x10 + x134 <= 1
C1886: + x391 + x434 <= 1
C1887: + x358 + x382 <= 1
C1888: + x35 + x136 <= 1
C1889: + x2 + x388 <= 1
C1890: + x14 + x47 <= 1
C1891: + x180 + x328 <= 1
C1892: + x5 + x198 <= 1
C1893: + x6 + x210 <= 1
C1894: + x207 + x453 <= 1
C1895: + x105 + x149 <= 1
C1896: + x25 + x228 <= 1
C1897: + x6 + x464 <= 1
C1898: + x7 + x472 <= 1
C1899: + x50 + x174 <= 1
C1900: + x19 + x75 <= 1
C1901: + x28 + x30 <= 1
C1902: + x20 + x352 <= 1
C1903: + x10 + x104 <= 1
C1904: + x198 + x326 <= 1
C1905: + x381 + x401 <= 1
C1906: + x386 + x498 <= 1
C1907: + x63 + x253 <= 1
C1908: + x14 + x116 <= 1
C1909: + x6 + x23 <= 1
C1910: + x89 + x141 <= 1
C1911: + x8 + x311 <= 1
C1912: + x28 + x42 <= 1
C1913: + x10 + x84 <= 1
C1914: + x211 + x268 <= 1
C1915: + x72 + x446 <= 1
C1916: + x70 + x447 <= 1
C1917: + x125 + x243 <= 1
C1918: + x18 + x20 <= 1
C1919: + x8 + x33 <= 1
C1920: + x46 + x238 <= 1
C1921: + x12 + x38 <= 1
C1922: + x81 + x361 <= 1
C1923: + x7 + x64 <= 1
C1924: + x118 + x419 <= 1
C1925: + x339 + x466 <= 1
C1926: + x102 + x116 <= 1
C1927: + x194 + x499 <= 1
C1928: + x200 + x392 <= 1
C1929: + x69 + x184 <= 1
C1930: + x2 + x389 <= 1
C1931: + x2 + x80 <= 1
C1932: + x5 + x205 <= 1
C1933: + x188 + x434 <= 1
C1934: + x7 + x217 <= 1
C1935: + x27 + x114 <= 1
C1936: + x10 + x32 <= 1
C1937: + x41 + x92 <= 1
C1938: + x33 + x361 <= 1
C1939: + x23 + x224 <= 1
C1940: + x14 + x342 <= 1
C1941: + x21 + x77 <= 1
C1942: + x41 + x249 <= 1
C1943: + x70 + x209 <= 1
C1944: + x88 + x146 <= 1
C1945: + x5 + x340 <= 1
C1946: + x111 + x115 <= 1
C1947: + x56 + x457 <= 1
C1948: + x30 + x374 <= 1
C1949: + x214 + x393 <= 1
C1950: + x149 + x436 <= 1
C1951: + x42 + x211 <= 1
C1952: + x92 + x413 <= 1
C1953: + x56 + x378 <= 1

binary
x1 x2 x3 x4 x5 x6 x7 x8 x9 x10 x11 x12 x13 x14 x15 x16 x17 x18 x19 x20 x21 x22 x23 x24 x25 x26 x27 x28 x29 x30 x31 x32 x33 x34 x35 x36 x37 x38 x39 x40 x41 x42 x43 x44 x45 x46 x47 x48 x49 x50 x51 x52 x53 x54 x55 x56 x57 x58 x59 x60 x61 x62 x63 x64 x65 x66 x67 x68 x69 x70 x71 x72 x73 x74 x75 x76 x77 x78 x79 x80 x81 x82 x83 x84 x85 x86 x87 x88 x89 x90 x91 x92 x93 x94 x95 x96 x97 x98 x99 x100 x101 x102 x103 x104 x105 x106 x107 x108 x109 x110 x111 x112 x113 x114 x115 x116 x117 x118 x119 x120 x121 x122 x123 x124 x125 x126 x127 x128 x129 x130 x131 x132 x133 x134 x135 x136 x137 x138 x139 x140 x141 x142 x143 x144 x145 x146 x147 x148 x149 x150 x151 x152 x153 x154 x155 x156 x157 x158 x159 x160 x161 x162 x163 x164 x165 x166 x167 x168 x169 x170 x171 x172 x173 x174 x175 x176 x177 x178 x179 x180 x181 x182 x183 x184 x185 x186 x187 x188 x189 x190 x191 x192 x193 x194 x195 x196 x197 x198 x199 x200 x201 x202 x203 x204 x205 x206 x207 x208 x209 x210 x211 x212 x213 x214 x215 x216 x217 x218 x219 x220 x221 x222 x223 x224 x225 x226 x227 x228 x229 x230 x231 x232 x233 x234 x235 x236 x237 x238 x239 x240 x241 x242 x243 x244 x245 x246 x247 x248 x249 x250 x251 x252 x253 x254 x255 x256 x257 x258 x259 x260 x261 x262 x263 x264 x265 x266 x267 x268 x269 x270 x271 x272 x273 x274 x275 x276 x277 x278 x279 x280 x281 x282 x283 x284 x285 x286 x287 x288 x289 x290 x291 x292 x293 x294 x295 x296 x297 x298 x299 x300 x301 x302 x303 x304 x305 x306 x307 x308 x309 x310 x311 x312 x313 x314 x315 x316 x317 x318 x319 x320 x321 x322 x323 x324 x325 x326 x327 x328 x329 x330 x331 x332 x333 x334 x335 x336 x337 x338 x339 x340 x341 x342 x343 x344 x345 x346 x347 x348 x349 x350 x351 x352 x353 x354 x355 x356 x357 x358 x359 x360 x361 x362 x363 x364 x365 x366 x367 x368 x369 x370 x371 x372 x373 x374 x375 x376 x377 x378 x379 x380 x381 x382 x383 x384 x385 x386 x387 x388 x389 x390 x391 x392 x393 x394 x395 x396 x397 x398 x399 x400 x401 x402 x403 x404 x405 x406 x407 x408 x409 x410 x411 x412 x413 x414 x415 x416 x417 x418 x419 x420 x421 x422 x423 x424 x425 x426 x427 x428 x429 x430 x431 x432 x433 x434 x435 x436 x437 x438 x439 x440 x441 x442 x443 x444 x445 x446 x447 x448 x449 x450 x451 x452 x453 x454 x455 x456 x457 x458 x459 x460 x461 x462 x463 x464 x465 x466 x467 x468 x469 x470 x471 x472 x473 x474 x475 x476 x477 x478 x479 x480 x481 x482 x483 x484 x485 x486 x487 x488 x489 x490 x491 x492 x493 x494 x495 x496 x497 x498 x499 x500
