maximize
OBJ: + 1 x1 + 1 x2 + 1 x3 + 1 x4 + 1 x5 + 1 x6 + 1 x7 + 1 x8 + 1 x9 + 1 x10 + 1 x11 + 1 x12 + 1 x13 + 1 x14 + 1 x15 + 1 x16 + 1 x17 + 1 x18 + 1 x19 + 1 x20 + 1 x21 + 1 x22 + 1 x23 + 1 x24 + 1 x25 + 1 x26 + 1 x27 + 1 x28 + 1 x29 + 1 x30 + 1 x31 + 1 x32 + 1 x33 + 1 x34 + 1 x35 + 1 x36 + 1 x37 + 1 x38 + 1 x39 + 1 x40 + 1 x41 + 1 x42 + 1 x43 + 1 x44 + 1 x45 + 1 x46 + 1 x47 + 1 x48 + 1 x49 + 1 x50 + 1 x51 + 1 x52 + 1 x53 + 1 x54 + 1 x55 + 1 x56 + 1 x57 + 1 x58 + 1 x59 + 1 x60 + 1 x61 + 1 x62 + 1 x63 + 1 x64 + 1 x65 + 1 x66 + 1 x67 + 1 x68 + 1 x69 + 1 x70 + 1 x71 + 1 x72 + 1 x73 + 1 x74 + 1 x75 + 1 x76 + 1 x77 + 1 x78 + 1 x79 + 1 x80 + 1 x81 + 1 x82 + 1 x83 + 1 x84 + 1 x85 + 1 x86 + 1 x87 + 1 x88 + 1 x89 + 1 x90 + 1 x91 + 1 x92 + 1 x93 + 1 x94 + 1 x95 + 1 x96 + 1 x97 + 1 x98 + 1 x99 + 1 x100 + 1 x101 + 1 x102 + 1 x103 + 1 x104 + 1 x105 + 1 x106 + 1 x107 + 1 x108 + 1 x109 + 1 x110 + 1 x111 + 1 x112 + 1 x113 + 1 x114 + 1 x115 + 1 x116 + 1 x117 + 1 x118 + 1 x119 + 1 x120 + 1 x121 + 1 x122 + 1 x123 + 1 x124 + 1 x125 + 1 x126 + 1 x127 + 1 x128 + 1 x129 + 1 x130 + 1 x131 + 1 x132 + 1 x133 + 1 x134 + 1 x135 + 1 x136 + 1 x137 + 1 x138 + 1 x139 + 1 x140 + 1 x141 + 1 x142 + 1 x143 + 1 x144 + 1 x145 + 1 x146 + 1 x147 + 1 x148 + 1 x149 + 1 x150 + 1 x151 + 1 x152 + 1 x153 + 1 x154 + 1 x155 + 1 x156 + 1 x157 + 1 x158 + 1 x159 + 1 x160 + 1 x161 + 1 x162 + 1 x163 + 1 x164 + 1 x165 + 1 x166 + 1 x167 + 1 x168 + 1 x169 + 1 x170 + 1 x171 + 1 x172 + 1 x173 + 1 x174 + 1 x175 + 1 x176 + 1 x177 + 1 x178 + 1 x179 + 1 x180 + 1 x181 + 1 x182 + 1 x183 + 1 x184 + 1 x185 + 1 x186 + 1 x187 + 1 x188 + 1 x189 + 1 x190 + 1 x191 + 1 x192 + 1 x193 + 1 x194 + 1 x195 + 1 x196 + 1 x197 + 1 x198 + 1 x199 + 1 x200 + 1 x201 + 1 x202 + 1 x203 + 1 x204 + 1 x205 + 1 x206 + 1 x207 + 1 x208 + 1 x209 + 1 x210 + 1 x211 + 1 x212 + 1 x213 + 1 x214 + 1 x215 + 1 x216 + 1 x217 + 1 x218 + 1 x219 + 1 x220 + 1 x221 + 1 x222 + 1 x223 + 1 x224 + 1 x225 + 1 x226 + 1 x227 + 1 x228 + 1 x229 + 1 x230 + 1 x231 + 1 x232 + 1 x233 + 1 x234 + 1 x235 + 1 x236 + 1 x237 + 1 x238 + 1 x239 + 1 x240 + 1 x241 + 1 x242 + 1 x243 + 1 x244 + 1 x245 + 1 x246 + 1 x247 + 1 x248 + 1 x249 + 1 x250 + 1 x251 + 1 x252 + 1 x253 + 1 x254 + 1 x255 + 1 x256 + 1 x257 + 1 x258 + 1 x259 + 1 x260 + 1 x261 + 1 x262 + 1 x263 + 1 x264 + 1 x265 + 1 x266 + 1 x267 + 1 x268 + 1 x269 + 1 x270 + 1 x271 + 1 x272 + 1 x273 + 1 x274 + 1 x275 + 1 x276 + 1 x277 + 1 x278 + 1 x279 + 1 x280 + 1 x281 + 1 x282 + 1 x283 + 1 x284 + 1 x285 + 1 x286 + 1 x287 + 1 x288 + 1 x289 + 1 x290 + 1 x291 + 1 x292 + 1 x293 + 1 x294 + 1 x295 + 1 x296 + 1 x297 + 1 x298 + 1 x299 + 1 x300 + 1 x301 + 1 x302 + 1 x303 + 1 x304 + 1 x305 + 1 x306 + 1 x307 + 1 x308 + 1 x309 + 1 x310 + 1 x311 + 1 x312 + 1 x313 + 1 x314 + 1 x315 + 1 x316 + 1 x317 + 1 x318 + 1 x319 + 1 x320 + 1 x321 + 1 x322 + 1 x323 + 1 x324 + 1 x325 + 1 x326 + 1 x327 + 1 x328 + 1 x329 + 1 x330 + 1 x331 + 1 x332 + 1 x333 + 1 x334 + 1 x335 + 1 x336 + 1 x337 + 1 x338 + 1 x339 + 1 x340 + 1 x341 + 1 x342 + 1 x343 + 1 x344 + 1 x345 + 1 x346 + 1 x347 + 1 x348 + 1 x349 + 1 x350 + 1 x351 + 1 x352 + 1 x353 + 1 x354 + 1 x355 + 1 x356 + 1 x357 + 1 x358 + 1 x359 + 1 x360 + 1 x361 + 1 x362 + 1 x363 + 1 x364 + 1 x365 + 1 x366 + 1 x367 + 1 x368 + 1 x369 + 1 x370 + 1 x371 + 1 x372 + 1 x373 + 1 x374 + 1 x375 + 1 x376 + 1 x377 + 1 x378 + 1 x379 + 1 x380 + 1 x381 + 1 x382 + 1 x383 + 1 x384 + 1 x385 + 1 x386 + 1 x387 + 1 x388 + 1 x389 + 1 x390 + 1 x391 + 1 x392 + 1 x393 + 1 x394 + 1 x395 + 1 x396 + 1 x397 + 1 x398 + 1 x399 + 1 x400 + 1 x401 + 1 x402 + 1 x403 + 1 x404 + 1 x405 + 1 x406 + 1 x407 + 1 x408 + 1 x409 + 1 x410 + 1 x411 + 1 x412 + 1 x413 + 1 x414 + 1 x415 + 1 x416 + 1 x417 + 1 x418 + 1 x419 + 1 x420 + 1 x421 + 1 x422 + 1 x423 + 1 x424 + 1 x425 + 1 x426 + 1 x427 + 1 x428 + 1 x429 + 1 x430 + 1 x431 + 1 x432 + 1 x433 + 1 x434 + 1 x435 + 1 x436 + 1 x437 + 1 x438 + 1 x439 + 1 x440 + 1 x441 + 1 x442 + 1 x443 + 1 x444 + 1 x445 + 1 x446 + 1 x447 + 1 x448 + 1 x449 + 1 x450 + 1 x451 + 1 x452 + 1 x453 + 1 x454 + 1 x455 + 1 x456 + 1 x457 + 1 x458 + 1 x459 + 1 x460 + 1 x461 + 1 x462 + 1 x463 + 1 x464 + 1 x465 + 1 x466 + 1 x467 + 1 x468 + 1 x469 + 1 x470 + 1 x471 + 1 x472 + 1 x473 + 1 x474 + 1 x475 + 1 x476 + 1 x477 + 1 x478 + 1 x479 + 1 x480 + 1 x481 + 1 x482 + 1 x483 + 1 x484 + 1 x485 + 1 x486 + 1 x487 + 1 x488 + 1 x489 + 1 x490 + 1 x491 + 1 x492 + 1 x493 + 1 x494 + 1 x495 + 1 x496 + 1 x497 + 1 x498 + 1 x499 + 1 x500

subject to
C1: + x12 + x401 <= 1
C2: + x164 + x324 <= 1
C3: + x104 + x135 <= 1
C4: + x98 + x220 <= 1
C5: + x13 + x200 <= 1
C6: + x9 + x64 <= 1
C7: + x55 + x180 <= 1
C8: + x20 + x144 <= 1
C9: + x78 + x115 <= 1
C10: + x25 + x67 <= 1
C11: + x3 + x79 <= 1
C12: + x76 + x250 <= 1
C13: + x39 + x464 <= 1
C14: + x89 + x224 <= 1
C15: + x65 + x316 <= 1
C16: + x450 + x474 <= 1
C17: + x451 + x458 <= 1
C18: + x452 + x494 <= 1
C19: + x26 + x230 <= 1
C20: + x16 + x31 <= 1
C21: + x390 + x456 <= 1
C22: + x323 + x344 <= 1
C23: + x150 + x298 <= 1
C24: + x5 + x347 <= 1
C25: + x7 + x99 <= 1
C26: + x137 + x158 <= 1
C27: + x120 + x496 <= 1
C28: + x26 + x151 <= 1
C29: + x45 + x87 <= 1
C30: + x10 + x205 <= 1
C31: + x35 + x221 <= 1
C32: + x387 + x500 <= 1
C33: + x19 + x259 <= 1
C34: + x37 + x102 <= 1
C35: + x141 + x154 <= 1
C36: + x22 + x451 <= 1
C37: + x19 + x113 <= 1
C38: + x147 + x190 <= 1
C39: + x76 + x98 <= 1
C40: + x283 + x294 <= 1
C41: + x86 + x299 <= 1
C42: + x5 + x36 <= 1
C43: + x6 + x375 <= 1
C44: + x135 + x338 <= 1
C45: + x103 + x336 <= 1
C46: + x30 + x38 <= 1
C47: + x107 + x480 <= 1
C48: + x262 + x357 <= 1
C49: + x2 + x90 <= 1
C50: + x95 + x175 <= 1
C51: + x167 + x268 <= 1
C52: + x140 + x198 <= 1
C53: + x7 + x203 <= 1
C54: + x82 + x351 <= 1
C55: + x143 + x392 <= 1
C56: + x1 + x243 <= 1
C57: + x12 + x161 <= 1
C58: + x51 + x305 <= 1
C59: + x9 + x19 <= 1
C60: + x20 + x97 <= 1
C61: + x78 + x96 <= 1
C62: + x98 + x447 <= 1
C63: + x330 + x475 <= 1
C64: + x103 + x170 <= 1
C65: + x118 + x215 <= 1
C66: + x1 + x15 <= 1
C67: + x28 + x144 <= 1
C68: + x41 + x118 <= 1
C69: + x114 + x223 <= 1
C70: + x386 + x453 <= 1
C71: + x253 + x470 <= 1
C72: + x134 + x314 <= 1
C73: + x16 + x44 <= 1
C74: + x201 + x212 <= 1
C75: + x19 + x382 <= 1
C76: + x34 + x75 <= 1
C77: + x243 + x288 <= 1
C78: + x163 + x358 <= 1
C79: + x101 + x373 <= 1
C80: + x29 + x276 <= 1
C81: + x95 + x263 <= 1
C82: + x205 + x438 <= 1
C83: + x207 + x434 <= 1
C84: + x244 + x426 <= 1
C85: + x154 + x415 <= 1
C86: + x10 + x162 <= 1
C87: + x21 + x22 <= 1
C88: + x89 + x273 <= 1
C89: + x71 + x225 <= 1
C90: + x100 + x460 <= 1
C91: + x57 + x133 <= 1
C92: + x10 + x285 <= 1
C93: + x28 + x359 <= 1
C94: + x64 + x365 <= 1
C95: + x51 + x71 <= 1
C96: + x5 + x186 <= 1
C97: + x423 + x472 <= 1
C98: + x7 + x206 <= 1
C99: + x7 + x279 <= 1
C100: + x101 + x246 <= 1
C101: + x129 + x447 <= 1
C102: + x13 + x42 <= 1
C103: + x68 + x164 <= 1
C104: + x79 + x212 <= 1
C105: + x2 + x444 <= 1
C106: + x13 + x185 <= 1
C107: + x141 + x313 <= 1
C108: + x22 + x100 <= 1
C109: + x16 + x295 <= 1
C110: + x80 + x478 <= 1
C111: + x22 + x199 <= 1
C112: + x3 + x8 <= 1
C113: + x113 + x498 <= 1
C114: + x132 + x227 <= 1
C115: + x14 + x408 <= 1
C116: + x4 + x355 <= 1
C117: + x10 + x437 <= 1
C118: + x36 + x86 <= 1
C119: + x20 + x163 <= 1
C120: + x213 + x349 <= 1
C121: + x13 + x82 <= 1
C122: + x205 + x274 <= 1
C123: + x25 + x88 <= 1
C124: + x7 + x28 <= 1
C125: + x106 + x365 <= 1
C126: + x7 + x197 <= 1
C127: + x18 + x326 <= 1
C128: + x72 + x470 <= 1
C129: + x203 + x389 <= 1
C130: + x4 + x78 <= 1
C131: + x43 + x54 <= 1
C132: + x75 + x219 <= 1
C133: + x439 + x477 <= 1
C134: + x99 + x156 <= 1
C135: + x36 + x111 <= 1
C136: + x19 + x203 <= 1
C137: + x120 + x197 <= 1
C138: + x223 + x315 <= 1
C139: + x49 + x297 <= 1
C140: + x117 + x481 <= 1
C141: + x7 + x132 <= 1
C142: + x20 + x333 <= 1
C143: + x154 + x361 <= 1
C144: + x1 + x41 <= 1
C145: + x186 + x221 <= 1
C146: + x13 + x73 <= 1
C147: + x33 + x194 <= 1
C148: + x168 + x292 <= 1
C149: + x10 + x271 <= 1
C150: + x28 + x373 <= 1
C151: + x3 + x83 <= 1
C152: + x14 + x69 <= 1
C153: + x190 + x459 <= 1
C154: + x71 + x128 <= 1
C155: + x57 + x421 <= 1
C156: + x50 + x470 <= 1
C157: + x41 + x63 <= 1
C158: + x18 + x45 <= 1
C159: + x16 + x115 <= 1
C160: + x28 + x230 <= 1
C161: + x3 + x409 <= 1
C162: + x210 + x312 <= 1
C163: + x39 + x379 <= 1
C164: + x29 + x91 <= 1
C165: + x142 + x225 <= 1
C166: + x38 + x480 <= 1
C167: + x14 + x57 <= 1
C168: + x5 + x212 <= 1
C169: + x91 + x248 <= 1
C170: + x117 + x377 <= 1
C171: + x3 + x268 <= 1
C172: + x14 + x156 <= 1
C173: + x154 + x449 <= 1
C174: + x59 + x235 <= 1
C175: + x1 + x131 <= 1
C176: + x2 + x53 <= 1
C177: + x3 + x187 <= 1
C178: + x21 + x334 <= 1
C179: + x83 + x277 <= 1
C180: + x98 + x249 <= 1
C181: + x53 + x58 <= 1
C182: + x1 + x48 <= 1
C183: + x4 + x43 <= 1
C184: + x54 + x132 <= 1
C185: + x77 + x229 <= 1
C186: + x30 + x280 <= 1
C187: + x244 + x247 <= 1
C188: + x152 + x194 <= 1
C189: + x8 + x317 <= 1
C190: + x173 + x203 <= 1
C191: + x1 + x223 <= 1
C192: + x164 + x232 <= 1
C193: + x7 + x66 <= 1
C194: + x190 + x309 <= 1
C195: + x155 + x343 <= 1
C196: + x11 + x13 <= 1
C197: + x28 + x410 <= 1
C198: + x1 + x281 <= 1
C199: + x3 + x98 <= 1
C200: + x4 + x201 <= 1
C201: + x167 + x228 <= 1
C202: + x7 + x312 <= 1
C203: + x63 + x465 <= 1
C204: + x2 + x157 <= 1
C205: + x3 + x259 <= 1
C206: + x164 + x399 <= 1
C207: + x3 + x17 <= 1
C208: + x177 + x492 <= 1
C209: + x34 + x87 <= 1
C210: + x180 + x500 <= 1
C211: + x408 + x434 <= 1
C212: + x155 + x216 <= 1
C213: + x301 + x347 <= 1
C214: + x46 + x410 <= 1
C215: + x77 + x141 <= 1
C216: + x21 + x341 <= 1
C217: + x5 + x15 <= 1
C218: + x260 + x332 <= 1
C219: + x24 + x234 <= 1
C220: + x201 + x351 <= 1
C221: + x195 + x196 <= 1
C222: + x34 + x200 <= 1
C223: + x7 + x13 <= 1
C224: + x63 + x250 <= 1
C225: + x195 + x466 <= 1
C226: + x43 + x416 <= 1
C227: + x45 + x432 <= 1
C228: + x112 + x218 <= 1
C229: + x107 + x241 <= 1
C230: + x273 + x291 <= 1
C231: + x12 + x33 <= 1
C232: + x30 + x87 <= 1
C233: + x8 + x331 <= 1
C234: + x47 + x277 <= 1
C235: + x4 + x306 <= 1
C236: + x41 + x51 + x91 <= 1
C237: + x10 + x27 <= 1
C238: + x39 + x51 <= 1
C239: + x40 + x129 <= 1
C240: + x5 + x103 <= 1
C241: + x188 + x284 <= 1
C242: + x206 + x334 <= 1
C243: + x99 + x435 <= 1
C244: + x308 + x401 <= 1
C245: + x49 + x137 <= 1
C246: + x158 + x491 <= 1
C247: + x86 + x126 <= 1
C248: + x15 + x60 <= 1
C249: + x35 + x344 <= 1
C250: + x344 + x452 <= 1
C251: + x110 + x136 <= 1
C252: + x2 + x7 <= 1
C253: + x1 + x145 <= 1
C254: + x16 + x134 <= 1
C255: + x1 + x62 <= 1
C256: + x2 + x162 <= 1
C257: + x40 + x260 <= 1
C258: + x79 + x363 <= 1
C259: + x119 + x281 <= 1
C260: + x37 + x116 <= 1
C261: + x221 + x241 <= 1
C262: + x284 + x313 <= 1
C263: + x4 + x267 <= 1
C264: + x6 + x19 <= 1
C265: + x35 + x397 <= 1
C266: + x261 + x375 <= 1
C267: + x30 + x411 <= 1
C268: + x5 + x300 <= 1
C269: + x153 + x437 <= 1
C270: + x102 + x128 <= 1
C271: + x60 + x143 <= 1
C272: + x153 + x210 <= 1
C273: + x9 + x375 <= 1
C274: + x1 + x249 <= 1
C275: + x11 + x148 <= 1
C276: + x13 + x57 <= 1
C277: + x116 + x249 <= 1
C278: + x188 + x273 <= 1
C279: + x116 + x304 <= 1
C280: + x334 + x349 <= 1
C281: + x10 + x383 <= 1
C282: + x12 + x22 <= 1
C283: + x21 + x390 <= 1
C284: + x42 + x70 <= 1
C285: + x16 + x35 + x152 <= 1
C286: + x62 + x155 <= 1
C287: + x408 + x456 <= 1
C288: + x136 + x266 <= 1
C289: + x171 + x204 <= 1
C290: + x45 + x249 <= 1
C291: + x385 + x460 <= 1
C292: + x10 + x390 <= 1
C293: + x66 + x364 <= 1
C294: + x122 + x375 <= 1
C295: + x169 + x240 <= 1
C296: + x70 + x420 <= 1
C297: + x35 + x49 <= 1
C298: + x253 + x307 <= 1
C299: + x1 + x65 <= 1
C300: + x8 + x22 <= 1
C301: + x101 + x125 <= 1
C302: + x49 + x75 <= 1
C303: + x10 + x188 <= 1
C304: + x7 + x43 <= 1
C305: + x11 + x493 <= 1
C306: + x87 + x202 <= 1
C307: + x80 + x392 <= 1
C308: + x46 + x372 <= 1
C309: + x98 + x172 <= 1
C310: + x98 + x351 <= 1
C311: + x125 + x301 <= 1
C312: + x66 + x67 <= 1
C313: + x30 + x125 <= 1
C314: + x331 + x479 <= 1
C315: + x60 + x245 <= 1
C316: + x2 + x17 <= 1
C317: + x111 + x122 <= 1
C318: + x113 + x361 <= 1
C319: + x31 + x105 <= 1
C320: + x214 + x414 <= 1
C321: + x17 + x381 <= 1
C322: + x35 + x459 <= 1
C323: + x5 + x470 <= 1
C324: + x16 + x47 <= 1
C325: + x2 + x479 <= 1
C326: + x67 + x261 <= 1
C327: + x3 + x50 <= 1
C328: + x29 + x500 <= 1
C329: + x12 + x398 <= 1
C330: + x23 + x53 <= 1
C331: + x98 + x118 <= 1
C332: + x83 + x301 <= 1
C333: + x21 + x182 <= 1
C334: + x33 + x431 <= 1
C335: + x14 + x197 <= 1
C336: + x15 + x296 <= 1
C337: + x27 + x221 <= 1
C338: + x1 + x72 <= 1
C339: + x11 + x307 <= 1
C340: + x113 + x130 <= 1
C341: + x85 + x286 <= 1
C342: + x13 + x96 <= 1
C343: + x62 + x217 <= 1
C344: + x10 + x288 <= 1
C345: + x3 + x70 <= 1
C346: + x51 + x76 <= 1
C347: + x207 + x478 <= 1
C348: + x16 + x274 <= 1
C349: + x7 + x276 <= 1
C350: + x164 + x208 <= 1
C351: + x1 + x247 <= 1
C352: + x120 + x191 <= 1
C353: + x29 + x293 <= 1
C354: + x30 + x211 <= 1
C355: + x264 + x310 <= 1
C356: + x107 + x146 <= 1
C357: + x86 + x379 <= 1
C358: + x47 + x395 <= 1
C359: + x8 + x455 <= 1
C360: + x109 + x123 <= 1
C361: + x89 + x445 <= 1
C362: + x37 + x165 <= 1
C363: + x331 + x474 <= 1
C364: + x43 + x80 <= 1
C365: + x7 + x90 <= 1
C366: + x120 + x481 <= 1
C367: + x29 + x348 <= 1
C368: + x9 + x337 <= 1
C369: + x145 + x185 <= 1
C370: + x320 + x322 <= 1
C371: + x20 + x214 <= 1
C372: + x77 + x278 <= 1
C373: + x72 + x187 <= 1
C374: + x28 + x303 <= 1
C375: + x148 + x433 <= 1
C376: + x42 + x100 <= 1
C377: + x70 + x243 <= 1
C378: + x6 + x14 <= 1
C379: + x118 + x265 <= 1
C380: + x14 + x411 <= 1
C381: + x200 + x474 <= 1
C382: + x193 + x423 <= 1
C383: + x1 + x178 <= 1
C384: + x12 + x226 <= 1
C385: + x5 + x23 <= 1
C386: + x35 + x67 <= 1
C387: + x8 + x12 <= 1
C388: + x157 + x269 <= 1
C389: + x263 + x362 <= 1
C390: + x57 + x137 <= 1
C391: + x30 + x265 <= 1
C392: + x258 + x461 <= 1
C393: + x5 + x166 <= 1
C394: + x16 + x214 <= 1
C395: + x11 + x141 <= 1
C396: + x102 + x206 <= 1
C397: + x39 + x95 <= 1
C398: + x13 + x38 <= 1
C399: + x5 + x91 <= 1
C400: + x52 + x400 <= 1
C401: + x27 + x236 <= 1
C402: + x7 + x440 <= 1
C403: + x126 + x443 <= 1
C404: + x1 + x312 <= 1
C405: + x255 + x334 <= 1
C406: + x41 + x452 <= 1
C407: + x61 + x338 <= 1
C408: + x80 + x99 <= 1
C409: + x36 + x471 <= 1
C410: + x73 + x301 <= 1
C411: + x2 + x142 <= 1
C412: + x94 + x373 <= 1
C413: + x51 + x284 <= 1
C414: + x196 + x268 <= 1
C415: + x15 + x391 <= 1
C416: + x36 + x201 <= 1
C417: + x34 + x72 <= 1
C418: + x418 + x446 <= 1
C419: + x137 + x252 <= 1
C420: + x148 + x204 <= 1
C421: + x25 + x330 <= 1
C422: + x35 + x94 <= 1
C423: + x16 + x174 <= 1
C424: + x10 + x175 <= 1
C425: + x30 + x52 <= 1
C426: + x124 + x272 <= 1
C427: + x215 + x242 <= 1
C428: + x7 + x32 <= 1
C429: + x45 + x282 <= 1
C430: + x241 + x413 <= 1
C431: + x331 + x377 <= 1
C432: + x181 + x295 <= 1
C433: + x145 + x336 <= 1
C434: + x100 + x231 <= 1
C435: + x86 + x269 <= 1
C436: + x42 + x436 <= 1
C437: + x32 + x193 <= 1
C438: + x98 + x354 <= 1
C439: + x144 + x429 <= 1
C440: + x293 + x360 <= 1
C441: + x30 + x72 <= 1
C442: + x40 + x336 <= 1
C443: + x107 + x498 <= 1
C444: + x27 + x280 <= 1
C445: + x190 + x319 <= 1
C446: + x86 + x254 <= 1
C447: + x30 + x342 <= 1
C448: + x70 + x340 <= 1
C449: + x190 + x386 <= 1
C450: + x213 + x404 <= 1
C451: + x197 + x310 <= 1
C452: + x21 + x212 <= 1
C453: + x40 + x146 <= 1
C454: + x10 + x327 <= 1
C455: + x2 + x290 <= 1
C456: + x130 + x224 <= 1
C457: + x35 + x85 <= 1
C458: + x113 + x183 <= 1
C459: + x12 + x123 <= 1
C460: + x13 + x69 <= 1
C461: + x48 + x167 <= 1
C462: + x104 + x465 <= 1
C463: + x24 + x59 <= 1
C464: + x79 + x278 <= 1
C465: + x29 + x40 <= 1
C466: + x112 + x369 <= 1
C467: + x196 + x476 <= 1
C468: + x15 + x119 <= 1
C469: + x10 + x33 <= 1
C470: + x11 + x191 <= 1
C471: + x98 + x379 <= 1
C472: + x14 + x367 <= 1
C473: + x7 + x418 <= 1
C474: + x119 + x187 <= 1
C475: + x1 + x121 <= 1
C476: + x49 + x163 <= 1
C477: + x75 + x468 <= 1
C478: + x203 + x237 <= 1
C479: + x52 + x240 <= 1
C480: + x37 + x55 <= 1
C481: + x66 + x202 <= 1
C482: + x429 + x497 <= 1
C483: + x13 + x171 <= 1
C484: + x188 + x419 <= 1
C485: + x7 + x305 <= 1
C486: + x2 + x160 <= 1
C487: + x13 + x16 <= 1
C488: + x45 + x220 <= 1
C489: + x5 + x367 <= 1
C490: + x136 + x287 <= 1
C491: + x157 + x245 <= 1
C492: + x2 + x9 <= 1
C493: + x4 + x244 <= 1
C494: + x15 + x260 <= 1
C495: + x72 + x311 <= 1
C496: + x135 + x306 <= 1
C497: + x139 + x484 <= 1
C498: + x28 + x322 <= 1
C499: + x173 + x469 <= 1
C500: + x483 + x487 <= 1
C501: + x194 + x429 <= 1
C502: + x225 + x250 <= 1
C503: + x4 + x257 <= 1
C504: + x25 + x455 <= 1
C505: + x152 + x222 <= 1
C506: + x40 + x493 <= 1
C507: + x49 + x90 <= 1
C508: + x25 + x118 <= 1
C509: + x7 + x70 <= 1
C510: + x200 + x394 <= 1
C511: + x30 + x296 <= 1
C512: + x106 + x143 <= 1
C513: + x16 + x314 <= 1
C514: + x164 + x216 <= 1
C515: + x74 + x342 <= 1
C516: + x23 + x271 <= 1
C517: + x49 + x150 <= 1
C518: + x86 + x113 <= 1
C519: + x85 + x458 <= 1
C520: + x96 + x277 <= 1
C521: + x62 + x133 <= 1
C522: + x92 + x362 <= 1
C523: + x112 + x274 <= 1
C524: + x79 + x459 <= 1
C525: + x16 + x185 <= 1
C526: + x1 + x59 <= 1
C527: + x40 + x252 <= 1
C528: + x5 + x485 <= 1
C529: + x73 + x107 <= 1
C530: + x75 + x371 <= 1
C531: + x58 + x206 <= 1
C532: + x113 + x471 <= 1
C533: + x60 + x178 <= 1
C534: + x40 + x486 <= 1
C535: + x4 + x13 + x17 <= 1
C536: + x57 + x439 <= 1
C537: + x176 + x209 <= 1
C538: + x5 + x63 <= 1
C539: + x107 + x253 <= 1
C540: + x12 + x37 <= 1
C541: + x21 + x439 <= 1
C542: + x160 + x357 <= 1
C543: + x7 + x61 <= 1
C544: + x11 + x487 <= 1
C545: + x102 + x115 <= 1
C546: + x257 + x499 <= 1
C547: + x67 + x181 <= 1
C548: + x6 + x218 <= 1
C549: + x154 + x193 <= 1
C550: + x73 + x180 <= 1
C551: + x18 + x345 <= 1
C552: + x19 + x52 <= 1
C553: + x57 + x387 <= 1
C554: + x3 + x282 <= 1
C555: + x41 + x93 <= 1
C556: + x14 + x138 <= 1
C557: + x29 + x121 <= 1
C558: + x45 + x367 <= 1
C559: + x75 + x168 <= 1
C560: + x12 + x259 <= 1
C561: + x35 + x98 <= 1
C562: + x18 + x224 <= 1
C563: + x51 + x372 <= 1
C564: + x14 + x265 <= 1
C565: + x11 + x446 <= 1
C566: + x47 + x163 <= 1
C567: + x30 + x486 <= 1
C568: + x141 + x228 <= 1
C569: + x296 + x298 <= 1
C570: + x6 + x31 <= 1
C571: + x1 + x380 <= 1
C572: + x10 + x92 <= 1
C573: + x169 + x237 <= 1
C574: + x24 + x183 <= 1
C575: + x28 + x205 <= 1
C576: + x321 + x371 <= 1
C577: + x3 + x354 <= 1
C578: + x39 + x223 <= 1
C579: + x131 + x299 <= 1
C580: + x42 + x158 <= 1
C581: + x7 + x56 <= 1
C582: + x130 + x139 <= 1
C583: + x77 + x203 <= 1
C584: + x101 + x193 <= 1
C585: + x121 + x330 <= 1
C586: + x445 + x473 <= 1
C587: + x34 + x343 <= 1
C588: + x42 + x74 <= 1
C589: + x110 + x306 <= 1
C590: + x57 + x196 <= 1
C591: + x12 + x316 <= 1
C592: + x35 + x121 <= 1
C593: + x24 + x252 <= 1
C594: + x45 + x88 <= 1
C595: + x85 + x335 <= 1
C596: + x4 + x6 <= 1
C597: + x124 + x289 <= 1
C598: + x70 + x106 <= 1
C599: + x35 + x222 <= 1
C600: + x16 + x46 <= 1
C601: + x14 + x258 <= 1
C602: + x13 + x283 <= 1
C603: + x359 + x413 <= 1
C604: + x220 + x302 <= 1
C605: + x84 + x198 <= 1
C606: + x60 + x299 <= 1
C607: + x226 + x458 <= 1
C608: + x10 + x192 <= 1
C609: + x86 + x397 <= 1
C610: + x13 + x93 <= 1
C611: + x95 + x442 <= 1
C612: + x4 + x389 <= 1
C613: + x35 + x146 <= 1
C614: + x88 + x339 <= 1
C615: + x7 + x47 <= 1
C616: + x2 + x89 <= 1
C617: + x3 + x71 <= 1
C618: + x41 + x430 <= 1
C619: + x23 + x239 <= 1
C620: + x25 + x261 <= 1
C621: + x116 + x472 <= 1
C622: + x271 + x323 <= 1
C623: + x204 + x497 <= 1
C624: + x180 + x221 <= 1
C625: + x1 + x16 <= 1
C626: + x15 + x288 <= 1
C627: + x71 + x393 <= 1
C628: + x26 + x159 <= 1
C629: + x45 + x79 <= 1
C630: + x10 + x245 <= 1
C631: + x26 + x58 <= 1
C632: + x281 + x304 <= 1
C633: + x117 + x127 <= 1
C634: + x66 + x147 <= 1
C635: + x263 + x319 <= 1
C636: + x3 + x14 <= 1
C637: + x79 + x150 <= 1
C638: + x7 + x151 <= 1
C639: + x183 + x276 + x444 <= 1
C640: + x303 + x376 <= 1
C641: + x98 + x213 <= 1
C642: + x26 + x171 <= 1
C643: + x1 + x92 <= 1
C644: + x4 + x55 <= 1
C645: + x96 + x325 <= 1
C646: + x17 + x31 <= 1
C647: + x36 + x267 <= 1
C648: + x7 + x34 <= 1
C649: + x190 + x341 <= 1
C650: + x2 + x82 <= 1
C651: + x27 + x382 <= 1
C652: + x126 + x461 <= 1
C653: + x308 + x333 <= 1
C654: + x110 + x222 <= 1
C655: + x66 + x445 <= 1
C656: + x292 + x391 <= 1
C657: + x98 + x161 <= 1
C658: + x72 + x131 <= 1
C659: + x255 + x494 <= 1
C660: + x30 + x114 <= 1
C661: + x190 + x297 <= 1
C662: + x45 + x348 <= 1
C663: + x28 + x438 <= 1
C664: + x328 + x365 <= 1
C665: + x145 + x189 <= 1
C666: + x427 + x499 <= 1
C667: + x55 + x330 <= 1
C668: + x241 + x321 <= 1
C669: + x131 + x484 <= 1
C670: + x50 + x407 <= 1
C671: + x3 + x5 <= 1
C672: + x86 + x89 <= 1
C673: + x5 + x382 <= 1
C674: + x19 + x100 <= 1
C675: + x264 + x379 <= 1
C676: + x131 + x403 <= 1
C677: + x222 + x468 <= 1
C678: + x47 + x454 <= 1
C679: + x13 + x238 <= 1
C680: + x141 + x366 <= 1
C681: + x7 + x384 <= 1
C682: + x180 + x242 <= 1
C683: + x71 + x217 <= 1
C684: + x255 + x390 <= 1
C685: + x220 + x230 <= 1
C686: + x7 + x25 <= 1
C687: + x51 + x127 <= 1
C688: + x23 + x32 <= 1
C689: + x209 + x371 <= 1
C690: + x9 + x368 <= 1
C691: + x163 + x251 <= 1
C692: + x28 + x65 <= 1
C693: + x17 + x165 <= 1
C694: + x28 + x240 <= 1
C695: + x38 + x40 <= 1
C696: + x20 + x114 <= 1
C697: + x88 + x181 <= 1
C698: + x12 + x303 <= 1
C699: + x180 + x376 <= 1
C700: + x16 + x303 <= 1
C701: + x16 + x230 <= 1
C702: + x216 + x412 <= 1
C703: + x59 + x467 <= 1
C704: + x50 + x400 <= 1
C705: + x44 + x210 <= 1
C706: + x81 + x273 <= 1
C707: + x63 + x129 <= 1
C708: + x17 + x81 <= 1
C709: + x255 + x449 <= 1
C710: + x76 + x169 <= 1
C711: + x58 + x243 <= 1
C712: + x34 + x92 <= 1
C713: + x15 + x40 <= 1
C714: + x364 + x388 <= 1
C715: + x3 + x161 <= 1
C716: + x49 + x407 <= 1
C717: + x60 + x422 <= 1
C718: + x1 + x42 <= 1
C719: + x121 + x247 <= 1
C720: + x7 + x20 <= 1
C721: + x49 + x209 <= 1
C722: + x3 + x84 <= 1
C723: + x14 + x68 <= 1
C724: + x6 + x39 <= 1
C725: + x9 + x279 <= 1
C726: + x7 + x258 <= 1
C727: + x2 + x207 <= 1
C728: + x3 + x245 <= 1
C729: + x30 + x161 <= 1
C730: + x5 + x78 <= 1
C731: + x44 + x135 + x154 <= 1
C732: + x10 + x159 <= 1
C733: + x157 + x476 <= 1
C734: + x30 + x399 <= 1
C735: + x408 + x488 <= 1
C736: + x3 + x104 <= 1
C737: + x1 + x21 <= 1
C738: + x210 + x328 <= 1
C739: + x283 + x408 <= 1
C740: + x41 + x108 <= 1
C741: + x122 + x166 <= 1
C742: + x5 + x114 <= 1
C743: + x336 + x445 <= 1
C744: + x110 + x423 <= 1
C745: + x258 + x263 <= 1
C746: + x41 + x350 <= 1
C747: + x32 + x483 <= 1
C748: + x63 + x101 <= 1
C749: + x110 + x149 <= 1
C750: + x137 + x231 <= 1
C751: + x83 + x278 <= 1
C752: + x64 + x310 <= 1
C753: + x39 + x254 <= 1
C754: + x13 + x65 <= 1
C755: + x43 + x241 <= 1
C756: + x160 + x335 <= 1
C757: + x5 + x499 <= 1
C758: + x7 + x11 <= 1
C759: + x12 + x353 <= 1
C760: + x25 + x452 <= 1
C761: + x10 + x37 <= 1
C762: + x2 + x200 <= 1
C763: + x275 + x416 <= 1
C764: + x30 + x186 <= 1
C765: + x21 + x147 <= 1
C766: + x14 + x363 <= 1
C767: + x38 + x42 <= 1
C768: + x20 + x128 <= 1
C769: + x169 + x494 <= 1
C770: + x5 + x295 <= 1
C771: + x255 + x356 <= 1
C772: + x192 + x390 <= 1
C773: + x22 + x126 <= 1
C774: + x78 + x294 <= 1
C775: + x26 + x264 <= 1
C776: + x154 + x251 <= 1
C777: + x309 + x360 <= 1
C778: + x4 + x103 <= 1
C779: + x14 + x148 <= 1
C780: + x154 + x457 <= 1
C781: + x49 + x296 <= 1
C782: + x107 + x425 <= 1
C783: + x92 + x220 <= 1
C784: + x3 + x179 <= 1
C785: + x39 + x396 <= 1
C786: + x29 + x369 <= 1
C787: + x23 + x178 <= 1
C788: + x43 + x270 <= 1
C789: + x44 + x394 <= 1
C790: + x35 + x447 <= 1
C791: + x34 + x199 <= 1
C792: + x7 + x14 <= 1
C793: + x399 + x463 <= 1
C794: + x424 + x451 <= 1
C795: + x47 + x427 <= 1
C796: + x74 + x457 <= 1
C797: + x29 + x170 <= 1
C798: + x4 + x406 <= 1
C799: + x73 + x84 <= 1
C800: + x8 + x326 <= 1
C801: + x40 + x477 <= 1
C802: + x180 + x331 <= 1
C803: + x7 + x304 <= 1
C804: + x14 + x141 <= 1
C805: + x26 + x31 <= 1
C806: + x3 + x448 <= 1
C807: + x15 + x57 <= 1
C808: + x71 + x182 <= 1
C809: + x62 + x129 <= 1
C810: + x301 + x339 <= 1
C811: + x234 + x319 <= 1
C812: + x14 + x30 <= 1
C813: + x435 + x490 <= 1
C814: + x1 + x63 <= 1
C815: + x102 + x157 <= 1
C816: + x92 + x128 <= 1
C817: + x72 + x300 <= 1
C818: + x94 + x368 <= 1
C819: + x4 + x495 <= 1
C820: + x262 + x330 <= 1
C821: + x20 + x29 <= 1
C822: + x331 + x402 <= 1
C823: + x117 + x387 <= 1
C824: + x102 + x238 <= 1
C825: + x127 + x256 <= 1
C826: + x9 + x62 <= 1
C827: + x20 + x142 <= 1
C828: + x116 + x386 <= 1
C829: + x26 + x119 <= 1
C830: + x35 + x156 <= 1
C831: + x53 + x242 <= 1
C832: + x11 + x483 <= 1
C833: + x16 + x496 <= 1
C834: + x95 + x162 <= 1
C835: + x23 + x120 <= 1
C836: + x14 + x21 + x26 <= 1
C837: + x12 + x170 <= 1
C838: + x16 + x29 <= 1
C839: + x128 + x316 <= 1
C840: + x49 + x129 <= 1
C841: + x258 + x362 <= 1
C842: + x13 + x137 <= 1
C843: + x46 + x81 <= 1
C844: + x11 + x442 <= 1
C845: + x30 + x482 <= 1
C846: + x15 + x80 <= 1
C847: + x7 + x153 <= 1
C848: + x101 + x324 <= 1
C849: + x200 + x491 <= 1
C850: + x13 + x253 <= 1
C851: + x25 + x374 <= 1
C852: + x224 + x481 <= 1
C853: + x12 + x485 <= 1
C854: + x7 + x44 <= 1
C855: + x37 + x48 <= 1
C856: + x283 + x343 <= 1
C857: + x57 + x305 <= 1
C858: + x169 + x384 <= 1
C859: + x5 + x177 <= 1
C860: + x6 + x207 <= 1
C861: + x308 + x323 <= 1
C862: + x1 + x241 <= 1
C863: + x10 + x12 <= 1
C864: + x285 + x412 <= 1
C865: + x98 + x350 <= 1
C866: + x5 + x419 <= 1
C867: + x7 + x443 <= 1
C868: + x67 + x370 <= 1
C869: + x56 + x243 <= 1
C870: + x50 + x211 <= 1
C871: + x88 + x166 <= 1
C872: + x35 + x359 <= 1
C873: + x18 + x487 <= 1
C874: + x26 + x396 <= 1
C875: + x2 + x24 <= 1
C876: + x166 + x167 <= 1
C877: + x86 + x226 <= 1
C878: + x297 + x300 <= 1
C879: + x12 + x320 <= 1
C880: + x79 + x104 <= 1
C881: + x100 + x191 <= 1
C882: + x134 + x409 <= 1
C883: + x283 + x448 <= 1
C884: + x67 + x481 <= 1
C885: + x1 + x13 <= 1
C886: + x27 + x171 <= 1
C887: + x38 + x125 <= 1
C888: + x76 + x186 <= 1
C889: + x260 + x463 <= 1
C890: + x185 + x382 <= 1
C891: + x105 + x195 <= 1
C892: + x234 + x341 <= 1
C893: + x231 + x425 <= 1
C894: + x108 + x233 <= 1
C895: + x126 + x138 <= 1
C896: + x16 + x95 <= 1
C897: + x34 + x38 <= 1
C898: + x153 + x388 <= 1
C899: + x253 + x432 <= 1
C900: + x3 + x67 <= 1
C901: + x5 + x192 <= 1
C902: + x7 + x208 <= 1
C903: + x12 + x168 <= 1
C904: + x197 + x285 <= 1
C905: + x9 + x24 <= 1
C906: + x10 + x368 <= 1
C907: + x29 + x75 <= 1
C908: + x37 + x472 <= 1
C909: + x49 + x417 <= 1
C910: + x40 + x64 <= 1
C911: + x34 + x477 <= 1
C912: + x80 + x101 <= 1
C913: + x220 + x394 <= 1
C914: + x56 + x121 <= 1
C915: + x38 + x131 <= 1
C916: + x117 + x123 <= 1
C917: + x241 + x427 <= 1
C918: + x41 + x365 <= 1
C919: + x49 + x235 <= 1
C920: + x411 + x450 <= 1
C921: + x99 + x118 <= 1
C922: + x13 + x270 <= 1
C923: + x15 + x90 <= 1
C924: + x10 + x74 <= 1
C925: + x180 + x411 <= 1
C926: + x185 + x261 <= 1
C927: + x12 + x28 + x30 + x139 <= 1
C928: + x5 + x24 <= 1
C929: + x71 + x441 <= 1
C930: + x10 + x165 <= 1
C931: + x9 + x400 <= 1
C932: + x57 + x138 <= 1
C933: + x38 + x485 <= 1
C934: + x404 + x413 <= 1
C935: + x15 + x102 <= 1
C936: + x383 + x458 <= 1
C937: + x121 + x348 <= 1
C938: + x278 + x425 <= 1
C939: + x98 + x368 <= 1
C940: + x5 + x401 <= 1
C941: + x16 + x108 <= 1
C942: + x330 + x364 <= 1
C943: + x21 + x404 <= 1
C944: + x13 + x465 <= 1
C945: + x7 + x82 <= 1
C946: + x1 + x265 <= 1
C947: + x158 + x220 <= 1
C948: + x16 + x302 <= 1
C949: + x8 + x80 <= 1
C950: + x10 + x226 <= 1
C951: + x1 + x27 <= 1
C952: + x57 + x488 <= 1
C953: + x13 + x27 <= 1
C954: + x187 + x318 <= 1
C955: + x1 + x424 <= 1
C956: + x22 + x480 <= 1
C957: + x5 + x378 <= 1
C958: + x87 + x264 <= 1
C959: + x35 + x333 <= 1
C960: + x19 + x96 <= 1
C961: + x112 + x262 <= 1
C962: + x435 + x450 <= 1
C963: + x113 + x177 <= 1
C964: + x293 + x445 <= 1
C965: + x49 + x113 <= 1
C966: + x116 + x414 <= 1
C967: + x80 + x132 <= 1
C968: + x407 + x429 <= 1
C969: + x308 + x346 <= 1
C970: + x7 + x259 <= 1
C971: + x10 + x63 <= 1
C972: + x76 + x79 <= 1
C973: + x104 + x157 <= 1
C974: + x107 + x350 <= 1
C975: + x8 + x56 <= 1
C976: + x291 + x389 <= 1
C977: + x30 + x71 <= 1
C978: + x176 + x471 <= 1
C979: + x1 + x272 <= 1
C980: + x75 + x200 <= 1
C981: + x180 + x380 <= 1
C982: + x7 + x246 <= 1
C983: + x1 + x18 <= 1
C984: + x120 + x196 <= 1
C985: + x30 + x248 <= 1
C986: + x13 + x18 <= 1
C987: + x14 + x158 <= 1
C988: + x294 + x464 <= 1
C989: + x325 + x473 <= 1
C990: + x60 + x453 <= 1
C991: + x5 + x119 <= 1
C992: + x6 + x476 <= 1
C993: + x29 + x109 <= 1
C994: + x3 + x28 <= 1
C995: + x26 + x427 <= 1
C996: + x119 + x410 <= 1
C997: + x135 + x403 <= 1
C998: + x38 + x262 <= 1
C999: + x4 + x142 <= 1
C1000: + x45 + x109 <= 1
C1001: + x194 + x197 <= 1
C1002: + x4 + x41 <= 1
C1003: + x42 + x254 <= 1
C1004: + x51 + x145 <= 1
C1005: + x45 + x274 <= 1
C1006: + x16 + x457 <= 1
C1007: + x11 + x386 <= 1
C1008: + x141 + x248 <= 1
C1009: + x34 + x428 <= 1
C1010: + x5 + x149 <= 1
C1011: + x62 + x70 <= 1
C1012: + x16 + x219 <= 1
C1013: + x201 + x421 <= 1
C1014: + x85 + x155 <= 1
C1015: + x13 + x213 <= 1
C1016: + x5 + x391 <= 1
C1017: + x326 + x428 <= 1
C1018: + x135 + x364 <= 1
C1019: + x47 + x250 <= 1
C1020: + x12 + x42 <= 1
C1021: + x30 + x395 <= 1
C1022: + x204 + x234 <= 1
C1023: + x40 + x328 <= 1
C1024: + x26 + x104 <= 1
C1025: + x418 + x478 <= 1
C1026: + x373 + x421 <= 1
C1027: + x43 + x384 <= 1
C1028: + x25 + x159 <= 1
C1029: + x7 + x467 <= 1
C1030: + x37 + x135 <= 1
C1031: + x2 + x314 <= 1
C1032: + x3 + x426 <= 1
C1033: + x11 + x325 <= 1
C1034: + x4 + x344 <= 1
C1035: + x43 + x110 <= 1
C1036: + x302 + x377 <= 1
C1037: + x118 + x483 <= 1
C1038: + x34 + x81 <= 1
C1039: + x146 + x194 <= 1
C1040: + x136 + x282 <= 1
C1041: + x184 + x292 <= 1
C1042: + x44 + x405 <= 1
C1043: + x45 + x108 <= 1
C1044: + x11 + x216 <= 1
C1045: + x285 + x328 <= 1
C1046: + x51 + x383 <= 1
C1047: + x119 + x260 <= 1
C1048: + x11 + x393 <= 1
C1049: + x41 + x398 <= 1
C1050: + x4 + x260 <= 1
C1051: + x154 + x179 <= 1
C1052: + x63 + x85 <= 1
C1053: + x10 + x406 <= 1
C1054: + x45 + x430 <= 1
C1055: + x5 + x49 <= 1
C1056: + x194 + x234 <= 1
C1057: + x334 + x469 <= 1
C1058: + x71 + x251 <= 1
C1059: + x27 + x117 <= 1
C1060: + x19 + x58 <= 1
C1061: + x14 + x347 <= 1
C1062: + x43 + x180 <= 1
C1063: + x36 + x255 <= 1
C1064: + x1 + x397 <= 1
C1065: + x2 + x307 <= 1
C1066: + x24 + x120 <= 1
C1067: + x131 + x366 <= 1
C1068: + x79 + x345 <= 1
C1069: + x42 + x95 <= 1
C1070: + x259 + x388 <= 1
C1071: + x12 + x27 <= 1
C1072: + x1 + x159 <= 1
C1073: + x5 + x12 <= 1
C1074: + x3 + x340 <= 1
C1075: + x13 + x385 <= 1
C1076: + x30 + x492 <= 1
C1077: + x23 + x37 <= 1
C1078: + x5 + x155 <= 1
C1079: + x91 + x191 <= 1
C1080: + x10 + x415 <= 1
C1081: + x94 + x132 <= 1
C1082: + x26 + x215 <= 1
C1083: + x35 + x60 <= 1
C1084: + x21 + x123 <= 1
C1085: + x105 + x452 <= 1
C1086: + x253 + x415 <= 1
C1087: + x173 + x257 <= 1
C1088: + x37 + x38 <= 1
C1089: + x101 + x297 <= 1
C1090: + x67 + x182 <= 1
C1091: + x40 + x473 <= 1
C1092: + x13 + x346 <= 1
C1093: + x181 + x190 <= 1
C1094: + x39 + x56 <= 1
C1095: + x41 + x94 <= 1
C1096: + x40 + x192 <= 1
C1097: + x79 + x420 <= 1
C1098: + x16 + x20 <= 1
C1099: + x66 + x76 <= 1
C1100: + x12 + x20 <= 1
C1101: + x50 + x165 <= 1
C1102: + x10 + x111 <= 1
C1103: + x2 + x26 <= 1
C1104: + x13 + x142 <= 1
C1105: + x4 + x225 <= 1
C1106: + x146 + x418 <= 1
C1107: + x106 + x401 <= 1
C1108: + x26 + x47 <= 1
C1109: + x9 + x83 <= 1
C1110: + x85 + x422 <= 1
C1111: + x20 + x33 <= 1
C1112: + x130 + x267 <= 1
C1113: + x185 + x407 <= 1
C1114: + x14 + x107 <= 1
C1115: + x42 + x116 <= 1
C1116: + x5 + x130 <= 1
C1117: + x82 + x229 <= 1
C1118: + x75 + x105 <= 1
C1119: + x292 + x432 <= 1
C1120: + x4 + x173 <= 1
C1121: + x176 + x217 <= 1
C1122: + x35 + x51 <= 1
C1123: + x142 + x420 <= 1
C1124: + x1 + x79 <= 1
C1125: + x10 + x273 <= 1
C1126: + x42 + x64 <= 1
C1127: + x5 + x182 <= 1
C1128: + x26 + x278 <= 1
C1129: + x36 + x50 <= 1
C1130: + x28 + x125 <= 1
C1131: + x55 + x289 <= 1
C1132: + x40 + x181 <= 1
C1133: + x152 + x433 <= 1
C1134: + x76 + x262 <= 1
C1135: + x239 + x287 <= 1
C1136: + x30 + x127 <= 1
C1137: + x4 + x331 <= 1
C1138: + x137 + x160 <= 1
C1139: + x84 + x326 <= 1
C1140: + x10 + x477 <= 1
C1141: + x157 + x195 <= 1
C1142: + x2 + x19 <= 1
C1143: + x13 + x133 <= 1
C1144: + x51 + x391 <= 1
C1145: + x160 + x387 <= 1
C1146: + x1 + x10 <= 1
C1147: + x56 + x103 <= 1
C1148: + x68 + x498 <= 1
C1149: + x4 + x5 <= 1
C1150: + x13 + x439 <= 1
C1151: + x87 + x406 <= 1
C1152: + x253 + x473 <= 1
C1153: + x10 + x302 <= 1
C1154: + x293 + x317 <= 1
C1155: + x49 + x262 <= 1
C1156: + x239 + x363 <= 1
C1157: + x38 + x395 <= 1
C1158: + x23 + x55 <= 1
C1159: + x6 + x7 <= 1
C1160: + x418 + x430 <= 1
C1161: + x83 + x303 <= 1
C1162: + x5 + x46 <= 1
C1163: + x58 + x405 <= 1
C1164: + x161 + x484 <= 1
C1165: + x26 + x68 <= 1
C1166: + x7 + x48 <= 1
C1167: + x252 + x291 <= 1
C1168: + x64 + x171 <= 1
C1169: + x11 + x35 <= 1
C1170: + x21 + x283 <= 1
C1171: + x5 + x189 <= 1
C1172: + x43 + x447 <= 1
C1173: + x436 + x446 <= 1
C1174: + x85 + x131 <= 1
C1175: + x242 + x353 <= 1
C1176: + x4 + x66 <= 1
C1177: + x52 + x124 <= 1
C1178: + x34 + x146 <= 1
C1179: + x43 + x173 <= 1
C1180: + x3 + x398 <= 1
C1181: + x7 + x92 <= 1
C1182: + x11 + x23 <= 1
C1183: + x157 + x218 <= 1
C1184: + x117 + x219 <= 1
C1185: + x2 + x183 <= 1
C1186: + x11 + x204 <= 1
C1187: + x230 + x454 <= 1
C1188: + x4 + x449 <= 1
C1189: + x73 + x385 <= 1
C1190: + x10 + x343 <= 1
C1191: + x86 + x95 <= 1
C1192: + x13 + x275 <= 1
C1193: + x217 + x228 <= 1
C1194: + x25 + x36 <= 1
C1195: + x16 + x329 <= 1
C1196: + x92 + x268 <= 1
C1197: + x1 + x192 <= 1
C1198: + x46 + x436 <= 1
C1199: + x67 + x112 <= 1
C1200: + x5 + x21 <= 1
C1201: + x307 + x405 <= 1
C1202: + x193 + x194 <= 1
C1203: + x85 + x283 <= 1
C1204: + x115 + x151 <= 1
C1205: + x125 + x127 <= 1
C1206: + x7 + x39 <= 1
C1207: + x128 + x325 <= 1
C1208: + x37 + x496 <= 1
C1209: + x11 + x46 <= 1
C1210: + x41 + x406 <= 1
C1211: + x264 + x398 <= 1
C1212: + x159 + x254 <= 1
C1213: + x68 + x436 <= 1
C1214: + x5 + x89 <= 1
C1215: + x16 + x111 <= 1
C1216: + x1 + x105 <= 1
C1217: + x330 + x359 <= 1
C1218: + x45 + x184 <= 1
C1219: + x8 + x62 <= 1
C1220: + x10 + x148 <= 1
C1221: + x49 + x179 <= 1
C1222: + x172 + x402 <= 1
C1223: + x11 + x18 <= 1
C1224: + x113 + x357 <= 1
C1225: + x40 + x60 <= 1
C1226: + x180 + x370 <= 1
C1227: + x7 + x256 <= 1
C1228: + x1 + x8 <= 1
C1229: + x10 + x253 <= 1
C1230: + x85 + x350 <= 1
C1231: + x112 + x140 <= 1
C1232: + x285 + x419 <= 1
C1233: + x107 + x284 <= 1
C1234: + x37 + x150 <= 1
C1235: + x58 + x310 <= 1
C1236: + x3 + x6 <= 1
C1237: + x97 + x286 <= 1
C1238: + x179 + x469 <= 1
C1239: + x151 + x246 <= 1
C1240: + x7 + x143 <= 1
C1241: + x12 + x229 <= 1
C1242: + x13 + x239 <= 1
C1243: + x231 + x424 <= 1
C1244: + x17 + x293 <= 1
C1245: + x198 + x364 <= 1
C1246: + x10 + x169 <= 1
C1247: + x12 + x68 <= 1
C1248: + x42 + x317 <= 1
C1249: + x79 + x269 <= 1
C1250: + x7 + x26 <= 1
C1251: + x26 + x489 <= 1
C1252: + x1 + x195 <= 1
C1253: + x368 + x380 <= 1
C1254: + x5 + x72 <= 1
C1255: + x19 + x186 <= 1
C1256: + x18 + x376 <= 1
C1257: + x7 + x247 <= 1
C1258: + x102 + x189 <= 1
C1259: + x49 + x57 <= 1
C1260: + x95 + x360 <= 1
C1261: + x188 + x190 <= 1
C1262: + x43 + x195 <= 1
C1263: + x27 + x185 <= 1
C1264: + x10 + x321 <= 1
C1265: + x326 + x490 <= 1
C1266: + x86 + x97 <= 1
C1267: + x13 + x257 <= 1
C1268: + x204 + x383 <= 1
C1269: + x42 + x112 <= 1
C1270: + x158 + x236 <= 1
C1271: + x40 + x101 <= 1
C1272: + x26 + x321 <= 1
C1273: + x15 + x315 <= 1
C1274: + x45 + x114 <= 1
C1275: + x235 + x495 <= 1
C1276: + x242 + x443 <= 1
C1277: + x243 + x415 <= 1
C1278: + x168 + x478 <= 1
C1279: + x3 + x488 <= 1
C1280: + x130 + x150 <= 1
C1281: + x97 + x353 <= 1
C1282: + x133 + x298 <= 1
C1283: + x453 + x457 <= 1
C1284: + x10 + x35 <= 1
C1285: + x104 + x153 <= 1
C1286: + x53 + x65 <= 1
C1287: + x1 + x103 <= 1
C1288: + x203 + x239 <= 1
C1289: + x43 + x59 <= 1
C1290: + x7 + x77 <= 1
C1291: + x109 + x395 <= 1
C1292: + x144 + x207 <= 1
C1293: + x84 + x149 <= 1
C1294: + x374 + x435 <= 1
C1295: + x25 + x394 <= 1
C1296: + x49 + x64 <= 1
C1297: + x40 + x141 <= 1
C1298: + x147 + x434 <= 1
C1299: + x14 + x392 <= 1
C1300: + x19 + x83 <= 1
C1301: + x21 + x336 <= 1
C1302: + x1 + x34 <= 1
C1303: + x25 + x168 <= 1
C1304: + x24 + x50 <= 1
C1305: + x134 + x199 <= 1
C1306: + x93 + x312 <= 1
C1307: + x29 + x61 <= 1
C1308: + x4 + x287 <= 1
C1309: + x5 + x145 <= 1
C1310: + x106 + x349 <= 1
C1311: + x71 + x117 <= 1
C1312: + x54 + x416 <= 1
C1313: + x202 + x319 <= 1
C1314: + x29 + x271 <= 1
C1315: + x52 + x88 <= 1
C1316: + x10 + x135 <= 1
C1317: + x193 + x227 <= 1
C1318: + x76 + x295 <= 1
C1319: + x33 + x151 <= 1
C1320: + x144 + x216 <= 1
C1321: + x130 + x187 <= 1
C1322: + x16 + x320 <= 1
C1323: + x1 + x237 <= 1
C1324: + x157 + x323 <= 1
C1325: + x4 + x106 <= 1
C1326: + x17 + x80 <= 1
C1327: + x71 + x279 <= 1
C1328: + x101 + x438 <= 1
C1329: + x66 + x126 <= 1
C1330: + x3 + x422 <= 1
C1331: + x21 + x498 <= 1
C1332: + x344 + x453 <= 1
C1333: + x7 + x116 <= 1
C1334: + x19 + x78 <= 1
C1335: + x3 + x180 <= 1
C1336: + x59 + x85 <= 1
C1337: + x169 + x184 <= 1
C1338: + x5 + x9 <= 1
C1339: + x20 + x349 <= 1
C1340: + x67 + x116 <= 1
C1341: + x325 + x339 <= 1
C1342: + x3 + x341 <= 1
C1343: + x70 + x122 <= 1
C1344: + x271 + x283 <= 1
C1345: + x100 + x490 <= 1
C1346: + x47 + x335 <= 1
C1347: + x30 + x495 <= 1
C1348: + x4 + x264 <= 1
C1349: + x106 + x326 <= 1
C1350: + x6 + x24 <= 1
C1351: + x208 + x433 <= 1
C1352: + x1 + x355 <= 1
C1353: + x373 + x412 <= 1
C1354: + x96 + x126 <= 1
C1355: + x26 + x210 <= 1
C1356: + x18 + x29 <= 1
C1357: + x74 + x464 <= 1
C1358: + x7 + x414 <= 1
C1359: + x10 + x144 <= 1
C1360: + x140 + x419 <= 1
C1361: + x43 + x45 <= 1
C1362: + x410 + x411 <= 1
C1363: + x265 + x436 <= 1
C1364: + x39 + x472 <= 1
C1365: + x109 + x286 <= 1
C1366: + x73 + x327 <= 1
C1367: + x172 + x240 <= 1
C1368: + x28 + x99 <= 1
C1369: + x113 + x238 <= 1
C1370: + x16 + x23 <= 1
C1371: + x36 + x227 <= 1
C1372: + x2 + x311 <= 1
C1373: + x20 + x84 <= 1
C1374: + x150 + x290 <= 1
C1375: + x28 + x429 <= 1
C1376: + x2 + x5 <= 1
C1377: + x95 + x236 <= 1
C1378: + x14 + x29 <= 1
C1379: + x245 + x263 <= 1
C1380: + x52 + x53 <= 1
C1381: + x116 + x373 <= 1
C1382: + x74 + x104 <= 1
C1383: + x111 + x428 <= 1
C1384: + x64 + x253 <= 1
C1385: + x29 + x51 <= 1
C1386: + x49 + x199 <= 1
C1387: + x104 + x289 <= 1
C1388: + x160 + x211 <= 1
C1389: + x10 + x86 <= 1
C1390: + x75 + x110 <= 1
C1391: + x4 + x172 <= 1
C1392: + x14 + x209 <= 1
C1393: + x15 + x231 <= 1
C1394: + x1 + x76 <= 1
C1395: + x10 + x177 <= 1
C1396: + x44 + x176 <= 1
C1397: + x1 + x489 <= 1
C1398: + x141 + x214 <= 1
C1399: + x14 + x34 <= 1
C1400: + x89 + x223 <= 1
C1401: + x16 + x270 <= 1
C1402: + x167 + x276 <= 1
C1403: + x188 + x275 <= 1
C1404: + x5 + x421 <= 1
C1405: + x72 + x147 <= 1
C1406: + x7 + x110 <= 1
C1407: + x1 + x293 <= 1
C1408: + x155 + x363 <= 1
C1409: + x4 + x229 <= 1
C1410: + x25 + x427 <= 1
C1411: + x368 + x465 <= 1
C1412: + x26 + x152 <= 1
C1413: + x7 + x340 <= 1
C1414: + x246 + x442 <= 1
C1415: + x136 + x431 <= 1
C1416: + x1 + x55 <= 1
C1417: + x20 + x202 <= 1
C1418: + x9 + x87 <= 1
C1419: + x93 + x285 <= 1
C1420: + x12 + x407 <= 1
C1421: + x224 + x333 <= 1
C1422: + x53 + x331 <= 1
C1423: + x45 + x416 <= 1
C1424: + x148 + x183 <= 1
C1425: + x26 + x361 <= 1
C1426: + x226 + x460 <= 1
C1427: + x16 + x81 <= 1
C1428: + x120 + x307 <= 1
C1429: + x174 + x353 <= 1
C1430: + x312 + x485 <= 1
C1431: + x5 + x285 <= 1
C1432: + x170 + x476 <= 1
C1433: + x92 + x431 <= 1
C1434: + x93 + x337 <= 1
C1435: + x233 + x236 <= 1
C1436: + x154 + x205 <= 1
C1437: + x75 + x89 <= 1
C1438: + x56 + x431 <= 1
C1439: + x40 + x177 <= 1
C1440: + x214 + x299 <= 1
C1441: + x89 + x440 <= 1
C1442: + x53 + x105 <= 1
C1443: + x73 + x466 <= 1
C1444: + x72 + x140 <= 1
C1445: + x323 + x338 <= 1
C1446: + x31 + x462 <= 1
C1447: + x42 + x77 <= 1
C1448: + x66 + x228 <= 1
C1449: + x3 + x157 <= 1
C1450: + x14 + x15 <= 1
C1451: + x1 + x14 <= 1
C1452: + x85 + x332 <= 1
C1453: + x12 + x158 <= 1
C1454: + x42 + x267 <= 1
C1455: + x9 + x94 <= 1
C1456: + x11 + x418 <= 1
C1457: + x3 + x16 <= 1
C1458: + x243 + x287 <= 1
C1459: + x224 + x489 <= 1
C1460: + x3 + x374 <= 1
C1461: + x58 + x409 <= 1
C1462: + x78 + x102 <= 1
C1463: + x4 + x396 <= 1
C1464: + x73 + x74 <= 1
C1465: + x49 + x374 <= 1
C1466: + x13 + x332 <= 1
C1467: + x152 + x188 <= 1
C1468: + x10 + x52 <= 1
C1469: + x76 + x84 <= 1
C1470: + x85 + x143 <= 1
C1471: + x223 + x263 <= 1
C1472: + x5 + x94 <= 1
C1473: + x295 + x495 <= 1
C1474: + x7 + x435 <= 1
C1475: + x308 + x490 <= 1
C1476: + x414 + x469 <= 1
C1477: + x7 + x96 <= 1
C1478: + x2 + x112 <= 1
C1479: + x108 + x181 <= 1
C1480: + x18 + x378 <= 1
C1481: + x9 + x232 <= 1
C1482: + x134 + x385 <= 1
C1483: + x85 + x339 <= 1
C1484: + x3 + x313 <= 1
C1485: + x51 + x172 <= 1
C1486: + x256 + x300 <= 1
C1487: + x217 + x232 <= 1
C1488: + x14 + x409 <= 1
C1489: + x163 + x384 <= 1
C1490: + x10 + x73 <= 1
C1491: + x11 + x71 <= 1
C1492: + x19 + x102 <= 1
C1493: + x197 + x337 <= 1
C1494: + x2 + x327 <= 1
C1495: + x24 + x39 <= 1
C1496: + x60 + x152 <= 1
C1497: + x150 + x213 <= 1
C1498: + x10 + x53 <= 1
C1499: + x42 + x329 <= 1
C1500: + x70 + x456 <= 1
C1501: + x17 + x163 <= 1
C1502: + x147 + x392 <= 1
C1503: + x12 + x59 <= 1
C1504: + x131 + x334 <= 1
C1505: + x5 + x311 <= 1
C1506: + x142 + x233 <= 1
C1507: + x81 + x144 <= 1
C1508: + x3 + x111 <= 1
C1509: + x77 + x170 <= 1
C1510: + x42 + x474 <= 1
C1511: + x12 + x301 <= 1
C1512: + x7 + x325 <= 1
C1513: + x144 + x471 <= 1
C1514: + x12 + x140 <= 1
C1515: + x41 + x99 <= 1
C1516: + x13 + x417 <= 1
C1517: + x21 + x215 <= 1
C1518: + x73 + x396 <= 1
C1519: + x1 + x441 <= 1
C1520: + x308 + x443 <= 1
C1521: + x348 + x455 <= 1
C1522: + x26 + x417 <= 1
C1523: + x73 + x233 <= 1
C1524: + x101 + x378 <= 1
C1525: + x36 + x426 <= 1
C1526: + x13 + x235 <= 1
C1527: + x176 + x244 <= 1
C1528: + x98 + x225 <= 1
C1529: + x10 + x173 <= 1
C1530: + x4 + x35 <= 1
C1531: + x106 + x444 <= 1
C1532: + x252 + x309 <= 1
C1533: + x7 + x30 <= 1
C1534: + x134 + x209 <= 1
C1535: + x135 + x231 <= 1
C1536: + x29 + x43 <= 1
C1537: + x85 + x387 <= 1
C1538: + x72 + x226 <= 1
C1539: + x51 + x124 <= 1
C1540: + x3 + x489 <= 1
C1541: + x132 + x149 <= 1
C1542: + x12 + x213 <= 1
C1543: + x161 + x357 <= 1
C1544: + x49 + x174 <= 1
C1545: + x15 + x33 + x45 <= 1
C1546: + x403 + x482 <= 1
C1547: + x5 + x318 <= 1
C1548: + x36 + x355 <= 1
C1549: + x41 + x461 <= 1
C1550: + x132 + x321 <= 1
C1551: + x12 + x294 <= 1
C1552: + x13 + x174 <= 1
C1553: + x152 + x329 <= 1
C1554: + x143 + x424 <= 1
C1555: + x305 + x322 <= 1
C1556: + x40 + x148 <= 1
C1557: + x5 + x120 <= 1
C1558: + x25 + x153 <= 1
C1559: + x1 + x448 <= 1
C1560: + x120 + x354 <= 1
C1561: + x3 + x25 <= 1
C1562: + x146 + x208 <= 1
C1563: + x2 + x54 <= 1
C1564: + x40 + x97 <= 1
C1565: + x5 + x7 <= 1
C1566: + x40 + x275 <= 1
C1567: + x235 + x272 <= 1
C1568: + x7 + x21 <= 1
C1569: + x16 + x460 <= 1
C1570: + x89 + x130 <= 1
C1571: + x242 + x272 <= 1
C1572: + x12 + x206 <= 1
C1573: + x116 + x224 <= 1
C1574: + x298 + x412 <= 1
C1575: + x10 + x130 <= 1
C1576: + x75 + x466 <= 1
C1577: + x12 + x41 <= 1
C1578: + x242 + x491 <= 1
C1579: + x13 + x456 <= 1
C1580: + x252 + x282 <= 1
C1581: + x19 + x466 <= 1
C1582: + x11 + x16 <= 1
C1583: + x86 + x133 <= 1
C1584: + x10 + x19 <= 1
C1585: + x102 + x162 <= 1
C1586: + x49 + x52 <= 1
C1587: + x1 + x234 <= 1
C1588: + x234 + x423 <= 1
C1589: + x37 + x136 <= 1
C1590: + x319 + x450 <= 1
C1591: + x288 + x293 <= 1
C1592: + x264 + x360 <= 1
C1593: + x104 + x218 <= 1
C1594: + x70 + x399 <= 1
C1595: + x225 + x269 <= 1
C1596: + x45 + x101 <= 1
C1597: + x100 + x138 <= 1
C1598: + x272 + x296 <= 1
C1599: + x113 + x176 <= 1
C1600: + x222 + x324 <= 1
C1601: + x234 + x467 <= 1
C1602: + x51 + x137 <= 1
C1603: + x271 + x280 <= 1
C1604: + x10 + x314 <= 1
C1605: + x147 + x354 <= 1
C1606: + x20 + x22 <= 1
C1607: + x130 + x320 <= 1
C1608: + x14 + x120 <= 1
C1609: + x127 + x449 <= 1
C1610: + x37 + x358 <= 1
C1611: + x95 + x298 <= 1
C1612: + x234 + x356 <= 1
C1613: + x16 + x66 <= 1
C1614: + x8 + x37 <= 1
C1615: + x300 + x417 <= 1
C1616: + x71 + x351 <= 1
C1617: + x313 + x324 <= 1
C1618: + x3 + x366 <= 1
C1619: + x59 + x383 <= 1
C1620: + x2 + x34 + x49 <= 1
C1621: + x26 + x112 <= 1
C1622: + x7 + x60 <= 1
C1623: + x283 + x327 <= 1
C1624: + x14 + x44 <= 1
C1625: + x80 + x124 <= 1
C1626: + x146 + x372 <= 1
C1627: + x20 + x244 <= 1
C1628: + x70 + x487 <= 1
C1629: + x5 + x435 <= 1
C1630: + x154 + x468 <= 1
C1631: + x183 + x369 <= 1
C1632: + x76 + x279 <= 1
C1633: + x39 + x292 <= 1
C1634: + x60 + x232 <= 1
C1635: + x43 + x86 <= 1
C1636: + x4 + x352 <= 1
C1637: + x65 + x235 <= 1
C1638: + x2 + x8 <= 1
C1639: + x86 + x210 <= 1
C1640: + x31 + x122 <= 1
C1641: + x14 + x32 <= 1
C1642: + x47 + x61 <= 1
C1643: + x194 + x214 <= 1
C1644: + x259 + x308 <= 1
C1645: + x35 + x202 <= 1
C1646: + x263 + x332 <= 1
C1647: + x29 + x56 <= 1
C1648: + x168 + x179 <= 1
C1649: + x6 + x20 <= 1
C1650: + x36 + x393 <= 1
C1651: + x63 + x93 <= 1
C1652: + x8 + x308 <= 1
C1653: + x83 + x318 <= 1
C1654: + x148 + x173 <= 1
C1655: + x236 + x275 <= 1
C1656: + x83 + x479 <= 1
C1657: + x147 + x492 <= 1
C1658: + x204 + x302 <= 1
C1659: + x220 + x335 <= 1
C1660: + x76 + x198 <= 1
C1661: + x141 + x219 <= 1
C1662: + x344 + x361 <= 1
C1663: + x152 + x344 <= 1
C1664: + x19 + x50 <= 1
C1665: + x48 + x108 <= 1
C1666: + x242 + x374 <= 1
C1667: + x4 + x83 <= 1
C1668: + x23 + x264 <= 1
C1669: + x298 + x434 <= 1
C1670: + x71 + x270 <= 1
C1671: + x243 + x468 <= 1
C1672: + x93 + x462 <= 1
C1673: + x139 + x257 <= 1
C1674: + x35 + x338 <= 1
C1675: + x10 + x475 <= 1
C1676: + x1 + x290 <= 1
C1677: + x132 + x356 <= 1
C1678: + x60 + x110 <= 1
C1679: + x35 + x193 <= 1
C1680: + x4 + x369 <= 1
C1681: + x35 + x294 <= 1
C1682: + x27 + x455 <= 1
C1683: + x28 + x36 <= 1
C1684: + x94 + x156 <= 1
C1685: + x21 + x174 <= 1
C1686: + x4 + x176 <= 1
C1687: + x49 + x493 <= 1
C1688: + x287 + x482 <= 1
C1689: + x81 + x454 <= 1
C1690: + x52 + x499 <= 1
C1691: + x17 + x134 <= 1
C1692: + x20 + x145 <= 1
C1693: + x161 + x494 <= 1
C1694: + x79 + x313 <= 1
C1695: + x109 + x500 <= 1
C1696: + x7 + x54 <= 1
C1697: + x2 + x403 <= 1
C1698: + x10 + x280 <= 1
C1699: + x6 + x430 <= 1
C1700: + x47 + x290 <= 1
C1701: + x8 + x172 <= 1
C1702: + x146 + x366 <= 1
C1703: + x274 + x305 <= 1
C1704: + x124 + x164 <= 1
C1705: + x98 + x352 <= 1
C1706: + x79 + x428 <= 1
C1707: + x33 + x117 <= 1
C1708: + x7 + x98 <= 1
C1709: + x190 + x277 <= 1
C1710: + x260 + x448 <= 1
C1711: + x17 + x380 <= 1
C1712: + x3 + x291 <= 1
C1713: + x311 + x423 <= 1
C1714: + x4 + x8 <= 1
C1715: + x4 + x475 <= 1
C1716: + x140 + x281 <= 1
C1717: + x79 + x376 <= 1
C1718: + x13 + x107 <= 1
C1719: + x220 + x222 <= 1
C1720: + x106 + x316 <= 1
C1721: + x323 + x359 <= 1
C1722: + x291 + x352 <= 1
C1723: + x20 + x315 <= 1
C1724: + x49 + x484 <= 1
C1725: + x400 + x486 <= 1
C1726: + x3 + x69 <= 1
C1727: + x32 + x61 <= 1
C1728: + x36 + x58 <= 1
C1729: + x10 + x15 <= 1
C1730: + x164 + x205 <= 1
C1731: + x110 + x227 <= 1
C1732: + x1 + x246 <= 1
C1733: + x25 + x252 <= 1
C1734: + x17 + x169 <= 1
C1735: + x10 + x362 <= 1
C1736: + x249 + x304 <= 1
C1737: + x11 + x378 <= 1
C1738: + x305 + x450 <= 1
C1739: + x30 + x418 <= 1
C1740: + x351 + x459 <= 1
C1741: + x89 + x345 <= 1
C1742: + x330 + x480 <= 1
C1743: + x194 + x286 <= 1
C1744: + x15 + x169 <= 1
C1745: + x113 + x204 <= 1
C1746: + x3 + x12 <= 1
C1747: + x73 + x255 <= 1
C1748: + x118 + x266 <= 1
C1749: + x78 + x372 <= 1
C1750: + x99 + x217 <= 1
C1751: + x65 + x414 <= 1
C1752: + x2 + x322 <= 1
C1753: + x35 + x167 <= 1
C1754: + x128 + x328 <= 1
C1755: + x327 + x425 <= 1
C1756: + x2 + x88 <= 1
C1757: + x114 + x318 <= 1
C1758: + x24 + x393 <= 1
C1759: + x265 + x266 <= 1
C1760: + x285 + x496 <= 1
C1761: + x296 + x497 <= 1
C1762: + x16 + x106 <= 1
C1763: + x1 + x106 <= 1
C1764: + x299 + x315 <= 1
C1765: + x97 + x451 <= 1
C1766: + x70 + x201 <= 1
C1767: + x6 + x68 <= 1
C1768: + x136 + x175 <= 1
C1769: + x66 + x292 <= 1
C1770: + x159 + x175 <= 1
C1771: + x5 + x233 <= 1
C1772: + x381 + x440 <= 1
C1773: + x1 + x25 <= 1
C1774: + x237 + x461 <= 1
C1775: + x3 + x7 + x9 + x10 <= 1
C1776: + x86 + x329 <= 1
C1777: + x35 + x238 <= 1
C1778: + x9 + x73 <= 1
C1779: + x135 + x184 <= 1
C1780: + x82 + x420 <= 1
C1781: + x1 + x422 <= 1
C1782: + x12 + x441 <= 1
C1783: + x14 + x405 <= 1
C1784: + x1 + x323 <= 1
C1785: + x68 + x400 <= 1
C1786: + x90 + x370 <= 1
C1787: + x2 + x347 <= 1
C1788: + x60 + x77 <= 1
C1789: + x15 + x462 <= 1
C1790: + x26 + x77 <= 1
C1791: + x2 + x486 <= 1
C1792: + x29 + x48 <= 1
C1793: + x248 + x367 <= 1
C1794: + x1 + x5 + x6 + x11 <= 1
C1795: + x104 + x320 <= 1
C1796: + x5 + x164 <= 1
C1797: + x71 + x124 <= 1
C1798: + x1 + x196 <= 1
C1799: + x7 + x426 <= 1
C1800: + x237 + x437 <= 1
C1801: + x130 + x346 <= 1
C1802: + x30 + x73 <= 1
C1803: + x51 + x208 <= 1
C1804: + x8 + x345 <= 1
C1805: + x46 + x497 <= 1
C1806: + x78 + x306 <= 1
C1807: + x260 + x403 <= 1
C1808: + x109 + x255 <= 1
C1809: + x1 + x32 <= 1
C1810: + x281 + x483 <= 1
C1811: + x136 + x402 <= 1
C1812: + x47 + x100 <= 1
C1813: + x67 + x251 <= 1
C1814: + x134 + x297 <= 1
C1815: + x145 + x424 <= 1
C1816: + x57 + x74 <= 1
C1817: + x183 + x356 <= 1
C1818: + x147 + x440 <= 1
C1819: + x94 + x256 <= 1
C1820: + x11 + x78 <= 1
C1821: + x29 + x381 <= 1
C1822: + x5 + x28 <= 1
C1823: + x52 + x463 <= 1
C1824: + x45 + x115 <= 1
C1825: + x1 + x44 <= 1
C1826: + x249 + x377 <= 1
C1827: + x157 + x258 <= 1
C1828: + x201 + x340 <= 1
C1829: + x268 + x271 <= 1
C1830: + x379 + x402 <= 1
C1831: + x291 + x462 <= 1
C1832: + x21 + x39 <= 1
C1833: + x16 + x463 <= 1
C1834: + x46 + x107 <= 1
C1835: + x56 + x168 <= 1
C1836: + x58 + x266 <= 1
C1837: + x102 + x451 <= 1
C1838: + x14 + x66 <= 1
C1839: + x36 + x410 <= 1
C1840: + x5 + x389 <= 1
C1841: + x315 + x439 <= 1
C1842: + x19 + x178 <= 1
C1843: + x3 + x408 <= 1
C1844: + x29 + x86 <= 1
C1845: + x55 + x76 <= 1
C1846: + x365 + x491 <= 1
C1847: + x215 + x289 <= 1
C1848: + x96 + x160 <= 1
C1849: + x7 + x239 <= 1
C1850: + x45 + x54 <= 1
C1851: + x7 + x308 <= 1
C1852: + x82 + x371 <= 1
C1853: + x160 + x261 <= 1
C1854: + x36 + x248 <= 1
C1855: + x19 + x358 <= 1
C1856: + x15 + x404 <= 1
C1857: + x399 + x442 <= 1
C1858: + x49 + x291 <= 1
C1859: + x41 + x352 <= 1
C1860: + x6 + x122 <= 1
C1861: + x338 + x388 <= 1
C1862: + x11 + x117 <= 1
C1863: + x279 + x482 <= 1
C1864: + x317 + x346 <= 1
C1865: + x29 + x153 <= 1
C1866: + x21 + x46 <= 1
C1867: + x41 + x154 <= 1
C1868: + x39 + x244 <= 1
C1869: + x60 + x408 <= 1
C1870: + x71 + x201 <= 1
C1871: + x393 + x397 <= 1
C1872: + x29 + x62 <= 1
C1873: + x3 + x41 <= 1
C1874: + x4 + x258 <= 1
C1875: + x101 + x337 <= 1
C1876: + x10 + x43 <= 1
C1877: + x30 + x184 <= 1
C1878: + x106 + x255 <= 1
C1879: + x43 + x309 <= 1
C1880: + x98 + x381 <= 1
C1881: + x79 + x399 <= 1
C1882: + x16 + x69 <= 1
C1883: + x10 + x134 <= 1
C1884: + x276 + x309 <= 1
C1885: + x35 + x136 <= 1
C1886: + x208 + x348 <= 1
C1887: + x54 + x85 <= 1
C1888: + x14 + x47 <= 1
C1889: + x27 + x119 <= 1
C1890: + x10 + x23 <= 1
C1891: + x220 + x404 <= 1
C1892: + x65 + x75 <= 1
C1893: + x10 + x370 <= 1
C1894: + x47 + x207 <= 1
C1895: + x12 + x25 <= 1
C1896: + x72 + x160 <= 1
C1897: + x41 + x242 <= 1
C1898: + x91 + x109 <= 1
C1899: + x74 + x237 <= 1
C1900: + x19 + x386 <= 1
C1901: + x7 + x113 <= 1
C1902: + x30 + x381 <= 1
C1903: + x6 + x134 <= 1
C1904: + x4 + x492 <= 1
C1905: + x109 + x454 <= 1
C1906: + x256 + x311 <= 1
C1907: + x3 + x36 <= 1
C1908: + x19 + x438 <= 1
C1909: + x144 + x358 <= 1
C1910: + x50 + x453 <= 1
C1911: + x4 + x166 <= 1
C1912: + x17 + x140 <= 1
C1913: + x19 + x164 <= 1
C1914: + x241 + x288 <= 1
C1915: + x76 + x479 <= 1
C1916: + x331 + x488 <= 1
C1917: + x136 + x147 <= 1
C1918: + x47 + x284 <= 1
C1919: + x95 + x189 <= 1
C1920: + x14 + x40 <= 1
C1921: + x17 + x342 <= 1
C1922: + x207 + x464 <= 1
C1923: + x152 + x176 <= 1
C1924: + x3 + x281 <= 1
C1925: + x50 + x433 <= 1
C1926: + x4 + x82 <= 1
C1927: + x40 + x190 <= 1
C1928: + x14 + x342 <= 1
C1929: + x16 + x18 <= 1
C1930: + x210 + x211 <= 1
C1931: + x3 + x446 <= 1
C1932: + x112 + x441 <= 1
C1933: + x34 + x109 <= 1
C1934: + x32 + x467 <= 1
C1935: + x16 + x437 <= 1
C1936: + x100 + x385 <= 1
C1937: + x436 + x475 <= 1
C1938: + x28 + x432 <= 1
C1939: + x59 + x93 <= 1
C1940: + x234 + x317 <= 1
C1941: + x35 + x97 <= 1
C1942: + x17 + x215 <= 1
C1943: + x73 + x308 <= 1
C1944: + x102 + x155 <= 1
C1945: + x67 + x493 <= 1
C1946: + x2 + x167 <= 1
C1947: + x253 + x355 <= 1
C1948: + x39 + x136 + x188 <= 1
C1949: + x35 + x198 <= 1
C1950: + x92 + x413 <= 1
C1951: + x130 + x256 <= 1

binary
x1 x2 x3 x4 x5 x6 x7 x8 x9 x10 x11 x12 x13 x14 x15 x16 x17 x18 x19 x20 x21 x22 x23 x24 x25 x26 x27 x28 x29 x30 x31 x32 x33 x34 x35 x36 x37 x38 x39 x40 x41 x42 x43 x44 x45 x46 x47 x48 x49 x50 x51 x52 x53 x54 x55 x56 x57 x58 x59 x60 x61 x62 x63 x64 x65 x66 x67 x68 x69 x70 x71 x72 x73 x74 x75 x76 x77 x78 x79 x80 x81 x82 x83 x84 x85 x86 x87 x88 x89 x90 x91 x92 x93 x94 x95 x96 x97 x98 x99 x100 x101 x102 x103 x104 x105 x106 x107 x108 x109 x110 x111 x112 x113 x114 x115 x116 x117 x118 x119 x120 x121 x122 x123 x124 x125 x126 x127 x128 x129 x130 x131 x132 x133 x134 x135 x136 x137 x138 x139 x140 x141 x142 x143 x144 x145 x146 x147 x148 x149 x150 x151 x152 x153 x154 x155 x156 x157 x158 x159 x160 x161 x162 x163 x164 x165 x166 x167 x168 x169 x170 x171 x172 x173 x174 x175 x176 x177 x178 x179 x180 x181 x182 x183 x184 x185 x186 x187 x188 x189 x190 x191 x192 x193 x194 x195 x196 x197 x198 x199 x200 x201 x202 x203 x204 x205 x206 x207 x208 x209 x210 x211 x212 x213 x214 x215 x216 x217 x218 x219 x220 x221 x222 x223 x224 x225 x226 x227 x228 x229 x230 x231 x232 x233 x234 x235 x236 x237 x238 x239 x240 x241 x242 x243 x244 x245 x246 x247 x248 x249 x250 x251 x252 x253 x254 x255 x256 x257 x258 x259 x260 x261 x262 x263 x264 x265 x266 x267 x268 x269 x270 x271 x272 x273 x274 x275 x276 x277 x278 x279 x280 x281 x282 x283 x284 x285 x286 x287 x288 x289 x290 x291 x292 x293 x294 x295 x296 x297 x298 x299 x300 x301 x302 x303 x304 x305 x306 x307 x308 x309 x310 x311 x312 x313 x314 x315 x316 x317 x318 x319 x320 x321 x322 x323 x324 x325 x326 x327 x328 x329 x330 x331 x332 x333 x334 x335 x336 x337 x338 x339 x340 x341 x342 x343 x344 x345 x346 x347 x348 x349 x350 x351 x352 x353 x354 x355 x356 x357 x358 x359 x360 x361 x362 x363 x364 x365 x366 x367 x368 x369 x370 x371 x372 x373 x374 x375 x376 x377 x378 x379 x380 x381 x382 x383 x384 x385 x386 x387 x388 x389 x390 x391 x392 x393 x394 x395 x396 x397 x398 x399 x400 x401 x402 x403 x404 x405 x406 x407 x408 x409 x410 x411 x412 x413 x414 x415 x416 x417 x418 x419 x420 x421 x422 x423 x424 x425 x426 x427 x428 x429 x430 x431 x432 x433 x434 x435 x436 x437 x438 x439 x440 x441 x442 x443 x444 x445 x446 x447 x448 x449 x450 x451 x452 x453 x454 x455 x456 x457 x458 x459 x460 x461 x462 x463 x464 x465 x466 x467 x468 x469 x470 x471 x472 x473 x474 x475 x476 x477 x478 x479 x480 x481 x482 x483 x484 x485 x486 x487 x488 x489 x490 x491 x492 x493 x494 x495 x496 x497 x498 x499 x500
