maximize
OBJ: + 1 x1 + 1 x2 + 1 x3 + 1 x4 + 1 x5 + 1 x6 + 1 x7 + 1 x8 + 1 x9 + 1 x10 + 1 x11 + 1 x12 + 1 x13 + 1 x14 + 1 x15 + 1 x16 + 1 x17 + 1 x18 + 1 x19 + 1 x20 + 1 x21 + 1 x22 + 1 x23 + 1 x24 + 1 x25 + 1 x26 + 1 x27 + 1 x28 + 1 x29 + 1 x30 + 1 x31 + 1 x32 + 1 x33 + 1 x34 + 1 x35 + 1 x36 + 1 x37 + 1 x38 + 1 x39 + 1 x40 + 1 x41 + 1 x42 + 1 x43 + 1 x44 + 1 x45 + 1 x46 + 1 x47 + 1 x48 + 1 x49 + 1 x50 + 1 x51 + 1 x52 + 1 x53 + 1 x54 + 1 x55 + 1 x56 + 1 x57 + 1 x58 + 1 x59 + 1 x60 + 1 x61 + 1 x62 + 1 x63 + 1 x64 + 1 x65 + 1 x66 + 1 x67 + 1 x68 + 1 x69 + 1 x70 + 1 x71 + 1 x72 + 1 x73 + 1 x74 + 1 x75 + 1 x76 + 1 x77 + 1 x78 + 1 x79 + 1 x80 + 1 x81 + 1 x82 + 1 x83 + 1 x84 + 1 x85 + 1 x86 + 1 x87 + 1 x88 + 1 x89 + 1 x90 + 1 x91 + 1 x92 + 1 x93 + 1 x94 + 1 x95 + 1 x96 + 1 x97 + 1 x98 + 1 x99 + 1 x100 + 1 x101 + 1 x102 + 1 x103 + 1 x104 + 1 x105 + 1 x106 + 1 x107 + 1 x108 + 1 x109 + 1 x110 + 1 x111 + 1 x112 + 1 x113 + 1 x114 + 1 x115 + 1 x116 + 1 x117 + 1 x118 + 1 x119 + 1 x120 + 1 x121 + 1 x122 + 1 x123 + 1 x124 + 1 x125 + 1 x126 + 1 x127 + 1 x128 + 1 x129 + 1 x130 + 1 x131 + 1 x132 + 1 x133 + 1 x134 + 1 x135 + 1 x136 + 1 x137 + 1 x138 + 1 x139 + 1 x140 + 1 x141 + 1 x142 + 1 x143 + 1 x144 + 1 x145 + 1 x146 + 1 x147 + 1 x148 + 1 x149 + 1 x150 + 1 x151 + 1 x152 + 1 x153 + 1 x154 + 1 x155 + 1 x156 + 1 x157 + 1 x158 + 1 x159 + 1 x160 + 1 x161 + 1 x162 + 1 x163 + 1 x164 + 1 x165 + 1 x166 + 1 x167 + 1 x168 + 1 x169 + 1 x170 + 1 x171 + 1 x172 + 1 x173 + 1 x174 + 1 x175 + 1 x176 + 1 x177 + 1 x178 + 1 x179 + 1 x180 + 1 x181 + 1 x182 + 1 x183 + 1 x184 + 1 x185 + 1 x186 + 1 x187 + 1 x188 + 1 x189 + 1 x190 + 1 x191 + 1 x192 + 1 x193 + 1 x194 + 1 x195 + 1 x196 + 1 x197 + 1 x198 + 1 x199 + 1 x200 + 1 x201 + 1 x202 + 1 x203 + 1 x204 + 1 x205 + 1 x206 + 1 x207 + 1 x208 + 1 x209 + 1 x210 + 1 x211 + 1 x212 + 1 x213 + 1 x214 + 1 x215 + 1 x216 + 1 x217 + 1 x218 + 1 x219 + 1 x220 + 1 x221 + 1 x222 + 1 x223 + 1 x224 + 1 x225 + 1 x226 + 1 x227 + 1 x228 + 1 x229 + 1 x230 + 1 x231 + 1 x232 + 1 x233 + 1 x234 + 1 x235 + 1 x236 + 1 x237 + 1 x238 + 1 x239 + 1 x240 + 1 x241 + 1 x242 + 1 x243 + 1 x244 + 1 x245 + 1 x246 + 1 x247 + 1 x248 + 1 x249 + 1 x250 + 1 x251 + 1 x252 + 1 x253 + 1 x254 + 1 x255 + 1 x256 + 1 x257 + 1 x258 + 1 x259 + 1 x260 + 1 x261 + 1 x262 + 1 x263 + 1 x264 + 1 x265 + 1 x266 + 1 x267 + 1 x268 + 1 x269 + 1 x270 + 1 x271 + 1 x272 + 1 x273 + 1 x274 + 1 x275 + 1 x276 + 1 x277 + 1 x278 + 1 x279 + 1 x280 + 1 x281 + 1 x282 + 1 x283 + 1 x284 + 1 x285 + 1 x286 + 1 x287 + 1 x288 + 1 x289 + 1 x290 + 1 x291 + 1 x292 + 1 x293 + 1 x294 + 1 x295 + 1 x296 + 1 x297 + 1 x298 + 1 x299 + 1 x300 + 1 x301 + 1 x302 + 1 x303 + 1 x304 + 1 x305 + 1 x306 + 1 x307 + 1 x308 + 1 x309 + 1 x310 + 1 x311 + 1 x312 + 1 x313 + 1 x314 + 1 x315 + 1 x316 + 1 x317 + 1 x318 + 1 x319 + 1 x320 + 1 x321 + 1 x322 + 1 x323 + 1 x324 + 1 x325 + 1 x326 + 1 x327 + 1 x328 + 1 x329 + 1 x330 + 1 x331 + 1 x332 + 1 x333 + 1 x334 + 1 x335 + 1 x336 + 1 x337 + 1 x338 + 1 x339 + 1 x340 + 1 x341 + 1 x342 + 1 x343 + 1 x344 + 1 x345 + 1 x346 + 1 x347 + 1 x348 + 1 x349 + 1 x350 + 1 x351 + 1 x352 + 1 x353 + 1 x354 + 1 x355 + 1 x356 + 1 x357 + 1 x358 + 1 x359 + 1 x360 + 1 x361 + 1 x362 + 1 x363 + 1 x364 + 1 x365 + 1 x366 + 1 x367 + 1 x368 + 1 x369 + 1 x370 + 1 x371 + 1 x372 + 1 x373 + 1 x374 + 1 x375 + 1 x376 + 1 x377 + 1 x378 + 1 x379 + 1 x380 + 1 x381 + 1 x382 + 1 x383 + 1 x384 + 1 x385 + 1 x386 + 1 x387 + 1 x388 + 1 x389 + 1 x390 + 1 x391 + 1 x392 + 1 x393 + 1 x394 + 1 x395 + 1 x396 + 1 x397 + 1 x398 + 1 x399 + 1 x400 + 1 x401 + 1 x402 + 1 x403 + 1 x404 + 1 x405 + 1 x406 + 1 x407 + 1 x408 + 1 x409 + 1 x410 + 1 x411 + 1 x412 + 1 x413 + 1 x414 + 1 x415 + 1 x416 + 1 x417 + 1 x418 + 1 x419 + 1 x420 + 1 x421 + 1 x422 + 1 x423 + 1 x424 + 1 x425 + 1 x426 + 1 x427 + 1 x428 + 1 x429 + 1 x430 + 1 x431 + 1 x432 + 1 x433 + 1 x434 + 1 x435 + 1 x436 + 1 x437 + 1 x438 + 1 x439 + 1 x440 + 1 x441 + 1 x442 + 1 x443 + 1 x444 + 1 x445 + 1 x446 + 1 x447 + 1 x448 + 1 x449 + 1 x450 + 1 x451 + 1 x452 + 1 x453 + 1 x454 + 1 x455 + 1 x456 + 1 x457 + 1 x458 + 1 x459 + 1 x460 + 1 x461 + 1 x462 + 1 x463 + 1 x464 + 1 x465 + 1 x466 + 1 x467 + 1 x468 + 1 x469 + 1 x470 + 1 x471 + 1 x472 + 1 x473 + 1 x474 + 1 x475 + 1 x476 + 1 x477 + 1 x478 + 1 x479 + 1 x480 + 1 x481 + 1 x482 + 1 x483 + 1 x484 + 1 x485 + 1 x486 + 1 x487 + 1 x488 + 1 x489 + 1 x490 + 1 x491 + 1 x492 + 1 x493 + 1 x494 + 1 x495 + 1 x496 + 1 x497 + 1 x498 + 1 x499 + 1 x500

subject to
C1: + x17 + x401 <= 1
C2: + x6 + x32 <= 1
C3: + x26 + x460 <= 1
C4: + x15 + x345 <= 1
C5: + x142 + x422 <= 1
C6: + x38 + x218 <= 1
C7: + x215 + x233 <= 1
C8: + x17 + x48 <= 1
C9: + x156 + x352 <= 1
C10: + x61 + x372 <= 1
C11: + x32 + x75 <= 1
C12: + x89 + x224 <= 1
C13: + x215 + x310 <= 1
C14: + x29 + x210 <= 1
C15: + x197 + x230 <= 1
C16: + x16 + x31 <= 1
C17: + x12 + x23 <= 1
C18: + x32 + x476 <= 1
C19: + x2 + x192 <= 1
C20: + x76 + x401 <= 1
C21: + x11 + x195 <= 1
C22: + x23 + x344 <= 1
C23: + x52 + x61 <= 1
C24: + x17 + x107 <= 1
C25: + x111 + x436 <= 1
C26: + x95 + x99 <= 1
C27: + x5 + x143 <= 1
C28: + x92 + x232 <= 1
C29: + x10 + x94 <= 1
C30: + x173 + x179 <= 1
C31: + x149 + x298 <= 1
C32: + x4 + x148 <= 1
C33: + x5 + x36 <= 1
C34: + x23 + x158 <= 1
C35: + x171 + x251 <= 1
C36: + x29 + x277 <= 1
C37: + x69 + x279 <= 1
C38: + x147 + x479 <= 1
C39: + x32 + x413 <= 1
C40: + x7 + x42 <= 1
C41: + x55 + x88 <= 1
C42: + x257 + x464 <= 1
C43: + x149 + x153 <= 1
C44: + x78 + x207 <= 1
C45: + x162 + x177 <= 1
C46: + x290 + x431 <= 1
C47: + x19 + x37 <= 1
C48: + x442 + x494 <= 1
C49: + x5 + x88 <= 1
C50: + x16 + x104 <= 1
C51: + x9 + x19 <= 1
C52: + x245 + x487 <= 1
C53: + x58 + x355 <= 1
C54: + x120 + x322 <= 1
C55: + x50 + x209 <= 1
C56: + x97 + x457 <= 1
C57: + x168 + x361 <= 1
C58: + x7 + x102 <= 1
C59: + x8 + x362 <= 1
C60: + x11 + x480 <= 1
C61: + x67 + x94 <= 1
C62: + x103 + x170 <= 1
C63: + x79 + x102 <= 1
C64: + x35 + x115 <= 1
C65: + x26 + x160 <= 1
C66: + x7 + x332 <= 1
C67: + x79 + x479 <= 1
C68: + x21 + x194 <= 1
C69: + x341 + x364 <= 1
C70: + x15 + x444 <= 1
C71: + x10 + x337 <= 1
C72: + x101 + x130 <= 1
C73: + x11 + x93 <= 1
C74: + x448 + x482 <= 1
C75: + x5 + x43 <= 1
C76: + x6 + x165 <= 1
C77: + x227 + x308 <= 1
C78: + x38 + x204 <= 1
C79: + x303 + x468 <= 1
C80: + x178 + x289 <= 1
C81: + x52 + x210 <= 1
C82: + x388 + x405 <= 1
C83: + x247 + x367 <= 1
C84: + x185 + x495 <= 1
C85: + x89 + x174 <= 1
C86: + x6 + x54 <= 1
C87: + x10 + x51 <= 1
C88: + x19 + x32 <= 1
C89: + x2 + x254 <= 1
C90: + x44 + x46 <= 1
C91: + x9 + x26 <= 1
C92: + x166 + x448 <= 1
C93: + x196 + x375 <= 1
C94: + x32 + x458 <= 1
C95: + x15 + x20 <= 1
C96: + x7 + x93 <= 1
C97: + x18 + x478 <= 1
C98: + x393 + x449 <= 1
C99: + x59 + x106 <= 1
C100: + x112 + x299 <= 1
C101: + x133 + x366 <= 1
C102: + x7 + x250 <= 1
C103: + x91 + x351 <= 1
C104: + x219 + x268 <= 1
C105: + x27 + x31 <= 1
C106: + x94 + x377 <= 1
C107: + x8 + x81 <= 1
C108: + x40 + x157 <= 1
C109: + x157 + x380 <= 1
C110: + x232 + x477 <= 1
C111: + x76 + x177 <= 1
C112: + x258 + x310 <= 1
C113: + x6 + x11 <= 1
C114: + x5 + x18 <= 1
C115: + x35 + x66 <= 1
C116: + x48 + x158 <= 1
C117: + x4 + x61 <= 1
C118: + x332 + x412 <= 1
C119: + x23 + x446 <= 1
C120: + x171 + x475 <= 1
C121: + x208 + x261 <= 1
C122: + x10 + x262 <= 1
C123: + x23 + x31 <= 1
C124: + x45 + x173 <= 1
C125: + x191 + x216 <= 1
C126: + x62 + x352 <= 1
C127: + x1 + x267 <= 1
C128: + x11 + x27 <= 1
C129: + x192 + x405 <= 1
C130: + x7 + x241 <= 1
C131: + x7 + x326 <= 1
C132: + x246 + x404 <= 1
C133: + x95 + x354 <= 1
C134: + x4 + x461 <= 1
C135: + x170 + x258 <= 1
C136: + x13 + x418 <= 1
C137: + x16 + x58 <= 1
C138: + x56 + x151 <= 1
C139: + x23 + x454 <= 1
C140: + x15 + x39 <= 1
C141: + x11 + x79 <= 1
C142: + x52 + x462 <= 1
C143: + x15 + x309 <= 1
C144: + x145 + x308 <= 1
C145: + x72 + x318 <= 1
C146: + x247 + x480 <= 1
C147: + x90 + x374 <= 1
C148: + x4 + x38 <= 1
C149: + x323 + x488 <= 1
C150: + x334 + x493 <= 1
C151: + x7 + x19 <= 1
C152: + x332 + x384 <= 1
C153: + x52 + x379 <= 1
C154: + x117 + x437 <= 1
C155: + x9 + x278 <= 1
C156: + x17 + x425 <= 1
C157: + x10 + x61 <= 1
C158: + x8 + x147 <= 1
C159: + x11 + x179 <= 1
C160: + x158 + x290 <= 1
C161: + x83 + x338 <= 1
C162: + x91 + x164 <= 1
C163: + x16 + x224 <= 1
C164: + x92 + x135 <= 1
C165: + x18 + x45 <= 1
C166: + x2 + x363 <= 1
C167: + x49 + x175 <= 1
C168: + x3 + x103 <= 1
C169: + x17 + x357 <= 1
C170: + x228 + x491 <= 1
C171: + x2 + x156 <= 1
C172: + x7 + x474 <= 1
C173: + x18 + x89 <= 1
C174: + x185 + x440 <= 1
C175: + x7 + x123 <= 1
C176: + x72 + x73 <= 1
C177: + x9 + x465 <= 1
C178: + x11 + x74 <= 1
C179: + x33 + x439 <= 1
C180: + x5 + x8 <= 1
C181: + x10 + x213 <= 1
C182: + x23 + x336 <= 1
C183: + x289 + x307 <= 1
C184: + x63 + x247 <= 1
C185: + x173 + x473 <= 1
C186: + x94 + x109 <= 1
C187: + x33 + x38 <= 1
C188: + x69 + x154 <= 1
C189: + x6 + x33 <= 1
C190: + x15 + x118 <= 1
C191: + x43 + x131 <= 1
C192: + x228 + x387 <= 1
C193: + x131 + x138 <= 1
C194: + x172 + x245 <= 1
C195: + x105 + x146 <= 1
C196: + x63 + x142 <= 1
C197: + x11 + x323 <= 1
C198: + x8 + x483 <= 1
C199: + x56 + x340 <= 1
C200: + x43 + x108 <= 1
C201: + x7 + x126 <= 1
C202: + x13 + x154 <= 1
C203: + x5 + x15 <= 1
C204: + x34 + x306 <= 1
C205: + x246 + x426 <= 1
C206: + x291 + x449 <= 1
C207: + x49 + x97 <= 1
C208: + x33 + x299 <= 1
C209: + x56 + x360 <= 1
C210: + x14 + x119 <= 1
C211: + x46 + x334 <= 1
C212: + x40 + x77 <= 1
C213: + x183 + x294 <= 1
C214: + x11 + x282 <= 1
C215: + x48 + x300 <= 1
C216: + x5 + x301 <= 1
C217: + x45 + x319 <= 1
C218: + x140 + x211 <= 1
C219: + x105 + x380 <= 1
C220: + x26 + x266 <= 1
C221: + x29 + x224 <= 1
C222: + x149 + x365 <= 1
C223: + x306 + x477 <= 1
C224: + x17 + x69 <= 1
C225: + x16 + x21 <= 1
C226: + x210 + x222 <= 1
C227: + x49 + x137 <= 1
C228: + x196 + x415 <= 1
C229: + x314 + x365 <= 1
C230: + x6 + x111 <= 1
C231: + x134 + x186 <= 1
C232: + x19 + x71 <= 1
C233: + x2 + x7 <= 1
C234: + x8 + x198 <= 1
C235: + x184 + x315 <= 1
C236: + x297 + x317 <= 1
C237: + x5 + x246 <= 1
C238: + x21 + x340 <= 1
C239: + x89 + x226 <= 1
C240: + x91 + x327 <= 1
C241: + x237 + x490 <= 1
C242: + x231 + x303 <= 1
C243: + x86 + x436 <= 1
C244: + x240 + x498 <= 1
C245: + x40 + x260 <= 1
C246: + x17 + x113 <= 1
C247: + x53 + x173 <= 1
C248: + x243 + x398 <= 1
C249: + x26 + x44 <= 1
C250: + x207 + x235 <= 1
C251: + x29 + x49 <= 1
C252: + x270 + x315 <= 1
C253: + x63 + x94 <= 1
C254: + x74 + x280 <= 1
C255: + x11 + x176 <= 1
C256: + x249 + x250 <= 1
C257: + x5 + x58 <= 1
C258: + x278 + x459 <= 1
C259: + x35 + x58 <= 1
C260: + x6 + x257 <= 1
C261: + x80 + x266 <= 1
C262: + x8 + x29 <= 1
C263: + x7 + x407 <= 1
C264: + x307 + x331 <= 1
C265: + x335 + x492 <= 1
C266: + x228 + x240 <= 1
C267: + x110 + x258 <= 1
C268: + x60 + x143 <= 1
C269: + x5 + x201 <= 1
C270: + x157 + x343 <= 1
C271: + x17 + x188 <= 1
C272: + x9 + x105 <= 1
C273: + x2 + x266 <= 1
C274: + x320 + x451 <= 1
C275: + x12 + x22 <= 1
C276: + x231 + x343 <= 1
C277: + x89 + x332 <= 1
C278: + x91 + x116 <= 1
C279: + x45 + x362 <= 1
C280: + x8 + x376 <= 1
C281: + x2 + x32 <= 1
C282: + x32 + x126 <= 1
C283: + x189 + x191 <= 1
C284: + x117 + x215 <= 1
C285: + x2 + x187 <= 1
C286: + x124 + x250 <= 1
C287: + x68 + x312 + x395 <= 1
C288: + x56 + x143 <= 1
C289: + x191 + x424 <= 1
C290: + x23 + x62 <= 1
C291: + x15 + x79 <= 1
C292: + x173 + x363 <= 1
C293: + x66 + x364 <= 1
C294: + x166 + x227 <= 1
C295: + x40 + x67 <= 1
C296: + x5 + x33 <= 1
C297: + x81 + x114 <= 1
C298: + x126 + x242 <= 1
C299: + x24 + x180 <= 1
C300: + x200 + x214 <= 1
C301: + x9 + x36 <= 1
C302: + x105 + x461 <= 1
C303: + x167 + x428 <= 1
C304: + x34 + x46 <= 1
C305: + x26 + x121 <= 1
C306: + x80 + x182 <= 1
C307: + x2 + x402 <= 1
C308: + x84 + x175 <= 1
C309: + x32 + x55 <= 1
C310: + x15 + x155 <= 1
C311: + x21 + x243 <= 1
C312: + x277 + x304 <= 1
C313: + x5 + x85 <= 1
C314: + x58 + x350 <= 1
C315: + x2 + x17 <= 1
C316: + x283 + x286 <= 1
C317: + x95 + x216 <= 1
C318: + x49 + x425 <= 1
C319: + x6 + x244 <= 1
C320: + x35 + x120 <= 1
C321: + x325 + x334 <= 1
C322: + x1 + x12 <= 1
C323: + x13 + x108 <= 1
C324: + x245 + x432 <= 1
C325: + x138 + x359 <= 1
C326: + x131 + x251 <= 1
C327: + x343 + x442 <= 1
C328: + x164 + x333 <= 1
C329: + x61 + x408 <= 1
C330: + x6 + x168 <= 1
C331: + x93 + x393 <= 1
C332: + x20 + x153 <= 1
C333: + x466 + x480 <= 1
C334: + x336 + x490 <= 1
C335: + x2 + x94 <= 1
C336: + x40 + x457 <= 1
C337: + x17 + x328 <= 1
C338: + x190 + x444 <= 1
C339: + x18 + x147 <= 1
C340: + x7 + x276 <= 1
C341: + x2 + x249 <= 1
C342: + x11 + x134 <= 1
C343: + x193 + x380 <= 1
C344: + x13 + x47 <= 1
C345: + x5 + x84 <= 1
C346: + x117 + x182 <= 1
C347: + x9 + x23 <= 1
C348: + x59 + x349 <= 1
C349: + x349 + x420 <= 1
C350: + x16 + x391 <= 1
C351: + x249 + x398 <= 1
C352: + x5 + x227 <= 1
C353: + x44 + x499 <= 1
C354: + x9 + x337 <= 1
C355: + x31 + x141 <= 1
C356: + x132 + x400 <= 1
C357: + x98 + x292 <= 1
C358: + x160 + x297 <= 1
C359: + x16 + x56 <= 1
C360: + x54 + x225 <= 1
C361: + x128 + x275 <= 1
C362: + x173 + x444 <= 1
C363: + x339 + x387 <= 1
C364: + x7 + x150 <= 1
C365: + x63 + x396 <= 1
C366: + x11 + x89 <= 1
C367: + x95 + x267 <= 1
C368: + x6 + x161 <= 1
C369: + x171 + x226 <= 1
C370: + x8 + x12 <= 1
C371: + x210 + x270 <= 1
C372: + x149 + x402 <= 1
C373: + x7 + x37 <= 1
C374: + x30 + x265 <= 1
C375: + x149 + x257 <= 1
C376: + x13 + x38 <= 1
C377: + x5 + x91 <= 1
C378: + x197 + x283 <= 1
C379: + x9 + x30 <= 1
C380: + x47 + x239 <= 1
C381: + x6 + x67 <= 1
C382: + x93 + x377 <= 1
C383: + x60 + x354 <= 1
C384: + x33 + x481 <= 1
C385: + x79 + x113 <= 1
C386: + x7 + x254 <= 1
C387: + x134 + x396 <= 1
C388: + x8 + x77 <= 1
C389: + x74 + x419 <= 1
C390: + x165 + x179 <= 1
C391: + x45 + x230 <= 1
C392: + x54 + x234 <= 1
C393: + x128 + x284 <= 1
C394: + x62 + x279 <= 1
C395: + x7 + x141 <= 1
C396: + x83 + x214 <= 1
C397: + x9 + x295 <= 1
C398: + x21 + x188 <= 1
C399: + x18 + x244 <= 1
C400: + x291 + x436 <= 1
C401: + x28 + x213 <= 1
C402: + x11 + x293 <= 1
C403: + x5 + x272 <= 1
C404: + x216 + x254 <= 1
C405: + x9 + x438 <= 1
C406: + x119 + x305 <= 1
C407: + x8 + x424 <= 1
C408: + x206 + x392 <= 1
C409: + x15 + x112 <= 1
C410: + x6 + x59 <= 1
C411: + x83 + x339 <= 1
C412: + x91 + x435 <= 1
C413: + x12 + x453 <= 1
C414: + x263 + x413 <= 1
C415: + x57 + x220 <= 1
C416: + x2 + x124 <= 1
C417: + x141 + x308 <= 1
C418: + x6 + x239 <= 1
C419: + x7 + x245 <= 1
C420: + x9 + x351 <= 1
C421: + x179 + x361 <= 1
C422: + x49 + x301 <= 1
C423: + x112 + x429 <= 1
C424: + x50 + x179 <= 1
C425: + x26 + x428 <= 1
C426: + x71 + x72 <= 1
C427: + x19 + x90 <= 1
C428: + x211 + x483 <= 1
C429: + x123 + x385 <= 1
C430: + x22 + x61 <= 1
C431: + x17 + x227 <= 1
C432: + x8 + x122 <= 1
C433: + x21 + x40 <= 1
C434: + x6 + x385 <= 1
C435: + x64 + x196 <= 1
C436: + x94 + x112 <= 1
C437: + x22 + x430 <= 1
C438: + x7 + x261 <= 1
C439: + x2 + x196 <= 1
C440: + x170 + x323 <= 1
C441: + x34 + x187 <= 1
C442: + x201 + x257 <= 1
C443: + x86 + x489 <= 1
C444: + x51 + x200 <= 1
C445: + x22 + x287 <= 1
C446: + x91 + x95 <= 1
C447: + x2 + x125 <= 1
C448: + x49 + x341 <= 1
C449: + x10 + x12 + x28 <= 1
C450: + x14 + x53 <= 1
C451: + x15 + x131 <= 1
C452: + x181 + x370 <= 1
C453: + x127 + x392 <= 1
C454: + x65 + x472 <= 1
C455: + x291 + x498 <= 1
C456: + x29 + x198 <= 1
C457: + x378 + x478 <= 1
C458: + x5 + x458 <= 1
C459: + x336 + x442 <= 1
C460: + x16 + x418 <= 1
C461: + x297 + x307 <= 1
C462: + x254 + x346 <= 1
C463: + x119 + x226 <= 1
C464: + x225 + x472 <= 1
C465: + x7 + x10 <= 1
C466: + x83 + x87 <= 1
C467: + x46 + x99 <= 1
C468: + x63 + x251 <= 1
C469: + x335 + x466 <= 1
C470: + x106 + x323 <= 1
C471: + x71 + x107 <= 1
C472: + x166 + x244 <= 1
C473: + x2 + x360 <= 1
C474: + x93 + x417 <= 1
C475: + x50 + x302 <= 1
C476: + x50 + x241 <= 1
C477: + x7 + x70 <= 1
C478: + x28 + x414 <= 1
C479: + x22 + x123 <= 1
C480: + x132 + x333 <= 1
C481: + x2 + x145 <= 1
C482: + x207 + x220 <= 1
C483: + x9 + x127 <= 1
C484: + x46 + x168 <= 1
C485: + x29 + x98 <= 1
C486: + x49 + x150 <= 1
C487: + x5 + x342 <= 1
C488: + x54 + x104 <= 1
C489: + x38 + x265 <= 1
C490: + x5 + x11 <= 1
C491: + x23 + x181 <= 1
C492: + x2 + x173 <= 1
C493: + x187 + x225 <= 1
C494: + x19 + x274 <= 1
C495: + x57 + x165 <= 1
C496: + x230 + x271 <= 1
C497: + x104 + x294 <= 1
C498: + x5 + x154 <= 1
C499: + x10 + x83 <= 1
C500: + x4 + x165 <= 1
C501: + x25 + x363 <= 1
C502: + x5 + x396 <= 1
C503: + x387 + x402 <= 1
C504: + x389 + x414 <= 1
C505: + x69 + x290 <= 1
C506: + x34 + x181 <= 1
C507: + x77 + x418 <= 1
C508: + x4 + x407 <= 1
C509: + x5 + x297 <= 1
C510: + x17 + x42 <= 1
C511: + x5 + x206 <= 1
C512: + x7 + x218 <= 1
C513: + x91 + x319 <= 1
C514: + x10 + x31 <= 1
C515: + x8 + x177 <= 1
C516: + x164 + x221 <= 1
C517: + x4 + x81 <= 1
C518: + x115 + x256 <= 1
C519: + x53 + x101 <= 1
C520: + x27 + x148 <= 1
C521: + x71 + x169 <= 1
C522: + x22 + x23 + x59 <= 1
C523: + x47 + x485 <= 1
C524: + x20 + x360 <= 1
C525: + x113 + x383 <= 1
C526: + x6 + x142 <= 1
C527: + x15 + x270 <= 1
C528: + x461 + x500 <= 1
C529: + x118 + x196 <= 1
C530: + x63 + x268 <= 1
C531: + x134 + x404 <= 1
C532: + x187 + x236 <= 1
C533: + x40 + x241 <= 1
C534: + x124 + x229 <= 1
C535: + x16 + x37 <= 1
C536: + x340 + x460 <= 1
C537: + x23 + x63 <= 1
C538: + x24 + x268 <= 1
C539: + x9 + x33 <= 1
C540: + x8 + x25 <= 1
C541: + x16 + x86 <= 1
C542: + x284 + x329 <= 1
C543: + x271 + x457 <= 1
C544: + x7 + x294 <= 1
C545: + x91 + x314 <= 1
C546: + x60 + x482 <= 1
C547: + x6 + x305 <= 1
C548: + x314 + x378 <= 1
C549: + x115 + x485 <= 1
C550: + x70 + x217 <= 1
C551: + x14 + x433 <= 1
C552: + x138 + x273 <= 1
C553: + x11 + x470 <= 1
C554: + x11 + x196 <= 1
C555: + x56 + x104 <= 1
C556: + x86 + x441 <= 1
C557: + x4 + x6 <= 1
C558: + x33 + x317 <= 1
C559: + x171 + x422 <= 1
C560: + x9 + x89 <= 1
C561: + x11 + x421 <= 1
C562: + x239 + x358 <= 1
C563: + x5 + x144 <= 1
C564: + x45 + x410 <= 1
C565: + x26 + x468 <= 1
C566: + x8 + x243 <= 1
C567: + x2 + x48 <= 1
C568: + x40 + x127 <= 1
C569: + x133 + x429 <= 1
C570: + x26 + x367 <= 1
C571: + x26 + x162 <= 1
C572: + x35 + x388 <= 1
C573: + x144 + x394 <= 1
C574: + x26 + x125 <= 1
C575: + x156 + x344 <= 1
C576: + x93 + x160 <= 1
C577: + x130 + x132 <= 1
C578: + x102 + x426 <= 1
C579: + x67 + x135 <= 1
C580: + x7 + x204 <= 1
C581: + x4 + x95 <= 1
C582: + x15 + x365 <= 1
C583: + x18 + x57 <= 1
C584: + x44 + x339 <= 1
C585: + x134 + x152 <= 1
C586: + x136 + x259 <= 1
C587: + x95 + x220 <= 1
C588: + x13 + x131 <= 1
C589: + x141 + x259 <= 1
C590: + x17 + x369 <= 1
C591: + x22 + x189 <= 1
C592: + x205 + x237 <= 1
C593: + x136 + x197 <= 1
C594: + x3 + x14 <= 1
C595: + x43 + x117 <= 1
C596: + x265 + x476 <= 1
C597: + x85 + x197 <= 1
C598: + x39 + x112 <= 1
C599: + x175 + x248 <= 1
C600: + x5 + x44 <= 1
C601: + x8 + x15 <= 1
C602: + x87 + x380 <= 1
C603: + x7 + x34 <= 1
C604: + x54 + x184 <= 1
C605: + x45 + x296 <= 1
C606: + x12 + x382 <= 1
C607: + x13 + x326 <= 1
C608: + x14 + x82 <= 1
C609: + x210 + x410 <= 1
C610: + x105 + x242 <= 1
C611: + x17 + x174 <= 1
C612: + x24 + x153 <= 1
C613: + x5 + x330 <= 1
C614: + x89 + x350 <= 1
C615: + x35 + x381 <= 1
C616: + x410 + x448 <= 1
C617: + x14 + x419 <= 1
C618: + x329 + x461 <= 1
C619: + x157 + x216 <= 1
C620: + x2 + x110 <= 1
C621: + x184 + x286 <= 1
C622: + x7 + x255 <= 1
C623: + x8 + x84 <= 1
C624: + x451 + x493 <= 1
C625: + x3 + x5 <= 1
C626: + x17 + x391 <= 1
C627: + x6 + x10 <= 1
C628: + x153 + x188 <= 1
C629: + x153 + x369 <= 1
C630: + x26 + x377 <= 1
C631: + x4 + x64 <= 1
C632: + x395 + x406 <= 1
C633: + x17 + x22 <= 1
C634: + x35 + x164 <= 1
C635: + x255 + x390 <= 1
C636: + x11 + x411 <= 1
C637: + x12 + x371 <= 1
C638: + x9 + x368 <= 1
C639: + x8 + x149 <= 1
C640: + x454 + x479 <= 1
C641: + x20 + x275 <= 1
C642: + x4 + x77 <= 1
C643: + x6 + x300 <= 1
C644: + x18 + x43 <= 1
C645: + x68 + x172 <= 1
C646: + x43 + x51 <= 1
C647: + x32 + x85 <= 1
C648: + x56 + x115 <= 1
C649: + x241 + x328 <= 1
C650: + x167 + x485 <= 1
C651: + x61 + x128 <= 1
C652: + x6 + x480 <= 1
C653: + x58 + x243 <= 1
C654: + x34 + x92 <= 1
C655: + x106 + x297 <= 1
C656: + x14 + x400 <= 1
C657: + x118 + x286 <= 1
C658: + x2 + x51 <= 1
C659: + x264 + x372 <= 1
C660: + x34 + x295 <= 1
C661: + x198 + x342 <= 1
C662: + x45 + x113 <= 1
C663: + x118 + x236 <= 1
C664: + x54 + x359 <= 1
C665: + x23 + x438 <= 1
C666: + x255 + x397 <= 1
C667: + x77 + x239 <= 1
C668: + x78 + x249 <= 1
C669: + x14 + x68 <= 1
C670: + x54 + x408 <= 1
C671: + x70 + x463 <= 1
C672: + x5 + x78 <= 1
C673: + x91 + x447 <= 1
C674: + x8 + x49 <= 1
C675: + x48 + x234 <= 1
C676: + x22 + x274 <= 1
C677: + x116 + x427 <= 1
C678: + x159 + x378 <= 1
C679: + x20 + x393 <= 1
C680: + x12 + x296 <= 1
C681: + x87 + x163 <= 1
C682: + x15 + x192 <= 1
C683: + x9 + x152 <= 1
C684: + x65 + x114 <= 1
C685: + x85 + x125 <= 1
C686: + x95 + x96 <= 1
C687: + x65 + x159 <= 1
C688: + x93 + x205 <= 1
C689: + x58 + x87 <= 1
C690: + x49 + x398 <= 1
C691: + x12 + x276 <= 1
C692: + x43 + x259 <= 1
C693: + x17 + x231 <= 1
C694: + x18 + x233 <= 1
C695: + x65 + x481 <= 1
C696: + x19 + x247 <= 1
C697: + x3 + x349 <= 1
C698: + x186 + x229 <= 1
C699: + x222 + x329 <= 1
C700: + x40 + x269 <= 1
C701: + x4 + x63 + x136 <= 1
C702: + x181 + x405 <= 1
C703: + x83 + x92 <= 1
C704: + x66 + x392 <= 1
C705: + x21 + x147 <= 1
C706: + x69 + x320 <= 1
C707: + x52 + x482 <= 1
C708: + x15 + x329 <= 1
C709: + x71 + x358 <= 1
C710: + x8 + x42 <= 1
C711: + x103 + x421 <= 1
C712: + x33 + x150 <= 1
C713: + x160 + x371 <= 1
C714: + x7 + x71 <= 1
C715: + x2 + x113 <= 1
C716: + x217 + x336 <= 1
C717: + x92 + x171 <= 1
C718: + x8 + x191 <= 1
C719: + x168 + x413 <= 1
C720: + x9 + x124 <= 1
C721: + x8 + x478 <= 1
C722: + x15 + x50 <= 1
C723: + x2 + x13 <= 1
C724: + x5 + x16 <= 1
C725: + x136 + x442 <= 1
C726: + x256 + x309 <= 1
C727: + x94 + x101 <= 1
C728: + x47 + x330 <= 1
C729: + x35 + x274 <= 1
C730: + x149 + x282 <= 1
C731: + x11 + x263 <= 1
C732: + x294 + x366 <= 1
C733: + x174 + x403 <= 1
C734: + x11 + x53 <= 1
C735: + x95 + x191 <= 1
C736: + x251 + x264 <= 1
C737: + x199 + x411 <= 1
C738: + x91 + x308 <= 1
C739: + x381 + x474 <= 1
C740: + x2 + x149 <= 1
C741: + x5 + x104 <= 1
C742: + x27 + x149 <= 1
C743: + x70 + x211 <= 1
C744: + x220 + x264 <= 1
C745: + x241 + x252 <= 1
C746: + x132 + x381 <= 1
C747: + x267 + x463 <= 1
C748: + x159 + x177 <= 1
C749: + x44 + x86 <= 1
C750: + x118 + x199 <= 1
C751: + x9 + x242 <= 1
C752: + x15 + x214 <= 1
C753: + x22 + x174 <= 1
C754: + x35 + x200 <= 1
C755: + x134 + x202 <= 1
C756: + x45 + x259 <= 1
C757: + x27 + x345 <= 1
C758: + x7 + x162 <= 1
C759: + x119 + x443 <= 1
C760: + x155 + x228 <= 1
C761: + x137 + x278 <= 1
C762: + x3 + x194 <= 1
C763: + x17 + x129 <= 1
C764: + x9 + x62 <= 1
C765: + x281 + x334 <= 1
C766: + x52 + x194 <= 1
C767: + x77 + x208 <= 1
C768: + x7 + x295 <= 1
C769: + x63 + x452 <= 1
C770: + x111 + x133 <= 1
C771: + x47 + x122 <= 1
C772: + x17 + x189 <= 1
C773: + x156 + x459 <= 1
C774: + x56 + x246 <= 1
C775: + x104 + x363 <= 1
C776: + x5 + x345 <= 1
C777: + x83 + x182 <= 1
C778: + x57 + x193 <= 1
C779: + x222 + x340 <= 1
C780: + x14 + x261 <= 1
C781: + x35 + x223 <= 1
C782: + x15 + x435 <= 1
C783: + x20 + x38 <= 1
C784: + x12 + x408 <= 1
C785: + x5 + x141 <= 1
C786: + x79 + x144 <= 1
C787: + x43 + x399 <= 1
C788: + x352 + x409 <= 1
C789: + x213 + x496 <= 1
C790: + x4 + x146 <= 1
C791: + x9 + x37 <= 1
C792: + x237 + x406 <= 1
C793: + x8 + x21 <= 1
C794: + x302 + x429 <= 1
C795: + x231 + x275 <= 1
C796: + x78 + x110 <= 1
C797: + x5 + x276 <= 1
C798: + x7 + x44 <= 1
C799: + x366 + x475 <= 1
C800: + x50 + x66 <= 1
C801: + x124 + x455 <= 1
C802: + x95 + x169 <= 1
C803: + x8 + x166 <= 1
C804: + x275 + x445 <= 1
C805: + x13 + x49 <= 1
C806: + x278 + x423 <= 1
C807: + x9 + x17 <= 1
C808: + x49 + x136 <= 1
C809: + x3 + x434 <= 1
C810: + x222 + x316 <= 1
C811: + x33 + x119 <= 1
C812: + x34 + x121 <= 1
C813: + x204 + x273 <= 1
C814: + x279 + x291 <= 1
C815: + x45 + x354 <= 1
C816: + x136 + x187 <= 1
C817: + x2 + x24 <= 1
C818: + x29 + x350 <= 1
C819: + x352 + x369 <= 1
C820: + x18 + x213 <= 1
C821: + x120 + x245 <= 1
C822: + x47 + x77 <= 1
C823: + x58 + x462 <= 1
C824: + x115 + x372 <= 1
C825: + x26 + x53 <= 1
C826: + x71 + x311 <= 1
C827: + x128 + x277 <= 1
C828: + x20 + x43 <= 1
C829: + x239 + x362 <= 1
C830: + x67 + x207 <= 1
C831: + x5 + x140 <= 1
C832: + x14 + x97 <= 1
C833: + x285 + x479 <= 1
C834: + x112 + x248 <= 1
C835: + x60 + x303 <= 1
C836: + x48 + x139 <= 1
C837: + x4 + x54 <= 1
C838: + x68 + x319 <= 1
C839: + x7 + x35 <= 1
C840: + x27 + x383 <= 1
C841: + x86 + x167 <= 1
C842: + x18 + x335 <= 1
C843: + x9 + x187 <= 1
C844: + x245 + x335 <= 1
C845: + x38 + x351 <= 1
C846: + x149 + x379 <= 1
C847: + x203 + x416 <= 1
C848: + x17 + x171 <= 1
C849: + x9 + x24 <= 1
C850: + x65 + x85 <= 1
C851: + x36 + x151 <= 1
C852: + x142 + x398 <= 1
C853: + x349 + x445 <= 1
C854: + x419 + x462 <= 1
C855: + x3 + x151 <= 1
C856: + x384 + x430 <= 1
C857: + x40 + x64 <= 1
C858: + x24 + x322 <= 1
C859: + x299 + x449 <= 1
C860: + x120 + x206 <= 1
C861: + x193 + x265 <= 1
C862: + x55 + x331 <= 1
C863: + x13 + x100 <= 1
C864: + x315 + x496 <= 1
C865: + x6 + x490 <= 1
C866: + x78 + x143 <= 1
C867: + x259 + x448 <= 1
C868: + x32 + x500 <= 1
C869: + x63 + x120 <= 1
C870: + x255 + x312 <= 1
C871: + x5 + x24 <= 1
C872: + x228 + x423 <= 1
C873: + x111 + x303 <= 1
C874: + x123 + x209 <= 1
C875: + x60 + x74 <= 1
C876: + x170 + x455 <= 1
C877: + x51 + x159 <= 1
C878: + x57 + x138 <= 1
C879: + x5 + x7 + x9 + x14 <= 1
C880: + x53 + x356 <= 1
C881: + x23 + x230 <= 1
C882: + x17 + x162 <= 1
C883: + x168 + x285 <= 1
C884: + x216 + x316 <= 1
C885: + x170 + x499 <= 1
C886: + x393 + x454 <= 1
C887: + x2 + x98 <= 1
C888: + x40 + x53 <= 1
C889: + x167 + x244 <= 1
C890: + x108 + x171 <= 1
C891: + x216 + x415 <= 1
C892: + x281 + x414 <= 1
C893: + x8 + x80 <= 1
C894: + x56 + x114 <= 1
C895: + x15 + x392 <= 1
C896: + x57 + x69 <= 1
C897: + x11 + x65 <= 1
C898: + x38 + x285 <= 1
C899: + x29 + x133 <= 1
C900: + x12 + x69 <= 1
C901: + x4 + x36 <= 1
C902: + x42 + x245 <= 1
C903: + x216 + x253 <= 1
C904: + x27 + x321 <= 1
C905: + x156 + x314 <= 1
C906: + x310 + x376 <= 1
C907: + x105 + x352 <= 1
C908: + x15 + x109 <= 1
C909: + x7 + x186 <= 1
C910: + x16 + x222 <= 1
C911: + x11 + x181 <= 1
C912: + x285 + x481 <= 1
C913: + x5 + x67 <= 1
C914: + x14 + x170 <= 1
C915: + x35 + x47 <= 1
C916: + x119 + x161 <= 1
C917: + x147 + x386 <= 1
C918: + x12 + x49 <= 1
C919: + x224 + x254 <= 1
C920: + x6 + x75 <= 1
C921: + x5 + x317 <= 1
C922: + x8 + x347 <= 1
C923: + x93 + x190 <= 1
C924: + x3 + x105 <= 1
C925: + x411 + x417 <= 1
C926: + x45 + x57 <= 1
C927: + x66 + x454 <= 1
C928: + x49 + x60 <= 1
C929: + x31 + x256 <= 1
C930: + x58 + x324 <= 1
C931: + x3 + x28 <= 1
C932: + x203 + x356 <= 1
C933: + x4 + x367 <= 1
C934: + x47 + x376 <= 1
C935: + x110 + x152 <= 1
C936: + x22 + x60 <= 1
C937: + x14 + x239 <= 1
C938: + x5 + x6 <= 1
C939: + x36 + x66 <= 1
C940: + x19 + x252 <= 1
C941: + x27 + x55 <= 1
C942: + x317 + x349 <= 1
C943: + x80 + x137 <= 1
C944: + x119 + x265 <= 1
C945: + x220 + x255 <= 1
C946: + x4 + x283 <= 1
C947: + x7 + x262 <= 1
C948: + x11 + x192 <= 1
C949: + x38 + x330 <= 1
C950: + x104 + x150 <= 1
C951: + x9 + x13 <= 1
C952: + x18 + x40 <= 1
C953: + x11 + x273 <= 1
C954: + x7 + x68 <= 1
C955: + x227 + x248 <= 1
C956: + x5 + x217 <= 1
C957: + x105 + x176 <= 1
C958: + x112 + x155 <= 1
C959: + x40 + x138 <= 1
C960: + x5 + x459 <= 1
C961: + x17 + x76 <= 1
C962: + x36 + x250 <= 1
C963: + x308 + x394 <= 1
C964: + x211 + x237 <= 1
C965: + x29 + x465 <= 1
C966: + x349 + x478 <= 1
C967: + x13 + x315 <= 1
C968: + x155 + x202 <= 1
C969: + x12 + x280 <= 1
C970: + x5 + x13 <= 1
C971: + x24 + x289 <= 1
C972: + x171 + x277 <= 1
C973: + x7 + x366 <= 1
C974: + x253 + x436 <= 1
C975: + x7 + x15 <= 1
C976: + x411 + x495 <= 1
C977: + x3 + x39 <= 1
C978: + x58 + x204 <= 1
C979: + x60 + x188 <= 1
C980: + x5 + x148 <= 1
C981: + x7 + x172 <= 1
C982: + x146 + x321 <= 1
C983: + x309 + x352 <= 1
C984: + x268 + x407 <= 1
C985: + x14 + x220 <= 1
C986: + x306 + x483 <= 1
C987: + x153 + x271 <= 1
C988: + x10 + x140 <= 1
C989: + x191 + x203 <= 1
C990: + x120 + x289 <= 1
C991: + x140 + x431 <= 1
C992: + x61 + x155 <= 1
C993: + x17 + x52 <= 1
C994: + x16 + x486 <= 1
C995: + x5 + x291 <= 1
C996: + x7 + x59 <= 1
C997: + x2 + x117 <= 1
C998: + x298 + x313 <= 1
C999: + x9 + x401 <= 1
C1000: + x4 + x208 <= 1
C1001: + x78 + x290 <= 1
C1002: + x42 + x462 <= 1
C1003: + x7 + x232 <= 1
C1004: + x138 + x205 <= 1
C1005: + x84 + x126 <= 1
C1006: + x389 + x476 <= 1
C1007: + x72 + x154 <= 1
C1008: + x29 + x99 <= 1
C1009: + x21 + x72 <= 1
C1010: + x51 + x52 <= 1
C1011: + x413 + x450 <= 1
C1012: + x7 + x119 <= 1
C1013: + x8 + x381 <= 1
C1014: + x127 + x287 <= 1
C1015: + x54 + x103 <= 1
C1016: + x269 + x292 <= 1
C1017: + x171 + x195 <= 1
C1018: + x126 + x167 <= 1
C1019: + x308 + x320 <= 1
C1020: + x92 + x123 <= 1
C1021: + x99 + x251 <= 1
C1022: + x9 + x207 <= 1
C1023: + x8 + x111 <= 1
C1024: + x464 + x494 <= 1
C1025: + x80 + x159 <= 1
C1026: + x393 + x438 <= 1
C1027: + x2 + x463 <= 1
C1028: + x14 + x114 <= 1
C1029: + x6 + x21 <= 1
C1030: + x208 + x446 <= 1
C1031: + x64 + x66 <= 1
C1032: + x3 + x360 <= 1
C1033: + x303 + x445 <= 1
C1034: + x21 + x123 <= 1
C1035: + x39 + x165 <= 1
C1036: + x52 + x253 <= 1
C1037: + x5 + x298 <= 1
C1038: + x256 + x357 <= 1
C1039: + x123 + x471 <= 1
C1040: + x91 + x320 <= 1
C1041: + x10 + x30 <= 1
C1042: + x105 + x158 <= 1
C1043: + x13 + x63 <= 1
C1044: + x5 + x100 <= 1
C1045: + x161 + x325 <= 1
C1046: + x5 + x441 <= 1
C1047: + x9 + x103 <= 1
C1048: + x135 + x146 <= 1
C1049: + x55 + x203 <= 1
C1050: + x66 + x76 <= 1
C1051: + x8 + x471 <= 1
C1052: + x4 + x326 <= 1
C1053: + x6 + x106 <= 1
C1054: + x10 + x111 <= 1
C1055: + x2 + x26 <= 1
C1056: + x194 + x269 <= 1
C1057: + x47 + x486 <= 1
C1058: + x4 + x225 <= 1
C1059: + x296 + x348 <= 1
C1060: + x15 + x218 <= 1
C1061: + x246 + x446 <= 1
C1062: + x57 + x464 <= 1
C1063: + x52 + x341 <= 1
C1064: + x423 + x496 <= 1
C1065: + x18 + x293 <= 1
C1066: + x255 + x263 <= 1
C1067: + x38 + x357 <= 1
C1068: + x176 + x217 <= 1
C1069: + x5 + x39 <= 1
C1070: + x26 + x357 <= 1
C1071: + x334 + x356 <= 1
C1072: + x270 + x409 <= 1
C1073: + x15 + x351 <= 1
C1074: + x49 + x73 <= 1
C1075: + x12 + x93 <= 1
C1076: + x139 + x455 <= 1
C1077: + x12 + x484 <= 1
C1078: + x21 + x447 <= 1
C1079: + x35 + x152 <= 1
C1080: + x4 + x415 <= 1
C1081: + x244 + x377 <= 1
C1082: + x29 + x399 <= 1
C1083: + x267 + x386 <= 1
C1084: + x126 + x314 <= 1
C1085: + x7 + x283 <= 1
C1086: + x54 + x435 <= 1
C1087: + x5 + x107 <= 1
C1088: + x161 + x348 <= 1
C1089: + x23 + x282 <= 1
C1090: + x5 + x424 <= 1
C1091: + x9 + x110 <= 1
C1092: + x55 + x206 <= 1
C1093: + x39 + x140 <= 1
C1094: + x150 + x312 <= 1
C1095: + x26 + x391 <= 1
C1096: + x198 + x403 <= 1
C1097: + x57 + x378 <= 1
C1098: + x3 + x129 <= 1
C1099: + x202 + x491 <= 1
C1100: + x15 + x161 <= 1
C1101: + x99 + x314 <= 1
C1102: + x54 + x327 <= 1
C1103: + x2 + x190 <= 1
C1104: + x4 + x5 <= 1
C1105: + x4 + x476 <= 1
C1106: + x44 + x238 <= 1
C1107: + x195 + x317 <= 1
C1108: + x97 + x272 <= 1
C1109: + x4 + x375 <= 1
C1110: + x6 + x7 <= 1
C1111: + x199 + x477 <= 1
C1112: + x39 + x118 <= 1
C1113: + x177 + x184 <= 1
C1114: + x5 + x46 <= 1
C1115: + x117 + x299 <= 1
C1116: + x8 + x17 <= 1
C1117: + x49 + x80 <= 1
C1118: + x12 + x86 <= 1
C1119: + x240 + x458 <= 1
C1120: + x205 + x286 <= 1
C1121: + x42 + x134 <= 1
C1122: + x17 + x25 <= 1
C1123: + x219 + x237 <= 1
C1124: + x402 + x453 <= 1
C1125: + x156 + x158 <= 1
C1126: + x34 + x388 <= 1
C1127: + x189 + x306 <= 1
C1128: + x7 + x201 <= 1
C1129: + x199 + x393 <= 1
C1130: + x454 + x492 <= 1
C1131: + x257 + x367 <= 1
C1132: + x5 + x82 <= 1
C1133: + x45 + x185 <= 1
C1134: + x258 + x359 <= 1
C1135: + x17 + x469 <= 1
C1136: + x11 + x23 <= 1
C1137: + x94 + x219 <= 1
C1138: + x48 + x496 <= 1
C1139: + x440 + x499 <= 1
C1140: + x15 + x172 <= 1
C1141: + x26 + x299 <= 1
C1142: + x18 + x201 <= 1
C1143: + x192 + x200 <= 1
C1144: + x441 + x456 <= 1
C1145: + x124 + x313 <= 1
C1146: + x334 + x389 <= 1
C1147: + x17 + x100 <= 1
C1148: + x18 + x108 <= 1
C1149: + x1 + x430 <= 1
C1150: + x6 + x16 <= 1
C1151: + x181 + x266 <= 1
C1152: + x8 + x288 <= 1
C1153: + x10 + x434 <= 1
C1154: + x266 + x467 <= 1
C1155: + x5 + x21 <= 1
C1156: + x45 + x132 <= 1
C1157: + x8 + x10 <= 1
C1158: + x72 + x330 <= 1
C1159: + x351 + x385 <= 1
C1160: + x54 + x183 <= 1
C1161: + x128 + x325 <= 1
C1162: + x220 + x339 <= 1
C1163: + x130 + x156 <= 1
C1164: + x58 + x180 <= 1
C1165: + x202 + x425 <= 1
C1166: + x40 + x456 <= 1
C1167: + x46 + x122 <= 1
C1168: + x212 + x370 <= 1
C1169: + x63 + x498 <= 1
C1170: + x237 + x288 <= 1
C1171: + x40 + x171 <= 1
C1172: + x197 + x281 <= 1
C1173: + x32 + x277 <= 1
C1174: + x15 + x373 <= 1
C1175: + x6 + x290 <= 1
C1176: + x45 + x184 <= 1
C1177: + x63 + x339 <= 1
C1178: + x138 + x423 <= 1
C1179: + x21 + x92 <= 1
C1180: + x7 + x434 <= 1
C1181: + x4 + x441 <= 1
C1182: + x5 + x331 <= 1
C1183: + x83 + x164 <= 1
C1184: + x265 + x408 <= 1
C1185: + x4 + x216 <= 1
C1186: + x34 + x465 <= 1
C1187: + x23 + x82 <= 1
C1188: + x91 + x228 <= 1
C1189: + x6 + x232 <= 1
C1190: + x8 + x83 <= 1
C1191: + x2 + x144 <= 1
C1192: + x94 + x375 <= 1
C1193: + x20 + x56 <= 1
C1194: + x3 + x6 <= 1
C1195: + x76 + x368 <= 1
C1196: + x341 + x466 <= 1
C1197: + x63 + x124 <= 1
C1198: + x10 + x78 <= 1
C1199: + x49 + x401 <= 1
C1200: + x48 + x57 <= 1
C1201: + x60 + x316 <= 1
C1202: + x10 + x169 <= 1
C1203: + x156 + x410 <= 1
C1204: + x29 + x138 <= 1
C1205: + x51 + x155 <= 1
C1206: + x161 + x498 <= 1
C1207: + x7 + x26 <= 1
C1208: + x130 + x157 <= 1
C1209: + x12 + x374 <= 1
C1210: + x247 + x356 + x389 <= 1
C1211: + x118 + x296 <= 1
C1212: + x10 + x58 <= 1
C1213: + x174 + x225 <= 1
C1214: + x455 + x486 <= 1
C1215: + x4 + x80 <= 1
C1216: + x16 + x120 <= 1
C1217: + x73 + x451 <= 1
C1218: + x246 + x481 <= 1
C1219: + x23 + x400 <= 1
C1220: + x6 + x78 <= 1
C1221: + x182 + x452 <= 1
C1222: + x75 + x272 <= 1
C1223: + x203 + x278 <= 1
C1224: + x4 + x221 <= 1
C1225: + x209 + x432 <= 1
C1226: + x18 + x376 <= 1
C1227: + x111 + x234 <= 1
C1228: + x38 + x184 <= 1
C1229: + x94 + x336 <= 1
C1230: + x58 + x484 <= 1
C1231: + x4 + x463 <= 1
C1232: + x23 + x383 <= 1
C1233: + x24 + x101 <= 1
C1234: + x18 + x102 <= 1
C1235: + x3 + x29 <= 1
C1236: + x34 + x91 <= 1
C1237: + x88 + x140 <= 1
C1238: + x96 + x293 <= 1
C1239: + x5 + x358 <= 1
C1240: + x3 + x162 <= 1
C1241: + x53 + x456 <= 1
C1242: + x18 + x247 <= 1
C1243: + x102 + x353 <= 1
C1244: + x148 + x302 <= 1
C1245: + x69 + x419 <= 1
C1246: + x4 + x40 <= 1
C1247: + x7 + x17 <= 1
C1248: + x310 + x372 <= 1
C1249: + x23 + x24 <= 1
C1250: + x150 + x219 <= 1
C1251: + x456 + x487 <= 1
C1252: + x86 + x280 <= 1
C1253: + x60 + x269 <= 1
C1254: + x5 + x412 <= 1
C1255: + x281 + x378 <= 1
C1256: + x8 + x52 <= 1
C1257: + x7 + x420 <= 1
C1258: + x38 + x48 <= 1
C1259: + x322 + x404 <= 1
C1260: + x61 + x129 <= 1
C1261: + x66 + x319 <= 1
C1262: + x29 + x423 <= 1
C1263: + x105 + x272 <= 1
C1264: + x3 + x101 <= 1
C1265: + x17 + x359 <= 1
C1266: + x26 + x318 <= 1
C1267: + x18 + x180 <= 1
C1268: + x354 + x470 <= 1
C1269: + x46 + x270 <= 1
C1270: + x4 + x97 <= 1
C1271: + x98 + x305 <= 1
C1272: + x65 + x115 <= 1
C1273: + x49 + x157 <= 1
C1274: + x203 + x368 <= 1
C1275: + x60 + x235 <= 1
C1276: + x23 + x467 <= 1
C1277: + x24 + x449 <= 1
C1278: + x83 + x202 <= 1
C1279: + x8 + x210 <= 1
C1280: + x2 + x11 <= 1
C1281: + x258 + x417 <= 1
C1282: + x42 + x500 <= 1
C1283: + x195 + x422 <= 1
C1284: + x217 + x406 <= 1
C1285: + x171 + x298 <= 1
C1286: + x226 + x469 <= 1
C1287: + x48 + x174 <= 1
C1288: + x4 + x45 <= 1
C1289: + x89 + x488 <= 1
C1290: + x5 + x145 <= 1
C1291: + x9 + x287 <= 1
C1292: + x69 + x313 <= 1
C1293: + x125 + x334 <= 1
C1294: + x5 + x54 <= 1
C1295: + x17 + x148 <= 1
C1296: + x7 + x411 <= 1
C1297: + x12 + x46 <= 1
C1298: + x6 + x211 <= 1
C1299: + x16 + x320 <= 1
C1300: + x2 + x147 <= 1
C1301: + x234 + x428 <= 1
C1302: + x45 + x209 <= 1
C1303: + x391 + x493 <= 1
C1304: + x2 + x318 <= 1
C1305: + x164 + x368 <= 1
C1306: + x264 + x353 <= 1
C1307: + x49 + x390 <= 1
C1308: + x22 + x65 <= 1
C1309: + x44 + x96 <= 1
C1310: + x228 + x450 <= 1
C1311: + x95 + x414 <= 1
C1312: + x13 + x121 <= 1
C1313: + x69 + x110 <= 1
C1314: + x223 + x343 <= 1
C1315: + x249 + x483 <= 1
C1316: + x65 + x173 + x279 <= 1
C1317: + x5 + x160 <= 1
C1318: + x14 + x117 <= 1
C1319: + x18 + x303 <= 1
C1320: + x263 + x497 <= 1
C1321: + x19 + x437 <= 1
C1322: + x3 + x200 <= 1
C1323: + x33 + x412 <= 1
C1324: + x53 + x87 <= 1
C1325: + x9 + x56 <= 1
C1326: + x200 + x226 <= 1
C1327: + x11 + x264 <= 1
C1328: + x12 + x35 <= 1
C1329: + x17 + x56 <= 1
C1330: + x82 + x128 <= 1
C1331: + x54 + x95 <= 1
C1332: + x274 + x409 <= 1
C1333: + x284 + x370 <= 1
C1334: + x31 + x433 <= 1
C1335: + x71 + x493 <= 1
C1336: + x9 + x135 <= 1
C1337: + x282 + x489 <= 1
C1338: + x33 + x344 <= 1
C1339: + x25 + x234 <= 1
C1340: + x5 + x446 <= 1
C1341: + x243 + x472 <= 1
C1342: + x210 + x212 <= 1
C1343: + x17 + x71 <= 1
C1344: + x236 + x331 <= 1
C1345: + x33 + x122 <= 1
C1346: + x92 + x212 <= 1
C1347: + x2 + x5 <= 1
C1348: + x56 + x458 <= 1
C1349: + x349 + x374 <= 1
C1350: + x17 + x214 <= 1
C1351: + x82 + x282 <= 1
C1352: + x1 + x64 <= 1
C1353: + x57 + x461 <= 1
C1354: + x232 + x439 <= 1
C1355: + x4 + x27 <= 1
C1356: + x32 + x353 <= 1
C1357: + x10 + x296 <= 1
C1358: + x3 + x497 <= 1
C1359: + x3 + x62 <= 1
C1360: + x184 + x422 <= 1
C1361: + x23 + x413 <= 1
C1362: + x159 + x193 <= 1
C1363: + x15 + x70 <= 1
C1364: + x88 + x235 <= 1
C1365: + x132 + x300 <= 1
C1366: + x63 + x370 <= 1
C1367: + x194 + x231 <= 1
C1368: + x17 + x47 <= 1
C1369: + x7 + x50 <= 1
C1370: + x63 + x211 <= 1
C1371: + x10 + x276 <= 1
C1372: + x49 + x328 <= 1
C1373: + x123 + x467 <= 1
C1374: + x132 + x185 <= 1
C1375: + x14 + x34 <= 1
C1376: + x4 + x88 <= 1
C1377: + x124 + x176 <= 1
C1378: + x9 + x107 <= 1
C1379: + x123 + x137 <= 1
C1380: + x5 + x346 <= 1
C1381: + x2 + x30 <= 1
C1382: + x93 + x219 <= 1
C1383: + x6 + x137 <= 1
C1384: + x93 + x128 <= 1
C1385: + x202 + x321 <= 1
C1386: + x6 + x26 <= 1
C1387: + x142 + x178 <= 1
C1388: + x63 + x75 <= 1
C1389: + x2 + x42 <= 1
C1390: + x456 + x459 <= 1
C1391: + x4 + x145 <= 1
C1392: + x35 + x79 <= 1
C1393: + x7 + x400 <= 1
C1394: + x219 + x333 <= 1
C1395: + x313 + x341 <= 1
C1396: + x186 + x203 <= 1
C1397: + x267 + x297 <= 1
C1398: + x4 + x387 <= 1
C1399: + x314 + x433 <= 1
C1400: + x2 + x91 <= 1
C1401: + x309 + x382 <= 1
C1402: + x283 + x489 <= 1
C1403: + x5 + x87 <= 1
C1404: + x5 + x420 <= 1
C1405: + x32 + x291 <= 1
C1406: + x17 + x181 <= 1
C1407: + x12 + x13 <= 1
C1408: + x13 + x292 <= 1
C1409: + x133 + x193 <= 1
C1410: + x91 + x121 <= 1
C1411: + x199 + x293 <= 1
C1412: + x255 + x322 <= 1
C1413: + x272 + x409 <= 1
C1414: + x3 + x157 <= 1
C1415: + x18 + x486 <= 1
C1416: + x140 + x191 <= 1
C1417: + x31 + x111 <= 1
C1418: + x189 + x267 <= 1
C1419: + x24 + x332 <= 1
C1420: + x6 + x333 <= 1
C1421: + x124 + x241 <= 1
C1422: + x4 + x9 <= 1
C1423: + x70 + x85 <= 1
C1424: + x40 + x229 <= 1
C1425: + x18 + x119 <= 1
C1426: + x156 + x287 <= 1
C1427: + x3 + x16 <= 1
C1428: + x58 + x227 <= 1
C1429: + x60 + x195 <= 1
C1430: + x159 + x307 <= 1
C1431: + x119 + x438 <= 1
C1432: + x92 + x311 <= 1
C1433: + x49 + x487 <= 1
C1434: + x205 + x437 <= 1
C1435: + x17 + x256 <= 1
C1436: + x6 + x369 <= 1
C1437: + x33 + x270 <= 1
C1438: + x62 + x215 <= 1
C1439: + x47 + x304 <= 1
C1440: + x78 + x201 <= 1
C1441: + x5 + x185 <= 1
C1442: + x43 + x443 <= 1
C1443: + x199 + x397 <= 1
C1444: + x236 + x403 <= 1
C1445: + x19 + x45 + x399 <= 1
C1446: + x3 + x11 + x18 <= 1
C1447: + x14 + x322 <= 1
C1448: + x9 + x25 <= 1
C1449: + x65 + x86 <= 1
C1450: + x13 + x475 <= 1
C1451: + x6 + x72 <= 1
C1452: + x7 + x96 <= 1
C1453: + x54 + x126 <= 1
C1454: + x19 + x485 <= 1
C1455: + x270 + x467 <= 1
C1456: + x181 + x212 <= 1
C1457: + x1 + x5 <= 1
C1458: + x7 + x495 <= 1
C1459: + x3 + x7 <= 1
C1460: + x420 + x442 <= 1
C1461: + x67 + x199 <= 1
C1462: + x12 + x389 <= 1
C1463: + x6 + x12 <= 1
C1464: + x10 + x73 <= 1
C1465: + x58 + x71 <= 1
C1466: + x203 + x468 <= 1
C1467: + x14 + x252 <= 1
C1468: + x286 + x324 <= 1
C1469: + x120 + x257 <= 1
C1470: + x13 + x81 <= 1
C1471: + x14 + x490 <= 1
C1472: + x7 + x27 <= 1
C1473: + x104 + x260 <= 1
C1474: + x32 + x39 <= 1
C1475: + x187 + x473 <= 1
C1476: + x5 + x168 <= 1
C1477: + x9 + x163 <= 1
C1478: + x66 + x440 <= 1
C1479: + x38 + x327 <= 1
C1480: + x4 + x75 <= 1
C1481: + x5 + x69 <= 1
C1482: + x42 + x329 <= 1
C1483: + x32 + x198 <= 1
C1484: + x32 + x273 <= 1
C1485: + x246 + x484 <= 1
C1486: + x17 + x163 <= 1
C1487: + x52 + x112 + x116 <= 1
C1488: + x29 + x429 <= 1
C1489: + x13 + x183 <= 1
C1490: + x16 + x301 <= 1
C1491: + x7 + x325 <= 1
C1492: + x33 + x336 <= 1
C1493: + x3 + x469 <= 1
C1494: + x5 + x379 <= 1
C1495: + x15 + x34 <= 1
C1496: + x18 + x260 <= 1
C1497: + x63 + x128 <= 1
C1498: + x8 + x224 <= 1
C1499: + x19 + x93 <= 1
C1500: + x108 + x218 <= 1
C1501: + x36 + x92 <= 1
C1502: + x101 + x108 <= 1
C1503: + x191 + x238 <= 1
C1504: + x4 + x35 <= 1
C1505: + x40 + x207 <= 1
C1506: + x35 + x189 <= 1
C1507: + x7 + x30 <= 1
C1508: + x250 + x454 <= 1
C1509: + x385 + x495 <= 1
C1510: + x91 + x163 <= 1
C1511: + x91 + x288 <= 1
C1512: + x27 + x96 <= 1
C1513: + x455 + x474 <= 1
C1514: + x9 + x170 <= 1
C1515: + x63 + x346 <= 1
C1516: + x201 + x284 <= 1
C1517: + x56 + x217 <= 1
C1518: + x386 + x448 <= 1
C1519: + x43 + x64 <= 1
C1520: + x23 + x388 <= 1
C1521: + x7 + x74 <= 1
C1522: + x58 + x133 <= 1
C1523: + x15 + x186 <= 1
C1524: + x91 + x247 <= 1
C1525: + x90 + x249 <= 1
C1526: + x228 + x492 <= 1
C1527: + x47 + x103 <= 1
C1528: + x159 + x395 <= 1
C1529: + x206 + x232 <= 1
C1530: + x18 + x90 <= 1
C1531: + x7 + x473 <= 1
C1532: + x56 + x348 <= 1
C1533: + x33 + x105 <= 1
C1534: + x1 + x130 <= 1
C1535: + x2 + x54 <= 1
C1536: + x147 + x161 <= 1
C1537: + x162 + x237 <= 1
C1538: + x17 + x229 <= 1
C1539: + x6 + x145 <= 1
C1540: + x19 + x249 <= 1
C1541: + x55 + x146 <= 1
C1542: + x97 + x246 <= 1
C1543: + x152 + x285 <= 1
C1544: + x4 + x44 <= 1
C1545: + x167 + x470 <= 1
C1546: + x7 + x364 <= 1
C1547: + x93 + x309 <= 1
C1548: + x3 + x45 <= 1
C1549: + x50 + x109 <= 1
C1550: + x15 + x117 <= 1
C1551: + x110 + x384 <= 1
C1552: + x282 + x471 <= 1
C1553: + x265 + x315 <= 1
C1554: + x298 + x412 <= 1
C1555: + x7 + x424 <= 1
C1556: + x47 + x255 <= 1
C1557: + x51 + x198 <= 1
C1558: + x215 + x219 <= 1
C1559: + x9 + x491 <= 1
C1560: + x2 + x115 <= 1
C1561: + x11 + x16 <= 1
C1562: + x12 + x347 <= 1
C1563: + x4 + x202 <= 1
C1564: + x16 + x307 <= 1
C1565: + x18 + x365 <= 1
C1566: + x10 + x19 <= 1
C1567: + x12 + x186 <= 1
C1568: + x8 + x484 <= 1
C1569: + x47 + x203 <= 1
C1570: + x49 + x294 <= 1
C1571: + x195 + x285 <= 1
C1572: + x52 + x190 <= 1
C1573: + x9 + x471 <= 1
C1574: + x87 + x116 <= 1
C1575: + x7 + x355 <= 1
C1576: + x148 + x311 <= 1
C1577: + x21 + x41 <= 1
C1578: + x12 + x118 <= 1
C1579: + x33 + x223 <= 1
C1580: + x160 + x310 <= 1
C1581: + x197 + x477 <= 1
C1582: + x7 + x169 <= 1
C1583: + x45 + x431 <= 1
C1584: + x5 + x50 <= 1
C1585: + x34 + x178 <= 1
C1586: + x10 + x139 <= 1
C1587: + x210 + x291 <= 1
C1588: + x219 + x384 <= 1
C1589: + x7 + x60 <= 1
C1590: + x54 + x82 <= 1
C1591: + x28 + x416 <= 1
C1592: + x2 + x76 <= 1
C1593: + x41 + x443 <= 1
C1594: + x5 + x193 <= 1
C1595: + x425 + x453 <= 1
C1596: + x9 + x335 <= 1
C1597: + x9 + x132 <= 1
C1598: + x380 + x382 <= 1
C1599: + x2 + x151 <= 1
C1600: + x48 + x99 <= 1
C1601: + x214 + x284 <= 1
C1602: + x38 + x166 <= 1
C1603: + x39 + x62 <= 1
C1604: + x15 + x410 <= 1
C1605: + x16 + x22 <= 1
C1606: + x18 + x76 <= 1
C1607: + x2 + x306 <= 1
C1608: + x89 + x324 <= 1
C1609: + x6 + x131 <= 1
C1610: + x254 + x337 <= 1
C1611: + x230 + x426 <= 1
C1612: + x178 + x180 <= 1
C1613: + x69 + x106 <= 1
C1614: + x51 + x132 <= 1
C1615: + x79 + x358 <= 1
C1616: + x341 + x346 <= 1
C1617: + x8 + x397 <= 1
C1618: + x5 + x156 <= 1
C1619: + x270 + x316 <= 1
C1620: + x149 + x295 <= 1
C1621: + x5 + x57 <= 1
C1622: + x298 + x390 <= 1
C1623: + x76 + x468 <= 1
C1624: + x12 + x494 <= 1
C1625: + x314 + x427 <= 1
C1626: + x97 + x482 <= 1
C1627: + x6 + x421 <= 1
C1628: + x199 + x371 <= 1
C1629: + x335 + x491 <= 1
C1630: + x28 + x405 <= 1
C1631: + x73 + x182 <= 1
C1632: + x7 + x289 <= 1
C1633: + x10 + x29 <= 1
C1634: + x2 + x240 <= 1
C1635: + x85 + x382 <= 1
C1636: + x369 + x439 <= 1
C1637: + x287 + x427 <= 1
C1638: + x52 + x109 <= 1
C1639: + x170 + x172 <= 1
C1640: + x16 + x19 <= 1
C1641: + x200 + x274 <= 1
C1642: + x124 + x445 <= 1
C1643: + x6 + x105 <= 1
C1644: + x2 + x25 <= 1
C1645: + x12 + x261 <= 1
C1646: + x153 + x338 <= 1
C1647: + x7 + x349 <= 1
C1648: + x1 + x52 <= 1
C1649: + x383 + x387 <= 1
C1650: + x74 + x393 <= 1
C1651: + x41 + x139 <= 1
C1652: + x195 + x213 <= 1
C1653: + x4 + x470 <= 1
C1654: + x46 + x83 <= 1
C1655: + x2 + x455 <= 1
C1656: + x19 + x428 <= 1
C1657: + x63 + x72 <= 1
C1658: + x17 + x33 + x84 <= 1
C1659: + x158 + x263 <= 1
C1660: + x5 + x40 <= 1
C1661: + x117 + x301 <= 1
C1662: + x279 + x451 <= 1
C1663: + x9 + x35 <= 1
C1664: + x8 + x27 <= 1
C1665: + x29 + x190 <= 1
C1666: + x267 + x302 <= 1
C1667: + x258 + x337 <= 1
C1668: + x161 + x494 <= 1
C1669: + x25 + x70 <= 1
C1670: + x163 + x450 <= 1
C1671: + x27 + x362 <= 1
C1672: + x265 + x447 <= 1
C1673: + x46 + x466 <= 1
C1674: + x132 + x189 <= 1
C1675: + x269 + x415 <= 1
C1676: + x126 + x313 <= 1
C1677: + x7 + x284 <= 1
C1678: + x245 + x326 <= 1
C1679: + x163 + x240 <= 1
C1680: + x13 + x55 <= 1
C1681: + x33 + x355 <= 1
C1682: + x289 + x386 <= 1
C1683: + x36 + x240 <= 1
C1684: + x66 + x68 <= 1
C1685: + x130 + x375 <= 1
C1686: + x49 + x134 <= 1
C1687: + x85 + x474 <= 1
C1688: + x42 + x80 <= 1
C1689: + x169 + x269 <= 1
C1690: + x14 + x431 <= 1
C1691: + x9 + x460 <= 1
C1692: + x163 + x406 <= 1
C1693: + x174 + x443 <= 1
C1694: + x55 + x465 <= 1
C1695: + x69 + x366 <= 1
C1696: + x383 + x390 <= 1
C1697: + x50 + x411 <= 1
C1698: + x4 + x8 <= 1
C1699: + x33 + x228 <= 1
C1700: + x5 + x469 <= 1
C1701: + x336 + x475 <= 1
C1702: + x66 + x160 <= 1
C1703: + x19 + x258 <= 1
C1704: + x48 + x343 <= 1
C1705: + x9 + x312 <= 1
C1706: + x184 + x222 <= 1
C1707: + x78 + x379 <= 1
C1708: + x5 + x47 <= 1
C1709: + x126 + x321 <= 1
C1710: + x435 + x466 <= 1
C1711: + x113 + x129 <= 1
C1712: + x52 + x206 <= 1
C1713: + x5 + x281 <= 1
C1714: + x26 + x67 <= 1
C1715: + x2 + x492 <= 1
C1716: + x11 + x36 <= 1
C1717: + x56 + x264 <= 1
C1718: + x184 + x371 <= 1
C1719: + x9 + x185 <= 1
C1720: + x174 + x238 <= 1
C1721: + x229 + x391 <= 1
C1722: + x105 + x141 <= 1
C1723: + x292 + x388 <= 1
C1724: + x369 + x421 <= 1
C1725: + x4 + x65 <= 1
C1726: + x189 + x221 <= 1
C1727: + x9 + x22 <= 1
C1728: + x54 + x222 <= 1
C1729: + x48 + x268 <= 1
C1730: + x4 + x435 <= 1
C1731: + x12 + x472 <= 1
C1732: + x6 + x91 <= 1
C1733: + x7 + x89 <= 1
C1734: + x352 + x473 <= 1
C1735: + x136 + x178 <= 1
C1736: + x75 + x283 <= 1
C1737: + x30 + x325 <= 1
C1738: + x32 + x97 <= 1
C1739: + x352 + x384 <= 1
C1740: + x154 + x344 <= 1
C1741: + x136 + x420 <= 1
C1742: + x60 + x124 <= 1
C1743: + x89 + x456 <= 1
C1744: + x201 + x215 <= 1
C1745: + x11 + x430 <= 1
C1746: + x49 + x233 <= 1
C1747: + x52 + x166 <= 1
C1748: + x6 + x15 <= 1
C1749: + x72 + x95 <= 1
C1750: + x8 + x230 <= 1
C1751: + x348 + x364 <= 1
C1752: + x98 + x235 <= 1
C1753: + x189 + x347 <= 1
C1754: + x8 + x9 <= 1
C1755: + x53 + x205 <= 1
C1756: + x256 + x275 <= 1
C1757: + x2 + x88 <= 1
C1758: + x147 + x195 <= 1
C1759: + x108 + x125 <= 1
C1760: + x4 + x74 <= 1
C1761: + x5 + x90 <= 1
C1762: + x170 + x338 <= 1
C1763: + x15 + x374 <= 1
C1764: + x5 + x407 <= 1
C1765: + x191 + x212 <= 1
C1766: + x248 + x263 <= 1
C1767: + x21 + x402 <= 1
C1768: + x4 + x444 <= 1
C1769: + x6 + x68 <= 1
C1770: + x271 + x332 <= 1
C1771: + x249 + x404 <= 1
C1772: + x77 + x175 <= 1
C1773: + x150 + x156 <= 1
C1774: + x6 + x231 <= 1
C1775: + x9 + x236 <= 1
C1776: + x8 + x78 <= 1
C1777: + x395 + x432 <= 1
C1778: + x35 + x238 <= 1
C1779: + x18 + x100 <= 1
C1780: + x66 + x106 <= 1
C1781: + x11 + x341 <= 1
C1782: + x84 + x452 <= 1
C1783: + x131 + x208 <= 1
C1784: + x2 + x6 + x8 + x20 <= 1
C1785: + x97 + x252 <= 1
C1786: + x5 + x29 <= 1
C1787: + x162 + x215 <= 1
C1788: + x53 + x55 <= 1
C1789: + x181 + x228 <= 1
C1790: + x18 + x253 <= 1
C1791: + x38 + x242 <= 1
C1792: + x196 + x309 <= 1
C1793: + x5 + x271 <= 1
C1794: + x36 + x310 <= 1
C1795: + x392 + x447 <= 1
C1796: + x33 + x43 <= 1
C1797: + x154 + x278 <= 1
C1798: + x101 + x256 <= 1
C1799: + x11 + x183 <= 1
C1800: + x38 + x323 <= 1
C1801: + x4 + x79 <= 1
C1802: + x5 + x65 <= 1
C1803: + x23 + x292 <= 1
C1804: + x90 + x318 <= 1
C1805: + x224 + x386 <= 1
C1806: + x19 + x183 <= 1
C1807: + x7 + x426 <= 1
C1808: + x63 + x347 <= 1
C1809: + x371 + x427 <= 1
C1810: + x4 + x417 <= 1
C1811: + x18 + x460 <= 1
C1812: + x97 + x167 <= 1
C1813: + x7 + x248 <= 1
C1814: + x163 + x205 <= 1
C1815: + x9 + x350 <= 1
C1816: + x2 + x136 <= 1
C1817: + x227 + x397 <= 1
C1818: + x12 + x144 <= 1
C1819: + x68 + x488 <= 1
C1820: + x17 + x83 <= 1
C1821: + x128 + x258 <= 1
C1822: + x147 + x440 <= 1
C1823: + x92 + x208 <= 1
C1824: + x5 + x28 <= 1
C1825: + x26 + x328 <= 1
C1826: + x27 + x41 <= 1
C1827: + x3 + x324 <= 1
C1828: + x48 + x168 <= 1
C1829: + x31 + x383 <= 1
C1830: + x32 + x373 <= 1
C1831: + x81 + x335 <= 1
C1832: + x7 + x18 <= 1
C1833: + x45 + x280 <= 1
C1834: + x220 + x253 <= 1
C1835: + x115 + x440 <= 1
C1836: + x43 + x425 <= 1
C1837: + x26 + x497 <= 1
C1838: + x9 + x281 <= 1
C1839: + x45 + x437 <= 1
C1840: + x33 + x34 <= 1
C1841: + x415 + x418 <= 1
C1842: + x91 + x175 <= 1
C1843: + x231 + x396 <= 1
C1844: + x117 + x130 <= 1
C1845: + x26 + x199 <= 1
C1846: + x19 + x178 <= 1
C1847: + x8 + x51 <= 1
C1848: + x358 + x373 <= 1
C1849: + x13 + x453 <= 1
C1850: + x43 + x60 <= 1
C1851: + x8 + x338 <= 1
C1852: + x49 + x340 <= 1
C1853: + x30 + x304 <= 1
C1854: + x13 + x170 <= 1
C1855: + x232 + x361 <= 1
C1856: + x40 + x41 <= 1
C1857: + x16 + x306 <= 1
C1858: + x91 + x243 <= 1
C1859: + x109 + x246 <= 1
C1860: + x2 + x153 <= 1
C1861: + x6 + x233 <= 1
C1862: + x8 + x487 <= 1
C1863: + x46 + x176 <= 1
C1864: + x319 + x451 <= 1
C1865: + x85 + x127 <= 1
C1866: + x123 + x298 <= 1
C1867: + x105 + x416 <= 1
C1868: + x12 + x439 <= 1
C1869: + x92 + x499 <= 1
C1870: + x8 + x262 <= 1
C1871: + x53 + x464 <= 1
C1872: + x117 + x197 <= 1
C1873: + x134 + x419 <= 1
C1874: + x8 + x120 <= 1
C1875: + x63 + x281 <= 1
C1876: + x222 + x327 <= 1
C1877: + x31 + x354 <= 1
C1878: + x337 + x395 <= 1
C1879: + x120 + x434 <= 1
C1880: + x149 + x192 <= 1
C1881: + x23 + x48 <= 1
C1882: + x278 + x355 <= 1
C1883: + x8 + x133 <= 1
C1884: + x237 + x262 <= 1
C1885: + x38 + x373 <= 1
C1886: + x53 + x73 <= 1
C1887: + x9 + x50 <= 1
C1888: + x240 + x433 <= 1
C1889: + x13 + x452 <= 1
C1890: + x136 + x353 <= 1
C1891: + x42 + x464 <= 1
C1892: + x188 + x441 <= 1
C1893: + x45 + x488 <= 1
C1894: + x30 + x204 <= 1
C1895: + x44 + x194 <= 1
C1896: + x245 + x394 <= 1
C1897: + x21 + x70 <= 1
C1898: + x314 + x361 <= 1
C1899: + x199 + x305 <= 1
C1900: + x36 + x348 <= 1
C1901: + x56 + x500 <= 1
C1902: + x39 + x394 <= 1
C1903: + x12 + x267 <= 1
C1904: + x5 + x10 <= 1
C1905: + x6 + x134 <= 1
C1906: + x15 + x209 <= 1
C1907: + x100 + x142 <= 1
C1908: + x63 + x260 <= 1
C1909: + x113 + x164 <= 1
C1910: + x195 + x223 <= 1
C1911: + x136 + x223 <= 1
C1912: + x362 + x416 <= 1
C1913: + x163 + x345 <= 1
C1914: + x63 + x90 <= 1
C1915: + x155 + x231 <= 1
C1916: + x8 + x311 <= 1
C1917: + x410 + x489 <= 1
C1918: + x19 + x127 <= 1
C1919: + x176 + x210 <= 1
C1920: + x237 + x381 <= 1
C1921: + x222 + x497 <= 1
C1922: + x4 + x166 <= 1
C1923: + x97 + x221 <= 1
C1924: + x298 + x385 <= 1
C1925: + x7 + x403 <= 1
C1926: + x5 + x304 <= 1
C1927: + x17 + x41 <= 1
C1928: + x66 + x197 <= 1
C1929: + x60 + x139 <= 1
C1930: + x17 + x342 <= 1
C1931: + x26 + x271 <= 1
C1932: + x7 + x302 <= 1
C1933: + x10 + x32 <= 1
C1934: + x28 + x102 <= 1
C1935: + x5 + x98 <= 1
C1936: + x296 + x457 <= 1
C1937: + x89 + x118 <= 1
C1938: + x34 + x130 <= 1
C1939: + x125 + x199 <= 1
C1940: + x72 + x149 <= 1
C1941: + x161 + x432 <= 1
C1942: + x15 + x63 <= 1
C1943: + x61 + x236 <= 1
C1944: + x54 + x98 <= 1
C1945: + x137 + x300 <= 1
C1946: + x77 + x135 <= 1
C1947: + x4 + x255 <= 1
C1948: + x112 + x288 <= 1
C1949: + x26 + x142 <= 1
C1950: + x280 + x342 <= 1
C1951: + x2 + x167 <= 1
C1952: + x58 + x450 <= 1
C1953: + x31 + x159 <= 1
C1954: + x9 + x81 <= 1

binary
x1 x2 x3 x4 x5 x6 x7 x8 x9 x10 x11 x12 x13 x14 x15 x16 x17 x18 x19 x20 x21 x22 x23 x24 x25 x26 x27 x28 x29 x30 x31 x32 x33 x34 x35 x36 x37 x38 x39 x40 x41 x42 x43 x44 x45 x46 x47 x48 x49 x50 x51 x52 x53 x54 x55 x56 x57 x58 x59 x60 x61 x62 x63 x64 x65 x66 x67 x68 x69 x70 x71 x72 x73 x74 x75 x76 x77 x78 x79 x80 x81 x82 x83 x84 x85 x86 x87 x88 x89 x90 x91 x92 x93 x94 x95 x96 x97 x98 x99 x100 x101 x102 x103 x104 x105 x106 x107 x108 x109 x110 x111 x112 x113 x114 x115 x116 x117 x118 x119 x120 x121 x122 x123 x124 x125 x126 x127 x128 x129 x130 x131 x132 x133 x134 x135 x136 x137 x138 x139 x140 x141 x142 x143 x144 x145 x146 x147 x148 x149 x150 x151 x152 x153 x154 x155 x156 x157 x158 x159 x160 x161 x162 x163 x164 x165 x166 x167 x168 x169 x170 x171 x172 x173 x174 x175 x176 x177 x178 x179 x180 x181 x182 x183 x184 x185 x186 x187 x188 x189 x190 x191 x192 x193 x194 x195 x196 x197 x198 x199 x200 x201 x202 x203 x204 x205 x206 x207 x208 x209 x210 x211 x212 x213 x214 x215 x216 x217 x218 x219 x220 x221 x222 x223 x224 x225 x226 x227 x228 x229 x230 x231 x232 x233 x234 x235 x236 x237 x238 x239 x240 x241 x242 x243 x244 x245 x246 x247 x248 x249 x250 x251 x252 x253 x254 x255 x256 x257 x258 x259 x260 x261 x262 x263 x264 x265 x266 x267 x268 x269 x270 x271 x272 x273 x274 x275 x276 x277 x278 x279 x280 x281 x282 x283 x284 x285 x286 x287 x288 x289 x290 x291 x292 x293 x294 x295 x296 x297 x298 x299 x300 x301 x302 x303 x304 x305 x306 x307 x308 x309 x310 x311 x312 x313 x314 x315 x316 x317 x318 x319 x320 x321 x322 x323 x324 x325 x326 x327 x328 x329 x330 x331 x332 x333 x334 x335 x336 x337 x338 x339 x340 x341 x342 x343 x344 x345 x346 x347 x348 x349 x350 x351 x352 x353 x354 x355 x356 x357 x358 x359 x360 x361 x362 x363 x364 x365 x366 x367 x368 x369 x370 x371 x372 x373 x374 x375 x376 x377 x378 x379 x380 x381 x382 x383 x384 x385 x386 x387 x388 x389 x390 x391 x392 x393 x394 x395 x396 x397 x398 x399 x400 x401 x402 x403 x404 x405 x406 x407 x408 x409 x410 x411 x412 x413 x414 x415 x416 x417 x418 x419 x420 x421 x422 x423 x424 x425 x426 x427 x428 x429 x430 x431 x432 x433 x434 x435 x436 x437 x438 x439 x440 x441 x442 x443 x444 x445 x446 x447 x448 x449 x450 x451 x452 x453 x454 x455 x456 x457 x458 x459 x460 x461 x462 x463 x464 x465 x466 x467 x468 x469 x470 x471 x472 x473 x474 x475 x476 x477 x478 x479 x480 x481 x482 x483 x484 x485 x486 x487 x488 x489 x490 x491 x492 x493 x494 x495 x496 x497 x498 x499 x500
