maximize
OBJ: + 1 x1 + 1 x2 + 1 x3 + 1 x4 + 1 x5 + 1 x6 + 1 x7 + 1 x8 + 1 x9 + 1 x10 + 1 x11 + 1 x12 + 1 x13 + 1 x14 + 1 x15 + 1 x16 + 1 x17 + 1 x18 + 1 x19 + 1 x20 + 1 x21 + 1 x22 + 1 x23 + 1 x24 + 1 x25 + 1 x26 + 1 x27 + 1 x28 + 1 x29 + 1 x30 + 1 x31 + 1 x32 + 1 x33 + 1 x34 + 1 x35 + 1 x36 + 1 x37 + 1 x38 + 1 x39 + 1 x40 + 1 x41 + 1 x42 + 1 x43 + 1 x44 + 1 x45 + 1 x46 + 1 x47 + 1 x48 + 1 x49 + 1 x50 + 1 x51 + 1 x52 + 1 x53 + 1 x54 + 1 x55 + 1 x56 + 1 x57 + 1 x58 + 1 x59 + 1 x60 + 1 x61 + 1 x62 + 1 x63 + 1 x64 + 1 x65 + 1 x66 + 1 x67 + 1 x68 + 1 x69 + 1 x70 + 1 x71 + 1 x72 + 1 x73 + 1 x74 + 1 x75 + 1 x76 + 1 x77 + 1 x78 + 1 x79 + 1 x80 + 1 x81 + 1 x82 + 1 x83 + 1 x84 + 1 x85 + 1 x86 + 1 x87 + 1 x88 + 1 x89 + 1 x90 + 1 x91 + 1 x92 + 1 x93 + 1 x94 + 1 x95 + 1 x96 + 1 x97 + 1 x98 + 1 x99 + 1 x100 + 1 x101 + 1 x102 + 1 x103 + 1 x104 + 1 x105 + 1 x106 + 1 x107 + 1 x108 + 1 x109 + 1 x110 + 1 x111 + 1 x112 + 1 x113 + 1 x114 + 1 x115 + 1 x116 + 1 x117 + 1 x118 + 1 x119 + 1 x120 + 1 x121 + 1 x122 + 1 x123 + 1 x124 + 1 x125 + 1 x126 + 1 x127 + 1 x128 + 1 x129 + 1 x130 + 1 x131 + 1 x132 + 1 x133 + 1 x134 + 1 x135 + 1 x136 + 1 x137 + 1 x138 + 1 x139 + 1 x140 + 1 x141 + 1 x142 + 1 x143 + 1 x144 + 1 x145 + 1 x146 + 1 x147 + 1 x148 + 1 x149 + 1 x150 + 1 x151 + 1 x152 + 1 x153 + 1 x154 + 1 x155 + 1 x156 + 1 x157 + 1 x158 + 1 x159 + 1 x160 + 1 x161 + 1 x162 + 1 x163 + 1 x164 + 1 x165 + 1 x166 + 1 x167 + 1 x168 + 1 x169 + 1 x170 + 1 x171 + 1 x172 + 1 x173 + 1 x174 + 1 x175 + 1 x176 + 1 x177 + 1 x178 + 1 x179 + 1 x180 + 1 x181 + 1 x182 + 1 x183 + 1 x184 + 1 x185 + 1 x186 + 1 x187 + 1 x188 + 1 x189 + 1 x190 + 1 x191 + 1 x192 + 1 x193 + 1 x194 + 1 x195 + 1 x196 + 1 x197 + 1 x198 + 1 x199 + 1 x200 + 1 x201 + 1 x202 + 1 x203 + 1 x204 + 1 x205 + 1 x206 + 1 x207 + 1 x208 + 1 x209 + 1 x210 + 1 x211 + 1 x212 + 1 x213 + 1 x214 + 1 x215 + 1 x216 + 1 x217 + 1 x218 + 1 x219 + 1 x220 + 1 x221 + 1 x222 + 1 x223 + 1 x224 + 1 x225 + 1 x226 + 1 x227 + 1 x228 + 1 x229 + 1 x230 + 1 x231 + 1 x232 + 1 x233 + 1 x234 + 1 x235 + 1 x236 + 1 x237 + 1 x238 + 1 x239 + 1 x240 + 1 x241 + 1 x242 + 1 x243 + 1 x244 + 1 x245 + 1 x246 + 1 x247 + 1 x248 + 1 x249 + 1 x250 + 1 x251 + 1 x252 + 1 x253 + 1 x254 + 1 x255 + 1 x256 + 1 x257 + 1 x258 + 1 x259 + 1 x260 + 1 x261 + 1 x262 + 1 x263 + 1 x264 + 1 x265 + 1 x266 + 1 x267 + 1 x268 + 1 x269 + 1 x270 + 1 x271 + 1 x272 + 1 x273 + 1 x274 + 1 x275 + 1 x276 + 1 x277 + 1 x278 + 1 x279 + 1 x280 + 1 x281 + 1 x282 + 1 x283 + 1 x284 + 1 x285 + 1 x286 + 1 x287 + 1 x288 + 1 x289 + 1 x290 + 1 x291 + 1 x292 + 1 x293 + 1 x294 + 1 x295 + 1 x296 + 1 x297 + 1 x298 + 1 x299 + 1 x300 + 1 x301 + 1 x302 + 1 x303 + 1 x304 + 1 x305 + 1 x306 + 1 x307 + 1 x308 + 1 x309 + 1 x310 + 1 x311 + 1 x312 + 1 x313 + 1 x314 + 1 x315 + 1 x316 + 1 x317 + 1 x318 + 1 x319 + 1 x320 + 1 x321 + 1 x322 + 1 x323 + 1 x324 + 1 x325 + 1 x326 + 1 x327 + 1 x328 + 1 x329 + 1 x330 + 1 x331 + 1 x332 + 1 x333 + 1 x334 + 1 x335 + 1 x336 + 1 x337 + 1 x338 + 1 x339 + 1 x340 + 1 x341 + 1 x342 + 1 x343 + 1 x344 + 1 x345 + 1 x346 + 1 x347 + 1 x348 + 1 x349 + 1 x350 + 1 x351 + 1 x352 + 1 x353 + 1 x354 + 1 x355 + 1 x356 + 1 x357 + 1 x358 + 1 x359 + 1 x360 + 1 x361 + 1 x362 + 1 x363 + 1 x364 + 1 x365 + 1 x366 + 1 x367 + 1 x368 + 1 x369 + 1 x370 + 1 x371 + 1 x372 + 1 x373 + 1 x374 + 1 x375 + 1 x376 + 1 x377 + 1 x378 + 1 x379 + 1 x380 + 1 x381 + 1 x382 + 1 x383 + 1 x384 + 1 x385 + 1 x386 + 1 x387 + 1 x388 + 1 x389 + 1 x390 + 1 x391 + 1 x392 + 1 x393 + 1 x394 + 1 x395 + 1 x396 + 1 x397 + 1 x398 + 1 x399 + 1 x400 + 1 x401 + 1 x402 + 1 x403 + 1 x404 + 1 x405 + 1 x406 + 1 x407 + 1 x408 + 1 x409 + 1 x410 + 1 x411 + 1 x412 + 1 x413 + 1 x414 + 1 x415 + 1 x416 + 1 x417 + 1 x418 + 1 x419 + 1 x420 + 1 x421 + 1 x422 + 1 x423 + 1 x424 + 1 x425 + 1 x426 + 1 x427 + 1 x428 + 1 x429 + 1 x430 + 1 x431 + 1 x432 + 1 x433 + 1 x434 + 1 x435 + 1 x436 + 1 x437 + 1 x438 + 1 x439 + 1 x440 + 1 x441 + 1 x442 + 1 x443 + 1 x444 + 1 x445 + 1 x446 + 1 x447 + 1 x448 + 1 x449 + 1 x450 + 1 x451 + 1 x452 + 1 x453 + 1 x454 + 1 x455 + 1 x456 + 1 x457 + 1 x458 + 1 x459 + 1 x460 + 1 x461 + 1 x462 + 1 x463 + 1 x464 + 1 x465 + 1 x466 + 1 x467 + 1 x468 + 1 x469 + 1 x470 + 1 x471 + 1 x472 + 1 x473 + 1 x474 + 1 x475 + 1 x476 + 1 x477 + 1 x478 + 1 x479 + 1 x480 + 1 x481 + 1 x482 + 1 x483 + 1 x484 + 1 x485 + 1 x486 + 1 x487 + 1 x488 + 1 x489 + 1 x490 + 1 x491 + 1 x492 + 1 x493 + 1 x494 + 1 x495 + 1 x496 + 1 x497 + 1 x498 + 1 x499 + 1 x500

subject to
C1: + x6 + x32 <= 1
C2: + x9 + x270 <= 1
C3: + x10 + x386 <= 1
C4: + x38 + x359 <= 1
C5: + x56 + x413 <= 1
C6: + x22 + x29 <= 1
C7: + x43 + x295 <= 1
C8: + x30 + x138 <= 1
C9: + x233 + x343 <= 1
C10: + x55 + x180 <= 1
C11: + x2 + x371 <= 1
C12: + x359 + x376 <= 1
C13: + x223 + x224 <= 1
C14: + x17 + x48 <= 1
C15: + x115 + x308 <= 1
C16: + x402 + x462 <= 1
C17: + x93 + x136 <= 1
C18: + x348 + x394 <= 1
C19: + x249 + x439 <= 1
C20: + x5 + x204 <= 1
C21: + x17 + x333 <= 1
C22: + x7 + x212 <= 1
C23: + x57 + x393 <= 1
C24: + x293 + x490 <= 1
C25: + x13 + x60 <= 1
C26: + x89 + x434 <= 1
C27: + x5 + x422 <= 1
C28: + x45 + x200 <= 1
C29: + x19 + x335 <= 1
C30: + x29 + x119 <= 1
C31: + x67 + x373 <= 1
C32: + x31 + x460 <= 1
C33: + x23 + x485 <= 1
C34: + x370 + x398 <= 1
C35: + x5 + x256 <= 1
C36: + x24 + x334 <= 1
C37: + x40 + x239 <= 1
C38: + x51 + x183 <= 1
C39: + x20 + x40 <= 1
C40: + x6 + x25 <= 1
C41: + x74 + x203 <= 1
C42: + x13 + x255 <= 1
C43: + x216 + x450 <= 1
C44: + x9 + x39 <= 1
C45: + x16 + x84 <= 1
C46: + x19 + x150 <= 1
C47: + x186 + x381 <= 1
C48: + x5 + x286 <= 1
C49: + x7 + x42 <= 1
C50: + x217 + x295 <= 1
C51: + x7 + x288 <= 1
C52: + x8 + x168 <= 1
C53: + x2 + x229 <= 1
C54: + x30 + x215 <= 1
C55: + x41 + x74 <= 1
C56: + x53 + x106 <= 1
C57: + x109 + x127 <= 1
C58: + x245 + x487 <= 1
C59: + x76 + x313 <= 1
C60: + x6 + x94 <= 1
C61: + x126 + x422 <= 1
C62: + x263 + x431 <= 1
C63: + x64 + x157 <= 1
C64: + x2 + x22 <= 1
C65: + x281 + x402 <= 1
C66: + x1 + x15 <= 1
C67: + x84 + x91 <= 1
C68: + x60 + x103 <= 1
C69: + x9 + x95 <= 1
C70: + x29 + x463 <= 1
C71: + x34 + x75 <= 1
C72: + x71 + x82 <= 1
C73: + x100 + x379 <= 1
C74: + x28 + x61 <= 1
C75: + x10 + x71 <= 1
C76: + x275 + x386 <= 1
C77: + x194 + x341 <= 1
C78: + x44 + x114 <= 1
C79: + x7 + x392 <= 1
C80: + x10 + x162 <= 1
C81: + x289 + x449 <= 1
C82: + x77 + x462 <= 1
C83: + x54 + x104 + x351 <= 1
C84: + x178 + x289 <= 1
C85: + x90 + x391 <= 1
C86: + x7 + x33 <= 1
C87: + x9 + x395 <= 1
C88: + x11 + x403 <= 1
C89: + x66 + x275 <= 1
C90: + x76 + x248 <= 1
C91: + x41 + x404 <= 1
C92: + x103 + x117 <= 1
C93: + x6 + x54 <= 1
C94: + x88 + x208 <= 1
C95: + x8 + x157 <= 1
C96: + x40 + x169 <= 1
C97: + x14 + x182 <= 1
C98: + x5 + x95 <= 1
C99: + x15 + x375 <= 1
C100: + x7 + x436 <= 1
C101: + x2 + x281 <= 1
C102: + x11 + x20 <= 1
C103: + x32 + x109 <= 1
C104: + x9 + x340 <= 1
C105: + x143 + x475 <= 1
C106: + x28 + x133 <= 1
C107: + x84 + x100 <= 1
C108: + x13 + x30 <= 1
C109: + x187 + x305 <= 1
C110: + x24 + x110 <= 1
C111: + x9 + x70 <= 1
C112: + x60 + x219 <= 1
C113: + x109 + x335 <= 1
C114: + x9 + x291 <= 1
C115: + x8 + x283 <= 1
C116: + x147 + x176 <= 1
C117: + x232 + x302 <= 1
C118: + x51 + x495 <= 1
C119: + x6 + x174 <= 1
C120: + x30 + x56 <= 1
C121: + x386 + x490 <= 1
C122: + x26 + x80 <= 1
C123: + x7 + x28 <= 1
C124: + x89 + x181 <= 1
C125: + x6 + x63 <= 1
C126: + x7 + x266 <= 1
C127: + x8 + x150 <= 1
C128: + x94 + x190 <= 1
C129: + x234 + x400 <= 1
C130: + x32 + x439 <= 1
C131: + x209 + x257 <= 1
C132: + x126 + x440 <= 1
C133: + x64 + x131 <= 1
C134: + x29 + x430 <= 1
C135: + x60 + x355 <= 1
C136: + x32 + x86 <= 1
C137: + x6 + x227 <= 1
C138: + x100 + x284 <= 1
C139: + x9 + x240 <= 1
C140: + x47 + x93 <= 1
C141: + x56 + x151 <= 1
C142: + x348 + x474 <= 1
C143: + x195 + x268 <= 1
C144: + x207 + x359 <= 1
C145: + x83 + x209 <= 1
C146: + x72 + x415 <= 1
C147: + x63 + x434 <= 1
C148: + x6 + x151 <= 1
C149: + x134 + x445 <= 1
C150: + x1 + x41 <= 1
C151: + x55 + x160 <= 1
C152: + x13 + x73 <= 1
C153: + x60 + x65 <= 1
C154: + x34 + x54 <= 1
C155: + x6 + x389 <= 1
C156: + x66 + x186 <= 1
C157: + x138 + x322 <= 1
C158: + x392 + x443 <= 1
C159: + x5 + x176 <= 1
C160: + x44 + x298 <= 1
C161: + x424 + x462 <= 1
C162: + x14 + x69 <= 1
C163: + x109 + x199 <= 1
C164: + x55 + x271 <= 1
C165: + x5 + x77 <= 1
C166: + x72 + x370 <= 1
C167: + x64 + x85 <= 1
C168: + x6 + x73 <= 1
C169: + x15 + x30 <= 1
C170: + x126 + x433 <= 1
C171: + x64 + x327 <= 1
C172: + x108 + x166 <= 1
C173: + x24 + x338 <= 1
C174: + x9 + x151 <= 1
C175: + x20 + x229 <= 1
C176: + x49 + x62 <= 1
C177: + x12 + x132 <= 1
C178: + x98 + x144 <= 1
C179: + x34 + x243 <= 1
C180: + x53 + x139 <= 1
C181: + x12 + x438 <= 1
C182: + x39 + x311 <= 1
C183: + x217 + x247 <= 1
C184: + x17 + x500 <= 1
C185: + x167 + x380 <= 1
C186: + x2 + x53 <= 1
C187: + x283 + x314 <= 1
C188: + x13 + x227 <= 1
C189: + x5 + x8 <= 1
C190: + x23 + x186 <= 1
C191: + x26 + x332 <= 1
C192: + x100 + x132 <= 1
C193: + x74 + x405 <= 1
C194: + x32 + x369 <= 1
C195: + x7 + x22 <= 1
C196: + x337 + x408 <= 1
C197: + x302 + x306 <= 1
C198: + x194 + x332 <= 1
C199: + x132 + x316 <= 1
C200: + x161 + x381 <= 1
C201: + x7 + x421 <= 1
C202: + x28 + x251 <= 1
C203: + x21 + x119 <= 1
C204: + x123 + x354 <= 1
C205: + x106 + x139 <= 1
C206: + x52 + x272 <= 1
C207: + x9 + x158 <= 1
C208: + x121 + x312 <= 1
C209: + x122 + x176 <= 1
C210: + x32 + x255 <= 1
C211: + x52 + x427 <= 1
C212: + x235 + x324 <= 1
C213: + x2 + x320 <= 1
C214: + x168 + x321 <= 1
C215: + x238 + x346 <= 1
C216: + x58 + x89 <= 1
C217: + x41 + x481 <= 1
C218: + x46 + x410 <= 1
C219: + x224 + x464 <= 1
C220: + x6 + x153 <= 1
C221: + x34 + x306 <= 1
C222: + x52 + x476 <= 1
C223: + x90 + x328 <= 1
C224: + x258 + x469 <= 1
C225: + x5 + x158 <= 1
C226: + x6 + x42 <= 1
C227: + x50 + x456 <= 1
C228: + x91 + x388 <= 1
C229: + x7 + x416 <= 1
C230: + x2 + x357 <= 1
C231: + x12 + x33 <= 1
C232: + x325 + x442 <= 1
C233: + x119 + x478 <= 1
C234: + x365 + x478 <= 1
C235: + x95 + x186 <= 1
C236: + x89 + x214 <= 1
C237: + x27 + x115 <= 1
C238: + x188 + x207 <= 1
C239: + x52 + x103 <= 1
C240: + x9 + x98 <= 1
C241: + x48 + x193 <= 1
C242: + x86 + x126 <= 1
C243: + x132 + x223 <= 1
C244: + x107 + x403 <= 1
C245: + x5 + x337 <= 1
C246: + x6 + x111 <= 1
C247: + x26 + x443 <= 1
C248: + x2 + x7 <= 1
C249: + x41 + x488 <= 1
C250: + x60 + x326 <= 1
C251: + x44 + x83 <= 1
C252: + x9 + x241 <= 1
C253: + x323 + x497 <= 1
C254: + x7 + x8 <= 1
C255: + x1 + x475 <= 1
C256: + x38 + x76 <= 1
C257: + x49 + x266 <= 1
C258: + x112 + x388 <= 1
C259: + x5 + x133 <= 1
C260: + x63 + x407 <= 1
C261: + x214 + x480 <= 1
C262: + x6 + x257 <= 1
C263: + x74 + x499 <= 1
C264: + x246 + x455 <= 1
C265: + x38 + x459 <= 1
C266: + x31 + x438 <= 1
C267: + x217 + x349 <= 1
C268: + x422 + x465 <= 1
C269: + x79 + x84 <= 1
C270: + x308 + x379 <= 1
C271: + x164 + x194 <= 1
C272: + x7 + x221 <= 1
C273: + x63 + x451 <= 1
C274: + x149 + x364 <= 1
C275: + x276 + x431 <= 1
C276: + x116 + x249 <= 1
C277: + x179 + x200 <= 1
C278: + x179 + x273 <= 1
C279: + x9 + x105 <= 1
C280: + x29 + x124 <= 1
C281: + x303 + x399 <= 1
C282: + x106 + x262 <= 1
C283: + x35 + x367 <= 1
C284: + x201 + x496 <= 1
C285: + x5 + x253 <= 1
C286: + x6 + x139 <= 1
C287: + x14 + x24 <= 1
C288: + x28 + x182 <= 1
C289: + x1 + x53 <= 1
C290: + x178 + x383 <= 1
C291: + x20 + x35 <= 1
C292: + x33 + x75 <= 1
C293: + x15 + x79 <= 1
C294: + x142 + x180 <= 1
C295: + x21 + x175 <= 1
C296: + x14 + x204 <= 1
C297: + x108 + x241 <= 1
C298: + x5 + x33 <= 1
C299: + x16 + x87 <= 1
C300: + x28 + x194 <= 1
C301: + x30 + x41 <= 1
C302: + x48 + x131 <= 1
C303: + x25 + x71 <= 1
C304: + x181 + x437 <= 1
C305: + x63 + x216 <= 1
C306: + x120 + x472 <= 1
C307: + x266 + x312 <= 1
C308: + x9 + x179 <= 1
C309: + x43 + x164 <= 1
C310: + x9 + x112 <= 1
C311: + x202 + x251 <= 1
C312: + x20 + x96 <= 1
C313: + x30 + x424 <= 1
C314: + x26 + x389 <= 1
C315: + x7 + x103 <= 1
C316: + x65 + x250 <= 1
C317: + x147 + x313 <= 1
C318: + x2 + x17 <= 1
C319: + x203 + x487 <= 1
C320: + x64 + x148 <= 1
C321: + x12 + x317 <= 1
C322: + x5 + x252 <= 1
C323: + x17 + x381 <= 1
C324: + x299 + x473 <= 1
C325: + x128 + x183 <= 1
C326: + x211 + x359 <= 1
C327: + x122 + x143 <= 1
C328: + x12 + x156 <= 1
C329: + x106 + x416 <= 1
C330: + x60 + x102 <= 1
C331: + x134 + x317 <= 1
C332: + x10 + x340 <= 1
C333: + x7 + x498 <= 1
C334: + x38 + x393 <= 1
C335: + x26 + x465 <= 1
C336: + x7 + x147 <= 1
C337: + x15 + x82 <= 1
C338: + x2 + x45 <= 1
C339: + x275 + x387 <= 1
C340: + x55 + x494 <= 1
C341: + x5 + x48 <= 1
C342: + x43 + x302 <= 1
C343: + x308 + x476 <= 1
C344: + x1 + x72 <= 1
C345: + x219 + x330 <= 1
C346: + x8 + x19 <= 1
C347: + x41 + x191 <= 1
C348: + x30 + x34 <= 1
C349: + x31 + x178 <= 1
C350: + x140 + x472 <= 1
C351: + x35 + x173 <= 1
C352: + x7 + x46 <= 1
C353: + x28 + x358 <= 1
C354: + x26 + x74 + x99 <= 1
C355: + x283 + x337 <= 1
C356: + x104 + x265 <= 1
C357: + x79 + x94 <= 1
C358: + x9 + x357 <= 1
C359: + x66 + x441 <= 1
C360: + x13 + x47 <= 1
C361: + x15 + x372 <= 1
C362: + x9 + x23 <= 1
C363: + x16 + x100 <= 1
C364: + x329 + x364 <= 1
C365: + x230 + x371 <= 1
C366: + x50 + x258 <= 1
C367: + x22 + x260 <= 1
C368: + x35 + x353 <= 1
C369: + x27 + x262 <= 1
C370: + x211 + x445 <= 1
C371: + x15 + x170 <= 1
C372: + x320 + x322 <= 1
C373: + x38 + x132 <= 1
C374: + x232 + x420 <= 1
C375: + x69 + x72 <= 1
C376: + x42 + x270 <= 1
C377: + x43 + x223 <= 1
C378: + x6 + x491 <= 1
C379: + x19 + x378 <= 1
C380: + x400 + x474 <= 1
C381: + x65 + x112 <= 1
C382: + x66 + x152 <= 1
C383: + x177 + x452 <= 1
C384: + x61 + x202 <= 1
C385: + x6 + x14 <= 1
C386: + x57 + x335 <= 1
C387: + x37 + x411 <= 1
C388: + x48 + x62 <= 1
C389: + x60 + x293 <= 1
C390: + x16 + x165 <= 1
C391: + x8 + x12 <= 1
C392: + x111 + x298 <= 1
C393: + x67 + x399 <= 1
C394: + x30 + x59 <= 1
C395: + x187 + x205 <= 1
C396: + x223 + x377 <= 1
C397: + x25 + x85 <= 1
C398: + x17 + x18 <= 1
C399: + x7 + x37 <= 1
C400: + x27 + x377 <= 1
C401: + x138 + x348 <= 1
C402: + x55 + x408 <= 1
C403: + x51 + x67 <= 1
C404: + x32 + x37 <= 1
C405: + x30 + x172 <= 1
C406: + x25 + x196 <= 1
C407: + x289 + x401 <= 1
C408: + x9 + x30 <= 1
C409: + x66 + x93 <= 1
C410: + x12 + x57 <= 1
C411: + x204 + x272 <= 1
C412: + x33 + x132 <= 1
C413: + x17 + x363 <= 1
C414: + x1 + x26 <= 1
C415: + x183 + x205 <= 1
C416: + x68 + x482 <= 1
C417: + x25 + x144 <= 1
C418: + x168 + x499 <= 1
C419: + x16 + x61 <= 1
C420: + x118 + x127 <= 1
C421: + x85 + x106 <= 1
C422: + x196 + x423 <= 1
C423: + x5 + x377 <= 1
C424: + x16 + x340 <= 1
C425: + x137 + x252 <= 1
C426: + x126 + x338 <= 1
C427: + x35 + x401 <= 1
C428: + x240 + x474 <= 1
C429: + x152 + x208 <= 1
C430: + x36 + x39 <= 1
C431: + x1 + x197 <= 1
C432: + x55 + x268 <= 1
C433: + x29 + x315 <= 1
C434: + x5 + x66 <= 1
C435: + x24 + x147 <= 1
C436: + x190 + x220 <= 1
C437: + x152 + x474 <= 1
C438: + x50 + x199 <= 1
C439: + x12 + x453 <= 1
C440: + x395 + x453 <= 1
C441: + x6 + x76 <= 1
C442: + x7 + x76 <= 1
C443: + x32 + x55 + x72 <= 1
C444: + x66 + x316 <= 1
C445: + x197 + x401 <= 1
C446: + x9 + x351 <= 1
C447: + x83 + x391 <= 1
C448: + x54 + x352 <= 1
C449: + x242 + x333 <= 1
C450: + x487 + x493 <= 1
C451: + x63 + x136 <= 1
C452: + x38 + x105 <= 1
C453: + x5 + x360 <= 1
C454: + x128 + x146 <= 1
C455: + x22 + x331 <= 1
C456: + x89 + x483 <= 1
C457: + x53 + x212 <= 1
C458: + x7 + x23 <= 1
C459: + x239 + x330 <= 1
C460: + x56 + x366 <= 1
C461: + x149 + x178 <= 1
C462: + x33 + x35 <= 1
C463: + x360 + x451 <= 1
C464: + x180 + x438 <= 1
C465: + x3 + x486 <= 1
C466: + x133 + x300 <= 1
C467: + x6 + x36 <= 1
C468: + x334 + x378 <= 1
C469: + x9 + x12 <= 1
C470: + x1 + x121 <= 1
C471: + x38 + x46 <= 1
C472: + x115 + x264 <= 1
C473: + x143 + x219 <= 1
C474: + x1 + x24 <= 1
C475: + x197 + x317 <= 1
C476: + x147 + x432 <= 1
C477: + x39 + x299 <= 1
C478: + x176 + x289 <= 1
C479: + x54 + x458 <= 1
C480: + x121 + x420 <= 1
C481: + x45 + x107 <= 1
C482: + x223 + x366 <= 1
C483: + x33 + x221 <= 1
C484: + x14 + x279 <= 1
C485: + x7 + x10 <= 1
C486: + x65 + x174 <= 1
C487: + x5 + x56 <= 1
C488: + x43 + x310 <= 1
C489: + x89 + x409 <= 1
C490: + x8 + x43 <= 1
C491: + x64 + x90 <= 1
C492: + x200 + x235 <= 1
C493: + x48 + x303 <= 1
C494: + x196 + x338 <= 1
C495: + x17 + x51 <= 1
C496: + x26 + x106 <= 1
C497: + x10 + x488 <= 1
C498: + x75 + x320 <= 1
C499: + x147 + x225 <= 1
C500: + x125 + x260 <= 1
C501: + x5 + x124 <= 1
C502: + x26 + x27 <= 1
C503: + x33 + x101 <= 1
C504: + x160 + x164 <= 1
C505: + x35 + x345 <= 1
C506: + x237 + x330 <= 1
C507: + x55 + x449 <= 1
C508: + x5 + x11 <= 1
C509: + x100 + x141 <= 1
C510: + x112 + x117 <= 1
C511: + x223 + x341 <= 1
C512: + x124 + x240 <= 1
C513: + x315 + x471 <= 1
C514: + x51 + x134 <= 1
C515: + x88 + x265 <= 1
C516: + x64 + x242 <= 1
C517: + x20 + x25 <= 1
C518: + x38 + x79 <= 1
C519: + x6 + x22 <= 1
C520: + x1 + x170 <= 1
C521: + x74 + x275 <= 1
C522: + x25 + x224 <= 1
C523: + x9 + x58 <= 1
C524: + x18 + x19 <= 1
C525: + x46 + x237 <= 1
C526: + x157 + x293 <= 1
C527: + x72 + x356 <= 1
C528: + x12 + x492 <= 1
C529: + x39 + x361 <= 1
C530: + x40 + x379 <= 1
C531: + x36 + x280 <= 1
C532: + x1 + x276 <= 1
C533: + x65 + x212 <= 1
C534: + x173 + x264 <= 1
C535: + x6 + x218 <= 1
C536: + x40 + x189 <= 1
C537: + x89 + x119 <= 1
C538: + x252 + x387 <= 1
C539: + x27 + x148 <= 1
C540: + x1 + x387 <= 1
C541: + x7 + x464 <= 1
C542: + x211 + x226 <= 1
C543: + x39 + x148 <= 1
C544: + x12 + x17 <= 1
C545: + x42 + x65 <= 1
C546: + x318 + x329 <= 1
C547: + x279 + x497 <= 1
C548: + x44 + x87 <= 1
C549: + x100 + x182 <= 1
C550: + x77 + x485 <= 1
C551: + x60 + x108 <= 1
C552: + x150 + x401 <= 1
C553: + x5 + x484 <= 1
C554: + x9 + x82 <= 1
C555: + x74 + x102 <= 1
C556: + x50 + x146 <= 1
C557: + x21 + x463 <= 1
C558: + x278 + x372 <= 1
C559: + x6 + x31 <= 1
C560: + x65 + x353 <= 1
C561: + x75 + x108 <= 1
C562: + x9 + x33 <= 1
C563: + x65 + x398 <= 1
C564: + x1 + x78 <= 1
C565: + x25 + x68 <= 1
C566: + x5 + x280 <= 1
C567: + x55 + x94 <= 1
C568: + x55 + x391 <= 1
C569: + x47 + x292 <= 1
C570: + x30 + x314 <= 1
C571: + x267 + x385 <= 1
C572: + x108 + x141 <= 1
C573: + x364 + x468 <= 1
C574: + x137 + x325 <= 1
C575: + x122 + x190 <= 1
C576: + x86 + x373 <= 1
C577: + x107 + x172 <= 1
C578: + x32 + x233 <= 1
C579: + x128 + x293 <= 1
C580: + x59 + x343 <= 1
C581: + x222 + x235 <= 1
C582: + x43 + x90 <= 1
C583: + x161 + x424 <= 1
C584: + x66 + x233 <= 1
C585: + x142 + x490 <= 1
C586: + x45 + x88 <= 1
C587: + x2 + x191 <= 1
C588: + x9 + x252 <= 1
C589: + x12 + x103 <= 1
C590: + x4 + x6 <= 1
C591: + x187 + x304 <= 1
C592: + x26 + x49 <= 1
C593: + x36 + x218 <= 1
C594: + x6 + x8 <= 1
C595: + x72 + x104 <= 1
C596: + x19 + x421 <= 1
C597: + x437 + x481 <= 1
C598: + x94 + x151 <= 1
C599: + x221 + x470 <= 1
C600: + x85 + x190 <= 1
C601: + x9 + x40 <= 1
C602: + x27 + x210 <= 1
C603: + x36 + x167 <= 1
C604: + x54 + x268 <= 1
C605: + x42 + x308 <= 1
C606: + x51 + x236 <= 1
C607: + x323 + x412 <= 1
C608: + x5 + x287 <= 1
C609: + x46 + x461 <= 1
C610: + x32 + x51 <= 1
C611: + x159 + x246 <= 1
C612: + x50 + x418 <= 1
C613: + x104 + x115 <= 1
C614: + x32 + x210 <= 1
C615: + x15 + x365 <= 1
C616: + x199 + x250 <= 1
C617: + x9 + x20 <= 1
C618: + x24 + x44 + x188 <= 1
C619: + x322 + x394 <= 1
C620: + x86 + x465 <= 1
C621: + x6 + x93 <= 1
C622: + x45 + x349 <= 1
C623: + x146 + x175 <= 1
C624: + x128 + x385 <= 1
C625: + x17 + x369 <= 1
C626: + x108 + x261 <= 1
C627: + x6 + x331 <= 1
C628: + x7 + x329 <= 1
C629: + x28 + x143 <= 1
C630: + x119 + x206 <= 1
C631: + x12 + x160 <= 1
C632: + x4 + x11 <= 1
C633: + x378 + x454 <= 1
C634: + x124 + x314 <= 1
C635: + x34 + x239 <= 1
C636: + x325 + x495 <= 1
C637: + x13 + x274 <= 1
C638: + x26 + x469 <= 1
C639: + x65 + x138 <= 1
C640: + x326 + x394 <= 1
C641: + x8 + x15 <= 1
C642: + x19 + x142 <= 1
C643: + x253 + x427 <= 1
C644: + x42 + x43 <= 1
C645: + x60 + x145 <= 1
C646: + x7 + x195 <= 1
C647: + x163 + x311 <= 1
C648: + x346 + x412 <= 1
C649: + x12 + x217 <= 1
C650: + x178 + x238 <= 1
C651: + x50 + x475 <= 1
C652: + x5 + x96 <= 1
C653: + x9 + x27 <= 1
C654: + x1 + x408 <= 1
C655: + x332 + x466 <= 1
C656: + x180 + x468 <= 1
C657: + x118 + x223 <= 1
C658: + x9 + x234 <= 1
C659: + x10 + x254 <= 1
C660: + x13 + x31 <= 1
C661: + x44 + x217 <= 1
C662: + x3 + x5 <= 1
C663: + x6 + x10 <= 1
C664: + x74 + x252 <= 1
C665: + x162 + x209 <= 1
C666: + x16 + x161 <= 1
C667: + x143 + x488 <= 1
C668: + x157 + x265 <= 1
C669: + x285 + x374 <= 1
C670: + x42 + x241 <= 1
C671: + x5 + x269 <= 1
C672: + x38 + x87 <= 1
C673: + x103 + x109 <= 1
C674: + x112 + x367 <= 1
C675: + x10 + x59 <= 1
C676: + x165 + x203 <= 1
C677: + x36 + x129 <= 1
C678: + x137 + x471 <= 1
C679: + x12 + x61 <= 1
C680: + x11 + x28 <= 1
C681: + x374 + x427 <= 1
C682: + x177 + x368 <= 1
C683: + x238 + x307 <= 1
C684: + x40 + x149 <= 1
C685: + x78 + x407 <= 1
C686: + x107 + x262 <= 1
C687: + x81 + x273 <= 1
C688: + x9 + x78 <= 1
C689: + x179 + x366 <= 1
C690: + x485 + x489 <= 1
C691: + x94 + x95 <= 1
C692: + x12 + x448 <= 1
C693: + x30 + x458 <= 1
C694: + x118 + x286 <= 1
C695: + x65 + x136 <= 1
C696: + x221 + x419 <= 1
C697: + x157 + x227 <= 1
C698: + x5 + x26 <= 1
C699: + x17 + x283 <= 1
C700: + x50 + x380 <= 1
C701: + x115 + x140 <= 1
C702: + x155 + x441 <= 1
C703: + x56 + x273 <= 1
C704: + x7 + x258 <= 1
C705: + x36 + x43 <= 1
C706: + x92 + x154 <= 1
C707: + x74 + x356 <= 1
C708: + x52 + x80 <= 1
C709: + x11 + x277 <= 1
C710: + x306 + x337 <= 1
C711: + x36 + x357 <= 1
C712: + x30 + x338 <= 1
C713: + x15 + x192 <= 1
C714: + x364 + x492 <= 1
C715: + x9 + x152 <= 1
C716: + x20 + x232 <= 1
C717: + x268 + x330 <= 1
C718: + x188 + x269 <= 1
C719: + x17 + x88 <= 1
C720: + x9 + x117 <= 1
C721: + x11 + x345 <= 1
C722: + x267 + x380 <= 1
C723: + x413 + x463 <= 1
C724: + x128 + x484 <= 1
C725: + x8 + x215 <= 1
C726: + x419 + x431 <= 1
C727: + x42 + x397 <= 1
C728: + x35 + x81 <= 1
C729: + x332 + x393 <= 1
C730: + x96 + x436 <= 1
C731: + x7 + x11 <= 1
C732: + x56 + x362 <= 1
C733: + x187 + x489 <= 1
C734: + x269 + x285 <= 1
C735: + x170 + x244 <= 1
C736: + x296 + x414 <= 1
C737: + x9 + x16 <= 1
C738: + x377 + x383 <= 1
C739: + x332 + x453 <= 1
C740: + x52 + x244 <= 1
C741: + x53 + x228 <= 1
C742: + x7 + x71 <= 1
C743: + x1 + x282 <= 1
C744: + x55 + x77 <= 1
C745: + x267 + x404 <= 1
C746: + x32 + x91 <= 1
C747: + x23 + x102 <= 1
C748: + x6 + x212 <= 1
C749: + x143 + x429 <= 1
C750: + x202 + x364 <= 1
C751: + x121 + x313 <= 1
C752: + x142 + x362 <= 1
C753: + x15 + x405 <= 1
C754: + x217 + x255 <= 1
C755: + x201 + x483 <= 1
C756: + x84 + x231 <= 1
C757: + x103 + x135 <= 1
C758: + x122 + x288 <= 1
C759: + x152 + x280 <= 1
C760: + x1 + x40 <= 1
C761: + x250 + x379 <= 1
C762: + x12 + x120 <= 1
C763: + x14 + x275 <= 1
C764: + x15 + x417 <= 1
C765: + x61 + x66 <= 1
C766: + x26 + x34 <= 1
C767: + x7 + x14 <= 1
C768: + x135 + x215 <= 1
C769: + x244 + x292 <= 1
C770: + x138 + x371 <= 1
C771: + x157 + x443 <= 1
C772: + x152 + x218 <= 1
C773: + x1 + x354 <= 1
C774: + x1 + x215 <= 1
C775: + x75 + x102 <= 1
C776: + x5 + x52 <= 1
C777: + x170 + x245 <= 1
C778: + x16 + x68 <= 1
C779: + x9 + x55 <= 1
C780: + x228 + x395 <= 1
C781: + x29 + x170 <= 1
C782: + x349 + x388 <= 1
C783: + x25 + x122 <= 1
C784: + x7 + x58 <= 1
C785: + x66 + x199 <= 1
C786: + x265 + x435 <= 1
C787: + x238 + x286 <= 1
C788: + x20 + x407 <= 1
C789: + x202 + x434 <= 1
C790: + x23 + x125 <= 1
C791: + x172 + x282 <= 1
C792: + x71 + x496 <= 1
C793: + x54 + x430 <= 1
C794: + x10 + x26 <= 1
C795: + x3 + x283 <= 1
C796: + x112 + x173 <= 1
C797: + x84 + x127 <= 1
C798: + x120 + x211 <= 1
C799: + x89 + x116 <= 1
C800: + x1 + x400 <= 1
C801: + x29 + x126 <= 1
C802: + x1 + x301 <= 1
C803: + x164 + x169 <= 1
C804: + x2 + x6 <= 1
C805: + x97 + x134 <= 1
C806: + x104 + x209 <= 1
C807: + x159 + x177 <= 1
C808: + x90 + x149 <= 1
C809: + x36 + x113 <= 1
C810: + x181 + x198 <= 1
C811: + x143 + x452 <= 1
C812: + x20 + x194 <= 1
C813: + x35 + x200 <= 1
C814: + x151 + x260 <= 1
C815: + x5 + x134 <= 1
C816: + x6 + x18 <= 1
C817: + x7 + x162 <= 1
C818: + x190 + x469 <= 1
C819: + x262 + x493 <= 1
C820: + x89 + x146 <= 1
C821: + x72 + x110 <= 1
C822: + x74 + x279 <= 1
C823: + x32 + x188 <= 1
C824: + x14 + x210 <= 1
C825: + x24 + x271 <= 1
C826: + x8 + x32 <= 1
C827: + x29 + x161 <= 1
C828: + x195 + x240 <= 1
C829: + x249 + x344 <= 1
C830: + x65 + x395 <= 1
C831: + x44 + x173 <= 1
C832: + x218 + x234 <= 1
C833: + x83 + x130 <= 1
C834: + x182 + x473 <= 1
C835: + x2 + x67 <= 1
C836: + x9 + x141 <= 1
C837: + x74 + x323 <= 1
C838: + x23 + x262 <= 1
C839: + x16 + x29 <= 1
C840: + x12 + x21 <= 1
C841: + x78 + x169 <= 1
C842: + x238 + x256 <= 1
C843: + x275 + x469 <= 1
C844: + x5 + x254 <= 1
C845: + x296 + x341 <= 1
C846: + x35 + x126 <= 1
C847: + x9 + x249 <= 1
C848: + x1 + x54 <= 1
C849: + x33 + x314 <= 1
C850: + x297 + x450 <= 1
C851: + x321 + x456 <= 1
C852: + x203 + x336 <= 1
C853: + x112 + x396 <= 1
C854: + x67 + x248 <= 1
C855: + x50 + x150 <= 1
C856: + x91 + x133 <= 1
C857: + x1 + x165 <= 1
C858: + x213 + x496 <= 1
C859: + x5 + x34 <= 1
C860: + x9 + x37 <= 1
C861: + x465 + x466 <= 1
C862: + x84 + x416 <= 1
C863: + x85 + x280 <= 1
C864: + x7 + x44 <= 1
C865: + x138 + x297 <= 1
C866: + x30 + x310 <= 1
C867: + x32 + x50 <= 1
C868: + x65 + x305 <= 1
C869: + x11 + x156 <= 1
C870: + x122 + x322 <= 1
C871: + x133 + x470 <= 1
C872: + x5 + x419 <= 1
C873: + x104 + x356 <= 1
C874: + x6 + x96 <= 1
C875: + x271 + x384 <= 1
C876: + x59 + x97 <= 1
C877: + x367 + x485 <= 1
C878: + x43 + x487 <= 1
C879: + x7 + x342 <= 1
C880: + x1 + x13 <= 1
C881: + x55 + x372 <= 1
C882: + x22 + x192 <= 1
C883: + x125 + x175 <= 1
C884: + x26 + x53 <= 1
C885: + x81 + x304 <= 1
C886: + x1 + x426 <= 1
C887: + x136 + x204 <= 1
C888: + x84 + x312 <= 1
C889: + x184 + x441 <= 1
C890: + x5 + x140 <= 1
C891: + x270 + x300 <= 1
C892: + x39 + x105 <= 1
C893: + x114 + x170 <= 1
C894: + x90 + x358 <= 1
C895: + x9 + x44 <= 1
C896: + x282 + x340 <= 1
C897: + x33 + x178 <= 1
C898: + x61 + x163 <= 1
C899: + x24 + x47 <= 1
C900: + x70 + x154 <= 1
C901: + x17 + x28 <= 1
C902: + x67 + x131 <= 1
C903: + x184 + x333 <= 1
C904: + x14 + x85 <= 1
C905: + x6 + x56 <= 1
C906: + x19 + x34 <= 1
C907: + x94 + x167 <= 1
C908: + x233 + x271 <= 1
C909: + x5 + x93 <= 1
C910: + x243 + x452 <= 1
C911: + x32 + x222 <= 1
C912: + x7 + x446 <= 1
C913: + x66 + x91 <= 1
C914: + x294 + x333 <= 1
C915: + x21 + x405 <= 1
C916: + x43 + x77 <= 1
C917: + x17 + x472 <= 1
C918: + x7 + x95 <= 1
C919: + x95 + x224 <= 1
C920: + x115 + x125 <= 1
C921: + x80 + x101 <= 1
C922: + x9 + x231 <= 1
C923: + x91 + x232 <= 1
C924: + x102 + x184 <= 1
C925: + x219 + x270 <= 1
C926: + x166 + x259 <= 1
C927: + x196 + x207 <= 1
C928: + x9 + x68 <= 1
C929: + x12 + x390 <= 1
C930: + x40 + x397 <= 1
C931: + x100 + x354 <= 1
C932: + x127 + x483 <= 1
C933: + x105 + x202 <= 1
C934: + x369 + x482 <= 1
C935: + x137 + x488 <= 1
C936: + x460 + x467 <= 1
C937: + x181 + x444 <= 1
C938: + x8 + x426 <= 1
C939: + x147 + x376 <= 1
C940: + x30 + x264 <= 1
C941: + x36 + x494 <= 1
C942: + x100 + x225 <= 1
C943: + x56 + x446 <= 1
C944: + x384 + x454 <= 1
C945: + x5 + x92 <= 1
C946: + x117 + x190 <= 1
C947: + x26 + x251 <= 1
C948: + x2 + x276 <= 1
C949: + x25 + x98 <= 1
C950: + x137 + x177 <= 1
C951: + x61 + x339 <= 1
C952: + x100 + x173 <= 1
C953: + x9 + x238 <= 1
C954: + x7 + x328 <= 1
C955: + x163 + x180 <= 1
C956: + x166 + x268 <= 1
C957: + x13 + x27 <= 1
C958: + x3 + x307 <= 1
C959: + x89 + x465 <= 1
C960: + x7 + x481 <= 1
C961: + x72 + x179 <= 1
C962: + x119 + x358 <= 1
C963: + x58 + x238 <= 1
C964: + x30 + x461 <= 1
C965: + x5 + x378 <= 1
C966: + x6 + x118 <= 1
C967: + x7 + x142 <= 1
C968: + x9 + x296 <= 1
C969: + x8 + x221 <= 1
C970: + x28 + x454 <= 1
C971: + x23 + x456 <= 1
C972: + x177 + x345 <= 1
C973: + x1 + x325 <= 1
C974: + x147 + x169 <= 1
C975: + x114 + x348 <= 1
C976: + x5 + x31 <= 1
C977: + x119 + x149 <= 1
C978: + x230 + x448 <= 1
C979: + x305 + x390 <= 1
C980: + x4 + x36 <= 1
C981: + x51 + x154 <= 1
C982: + x44 + x137 <= 1
C983: + x151 + x380 <= 1
C984: + x334 + x495 <= 1
C985: + x1 + x500 <= 1
C986: + x33 + x45 <= 1
C987: + x5 + x174 <= 1
C988: + x150 + x223 <= 1
C989: + x16 + x222 <= 1
C990: + x7 + x259 <= 1
C991: + x8 + x145 <= 1
C992: + x149 + x265 <= 1
C993: + x69 + x310 <= 1
C994: + x55 + x214 <= 1
C995: + x276 + x297 <= 1
C996: + x112 + x476 <= 1
C997: + x7 + x73 <= 1
C998: + x112 + x319 <= 1
C999: + x17 + x355 <= 1
C1000: + x9 + x352 <= 1
C1001: + x23 + x201 <= 1
C1002: + x170 + x261 <= 1
C1003: + x168 + x491 <= 1
C1004: + x138 + x409 <= 1
C1005: + x84 + x459 <= 1
C1006: + x33 + x88 <= 1
C1007: + x43 + x99 <= 1
C1008: + x5 + x353 <= 1
C1009: + x9 + x303 <= 1
C1010: + x36 + x432 <= 1
C1011: + x127 + x493 <= 1
C1012: + x103 + x137 <= 1
C1013: + x40 + x98 <= 1
C1014: + x125 + x382 <= 1
C1015: + x205 + x417 <= 1
C1016: + x128 + x145 <= 1
C1017: + x285 + x329 <= 1
C1018: + x251 + x457 <= 1
C1019: + x7 + x24 <= 1
C1020: + x9 + x446 <= 1
C1021: + x64 + x195 <= 1
C1022: + x55 + x62 <= 1
C1023: + x76 + x153 <= 1
C1024: + x58 + x195 <= 1
C1025: + x51 + x118 <= 1
C1026: + x275 + x384 <= 1
C1027: + x257 + x426 <= 1
C1028: + x16 + x368 <= 1
C1029: + x6 + x35 <= 1
C1030: + x75 + x128 <= 1
C1031: + x55 + x260 <= 1
C1032: + x30 + x189 <= 1
C1033: + x60 + x258 <= 1
C1034: + x12 + x203 <= 1
C1035: + x15 + x326 <= 1
C1036: + x9 + x13 <= 1
C1037: + x386 + x434 <= 1
C1038: + x1 + x263 <= 1
C1039: + x64 + x334 <= 1
C1040: + x29 + x418 <= 1
C1041: + x308 + x363 <= 1
C1042: + x445 + x461 <= 1
C1043: + x2 + x159 <= 1
C1044: + x157 + x327 <= 1
C1045: + x14 + x290 <= 1
C1046: + x154 + x460 <= 1
C1047: + x8 + x481 <= 1
C1048: + x39 + x300 <= 1
C1049: + x11 + x115 <= 1
C1050: + x64 + x306 <= 1
C1051: + x5 + x13 <= 1
C1052: + x1 + x37 <= 1
C1053: + x182 + x236 <= 1
C1054: + x49 + x111 <= 1
C1055: + x41 + x156 <= 1
C1056: + x12 + x115 <= 1
C1057: + x142 + x289 <= 1
C1058: + x7 + x15 <= 1
C1059: + x105 + x334 <= 1
C1060: + x69 + x135 <= 1
C1061: + x17 + x421 <= 1
C1062: + x364 + x425 <= 1
C1063: + x1 + x367 <= 1
C1064: + x128 + x468 <= 1
C1065: + x175 + x217 <= 1
C1066: + x104 + x147 <= 1
C1067: + x33 + x392 <= 1
C1068: + x52 + x89 <= 1
C1069: + x62 + x365 <= 1
C1070: + x30 + x89 <= 1
C1071: + x294 + x353 <= 1
C1072: + x59 + x370 <= 1
C1073: + x25 + x119 <= 1
C1074: + x5 + x291 <= 1
C1075: + x82 + x124 <= 1
C1076: + x14 + x45 <= 1
C1077: + x85 + x374 <= 1
C1078: + x30 + x202 <= 1
C1079: + x379 + x478 <= 1
C1080: + x197 + x293 <= 1
C1081: + x32 + x230 <= 1
C1082: + x17 + x67 <= 1
C1083: + x53 + x159 <= 1
C1084: + x240 + x292 <= 1
C1085: + x44 + x196 <= 1
C1086: + x9 + x128 <= 1
C1087: + x27 + x138 <= 1
C1088: + x195 + x279 <= 1
C1089: + x24 + x229 <= 1
C1090: + x1 + x5 + x6 + x7 + x9 <= 1
C1091: + x137 + x388 <= 1
C1092: + x20 + x189 <= 1
C1093: + x112 + x120 <= 1
C1094: + x38 + x235 <= 1
C1095: + x33 + x213 <= 1
C1096: + x24 + x76 <= 1
C1097: + x17 + x127 <= 1
C1098: + x35 + x201 <= 1
C1099: + x60 + x177 <= 1
C1100: + x6 + x21 <= 1
C1101: + x338 + x439 <= 1
C1102: + x1 + x171 <= 1
C1103: + x220 + x479 <= 1
C1104: + x5 + x64 <= 1
C1105: + x6 + x184 <= 1
C1106: + x1 + x120 <= 1
C1107: + x319 + x391 <= 1
C1108: + x37 + x193 <= 1
C1109: + x26 + x114 <= 1
C1110: + x92 + x342 <= 1
C1111: + x14 + x38 <= 1
C1112: + x83 + x369 <= 1
C1113: + x14 + x137 <= 1
C1114: + x197 + x249 <= 1
C1115: + x16 + x20 <= 1
C1116: + x56 + x249 <= 1
C1117: + x39 + x294 <= 1
C1118: + x15 + x61 <= 1
C1119: + x7 + x106 <= 1
C1120: + x100 + x387 <= 1
C1121: + x143 + x242 <= 1
C1122: + x64 + x296 <= 1
C1123: + x129 + x347 <= 1
C1124: + x126 + x192 <= 1
C1125: + x24 + x254 <= 1
C1126: + x1 + x51 <= 1
C1127: + x38 + x148 <= 1
C1128: + x124 + x299 <= 1
C1129: + x44 + x245 <= 1
C1130: + x80 + x360 <= 1
C1131: + x182 + x273 <= 1
C1132: + x110 + x457 <= 1
C1133: + x47 + x164 <= 1
C1134: + x130 + x267 <= 1
C1135: + x48 + x335 <= 1
C1136: + x217 + x278 <= 1
C1137: + x2 + x214 <= 1
C1138: + x378 + x428 <= 1
C1139: + x33 + x112 + x297 <= 1
C1140: + x5 + x39 <= 1
C1141: + x188 + x348 <= 1
C1142: + x108 + x326 <= 1
C1143: + x7 + x396 <= 1
C1144: + x285 + x362 <= 1
C1145: + x35 + x152 <= 1
C1146: + x8 + x447 <= 1
C1147: + x55 + x83 <= 1
C1148: + x11 + x60 <= 1
C1149: + x47 + x289 <= 1
C1150: + x32 + x53 <= 1
C1151: + x6 + x194 <= 1
C1152: + x44 + x464 <= 1
C1153: + x89 + x162 <= 1
C1154: + x47 + x126 <= 1
C1155: + x5 + x107 <= 1
C1156: + x9 + x110 <= 1
C1157: + x98 + x444 <= 1
C1158: + x7 + x97 <= 1
C1159: + x14 + x19 <= 1
C1160: + x5 + x250 <= 1
C1161: + x6 + x246 <= 1
C1162: + x6 + x321 <= 1
C1163: + x1 + x10 <= 1
C1164: + x84 + x88 <= 1
C1165: + x4 + x5 <= 1
C1166: + x334 + x396 <= 1
C1167: + x119 + x277 <= 1
C1168: + x187 + x386 <= 1
C1169: + x5 + x137 <= 1
C1170: + x74 + x201 <= 1
C1171: + x137 + x257 <= 1
C1172: + x220 + x301 <= 1
C1173: + x39 + x118 <= 1
C1174: + x40 + x122 <= 1
C1175: + x5 + x46 <= 1
C1176: + x34 + x275 <= 1
C1177: + x9 + x41 <= 1
C1178: + x54 + x267 <= 1
C1179: + x377 + x408 <= 1
C1180: + x166 + x321 <= 1
C1181: + x251 + x433 <= 1
C1182: + x143 + x184 <= 1
C1183: + x7 + x48 <= 1
C1184: + x55 + x86 <= 1
C1185: + x147 + x203 <= 1
C1186: + x62 + x219 <= 1
C1187: + x66 + x213 <= 1
C1188: + x212 + x361 <= 1
C1189: + x36 + x484 <= 1
C1190: + x183 + x188 <= 1
C1191: + x235 + x442 <= 1
C1192: + x44 + x55 <= 1
C1193: + x9 + x21 <= 1
C1194: + x24 + x131 <= 1
C1195: + x59 + x140 <= 1
C1196: + x169 + x499 <= 1
C1197: + x251 + x389 <= 1
C1198: + x6 + x92 <= 1
C1199: + x80 + x197 <= 1
C1200: + x92 + x384 <= 1
C1201: + x55 + x98 <= 1
C1202: + x5 + x225 <= 1
C1203: + x17 + x370 <= 1
C1204: + x378 + x453 <= 1
C1205: + x35 + x214 <= 1
C1206: + x65 + x110 <= 1
C1207: + x173 + x442 <= 1
C1208: + x37 + x111 <= 1
C1209: + x85 + x97 <= 1
C1210: + x150 + x261 <= 1
C1211: + x6 + x16 <= 1
C1212: + x7 + x152 <= 1
C1213: + x27 + x460 <= 1
C1214: + x4 + x30 <= 1
C1215: + x214 + x493 <= 1
C1216: + x108 + x237 <= 1
C1217: + x44 + x116 <= 1
C1218: + x17 + x302 <= 1
C1219: + x126 + x347 <= 1
C1220: + x11 + x320 <= 1
C1221: + x41 + x164 <= 1
C1222: + x33 + x257 <= 1
C1223: + x78 + x99 <= 1
C1224: + x342 + x438 <= 1
C1225: + x5 + x263 <= 1
C1226: + x57 + x316 <= 1
C1227: + x51 + x69 <= 1
C1228: + x32 + x59 <= 1
C1229: + x35 + x267 <= 1
C1230: + x7 + x196 <= 1
C1231: + x100 + x256 <= 1
C1232: + x7 + x277 <= 1
C1233: + x210 + x409 <= 1
C1234: + x152 + x181 <= 1
C1235: + x198 + x226 <= 1
C1236: + x80 + x303 <= 1
C1237: + x241 + x499 <= 1
C1238: + x50 + x208 <= 1
C1239: + x104 + x405 <= 1
C1240: + x7 + x83 <= 1
C1241: + x1 + x310 <= 1
C1242: + x55 + x430 <= 1
C1243: + x112 + x309 <= 1
C1244: + x11 + x344 <= 1
C1245: + x23 + x449 <= 1
C1246: + x117 + x412 <= 1
C1247: + x26 + x477 <= 1
C1248: + x1 + x183 <= 1
C1249: + x72 + x420 <= 1
C1250: + x30 + x147 <= 1
C1251: + x268 + x428 <= 1
C1252: + x1 + x84 <= 1
C1253: + x111 + x307 <= 1
C1254: + x29 + x138 <= 1
C1255: + x205 + x276 <= 1
C1256: + x69 + x113 <= 1
C1257: + x19 + x295 <= 1
C1258: + x393 + x414 <= 1
C1259: + x267 + x443 <= 1
C1260: + x5 + x163 <= 1
C1261: + x32 + x36 <= 1
C1262: + x100 + x229 <= 1
C1263: + x178 + x230 <= 1
C1264: + x52 + x403 <= 1
C1265: + x43 + x159 <= 1
C1266: + x25 + x201 <= 1
C1267: + x20 + x113 <= 1
C1268: + x187 + x343 <= 1
C1269: + x252 + x269 <= 1
C1270: + x15 + x25 <= 1
C1271: + x319 + x332 <= 1
C1272: + x12 + x290 <= 1
C1273: + x40 + x49 <= 1
C1274: + x15 + x182 <= 1
C1275: + x181 + x361 <= 1
C1276: + x99 + x154 <= 1
C1277: + x342 + x372 <= 1
C1278: + x72 + x175 <= 1
C1279: + x1 + x444 <= 1
C1280: + x12 + x447 <= 1
C1281: + x14 + x399 <= 1
C1282: + x7 + x130 <= 1
C1283: + x119 + x411 <= 1
C1284: + x280 + x489 <= 1
C1285: + x84 + x220 <= 1
C1286: + x68 + x118 <= 1
C1287: + x267 + x467 <= 1
C1288: + x98 + x230 <= 1
C1289: + x6 + x149 <= 1
C1290: + x17 + x284 <= 1
C1291: + x12 + x121 <= 1
C1292: + x304 + x468 <= 1
C1293: + x178 + x337 <= 1
C1294: + x25 + x161 <= 1
C1295: + x24 + x57 <= 1
C1296: + x7 + x17 <= 1
C1297: + x54 + x185 <= 1
C1298: + x315 + x455 <= 1
C1299: + x29 + x38 <= 1
C1300: + x49 + x210 <= 1
C1301: + x284 + x344 <= 1
C1302: + x7 + x263 <= 1
C1303: + x10 + x35 <= 1
C1304: + x40 + x89 <= 1
C1305: + x5 + x79 <= 1
C1306: + x5 + x412 <= 1
C1307: + x371 + x421 <= 1
C1308: + x110 + x114 <= 1
C1309: + x282 + x366 <= 1
C1310: + x47 + x251 <= 1
C1311: + x6 + x439 <= 1
C1312: + x185 + x459 <= 1
C1313: + x214 + x436 <= 1
C1314: + x17 + x359 <= 1
C1315: + x26 + x318 <= 1
C1316: + x109 + x245 <= 1
C1317: + x240 + x282 <= 1
C1318: + x34 + x334 <= 1
C1319: + x168 + x487 <= 1
C1320: + x79 + x240 <= 1
C1321: + x1 + x352 <= 1
C1322: + x430 + x437 <= 1
C1323: + x104 + x222 <= 1
C1324: + x24 + x211 <= 1
C1325: + x19 + x248 <= 1
C1326: + x72 + x309 <= 1
C1327: + x29 + x160 <= 1
C1328: + x22 + x155 <= 1
C1329: + x79 + x287 <= 1
C1330: + x7 + x12 <= 1
C1331: + x112 + x384 <= 1
C1332: + x267 + x429 <= 1
C1333: + x15 + x124 <= 1
C1334: + x17 + x418 <= 1
C1335: + x46 + x339 <= 1
C1336: + x106 + x256 <= 1
C1337: + x34 + x267 <= 1
C1338: + x168 + x428 <= 1
C1339: + x30 + x92 <= 1
C1340: + x131 + x136 <= 1
C1341: + x6 + x448 <= 1
C1342: + x55 + x78 <= 1
C1343: + x2 + x397 <= 1
C1344: + x421 + x467 <= 1
C1345: + x13 + x168 <= 1
C1346: + x74 + x344 <= 1
C1347: + x246 + x356 <= 1
C1348: + x59 + x486 <= 1
C1349: + x5 + x122 <= 1
C1350: + x72 + x157 <= 1
C1351: + x92 + x133 + x425 <= 1
C1352: + x35 + x347 <= 1
C1353: + x6 + x100 <= 1
C1354: + x26 + x440 <= 1
C1355: + x64 + x318 <= 1
C1356: + x26 + x339 <= 1
C1357: + x153 + x327 <= 1
C1358: + x265 + x342 <= 1
C1359: + x113 + x163 <= 1
C1360: + x2 + x458 <= 1
C1361: + x20 + x23 <= 1
C1362: + x94 + x441 <= 1
C1363: + x174 + x478 <= 1
C1364: + x78 + x234 <= 1
C1365: + x332 + x368 <= 1
C1366: + x264 + x498 <= 1
C1367: + x27 + x500 <= 1
C1368: + x102 + x228 <= 1
C1369: + x60 + x283 <= 1
C1370: + x1 + x117 <= 1
C1371: + x226 + x261 <= 1
C1372: + x134 + x244 <= 1
C1373: + x74 + x171 <= 1
C1374: + x14 + x41 <= 1
C1375: + x89 + x216 <= 1
C1376: + x20 + x245 <= 1
C1377: + x114 + x242 <= 1
C1378: + x42 + x365 <= 1
C1379: + x15 + x413 <= 1
C1380: + x7 + x458 <= 1
C1381: + x8 + x470 <= 1
C1382: + x166 + x390 <= 1
C1383: + x6 + x109 <= 1
C1384: + x137 + x150 <= 1
C1385: + x19 + x69 <= 1
C1386: + x2 + x5 <= 1
C1387: + x11 + x122 <= 1
C1388: + x186 + x411 <= 1
C1389: + x78 + x274 <= 1
C1390: + x260 + x435 <= 1
C1391: + x31 + x125 <= 1
C1392: + x6 + x347 <= 1
C1393: + x134 + x406 <= 1
C1394: + x64 + x410 <= 1
C1395: + x4 + x27 <= 1
C1396: + x124 + x298 <= 1
C1397: + x5 + x482 <= 1
C1398: + x1 + x477 <= 1
C1399: + x178 + x423 <= 1
C1400: + x5 + x135 <= 1
C1401: + x91 + x187 <= 1
C1402: + x101 + x326 <= 1
C1403: + x74 + x278 <= 1
C1404: + x175 + x232 <= 1
C1405: + x448 + x497 <= 1
C1406: + x180 + x294 <= 1
C1407: + x17 + x130 <= 1
C1408: + x207 + x423 <= 1
C1409: + x8 + x31 <= 1
C1410: + x5 + x278 <= 1
C1411: + x209 + x239 <= 1
C1412: + x7 + x50 <= 1
C1413: + x2 + x66 <= 1
C1414: + x60 + x129 <= 1
C1415: + x6 + x197 <= 1
C1416: + x14 + x336 <= 1
C1417: + x143 + x345 <= 1
C1418: + x1 + x392 <= 1
C1419: + x12 + x24 <= 1
C1420: + x17 + x475 <= 1
C1421: + x6 + x86 <= 1
C1422: + x110 + x308 <= 1
C1423: + x46 + x63 <= 1
C1424: + x11 + x97 <= 1
C1425: + x20 + x363 <= 1
C1426: + x112 + x294 <= 1
C1427: + x106 + x167 <= 1
C1428: + x6 + x324 <= 1
C1429: + x18 + x211 <= 1
C1430: + x320 + x350 <= 1
C1431: + x16 + x36 <= 1
C1432: + x9 + x87 <= 1
C1433: + x63 + x234 <= 1
C1434: + x339 + x399 <= 1
C1435: + x48 + x331 <= 1
C1436: + x169 + x309 <= 1
C1437: + x124 + x398 <= 1
C1438: + x6 + x26 <= 1
C1439: + x100 + x371 <= 1
C1440: + x83 + x231 <= 1
C1441: + x45 + x416 <= 1
C1442: + x12 + x407 <= 1
C1443: + x147 + x189 <= 1
C1444: + x213 + x489 <= 1
C1445: + x40 + x125 <= 1
C1446: + x96 + x100 <= 1
C1447: + x6 + x376 <= 1
C1448: + x30 + x402 <= 1
C1449: + x215 + x227 <= 1
C1450: + x75 + x299 <= 1
C1451: + x2 + x91 <= 1
C1452: + x275 + x281 <= 1
C1453: + x69 + x165 <= 1
C1454: + x32 + x49 <= 1
C1455: + x6 + x206 <= 1
C1456: + x18 + x160 <= 1
C1457: + x8 + x165 <= 1
C1458: + x6 + x316 <= 1
C1459: + x108 + x374 <= 1
C1460: + x56 + x206 <= 1
C1461: + x12 + x13 <= 1
C1462: + x68 + x357 <= 1
C1463: + x32 + x450 <= 1
C1464: + x179 + x491 <= 1
C1465: + x18 + x486 <= 1
C1466: + x56 + x480 <= 1
C1467: + x22 + x92 <= 1
C1468: + x181 + x213 <= 1
C1469: + x63 + x312 <= 1
C1470: + x47 + x78 <= 1
C1471: + x59 + x451 <= 1
C1472: + x31 + x349 <= 1
C1473: + x6 + x496 <= 1
C1474: + x174 + x457 <= 1
C1475: + x9 + x315 <= 1
C1476: + x144 + x187 <= 1
C1477: + x64 + x285 <= 1
C1478: + x112 + x247 <= 1
C1479: + x33 + x417 <= 1
C1480: + x5 + x42 <= 1
C1481: + x15 + x241 <= 1
C1482: + x6 + x166 <= 1
C1483: + x14 + x16 + x285 <= 1
C1484: + x49 + x68 <= 1
C1485: + x214 + x323 <= 1
C1486: + x89 + x272 <= 1
C1487: + x73 + x74 <= 1
C1488: + x20 + x429 <= 1
C1489: + x32 + x58 <= 1
C1490: + x5 + x185 <= 1
C1491: + x163 + x313 <= 1
C1492: + x309 + x325 <= 1
C1493: + x275 + x437 <= 1
C1494: + x4 + x70 <= 1
C1495: + x5 + x94 <= 1
C1496: + x225 + x445 <= 1
C1497: + x9 + x25 <= 1
C1498: + x390 + x459 <= 1
C1499: + x87 + x306 <= 1
C1500: + x65 + x243 <= 1
C1501: + x64 + x155 <= 1
C1502: + x53 + x426 <= 1
C1503: + x270 + x467 <= 1
C1504: + x121 + x290 <= 1
C1505: + x141 + x413 <= 1
C1506: + x17 + x104 <= 1
C1507: + x143 + x375 <= 1
C1508: + x2 + x470 <= 1
C1509: + x6 + x12 <= 1
C1510: + x110 + x346 <= 1
C1511: + x28 + x51 <= 1
C1512: + x10 + x73 <= 1
C1513: + x78 + x369 <= 1
C1514: + x24 + x277 <= 1
C1515: + x6 + x378 <= 1
C1516: + x1 + x81 <= 1
C1517: + x193 + x198 <= 1
C1518: + x49 + x123 <= 1
C1519: + x30 + x57 <= 1
C1520: + x61 + x187 <= 1
C1521: + x34 + x62 <= 1
C1522: + x93 + x295 <= 1
C1523: + x13 + x323 <= 1
C1524: + x217 + x308 <= 1
C1525: + x35 + x263 <= 1
C1526: + x17 + x433 <= 1
C1527: + x5 + x168 <= 1
C1528: + x1 + x208 <= 1
C1529: + x55 + x311 <= 1
C1530: + x8 + x155 <= 1
C1531: + x59 + x385 <= 1
C1532: + x42 + x329 <= 1
C1533: + x5 + x69 <= 1
C1534: + x83 + x346 <= 1
C1535: + x280 + x427 <= 1
C1536: + x14 + x176 <= 1
C1537: + x8 + x58 <= 1
C1538: + x52 + x402 <= 1
C1539: + x73 + x480 <= 1
C1540: + x78 + x83 <= 1
C1541: + x100 + x446 <= 1
C1542: + x129 + x255 <= 1
C1543: + x56 + x302 <= 1
C1544: + x440 + x456 <= 1
C1545: + x5 + x236 <= 1
C1546: + x7 + x325 <= 1
C1547: + x139 + x396 <= 1
C1548: + x342 + x375 <= 1
C1549: + x89 + x466 <= 1
C1550: + x54 + x248 <= 1
C1551: + x75 + x404 <= 1
C1552: + x178 + x451 <= 1
C1553: + x1 + x139 <= 1
C1554: + x144 + x328 <= 1
C1555: + x54 + x454 <= 1
C1556: + x41 + x46 + x64 <= 1
C1557: + x104 + x172 <= 1
C1558: + x5 + x32 <= 1
C1559: + x88 + x409 <= 1
C1560: + x6 + x355 <= 1
C1561: + x27 + x45 <= 1
C1562: + x64 + x197 <= 1
C1563: + x55 + x60 <= 1
C1564: + x129 + x186 <= 1
C1565: + x130 + x145 <= 1
C1566: + x114 + x300 <= 1
C1567: + x32 + x48 <= 1
C1568: + x187 + x484 <= 1
C1569: + x6 + x57 <= 1
C1570: + x427 + x435 <= 1
C1571: + x55 + x171 <= 1
C1572: + x165 + x341 <= 1
C1573: + x12 + x52 <= 1
C1574: + x15 + x29 <= 1
C1575: + x109 + x400 <= 1
C1576: + x65 + x193 <= 1
C1577: + x59 + x123 <= 1
C1578: + x439 + x471 <= 1
C1579: + x6 + x237 <= 1
C1580: + x9 + x321 <= 1
C1581: + x309 + x415 <= 1
C1582: + x31 + x253 <= 1
C1583: + x5 + x120 <= 1
C1584: + x316 + x485 <= 1
C1585: + x7 + x473 <= 1
C1586: + x19 + x362 <= 1
C1587: + x42 + x84 <= 1
C1588: + x33 + x105 <= 1
C1589: + x52 + x181 <= 1
C1590: + x346 + x477 <= 1
C1591: + x2 + x54 <= 1
C1592: + x20 + x339 <= 1
C1593: + x23 + x185 <= 1
C1594: + x7 + x364 <= 1
C1595: + x55 + x146 <= 1
C1596: + x35 + x184 <= 1
C1597: + x7 + x21 <= 1
C1598: + x28 + x331 <= 1
C1599: + x483 + x494 <= 1
C1600: + x57 + x153 <= 1
C1601: + x60 + x166 <= 1
C1602: + x98 + x107 <= 1
C1603: + x151 + x221 <= 1
C1604: + x137 + x358 <= 1
C1605: + x12 + x206 <= 1
C1606: + x5 + x75 <= 1
C1607: + x6 + x288 <= 1
C1608: + x9 + x14 <= 1
C1609: + x226 + x420 <= 1
C1610: + x35 + x39 <= 1
C1611: + x293 + x361 <= 1
C1612: + x51 + x198 <= 1
C1613: + x252 + x282 <= 1
C1614: + x7 + x65 <= 1
C1615: + x64 + x178 <= 1
C1616: + x211 + x424 <= 1
C1617: + x9 + x328 <= 1
C1618: + x49 + x52 <= 1
C1619: + x50 + x444 <= 1
C1620: + x165 + x264 <= 1
C1621: + x150 + x284 <= 1
C1622: + x5 + x14 <= 1
C1623: + x72 + x305 <= 1
C1624: + x41 + x157 <= 1
C1625: + x4 + x17 <= 1
C1626: + x149 + x425 <= 1
C1627: + x124 + x233 <= 1
C1628: + x69 + x406 <= 1
C1629: + x9 + x422 <= 1
C1630: + x89 + x492 <= 1
C1631: + x35 + x207 <= 1
C1632: + x20 + x22 <= 1
C1633: + x269 + x437 <= 1
C1634: + x6 + x43 <= 1
C1635: + x121 + x370 <= 1
C1636: + x76 + x128 <= 1
C1637: + x20 + x296 <= 1
C1638: + x30 + x181 <= 1
C1639: + x5 + x50 <= 1
C1640: + x25 + x219 <= 1
C1641: + x32 + x272 <= 1
C1642: + x7 + x415 <= 1
C1643: + x33 + x171 <= 1
C1644: + x74 + x166 <= 1
C1645: + x84 + x363 <= 1
C1646: + x22 + x121 <= 1
C1647: + x14 + x44 <= 1
C1648: + x7 + x298 <= 1
C1649: + x92 + x162 <= 1
C1650: + x20 + x244 <= 1
C1651: + x43 + x360 <= 1
C1652: + x200 + x281 <= 1
C1653: + x21 + x65 <= 1
C1654: + x39 + x159 <= 1
C1655: + x112 + x445 <= 1
C1656: + x168 + x383 <= 1
C1657: + x30 + x108 <= 1
C1658: + x13 + x307 <= 1
C1659: + x59 + x81 <= 1
C1660: + x89 + x225 <= 1
C1661: + x108 + x205 <= 1
C1662: + x122 + x254 <= 1
C1663: + x85 + x315 <= 1
C1664: + x121 + x128 + x216 <= 1
C1665: + x196 + x301 <= 1
C1666: + x15 + x422 <= 1
C1667: + x23 + x38 <= 1
C1668: + x6 + x20 <= 1
C1669: + x5 + x156 <= 1
C1670: + x4 + x167 <= 1
C1671: + x43 + x315 <= 1
C1672: + x6 + x183 <= 1
C1673: + x100 + x123 <= 1
C1674: + x6 + x258 <= 1
C1675: + x260 + x382 <= 1
C1676: + x368 + x403 <= 1
C1677: + x83 + x479 <= 1
C1678: + x197 + x377 <= 1
C1679: + x108 + x336 <= 1
C1680: + x72 + x350 <= 1
C1681: + x59 + x179 <= 1
C1682: + x218 + x236 <= 1
C1683: + x163 + x455 <= 1
C1684: + x26 + x113 <= 1
C1685: + x11 + x50 <= 1
C1686: + x46 + x473 <= 1
C1687: + x96 + x143 <= 1
C1688: + x197 + x400 <= 1
C1689: + x7 + x224 <= 1
C1690: + x94 + x343 <= 1
C1691: + x241 + x354 <= 1
C1692: + x60 + x491 <= 1
C1693: + x5 + x109 <= 1
C1694: + x5 + x442 <= 1
C1695: + x1 + x389 <= 1
C1696: + x49 + x143 <= 1
C1697: + x12 + x19 <= 1
C1698: + x41 + x305 <= 1
C1699: + x7 + x111 <= 1
C1700: + x60 + x348 <= 1
C1701: + x345 + x349 <= 1
C1702: + x6 + x140 <= 1
C1703: + x11 + x199 <= 1
C1704: + x21 + x63 <= 1
C1705: + x135 + x195 <= 1
C1706: + x39 + x279 <= 1
C1707: + x53 + x336 <= 1
C1708: + x24 + x423 <= 1
C1709: + x45 + x413 <= 1
C1710: + x194 + x352 <= 1
C1711: + x34 + x281 <= 1
C1712: + x358 + x365 <= 1
C1713: + x196 + x322 <= 1
C1714: + x224 + x376 <= 1
C1715: + x269 + x415 <= 1
C1716: + x9 + x381 <= 1
C1717: + x92 + x192 <= 1
C1718: + x283 + x494 <= 1
C1719: + x14 + x129 <= 1
C1720: + x252 + x414 <= 1
C1721: + x6 + x319 <= 1
C1722: + x60 + x246 <= 1
C1723: + x97 + x309 <= 1
C1724: + x34 + x123 <= 1
C1725: + x9 + x460 <= 1
C1726: + x416 + x495 <= 1
C1727: + x66 + x239 <= 1
C1728: + x144 + x246 <= 1
C1729: + x255 + x323 <= 1
C1730: + x4 + x233 <= 1
C1731: + x180 + x218 <= 1
C1732: + x12 + x153 <= 1
C1733: + x4 + x8 <= 1
C1734: + x295 + x429 <= 1
C1735: + x196 + x200 <= 1
C1736: + x14 + x320 <= 1
C1737: + x89 + x449 <= 1
C1738: + x64 + x226 <= 1
C1739: + x39 + x266 <= 1
C1740: + x172 + x351 <= 1
C1741: + x5 + x47 <= 1
C1742: + x108 + x247 <= 1
C1743: + x35 + x75 <= 1
C1744: + x9 + x42 <= 1
C1745: + x228 + x448 <= 1
C1746: + x17 + x253 <= 1
C1747: + x196 + x327 <= 1
C1748: + x60 + x63 <= 1
C1749: + x25 + x77 <= 1
C1750: + x158 + x177 <= 1
C1751: + x36 + x483 <= 1
C1752: + x451 + x480 <= 1
C1753: + x43 + x174 <= 1
C1754: + x6 + x296 <= 1
C1755: + x5 + x432 <= 1
C1756: + x223 + x242 <= 1
C1757: + x43 + x79 <= 1
C1758: + x14 + x424 <= 1
C1759: + x15 + x16 <= 1
C1760: + x138 + x288 <= 1
C1761: + x159 + x168 <= 1
C1762: + x216 + x392 <= 1
C1763: + x354 + x450 <= 1
C1764: + x135 + x276 <= 1
C1765: + x3 + x318 <= 1
C1766: + x69 + x71 <= 1
C1767: + x315 + x482 <= 1
C1768: + x44 + x230 <= 1
C1769: + x9 + x66 <= 1
C1770: + x6 + x492 <= 1
C1771: + x393 + x428 <= 1
C1772: + x1 + x431 <= 1
C1773: + x49 + x318 <= 1
C1774: + x37 + x112 <= 1
C1775: + x106 + x317 <= 1
C1776: + x34 + x80 <= 1
C1777: + x23 + x463 <= 1
C1778: + x6 + x15 <= 1
C1779: + x30 + x60 <= 1
C1780: + x42 + x142 <= 1
C1781: + x386 + x406 <= 1
C1782: + x7 + x40 <= 1
C1783: + x19 + x301 <= 1
C1784: + x9 + x398 <= 1
C1785: + x15 + x104 <= 1
C1786: + x415 + x440 <= 1
C1787: + x1 + x205 <= 1
C1788: + x187 + x191 <= 1
C1789: + x14 + x179 <= 1
C1790: + x5 + x90 <= 1
C1791: + x18 + x56 <= 1
C1792: + x51 + x213 <= 1
C1793: + x43 + x74 <= 1
C1794: + x5 + x332 <= 1
C1795: + x45 + x342 <= 1
C1796: + x138 + x220 <= 1
C1797: + x38 + x299 <= 1
C1798: + x90 + x243 <= 1
C1799: + x79 + x116 <= 1
C1800: + x7 + x253 <= 1
C1801: + x27 + x417 <= 1
C1802: + x94 + x374 <= 1
C1803: + x21 + x204 <= 1
C1804: + x22 + x196 <= 1
C1805: + x304 + x386 <= 1
C1806: + x108 + x411 <= 1
C1807: + x134 + x304 <= 1
C1808: + x243 + x278 <= 1
C1809: + x9 + x294 <= 1
C1810: + x38 + x287 <= 1
C1811: + x12 + x232 <= 1
C1812: + x5 + x29 <= 1
C1813: + x98 + x228 <= 1
C1814: + x32 + x158 <= 1
C1815: + x7 + x382 <= 1
C1816: + x1 + x85 <= 1
C1817: + x237 + x385 <= 1
C1818: + x85 + x291 <= 1
C1819: + x42 + x247 <= 1
C1820: + x52 + x220 <= 1
C1821: + x5 + x271 <= 1
C1822: + x30 + x259 <= 1
C1823: + x188 + x479 <= 1
C1824: + x27 + x81 <= 1
C1825: + x135 + x466 <= 1
C1826: + x378 + x394 <= 1
C1827: + x74 + x476 <= 1
C1828: + x146 + x500 <= 1
C1829: + x59 + x155 <= 1
C1830: + x191 + x440 <= 1
C1831: + x2 + x101 <= 1
C1832: + x20 + x390 <= 1
C1833: + x1 + x32 <= 1
C1834: + x122 + x163 <= 1
C1835: + x21 + x211 <= 1
C1836: + x33 + x324 <= 1
C1837: + x7 + x486 <= 1
C1838: + x84 + x457 <= 1
C1839: + x366 + x397 <= 1
C1840: + x15 + x38 <= 1
C1841: + x137 + x311 <= 1
C1842: + x2 + x49 <= 1
C1843: + x55 + x498 <= 1
C1844: + x49 + x393 <= 1
C1845: + x5 + x28 <= 1
C1846: + x354 + x432 <= 1
C1847: + x171 + x304 <= 1
C1848: + x7 + x373 <= 1
C1849: + x72 + x319 <= 1
C1850: + x60 + x70 <= 1
C1851: + x26 + x86 <= 1
C1852: + x7 + x18 <= 1
C1853: + x44 + x144 <= 1
C1854: + x407 + x418 <= 1
C1855: + x225 + x226 <= 1
C1856: + x208 + x430 <= 1
C1857: + x18 + x135 <= 1
C1858: + x30 + x191 <= 1
C1859: + x5 + x80 <= 1
C1860: + x179 + x303 <= 1
C1861: + x9 + x11 <= 1
C1862: + x64 + x82 <= 1
C1863: + x38 + x47 <= 1
C1864: + x94 + x471 <= 1
C1865: + x42 + x172 <= 1
C1866: + x71 + x142 <= 1
C1867: + x47 + x266 <= 1
C1868: + x32 + x96 <= 1
C1869: + x91 + x243 <= 1
C1870: + x16 + x237 <= 1
C1871: + x19 + x193 <= 1
C1872: + x80 + x114 <= 1
C1873: + x56 + x70 <= 1
C1874: + x149 + x346 <= 1
C1875: + x178 + x202 <= 1
C1876: + x5 + x116 <= 1
C1877: + x23 + x375 <= 1
C1878: + x51 + x269 <= 1
C1879: + x80 + x324 <= 1
C1880: + x49 + x291 <= 1
C1881: + x187 + x419 <= 1
C1882: + x27 + x52 <= 1
C1883: + x290 + x479 <= 1
C1884: + x32 + x382 <= 1
C1885: + x35 + x180 <= 1
C1886: + x16 + x472 <= 1
C1887: + x6 + x395 <= 1
C1888: + x263 + x350 <= 1
C1889: + x9 + x419 <= 1
C1890: + x125 + x490 <= 1
C1891: + x265 + x319 <= 1
C1892: + x264 + x287 <= 1
C1893: + x2 + x198 <= 1
C1894: + x5 + x55 <= 1
C1895: + x252 + x447 <= 1
C1896: + x142 + x436 <= 1
C1897: + x43 + x130 <= 1
C1898: + x137 + x455 <= 1
C1899: + x251 + x410 <= 1
C1900: + x252 + x286 <= 1
C1901: + x26 + x107 <= 1
C1902: + x6 + x447 <= 1
C1903: + x55 + x67 <= 1
C1904: + x245 + x373 <= 1
C1905: + x1 + x238 <= 1
C1906: + x246 + x355 <= 1
C1907: + x240 + x290 <= 1
C1908: + x179 + x209 <= 1
C1909: + x25 + x228 <= 1
C1910: + x97 + x292 <= 1
C1911: + x34 + x108 <= 1
C1912: + x414 + x464 <= 1
C1913: + x55 + x452 <= 1
C1914: + x221 + x435 <= 1
C1915: + x5 + x10 <= 1
C1916: + x27 + x59 <= 1
C1917: + x92 + x121 <= 1
C1918: + x41 + x129 <= 1
C1919: + x22 + x350 <= 1
C1920: + x386 + x498 <= 1
C1921: + x316 + x462 <= 1
C1922: + x8 + x404 <= 1
C1923: + x89 + x141 <= 1
C1924: + x6 + x23 <= 1
C1925: + x62 + x90 <= 1
C1926: + x87 + x231 <= 1
C1927: + x70 + x284 <= 1
C1928: + x269 + x433 <= 1
C1929: + x94 + x134 <= 1
C1930: + x34 + x259 <= 1
C1931: + x182 + x187 <= 1
C1932: + x184 + x477 <= 1
C1933: + x124 + x368 <= 1
C1934: + x7 + x64 <= 1
C1935: + x80 + x161 <= 1
C1936: + x147 + x274 <= 1
C1937: + x193 + x461 <= 1
C1938: + x15 + x144 <= 1
C1939: + x209 + x406 <= 1
C1940: + x7 + x217 <= 1
C1941: + x2 + x235 <= 1
C1942: + x15 + x414 <= 1
C1943: + x9 + x101 <= 1
C1944: + x16 + x18 <= 1
C1945: + x54 + x207 <= 1
C1946: + x201 + x250 <= 1
C1947: + x252 + x367 <= 1
C1948: + x216 + x274 <= 1
C1949: + x83 + x185 <= 1
C1950: + x155 + x222 <= 1
C1951: + x257 + x270 <= 1
C1952: + x51 + x402 <= 1
C1953: + x360 + x410 <= 1
C1954: + x55 + x360 <= 1
C1955: + x141 + x497 <= 1
C1956: + x47 + x158 <= 1
C1957: + x375 + x383 <= 1

binary
x1 x2 x3 x4 x5 x6 x7 x8 x9 x10 x11 x12 x13 x14 x15 x16 x17 x18 x19 x20 x21 x22 x23 x24 x25 x26 x27 x28 x29 x30 x31 x32 x33 x34 x35 x36 x37 x38 x39 x40 x41 x42 x43 x44 x45 x46 x47 x48 x49 x50 x51 x52 x53 x54 x55 x56 x57 x58 x59 x60 x61 x62 x63 x64 x65 x66 x67 x68 x69 x70 x71 x72 x73 x74 x75 x76 x77 x78 x79 x80 x81 x82 x83 x84 x85 x86 x87 x88 x89 x90 x91 x92 x93 x94 x95 x96 x97 x98 x99 x100 x101 x102 x103 x104 x105 x106 x107 x108 x109 x110 x111 x112 x113 x114 x115 x116 x117 x118 x119 x120 x121 x122 x123 x124 x125 x126 x127 x128 x129 x130 x131 x132 x133 x134 x135 x136 x137 x138 x139 x140 x141 x142 x143 x144 x145 x146 x147 x148 x149 x150 x151 x152 x153 x154 x155 x156 x157 x158 x159 x160 x161 x162 x163 x164 x165 x166 x167 x168 x169 x170 x171 x172 x173 x174 x175 x176 x177 x178 x179 x180 x181 x182 x183 x184 x185 x186 x187 x188 x189 x190 x191 x192 x193 x194 x195 x196 x197 x198 x199 x200 x201 x202 x203 x204 x205 x206 x207 x208 x209 x210 x211 x212 x213 x214 x215 x216 x217 x218 x219 x220 x221 x222 x223 x224 x225 x226 x227 x228 x229 x230 x231 x232 x233 x234 x235 x236 x237 x238 x239 x240 x241 x242 x243 x244 x245 x246 x247 x248 x249 x250 x251 x252 x253 x254 x255 x256 x257 x258 x259 x260 x261 x262 x263 x264 x265 x266 x267 x268 x269 x270 x271 x272 x273 x274 x275 x276 x277 x278 x279 x280 x281 x282 x283 x284 x285 x286 x287 x288 x289 x290 x291 x292 x293 x294 x295 x296 x297 x298 x299 x300 x301 x302 x303 x304 x305 x306 x307 x308 x309 x310 x311 x312 x313 x314 x315 x316 x317 x318 x319 x320 x321 x322 x323 x324 x325 x326 x327 x328 x329 x330 x331 x332 x333 x334 x335 x336 x337 x338 x339 x340 x341 x342 x343 x344 x345 x346 x347 x348 x349 x350 x351 x352 x353 x354 x355 x356 x357 x358 x359 x360 x361 x362 x363 x364 x365 x366 x367 x368 x369 x370 x371 x372 x373 x374 x375 x376 x377 x378 x379 x380 x381 x382 x383 x384 x385 x386 x387 x388 x389 x390 x391 x392 x393 x394 x395 x396 x397 x398 x399 x400 x401 x402 x403 x404 x405 x406 x407 x408 x409 x410 x411 x412 x413 x414 x415 x416 x417 x418 x419 x420 x421 x422 x423 x424 x425 x426 x427 x428 x429 x430 x431 x432 x433 x434 x435 x436 x437 x438 x439 x440 x441 x442 x443 x444 x445 x446 x447 x448 x449 x450 x451 x452 x453 x454 x455 x456 x457 x458 x459 x460 x461 x462 x463 x464 x465 x466 x467 x468 x469 x470 x471 x472 x473 x474 x475 x476 x477 x478 x479 x480 x481 x482 x483 x484 x485 x486 x487 x488 x489 x490 x491 x492 x493 x494 x495 x496 x497 x498 x499 x500
