maximize
OBJ: + 1 x1 + 1 x2 + 1 x3 + 1 x4 + 1 x5 + 1 x6 + 1 x7 + 1 x8 + 1 x9 + 1 x10 + 1 x11 + 1 x12 + 1 x13 + 1 x14 + 1 x15 + 1 x16 + 1 x17 + 1 x18 + 1 x19 + 1 x20 + 1 x21 + 1 x22 + 1 x23 + 1 x24 + 1 x25 + 1 x26 + 1 x27 + 1 x28 + 1 x29 + 1 x30 + 1 x31 + 1 x32 + 1 x33 + 1 x34 + 1 x35 + 1 x36 + 1 x37 + 1 x38 + 1 x39 + 1 x40 + 1 x41 + 1 x42 + 1 x43 + 1 x44 + 1 x45 + 1 x46 + 1 x47 + 1 x48 + 1 x49 + 1 x50 + 1 x51 + 1 x52 + 1 x53 + 1 x54 + 1 x55 + 1 x56 + 1 x57 + 1 x58 + 1 x59 + 1 x60 + 1 x61 + 1 x62 + 1 x63 + 1 x64 + 1 x65 + 1 x66 + 1 x67 + 1 x68 + 1 x69 + 1 x70 + 1 x71 + 1 x72 + 1 x73 + 1 x74 + 1 x75 + 1 x76 + 1 x77 + 1 x78 + 1 x79 + 1 x80 + 1 x81 + 1 x82 + 1 x83 + 1 x84 + 1 x85 + 1 x86 + 1 x87 + 1 x88 + 1 x89 + 1 x90 + 1 x91 + 1 x92 + 1 x93 + 1 x94 + 1 x95 + 1 x96 + 1 x97 + 1 x98 + 1 x99 + 1 x100 + 1 x101 + 1 x102 + 1 x103 + 1 x104 + 1 x105 + 1 x106 + 1 x107 + 1 x108 + 1 x109 + 1 x110 + 1 x111 + 1 x112 + 1 x113 + 1 x114 + 1 x115 + 1 x116 + 1 x117 + 1 x118 + 1 x119 + 1 x120 + 1 x121 + 1 x122 + 1 x123 + 1 x124 + 1 x125 + 1 x126 + 1 x127 + 1 x128 + 1 x129 + 1 x130 + 1 x131 + 1 x132 + 1 x133 + 1 x134 + 1 x135 + 1 x136 + 1 x137 + 1 x138 + 1 x139 + 1 x140 + 1 x141 + 1 x142 + 1 x143 + 1 x144 + 1 x145 + 1 x146 + 1 x147 + 1 x148 + 1 x149 + 1 x150 + 1 x151 + 1 x152 + 1 x153 + 1 x154 + 1 x155 + 1 x156 + 1 x157 + 1 x158 + 1 x159 + 1 x160 + 1 x161 + 1 x162 + 1 x163 + 1 x164 + 1 x165 + 1 x166 + 1 x167 + 1 x168 + 1 x169 + 1 x170 + 1 x171 + 1 x172 + 1 x173 + 1 x174 + 1 x175 + 1 x176 + 1 x177 + 1 x178 + 1 x179 + 1 x180 + 1 x181 + 1 x182 + 1 x183 + 1 x184 + 1 x185 + 1 x186 + 1 x187 + 1 x188 + 1 x189 + 1 x190 + 1 x191 + 1 x192 + 1 x193 + 1 x194 + 1 x195 + 1 x196 + 1 x197 + 1 x198 + 1 x199 + 1 x200 + 1 x201 + 1 x202 + 1 x203 + 1 x204 + 1 x205 + 1 x206 + 1 x207 + 1 x208 + 1 x209 + 1 x210 + 1 x211 + 1 x212 + 1 x213 + 1 x214 + 1 x215 + 1 x216 + 1 x217 + 1 x218 + 1 x219 + 1 x220 + 1 x221 + 1 x222 + 1 x223 + 1 x224 + 1 x225 + 1 x226 + 1 x227 + 1 x228 + 1 x229 + 1 x230 + 1 x231 + 1 x232 + 1 x233 + 1 x234 + 1 x235 + 1 x236 + 1 x237 + 1 x238 + 1 x239 + 1 x240 + 1 x241 + 1 x242 + 1 x243 + 1 x244 + 1 x245 + 1 x246 + 1 x247 + 1 x248 + 1 x249 + 1 x250 + 1 x251 + 1 x252 + 1 x253 + 1 x254 + 1 x255 + 1 x256 + 1 x257 + 1 x258 + 1 x259 + 1 x260 + 1 x261 + 1 x262 + 1 x263 + 1 x264 + 1 x265 + 1 x266 + 1 x267 + 1 x268 + 1 x269 + 1 x270 + 1 x271 + 1 x272 + 1 x273 + 1 x274 + 1 x275 + 1 x276 + 1 x277 + 1 x278 + 1 x279 + 1 x280 + 1 x281 + 1 x282 + 1 x283 + 1 x284 + 1 x285 + 1 x286 + 1 x287 + 1 x288 + 1 x289 + 1 x290 + 1 x291 + 1 x292 + 1 x293 + 1 x294 + 1 x295 + 1 x296 + 1 x297 + 1 x298 + 1 x299 + 1 x300 + 1 x301 + 1 x302 + 1 x303 + 1 x304 + 1 x305 + 1 x306 + 1 x307 + 1 x308 + 1 x309 + 1 x310 + 1 x311 + 1 x312 + 1 x313 + 1 x314 + 1 x315 + 1 x316 + 1 x317 + 1 x318 + 1 x319 + 1 x320 + 1 x321 + 1 x322 + 1 x323 + 1 x324 + 1 x325 + 1 x326 + 1 x327 + 1 x328 + 1 x329 + 1 x330 + 1 x331 + 1 x332 + 1 x333 + 1 x334 + 1 x335 + 1 x336 + 1 x337 + 1 x338 + 1 x339 + 1 x340 + 1 x341 + 1 x342 + 1 x343 + 1 x344 + 1 x345 + 1 x346 + 1 x347 + 1 x348 + 1 x349 + 1 x350 + 1 x351 + 1 x352 + 1 x353 + 1 x354 + 1 x355 + 1 x356 + 1 x357 + 1 x358 + 1 x359 + 1 x360 + 1 x361 + 1 x362 + 1 x363 + 1 x364 + 1 x365 + 1 x366 + 1 x367 + 1 x368 + 1 x369 + 1 x370 + 1 x371 + 1 x372 + 1 x373 + 1 x374 + 1 x375 + 1 x376 + 1 x377 + 1 x378 + 1 x379 + 1 x380 + 1 x381 + 1 x382 + 1 x383 + 1 x384 + 1 x385 + 1 x386 + 1 x387 + 1 x388 + 1 x389 + 1 x390 + 1 x391 + 1 x392 + 1 x393 + 1 x394 + 1 x395 + 1 x396 + 1 x397 + 1 x398 + 1 x399 + 1 x400 + 1 x401 + 1 x402 + 1 x403 + 1 x404 + 1 x405 + 1 x406 + 1 x407 + 1 x408 + 1 x409 + 1 x410 + 1 x411 + 1 x412 + 1 x413 + 1 x414 + 1 x415 + 1 x416 + 1 x417 + 1 x418 + 1 x419 + 1 x420 + 1 x421 + 1 x422 + 1 x423 + 1 x424 + 1 x425 + 1 x426 + 1 x427 + 1 x428 + 1 x429 + 1 x430 + 1 x431 + 1 x432 + 1 x433 + 1 x434 + 1 x435 + 1 x436 + 1 x437 + 1 x438 + 1 x439 + 1 x440 + 1 x441 + 1 x442 + 1 x443 + 1 x444 + 1 x445 + 1 x446 + 1 x447 + 1 x448 + 1 x449 + 1 x450 + 1 x451 + 1 x452 + 1 x453 + 1 x454 + 1 x455 + 1 x456 + 1 x457 + 1 x458 + 1 x459 + 1 x460 + 1 x461 + 1 x462 + 1 x463 + 1 x464 + 1 x465 + 1 x466 + 1 x467 + 1 x468 + 1 x469 + 1 x470 + 1 x471 + 1 x472 + 1 x473 + 1 x474 + 1 x475 + 1 x476 + 1 x477 + 1 x478 + 1 x479 + 1 x480 + 1 x481 + 1 x482 + 1 x483 + 1 x484 + 1 x485 + 1 x486 + 1 x487 + 1 x488 + 1 x489 + 1 x490 + 1 x491 + 1 x492 + 1 x493 + 1 x494 + 1 x495 + 1 x496 + 1 x497 + 1 x498 + 1 x499 + 1 x500

subject to
C1: + x4 + x272 <= 1
C2: + x23 + x58 <= 1
C3: + x17 + x401 <= 1
C4: + x206 + x429 <= 1
C5: + x255 + x257 <= 1
C6: + x110 + x366 <= 1
C7: + x72 + x443 <= 1
C8: + x11 + x171 <= 1
C9: + x47 + x436 <= 1
C10: + x224 + x486 <= 1
C11: + x52 + x498 <= 1
C12: + x53 + x95 <= 1
C13: + x16 + x75 <= 1
C14: + x36 + x191 <= 1
C15: + x302 + x434 <= 1
C16: + x4 + x413 <= 1
C17: + x5 + x279 <= 1
C18: + x191 + x340 <= 1
C19: + x49 + x377 <= 1
C20: + x97 + x323 <= 1
C21: + x163 + x296 <= 1
C22: + x3 + x276 <= 1
C23: + x134 + x269 <= 1
C24: + x55 + x208 <= 1
C25: + x66 + x79 <= 1
C26: + x34 + x102 <= 1
C27: + x45 + x357 <= 1
C28: + x140 + x185 <= 1
C29: + x5 + x256 <= 1
C30: + x180 + x354 <= 1
C31: + x17 + x206 <= 1
C32: + x100 + x188 <= 1
C33: + x8 + x99 <= 1
C34: + x47 + x76 <= 1
C35: + x41 + x143 <= 1
C36: + x449 + x482 <= 1
C37: + x115 + x375 <= 1
C38: + x79 + x369 <= 1
C39: + x82 + x445 <= 1
C40: + x28 + x342 <= 1
C41: + x8 + x386 <= 1
C42: + x6 + x486 <= 1
C43: + x20 + x40 <= 1
C44: + x15 + x78 <= 1
C45: + x18 + x288 <= 1
C46: + x17 + x408 <= 1
C47: + x6 + x25 <= 1
C48: + x42 + x402 <= 1
C49: + x5 + x36 <= 1
C50: + x81 + x117 <= 1
C51: + x44 + x121 <= 1
C52: + x27 + x209 <= 1
C53: + x134 + x322 <= 1
C54: + x64 + x118 <= 1
C55: + x162 + x267 <= 1
C56: + x291 + x422 <= 1
C57: + x256 + x438 <= 1
C58: + x78 + x108 <= 1
C59: + x10 + x284 <= 1
C60: + x37 + x42 <= 1
C61: + x11 + x492 <= 1
C62: + x5 + x179 <= 1
C63: + x100 + x290 <= 1
C64: + x63 + x457 <= 1
C65: + x19 + x37 <= 1
C66: + x14 + x189 <= 1
C67: + x324 + x426 <= 1
C68: + x17 + x182 <= 1
C69: + x9 + x19 <= 1
C70: + x4 + x434 <= 1
C71: + x332 + x474 <= 1
C72: + x52 + x149 <= 1
C73: + x30 + x328 <= 1
C74: + x141 + x258 <= 1
C75: + x17 + x197 <= 1
C76: + x244 + x414 <= 1
C77: + x41 + x118 <= 1
C78: + x4 + x12 <= 1
C79: + x196 + x204 <= 1
C80: + x26 + x59 <= 1
C81: + x62 + x258 <= 1
C82: + x122 + x418 <= 1
C83: + x88 + x252 <= 1
C84: + x74 + x263 <= 1
C85: + x58 + x61 <= 1
C86: + x114 + x176 <= 1
C87: + x20 + x319 <= 1
C88: + x287 + x493 <= 1
C89: + x35 + x414 <= 1
C90: + x44 + x114 <= 1
C91: + x151 + x387 <= 1
C92: + x8 + x16 <= 1
C93: + x148 + x286 <= 1
C94: + x30 + x63 <= 1
C95: + x40 + x220 <= 1
C96: + x25 + x81 <= 1
C97: + x9 + x395 <= 1
C98: + x56 + x260 <= 1
C99: + x10 + x51 <= 1
C100: + x28 + x73 <= 1
C101: + x4 + x69 <= 1
C102: + x99 + x347 <= 1
C103: + x18 + x51 <= 1
C104: + x199 + x244 <= 1
C105: + x38 + x64 <= 1
C106: + x21 + x407 <= 1
C107: + x5 + x329 <= 1
C108: + x79 + x212 <= 1
C109: + x14 + x420 <= 1
C110: + x64 + x134 <= 1
C111: + x66 + x303 <= 1
C112: + x37 + x466 <= 1
C113: + x185 + x315 <= 1
C114: + x71 + x132 + x205 <= 1
C115: + x188 + x401 <= 1
C116: + x16 + x295 <= 1
C117: + x80 + x103 <= 1
C118: + x1 + x6 <= 1
C119: + x30 + x228 <= 1
C120: + x140 + x278 <= 1
C121: + x17 + x89 <= 1
C122: + x62 + x283 <= 1
C123: + x28 + x292 <= 1
C124: + x253 + x493 <= 1
C125: + x248 + x346 <= 1
C126: + x19 + x373 <= 1
C127: + x3 + x475 <= 1
C128: + x31 + x482 <= 1
C129: + x3 + x8 <= 1
C130: + x4 + x355 <= 1
C131: + x18 + x266 <= 1
C132: + x199 + x457 <= 1
C133: + x7 + x137 <= 1
C134: + x28 + x54 <= 1
C135: + x229 + x326 <= 1
C136: + x4 + x130 <= 1
C137: + x5 + x18 <= 1
C138: + x9 + x213 <= 1
C139: + x145 + x317 <= 1
C140: + x186 + x220 <= 1
C141: + x4 + x61 <= 1
C142: + x162 + x488 <= 1
C143: + x302 + x320 <= 1
C144: + x103 + x112 <= 1
C145: + x60 + x151 <= 1
C146: + x32 + x34 <= 1
C147: + x207 + x300 <= 1
C148: + x73 + x356 <= 1
C149: + x19 + x23 <= 1
C150: + x125 + x235 <= 1
C151: + x18 + x44 <= 1
C152: + x144 + x417 <= 1
C153: + x55 + x209 <= 1
C154: + x85 + x492 <= 1
C155: + x12 + x62 <= 1
C156: + x204 + x257 <= 1
C157: + x15 + x27 <= 1
C158: + x36 + x381 <= 1
C159: + x174 + x425 <= 1
C160: + x2 + x445 <= 1
C161: + x20 + x385 <= 1
C162: + x340 + x376 <= 1
C163: + x234 + x281 <= 1
C164: + x97 + x164 <= 1
C165: + x180 + x373 <= 1
C166: + x145 + x179 <= 1
C167: + x6 + x227 <= 1
C168: + x8 + x74 <= 1
C169: + x276 + x403 <= 1
C170: + x31 + x336 <= 1
C171: + x253 + x492 <= 1
C172: + x28 + x313 <= 1
C173: + x339 + x377 <= 1
C174: + x19 + x368 <= 1
C175: + x42 + x106 <= 1
C176: + x25 + x48 <= 1
C177: + x58 + x79 <= 1
C178: + x12 + x284 <= 1
C179: + x161 + x229 <= 1
C180: + x90 + x131 <= 1
C181: + x162 + x235 <= 1
C182: + x18 + x241 <= 1
C183: + x41 + x176 <= 1
C184: + x4 + x38 <= 1
C185: + x9 + x441 <= 1
C186: + x339 + x429 <= 1
C187: + x89 + x188 <= 1
C188: + x70 + x301 <= 1
C189: + x8 + x147 <= 1
C190: + x12 + x216 <= 1
C191: + x39 + x85 <= 1
C192: + x206 + x360 <= 1
C193: + x25 + x206 <= 1
C194: + x236 + x303 <= 1
C195: + x18 + x45 <= 1
C196: + x73 + x456 <= 1
C197: + x134 + x353 <= 1
C198: + x11 + x280 <= 1
C199: + x175 + x483 <= 1
C200: + x42 + x167 <= 1
C201: + x328 + x356 <= 1
C202: + x20 + x394 <= 1
C203: + x21 + x378 <= 1
C204: + x8 + x71 <= 1
C205: + x11 + x231 <= 1
C206: + x41 + x107 <= 1
C207: + x98 + x144 <= 1
C208: + x215 + x399 <= 1
C209: + x6 + x474 <= 1
C210: + x62 + x301 <= 1
C211: + x8 + x486 <= 1
C212: + x121 + x142 <= 1
C213: + x18 + x89 <= 1
C214: + x4 + x337 <= 1
C215: + x5 + x355 <= 1
C216: + x8 + x216 <= 1
C217: + x211 + x482 <= 1
C218: + x184 + x293 <= 1
C219: + x433 + x487 <= 1
C220: + x171 + x300 <= 1
C221: + x312 + x460 <= 1
C222: + x4 + x285 <= 1
C223: + x335 + x367 <= 1
C224: + x298 + x411 <= 1
C225: + x9 + x15 <= 1
C226: + x8 + x47 <= 1
C227: + x7 + x421 <= 1
C228: + x52 + x241 <= 1
C229: + x26 + x102 <= 1
C230: + x49 + x344 <= 1
C231: + x233 + x245 <= 1
C232: + x13 + x166 <= 1
C233: + x32 + x92 <= 1
C234: + x4 + x201 <= 1
C235: + x10 + x18 <= 1
C236: + x449 + x453 <= 1
C237: + x41 + x82 <= 1
C238: + x42 + x358 <= 1
C239: + x5 + x128 <= 1
C240: + x278 + x397 <= 1
C241: + x6 + x451 <= 1
C242: + x158 + x335 <= 1
C243: + x135 + x166 <= 1
C244: + x10 + x333 <= 1
C245: + x88 + x313 <= 1
C246: + x38 + x426 <= 1
C247: + x12 + x427 <= 1
C248: + x25 + x62 <= 1
C249: + x160 + x168 <= 1
C250: + x127 + x278 <= 1
C251: + x149 + x213 <= 1
C252: + x5 + x15 <= 1
C253: + x15 + x263 <= 1
C254: + x82 + x291 <= 1
C255: + x128 + x156 <= 1
C256: + x37 + x280 <= 1
C257: + x273 + x375 <= 1
C258: + x4 + x20 <= 1
C259: + x61 + x65 <= 1
C260: + x26 + x35 <= 1
C261: + x7 + x13 <= 1
C262: + x2 + x460 <= 1
C263: + x251 + x307 <= 1
C264: + x5 + x158 <= 1
C265: + x6 + x42 <= 1
C266: + x7 + x170 <= 1
C267: + x19 + x439 <= 1
C268: + x21 + x153 <= 1
C269: + x22 + x23 <= 1
C270: + x112 + x218 <= 1
C271: + x159 + x458 <= 1
C272: + x19 + x165 <= 1
C273: + x228 + x396 <= 1
C274: + x43 + x47 <= 1
C275: + x244 + x365 <= 1
C276: + x7 + x57 <= 1
C277: + x83 + x138 <= 1
C278: + x156 + x326 <= 1
C279: + x2 + x75 <= 1
C280: + x129 + x266 <= 1
C281: + x234 + x244 <= 1
C282: + x5 + x194 <= 1
C283: + x100 + x271 <= 1
C284: + x382 + x455 <= 1
C285: + x20 + x243 <= 1
C286: + x44 + x198 <= 1
C287: + x339 + x358 <= 1
C288: + x138 + x393 <= 1
C289: + x12 + x29 <= 1
C290: + x175 + x441 <= 1
C291: + x37 + x144 <= 1
C292: + x52 + x134 <= 1
C293: + x54 + x101 <= 1
C294: + x2 + x7 <= 1
C295: + x147 + x148 <= 1
C296: + x25 + x418 <= 1
C297: + x6 + x130 <= 1
C298: + x14 + x31 <= 1
C299: + x32 + x117 <= 1
C300: + x42 + x283 <= 1
C301: + x81 + x305 <= 1
C302: + x18 + x391 <= 1
C303: + x80 + x153 <= 1
C304: + x12 + x416 <= 1
C305: + x6 + x19 <= 1
C306: + x19 + x123 <= 1
C307: + x102 + x239 <= 1
C308: + x39 + x122 <= 1
C309: + x13 + x197 <= 1
C310: + x14 + x211 <= 1
C311: + x126 + x334 <= 1
C312: + x199 + x215 <= 1
C313: + x8 + x29 <= 1
C314: + x28 + x201 <= 1
C315: + x5 + x300 <= 1
C316: + x306 + x325 <= 1
C317: + x64 + x167 <= 1
C318: + x224 + x266 <= 1
C319: + x110 + x240 <= 1
C320: + x41 + x96 <= 1
C321: + x4 + x86 <= 1
C322: + x5 + x110 <= 1
C323: + x188 + x273 <= 1
C324: + x116 + x304 <= 1
C325: + x171 + x374 <= 1
C326: + x7 + x112 <= 1
C327: + x55 + x479 <= 1
C328: + x60 + x347 <= 1
C329: + x160 + x392 <= 1
C330: + x7 + x350 <= 1
C331: + x61 + x87 <= 1
C332: + x53 + x172 <= 1
C333: + x128 + x365 <= 1
C334: + x119 + x276 <= 1
C335: + x136 + x212 <= 1
C336: + x38 + x400 <= 1
C337: + x267 + x348 <= 1
C338: + x5 + x132 <= 1
C339: + x18 + x283 <= 1
C340: + x70 + x420 <= 1
C341: + x377 + x403 <= 1
C342: + x40 + x365 <= 1
C343: + x6 + x429 <= 1
C344: + x7 + x43 <= 1
C345: + x12 + x321 <= 1
C346: + x376 + x437 <= 1
C347: + x199 + x408 <= 1
C348: + x373 + x436 <= 1
C349: + x41 + x71 <= 1
C350: + x4 + x91 <= 1
C351: + x98 + x172 <= 1
C352: + x15 + x361 <= 1
C353: + x62 + x305 <= 1
C354: + x299 + x330 <= 1
C355: + x11 + x110 <= 1
C356: + x283 + x286 <= 1
C357: + x47 + x499 <= 1
C358: + x167 + x193 <= 1
C359: + x96 + x187 <= 1
C360: + x13 + x135 <= 1
C361: + x18 + x214 <= 1
C362: + x4 + x7 <= 1
C363: + x38 + x126 <= 1
C364: + x3 + x50 <= 1
C365: + x132 + x249 <= 1
C366: + x66 + x365 <= 1
C367: + x437 + x484 <= 1
C368: + x380 + x403 <= 1
C369: + x73 + x491 <= 1
C370: + x134 + x334 <= 1
C371: + x28 + x199 <= 1
C372: + x102 + x372 <= 1
C373: + x303 + x461 <= 1
C374: + x7 + x46 <= 1
C375: + x339 + x448 <= 1
C376: + x86 + x168 <= 1
C377: + x15 + x158 <= 1
C378: + x9 + x186 <= 1
C379: + x4 + x68 <= 1
C380: + x5 + x425 <= 1
C381: + x73 + x471 <= 1
C382: + x54 + x221 <= 1
C383: + x31 + x311 <= 1
C384: + x9 + x500 <= 1
C385: + x136 + x177 <= 1
C386: + x374 + x422 <= 1
C387: + x3 + x154 <= 1
C388: + x59 + x107 <= 1
C389: + x149 + x233 <= 1
C390: + x6 + x253 <= 1
C391: + x16 + x294 <= 1
C392: + x109 + x138 <= 1
C393: + x136 + x419 <= 1
C394: + x37 + x268 <= 1
C395: + x4 + x16 <= 1
C396: + x7 + x489 <= 1
C397: + x19 + x378 <= 1
C398: + x167 + x331 <= 1
C399: + x187 + x407 <= 1
C400: + x138 + x158 <= 1
C401: + x3 + x174 <= 1
C402: + x78 + x97 <= 1
C403: + x235 + x288 <= 1
C404: + x253 + x422 <= 1
C405: + x16 + x214 <= 1
C406: + x10 + x55 <= 1
C407: + x194 + x357 <= 1
C408: + x49 + x472 <= 1
C409: + x5 + x91 <= 1
C410: + x215 + x421 <= 1
C411: + x81 + x142 <= 1
C412: + x2 + x99 <= 1
C413: + x20 + x384 <= 1
C414: + x5 + x234 <= 1
C415: + x360 + x385 <= 1
C416: + x16 + x291 <= 1
C417: + x66 + x462 <= 1
C418: + x13 + x26 <= 1
C419: + x69 + x498 <= 1
C420: + x16 + x61 <= 1
C421: + x2 + x297 <= 1
C422: + x3 + x471 <= 1
C423: + x11 + x342 <= 1
C424: + x115 + x458 <= 1
C425: + x7 + x141 <= 1
C426: + x355 + x441 <= 1
C427: + x20 + x332 <= 1
C428: + x5 + x30 <= 1
C429: + x10 + x175 <= 1
C430: + x42 + x246 <= 1
C431: + x5 + x272 <= 1
C432: + x22 + x322 <= 1
C433: + x172 + x477 <= 1
C434: + x83 + x101 <= 1
C435: + x46 + x113 <= 1
C436: + x49 + x221 <= 1
C437: + x33 + x207 <= 1
C438: + x30 + x258 <= 1
C439: + x33 + x44 <= 1
C440: + x35 + x191 <= 1
C441: + x72 + x232 <= 1
C442: + x71 + x462 <= 1
C443: + x92 + x134 <= 1
C444: + x43 + x431 <= 1
C445: + x189 + x450 <= 1
C446: + x5 + x66 <= 1
C447: + x43 + x157 <= 1
C448: + x6 + x297 <= 1
C449: + x34 + x383 <= 1
C450: + x179 + x236 <= 1
C451: + x250 + x433 <= 1
C452: + x12 + x50 <= 1
C453: + x21 + x109 <= 1
C454: + x4 + x420 <= 1
C455: + x74 + x182 <= 1
C456: + x38 + x467 <= 1
C457: + x29 + x426 <= 1
C458: + x361 + x480 <= 1
C459: + x209 + x418 <= 1
C460: + x51 + x275 <= 1
C461: + x179 + x224 <= 1
C462: + x5 + x118 <= 1
C463: + x17 + x84 <= 1
C464: + x91 + x455 <= 1
C465: + x54 + x243 <= 1
C466: + x19 + x364 <= 1
C467: + x10 + x327 <= 1
C468: + x3 + x27 <= 1
C469: + x174 + x310 <= 1
C470: + x4 + x368 <= 1
C471: + x18 + x263 <= 1
C472: + x58 + x83 <= 1
C473: + x51 + x486 <= 1
C474: + x363 + x404 <= 1
C475: + x7 + x374 <= 1
C476: + x75 + x496 <= 1
C477: + x120 + x277 <= 1
C478: + x12 + x123 <= 1
C479: + x60 + x402 <= 1
C480: + x102 + x450 <= 1
C481: + x165 + x451 <= 1
C482: + x358 + x483 <= 1
C483: + x204 + x429 <= 1
C484: + x160 + x226 <= 1
C485: + x9 + x10 + x22 + x128 <= 1
C486: + x134 + x458 <= 1
C487: + x158 + x318 <= 1
C488: + x5 + x390 <= 1
C489: + x53 + x67 <= 1
C490: + x46 + x251 <= 1
C491: + x138 + x471 <= 1
C492: + x130 + x338 <= 1
C493: + x30 + x396 <= 1
C494: + x4 + x425 <= 1
C495: + x25 + x111 <= 1
C496: + x5 + x315 <= 1
C497: + x7 + x67 <= 1
C498: + x262 + x272 <= 1
C499: + x140 + x217 <= 1
C500: + x133 + x352 <= 1
C501: + x108 + x154 <= 1
C502: + x152 + x328 <= 1
C503: + x29 + x198 <= 1
C504: + x23 + x195 <= 1
C505: + x23 + x376 <= 1
C506: + x18 + x93 <= 1
C507: + x249 + x274 <= 1
C508: + x185 + x444 <= 1
C509: + x10 + x427 <= 1
C510: + x135 + x405 <= 1
C511: + x2 + x9 <= 1
C512: + x212 + x410 <= 1
C513: + x31 + x113 <= 1
C514: + x133 + x388 <= 1
C515: + x6 + x343 <= 1
C516: + x18 + x238 <= 1
C517: + x28 + x163 <= 1
C518: + x29 + x86 + x110 <= 1
C519: + x3 + x348 <= 1
C520: + x156 + x309 <= 1
C521: + x75 + x332 <= 1
C522: + x94 + x105 <= 1
C523: + x18 + x48 + x446 <= 1
C524: + x6 + x45 <= 1
C525: + x114 + x131 <= 1
C526: + x5 + x397 <= 1
C527: + x62 + x366 <= 1
C528: + x8 + x43 <= 1
C529: + x76 + x473 <= 1
C530: + x7 + x70 <= 1
C531: + x39 + x467 <= 1
C532: + x360 + x432 <= 1
C533: + x9 + x333 <= 1
C534: + x202 + x361 <= 1
C535: + x21 + x226 <= 1
C536: + x65 + x76 <= 1
C537: + x155 + x454 <= 1
C538: + x94 + x483 <= 1
C539: + x95 + x497 <= 1
C540: + x12 + x28 <= 1
C541: + x267 + x354 <= 1
C542: + x415 + x485 <= 1
C543: + x9 + x476 <= 1
C544: + x8 + x382 <= 1
C545: + x19 + x76 <= 1
C546: + x194 + x309 <= 1
C547: + x161 + x247 <= 1
C548: + x108 + x203 <= 1
C549: + x17 + x268 <= 1
C550: + x5 + x11 <= 1
C551: + x260 + x336 <= 1
C552: + x7 + x360 <= 1
C553: + x30 + x31 <= 1
C554: + x136 + x218 <= 1
C555: + x38 + x79 <= 1
C556: + x99 + x109 <= 1
C557: + x65 + x165 <= 1
C558: + x28 + x41 <= 1
C559: + x10 + x83 <= 1
C560: + x32 + x192 <= 1
C561: + x117 + x145 <= 1
C562: + x9 + x58 <= 1
C563: + x152 + x485 <= 1
C564: + x466 + x489 <= 1
C565: + x12 + x37 <= 1
C566: + x235 + x296 <= 1
C567: + x4 + x310 <= 1
C568: + x5 + x206 <= 1
C569: + x6 + x218 <= 1
C570: + x262 + x405 <= 1
C571: + x320 + x355 <= 1
C572: + x166 + x289 <= 1
C573: + x132 + x465 <= 1
C574: + x125 + x200 <= 1
C575: + x168 + x407 <= 1
C576: + x57 + x96 <= 1
C577: + x93 + x500 <= 1
C578: + x339 + x354 <= 1
C579: + x4 + x323 <= 1
C580: + x15 + x64 <= 1
C581: + x148 + x232 <= 1
C582: + x51 + x399 <= 1
C583: + x160 + x411 <= 1
C584: + x6 + x345 <= 1
C585: + x193 + x295 <= 1
C586: + x12 + x98 <= 1
C587: + x4 + x29 <= 1
C588: + x170 + x293 <= 1
C589: + x5 + x484 <= 1
C590: + x16 + x37 <= 1
C591: + x36 + x209 <= 1
C592: + x89 + x149 <= 1
C593: + x34 + x448 <= 1
C594: + x16 + x380 <= 1
C595: + x20 + x308 <= 1
C596: + x35 + x54 <= 1
C597: + x105 + x117 <= 1
C598: + x267 + x304 <= 1
C599: + x149 + x385 <= 1
C600: + x2 + x72 <= 1
C601: + x130 + x139 <= 1
C602: + x12 + x336 <= 1
C603: + x4 + x315 <= 1
C604: + x153 + x214 <= 1
C605: + x16 + x272 <= 1
C606: + x11 + x160 <= 1
C607: + x449 + x471 <= 1
C608: + x11 + x369 <= 1
C609: + x270 + x380 <= 1
C610: + x134 + x413 <= 1
C611: + x182 + x200 <= 1
C612: + x21 + x60 <= 1
C613: + x294 + x297 <= 1
C614: + x386 + x451 <= 1
C615: + x13 + x105 <= 1
C616: + x16 + x46 <= 1
C617: + x20 + x39 <= 1
C618: + x6 + x8 <= 1
C619: + x12 + x248 <= 1
C620: + x180 + x228 <= 1
C621: + x9 + x40 <= 1
C622: + x27 + x210 <= 1
C623: + x317 + x444 <= 1
C624: + x88 + x400 <= 1
C625: + x12 + x83 <= 1
C626: + x4 + x50 <= 1
C627: + x4 + x5 + x6 + x17 <= 1
C628: + x5 + x287 <= 1
C629: + x130 + x132 <= 1
C630: + x154 + x211 <= 1
C631: + x13 + x52 <= 1
C632: + x104 + x115 <= 1
C633: + x23 + x239 <= 1
C634: + x191 + x299 <= 1
C635: + x174 + x275 <= 1
C636: + x38 + x54 <= 1
C637: + x12 + x15 <= 1
C638: + x12 + x470 <= 1
C639: + x5 + x323 <= 1
C640: + x1 + x318 <= 1
C641: + x66 + x226 <= 1
C642: + x29 + x345 <= 1
C643: + x13 + x131 <= 1
C644: + x70 + x357 <= 1
C645: + x431 + x477 <= 1
C646: + x25 + x436 <= 1
C647: + x16 + x152 <= 1
C648: + x154 + x338 <= 1
C649: + x8 + x91 <= 1
C650: + x11 + x203 <= 1
C651: + x48 + x68 <= 1
C652: + x4 + x11 <= 1
C653: + x16 + x43 <= 1
C654: + x72 + x93 <= 1
C655: + x164 + x369 <= 1
C656: + x93 + x232 <= 1
C657: + x185 + x257 <= 1
C658: + x21 + x178 <= 1
C659: + x113 + x345 <= 1
C660: + x25 + x384 <= 1
C661: + x131 + x412 <= 1
C662: + x10 + x435 <= 1
C663: + x448 + x481 <= 1
C664: + x280 + x319 <= 1
C665: + x2 + x324 <= 1
C666: + x49 + x70 <= 1
C667: + x20 + x157 <= 1
C668: + x66 + x274 <= 1
C669: + x3 + x66 <= 1
C670: + x149 + x161 <= 1
C671: + x283 + x349 <= 1
C672: + x35 + x270 <= 1
C673: + x53 + x360 <= 1
C674: + x110 + x222 <= 1
C675: + x175 + x196 <= 1
C676: + x149 + x262 <= 1
C677: + x7 + x433 <= 1
C678: + x54 + x217 <= 1
C679: + x201 + x240 <= 1
C680: + x41 + x292 <= 1
C681: + x5 + x330 <= 1
C682: + x87 + x312 <= 1
C683: + x28 + x438 <= 1
C684: + x20 + x379 <= 1
C685: + x59 + x119 <= 1
C686: + x4 + x213 <= 1
C687: + x7 + x255 <= 1
C688: + x135 + x277 <= 1
C689: + x54 + x237 <= 1
C690: + x164 + x411 <= 1
C691: + x3 + x5 <= 1
C692: + x6 + x10 <= 1
C693: + x101 + x138 <= 1
C694: + x62 + x395 <= 1
C695: + x73 + x278 <= 1
C696: + x218 + x423 <= 1
C697: + x49 + x125 <= 1
C698: + x21 + x30 <= 1
C699: + x100 + x230 <= 1
C700: + x218 + x472 <= 1
C701: + x141 + x418 <= 1
C702: + x179 + x314 <= 1
C703: + x54 + x290 <= 1
C704: + x340 + x412 <= 1
C705: + x33 + x136 <= 1
C706: + x90 + x91 <= 1
C707: + x108 + x176 <= 1
C708: + x20 + x83 + x389 <= 1
C709: + x38 + x137 <= 1
C710: + x297 + x442 <= 1
C711: + x86 + x98 <= 1
C712: + x25 + x49 <= 1
C713: + x5 + x26 <= 1
C714: + x16 + x170 <= 1
C715: + x31 + x168 <= 1
C716: + x61 + x180 <= 1
C717: + x7 + x20 <= 1
C718: + x284 + x341 <= 1
C719: + x22 + x417 <= 1
C720: + x24 + x413 <= 1
C721: + x135 + x459 <= 1
C722: + x438 + x446 <= 1
C723: + x215 + x436 <= 1
C724: + x150 + x490 <= 1
C725: + x108 + x347 <= 1
C726: + x45 + x165 <= 1
C727: + x3 + x410 <= 1
C728: + x83 + x149 <= 1
C729: + x102 + x393 <= 1
C730: + x46 + x492 <= 1
C731: + x56 + x293 <= 1
C732: + x4 + x195 <= 1
C733: + x180 + x381 <= 1
C734: + x236 + x447 <= 1
C735: + x146 + x392 <= 1
C736: + x8 + x66 <= 1
C737: + x166 + x306 <= 1
C738: + x42 + x356 <= 1
C739: + x5 + x463 <= 1
C740: + x10 + x331 <= 1
C741: + x121 + x143 <= 1
C742: + x101 + x398 <= 1
C743: + x110 + x423 <= 1
C744: + x42 + x82 <= 1
C745: + x34 + x93 <= 1
C746: + x160 + x186 <= 1
C747: + x36 + x337 <= 1
C748: + x25 + x56 <= 1
C749: + x6 + x124 <= 1
C750: + x8 + x215 <= 1
C751: + x9 + x196 <= 1
C752: + x21 + x36 <= 1
C753: + x9 + x417 <= 1
C754: + x255 + x440 <= 1
C755: + x38 + x89 <= 1
C756: + x38 + x404 <= 1
C757: + x67 + x290 <= 1
C758: + x43 + x406 <= 1
C759: + x154 + x175 <= 1
C760: + x7 + x184 <= 1
C761: + x9 + x286 <= 1
C762: + x181 + x298 <= 1
C763: + x294 + x386 <= 1
C764: + x70 + x440 <= 1
C765: + x5 + x53 <= 1
C766: + x9 + x16 <= 1
C767: + x8 + x42 <= 1
C768: + x328 + x437 <= 1
C769: + x11 + x288 <= 1
C770: + x70 + x166 <= 1
C771: + x58 + x148 <= 1
C772: + x4 + x204 <= 1
C773: + x26 + x264 <= 1
C774: + x127 + x396 <= 1
C775: + x274 + x324 <= 1
C776: + x12 + x188 <= 1
C777: + x4 + x103 <= 1
C778: + x15 + x405 <= 1
C779: + x29 + x468 <= 1
C780: + x3 + x18 <= 1
C781: + x13 + x310 <= 1
C782: + x52 + x192 <= 1
C783: + x88 + x159 <= 1
C784: + x16 + x430 <= 1
C785: + x6 + x101 <= 1
C786: + x7 + x115 <= 1
C787: + x117 + x277 <= 1
C788: + x9 + x203 <= 1
C789: + x181 + x255 <= 1
C790: + x4 + x19 <= 1
C791: + x104 + x454 <= 1
C792: + x22 + x352 <= 1
C793: + x23 + x33 <= 1
C794: + x52 + x487 <= 1
C795: + x43 + x306 <= 1
C796: + x188 + x246 <= 1
C797: + x210 + x289 <= 1
C798: + x276 + x316 <= 1
C799: + x82 + x121 <= 1
C800: + x91 + x199 <= 1
C801: + x134 + x483 <= 1
C802: + x110 + x246 <= 1
C803: + x173 + x247 <= 1
C804: + x41 + x90 <= 1
C805: + x42 + x366 <= 1
C806: + x81 + x262 <= 1
C807: + x160 + x265 <= 1
C808: + x16 + x24 <= 1
C809: + x88 + x305 <= 1
C810: + x267 + x366 <= 1
C811: + x62 + x129 <= 1
C812: + x83 + x264 <= 1
C813: + x292 + x384 <= 1
C814: + x141 + x274 <= 1
C815: + x5 + x247 <= 1
C816: + x89 + x227 <= 1
C817: + x16 + x133 <= 1
C818: + x29 + x237 <= 1
C819: + x158 + x411 <= 1
C820: + x4 + x28 <= 1
C821: + x42 + x237 <= 1
C822: + x25 + x181 <= 1
C823: + x88 + x261 <= 1
C824: + x24 + x428 <= 1
C825: + x7 + x162 <= 1
C826: + x110 + x368 <= 1
C827: + x12 + x254 <= 1
C828: + x161 + x199 <= 1
C829: + x380 + x392 <= 1
C830: + x9 + x62 <= 1
C831: + x76 + x470 <= 1
C832: + x105 + x114 <= 1
C833: + x70 + x152 <= 1
C834: + x83 + x130 <= 1
C835: + x47 + x285 <= 1
C836: + x284 + x376 <= 1
C837: + x95 + x162 <= 1
C838: + x4 + x85 <= 1
C839: + x17 + x189 <= 1
C840: + x12 + x21 <= 1
C841: + x11 + x100 <= 1
C842: + x3 + x133 <= 1
C843: + x61 + x326 <= 1
C844: + x6 + x138 <= 1
C845: + x6 + x325 <= 1
C846: + x25 + x426 <= 1
C847: + x11 + x197 <= 1
C848: + x29 + x236 <= 1
C849: + x268 + x297 <= 1
C850: + x45 + x250 <= 1
C851: + x3 + x56 <= 1
C852: + x113 + x450 <= 1
C853: + x42 + x113 <= 1
C854: + x98 + x116 <= 1
C855: + x6 + x27 <= 1
C856: + x25 + x473 <= 1
C857: + x15 + x80 <= 1
C858: + x8 + x242 <= 1
C859: + x94 + x154 <= 1
C860: + x176 + x230 <= 1
C861: + x253 + x308 <= 1
C862: + x9 + x37 <= 1
C863: + x72 + x341 <= 1
C864: + x45 + x137 <= 1
C865: + x239 + x466 <= 1
C866: + x13 + x495 <= 1
C867: + x209 + x229 <= 1
C868: + x82 + x107 <= 1
C869: + x134 + x231 <= 1
C870: + x127 + x324 <= 1
C871: + x72 + x252 <= 1
C872: + x39 + x449 <= 1
C873: + x417 + x498 <= 1
C874: + x355 + x481 <= 1
C875: + x30 + x217 <= 1
C876: + x5 + x419 <= 1
C877: + x14 + x330 <= 1
C878: + x255 + x488 <= 1
C879: + x12 + x14 <= 1
C880: + x48 + x269 <= 1
C881: + x42 + x78 <= 1
C882: + x34 + x121 <= 1
C883: + x19 + x493 <= 1
C884: + x67 + x96 <= 1
C885: + x25 + x433 <= 1
C886: + x87 + x155 <= 1
C887: + x134 + x409 <= 1
C888: + x19 + x219 <= 1
C889: + x20 + x208 <= 1
C890: + x41 + x116 <= 1
C891: + x4 + x10 <= 1
C892: + x26 + x53 <= 1
C893: + x134 + x316 <= 1
C894: + x110 + x447 <= 1
C895: + x129 + x159 <= 1
C896: + x20 + x43 <= 1
C897: + x203 + x375 <= 1
C898: + x10 + x339 <= 1
C899: + x209 + x333 <= 1
C900: + x88 + x250 <= 1
C901: + x71 + x84 <= 1
C902: + x94 + x147 <= 1
C903: + x68 + x388 <= 1
C904: + x4 + x151 <= 1
C905: + x245 + x480 <= 1
C906: + x165 + x370 <= 1
C907: + x20 + x156 <= 1
C908: + x147 + x381 <= 1
C909: + x11 + x34 <= 1
C910: + x140 + x249 <= 1
C911: + x14 + x85 <= 1
C912: + x52 + x363 <= 1
C913: + x6 + x56 <= 1
C914: + x7 + x273 <= 1
C915: + x92 + x183 <= 1
C916: + x10 + x13 <= 1
C917: + x95 + x333 <= 1
C918: + x130 + x334 <= 1
C919: + x186 + x340 <= 1
C920: + x95 + x224 <= 1
C921: + x52 + x311 <= 1
C922: + x279 + x391 <= 1
C923: + x204 + x253 + x319 <= 1
C924: + x84 + x98 <= 1
C925: + x7 + x490 <= 1
C926: + x46 + x67 <= 1
C927: + x4 + x353 <= 1
C928: + x17 + x388 <= 1
C929: + x16 + x342 <= 1
C930: + x246 + x318 <= 1
C931: + x37 + x412 <= 1
C932: + x48 + x61 <= 1
C933: + x97 + x231 <= 1
C934: + x85 + x294 <= 1
C935: + x4 + x498 <= 1
C936: + x52 + x213 <= 1
C937: + x72 + x234 <= 1
C938: + x11 + x416 <= 1
C939: + x310 + x367 <= 1
C940: + x3 + x94 <= 1
C941: + x42 + x47 <= 1
C942: + x270 + x281 <= 1
C943: + x16 + x282 <= 1
C944: + x6 + x49 <= 1
C945: + x1 + x207 <= 1
C946: + x110 + x218 <= 1
C947: + x12 + x221 <= 1
C948: + x86 + x259 <= 1
C949: + x234 + x394 <= 1
C950: + x8 + x63 <= 1
C951: + x12 + x463 <= 1
C952: + x105 + x488 <= 1
C953: + x14 + x479 <= 1
C954: + x270 + x362 <= 1
C955: + x42 + x192 <= 1
C956: + x5 + x310 <= 1
C957: + x42 + x475 <= 1
C958: + x5 + x235 <= 1
C959: + x16 + x302 <= 1
C960: + x27 + x28 <= 1
C961: + x8 + x80 <= 1
C962: + x9 + x238 <= 1
C963: + x56 + x114 <= 1
C964: + x4 + x120 <= 1
C965: + x10 + x349 <= 1
C966: + x66 + x382 <= 1
C967: + x48 + x454 <= 1
C968: + x41 + x497 <= 1
C969: + x15 + x311 <= 1
C970: + x145 + x306 <= 1
C971: + x171 + x291 <= 1
C972: + x10 + x174 <= 1
C973: + x25 + x93 <= 1
C974: + x6 + x391 <= 1
C975: + x5 + x174 <= 1
C976: + x88 + x196 <= 1
C977: + x254 + x312 <= 1
C978: + x7 + x259 <= 1
C979: + x149 + x265 <= 1
C980: + x169 + x242 <= 1
C981: + x88 + x494 <= 1
C982: + x145 + x494 <= 1
C983: + x46 + x129 <= 1
C984: + x41 + x303 <= 1
C985: + x15 + x32 <= 1
C986: + x53 + x282 <= 1
C987: + x6 + x75 <= 1
C988: + x62 + x190 <= 1
C989: + x108 + x164 <= 1
C990: + x145 + x184 <= 1
C991: + x281 + x485 <= 1
C992: + x211 + x337 <= 1
C993: + x34 + x253 <= 1
C994: + x80 + x325 <= 1
C995: + x10 + x326 <= 1
C996: + x52 + x182 <= 1
C997: + x6 + x127 <= 1
C998: + x45 + x387 <= 1
C999: + x88 + x133 <= 1
C1000: + x364 + x392 <= 1
C1001: + x138 + x143 <= 1
C1002: + x46 + x198 <= 1
C1003: + x49 + x120 <= 1
C1004: + x12 + x126 <= 1
C1005: + x87 + x394 <= 1
C1006: + x7 + x24 <= 1
C1007: + x212 + x257 <= 1
C1008: + x3 + x48 <= 1
C1009: + x4 + x283 <= 1
C1010: + x5 + x74 <= 1
C1011: + x52 + x84 <= 1
C1012: + x171 + x338 <= 1
C1013: + x17 + x160 <= 1
C1014: + x115 + x261 <= 1
C1015: + x52 + x239 <= 1
C1016: + x14 + x465 <= 1
C1017: + x5 + x316 <= 1
C1018: + x28 + x70 + x87 <= 1
C1019: + x11 + x15 <= 1
C1020: + x138 + x204 <= 1
C1021: + x30 + x302 <= 1
C1022: + x283 + x383 <= 1
C1023: + x172 + x243 <= 1
C1024: + x38 + x190 <= 1
C1025: + x4 + x102 <= 1
C1026: + x326 + x480 <= 1
C1027: + x55 + x249 <= 1
C1028: + x2 + x314 <= 1
C1029: + x3 + x19 <= 1
C1030: + x86 + x119 <= 1
C1031: + x6 + x104 <= 1
C1032: + x9 + x470 <= 1
C1033: + x113 + x322 <= 1
C1034: + x59 + x73 <= 1
C1035: + x149 + x203 <= 1
C1036: + x62 + x409 <= 1
C1037: + x20 + x184 <= 1
C1038: + x41 + x156 <= 1
C1039: + x4 + x18 <= 1
C1040: + x187 + x276 <= 1
C1041: + x3 + x345 <= 1
C1042: + x244 + x351 <= 1
C1043: + x251 + x468 <= 1
C1044: + x75 + x103 <= 1
C1045: + x20 + x293 <= 1
C1046: + x4 + x191 <= 1
C1047: + x97 + x200 <= 1
C1048: + x5 + x398 <= 1
C1049: + x53 + x75 <= 1
C1050: + x17 + x151 <= 1
C1051: + x119 + x179 <= 1
C1052: + x46 + x243 <= 1
C1053: + x248 + x496 <= 1
C1054: + x88 + x327 <= 1
C1055: + x236 + x428 <= 1
C1056: + x10 + x21 <= 1
C1057: + x84 + x126 <= 1
C1058: + x101 + x212 <= 1
C1059: + x83 + x378 <= 1
C1060: + x464 + x474 <= 1
C1061: + x164 + x215 <= 1
C1062: + x20 + x241 <= 1
C1063: + x5 + x343 <= 1
C1064: + x6 + x97 <= 1
C1065: + x34 + x106 <= 1
C1066: + x53 + x308 <= 1
C1067: + x35 + x346 <= 1
C1068: + x90 + x152 <= 1
C1069: + x17 + x210 <= 1
C1070: + x26 + x344 <= 1
C1071: + x7 + x357 <= 1
C1072: + x183 + x227 <= 1
C1073: + x20 + x189 <= 1
C1074: + x148 + x317 <= 1
C1075: + x62 + x402 <= 1
C1076: + x22 + x348 <= 1
C1077: + x13 + x124 <= 1
C1078: + x151 + x269 <= 1
C1079: + x104 + x450 <= 1
C1080: + x21 + x449 <= 1
C1081: + x22 + x447 <= 1
C1082: + x7 + x163 <= 1
C1083: + x9 + x265 <= 1
C1084: + x15 + x227 <= 1
C1085: + x435 + x479 <= 1
C1086: + x389 + x415 <= 1
C1087: + x11 + x259 <= 1
C1088: + x136 + x348 <= 1
C1089: + x39 + x459 <= 1
C1090: + x187 + x452 <= 1
C1091: + x10 + x30 <= 1
C1092: + x65 + x295 <= 1
C1093: + x110 + x242 <= 1
C1094: + x41 + x94 <= 1
C1095: + x4 + x84 <= 1
C1096: + x5 + x100 <= 1
C1097: + x7 + x461 <= 1
C1098: + x187 + x435 <= 1
C1099: + x178 + x496 <= 1
C1100: + x142 + x194 <= 1
C1101: + x128 + x414 <= 1
C1102: + x10 + x111 <= 1
C1103: + x11 + x101 <= 1
C1104: + x8 + x193 <= 1
C1105: + x241 + x256 <= 1
C1106: + x22 + x87 <= 1
C1107: + x14 + x26 <= 1
C1108: + x186 + x251 <= 1
C1109: + x4 + x32 <= 1
C1110: + x231 + x292 <= 1
C1111: + x13 + x115 <= 1
C1112: + x147 + x339 <= 1
C1113: + x49 + x271 <= 1
C1114: + x4 + x370 <= 1
C1115: + x100 + x335 <= 1
C1116: + x8 + x245 <= 1
C1117: + x166 + x229 <= 1
C1118: + x20 + x307 <= 1
C1119: + x264 + x271 <= 1
C1120: + x23 + x153 <= 1
C1121: + x51 + x452 <= 1
C1122: + x71 + x332 <= 1
C1123: + x19 + x153 <= 1
C1124: + x140 + x477 <= 1
C1125: + x42 + x157 <= 1
C1126: + x61 + x169 <= 1
C1127: + x7 + x53 <= 1
C1128: + x138 + x300 <= 1
C1129: + x42 + x64 <= 1
C1130: + x6 + x194 <= 1
C1131: + x172 + x275 <= 1
C1132: + x109 + x280 <= 1
C1133: + x28 + x125 <= 1
C1134: + x155 + x180 <= 1
C1135: + x1 + x254 <= 1
C1136: + x68 + x454 <= 1
C1137: + x165 + x223 <= 1
C1138: + x4 + x89 <= 1
C1139: + x188 + x280 <= 1
C1140: + x71 + x264 <= 1
C1141: + x47 + x223 <= 1
C1142: + x139 + x267 <= 1
C1143: + x41 + x311 <= 1
C1144: + x104 + x359 <= 1
C1145: + x80 + x256 <= 1
C1146: + x74 + x157 <= 1
C1147: + x319 + x343 <= 1
C1148: + x184 + x271 <= 1
C1149: + x89 + x238 <= 1
C1150: + x253 + x380 <= 1
C1151: + x100 + x190 <= 1
C1152: + x29 + x232 <= 1
C1153: + x114 + x220 <= 1
C1154: + x132 + x389 <= 1
C1155: + x43 + x234 <= 1
C1156: + x226 + x352 <= 1
C1157: + x4 + x476 <= 1
C1158: + x13 + x106 <= 1
C1159: + x13 + x439 <= 1
C1160: + x81 + x202 <= 1
C1161: + x4 + x150 <= 1
C1162: + x5 + x46 <= 1
C1163: + x3 + x378 <= 1
C1164: + x13 + x94 <= 1
C1165: + x60 + x64 <= 1
C1166: + x405 + x432 <= 1
C1167: + x151 + x363 <= 1
C1168: + x11 + x490 <= 1
C1169: + x55 + x415 <= 1
C1170: + x3 + x72 <= 1
C1171: + x158 + x178 <= 1
C1172: + x96 + x254 <= 1
C1173: + x52 + x362 <= 1
C1174: + x100 + x292 <= 1
C1175: + x162 + x183 <= 1
C1176: + x83 + x355 <= 1
C1177: + x11 + x136 <= 1
C1178: + x41 + x76 <= 1
C1179: + x304 + x438 <= 1
C1180: + x5 + x82 <= 1
C1181: + x44 + x55 <= 1
C1182: + x9 + x21 <= 1
C1183: + x173 + x390 <= 1
C1184: + x147 + x401 <= 1
C1185: + x177 + x406 <= 1
C1186: + x6 + x92 <= 1
C1187: + x88 + x162 <= 1
C1188: + x191 + x389 <= 1
C1189: + x11 + x23 <= 1
C1190: + x279 + x388 <= 1
C1191: + x15 + x285 <= 1
C1192: + x209 + x434 <= 1
C1193: + x246 + x400 <= 1
C1194: + x293 + x455 <= 1
C1195: + x302 + x494 <= 1
C1196: + x4 + x14 <= 1
C1197: + x62 + x288 <= 1
C1198: + x7 + x491 <= 1
C1199: + x66 + x146 <= 1
C1200: + x110 + x443 <= 1
C1201: + x47 + x359 <= 1
C1202: + x129 + x147 <= 1
C1203: + x13 + x275 <= 1
C1204: + x20 + x47 <= 1
C1205: + x71 + x88 <= 1
C1206: + x62 + x99 <= 1
C1207: + x9 + x318 <= 1
C1208: + x10 + x69 <= 1
C1209: + x5 + x21 <= 1
C1210: + x14 + x256 <= 1
C1211: + x6 + x382 <= 1
C1212: + x8 + x10 <= 1
C1213: + x73 + x77 <= 1
C1214: + x72 + x237 <= 1
C1215: + x18 + x424 <= 1
C1216: + x11 + x46 <= 1
C1217: + x193 + x468 <= 1
C1218: + x178 + x386 <= 1
C1219: + x6 + x52 <= 1
C1220: + x9 + x362 <= 1
C1221: + x208 + x477 <= 1
C1222: + x10 + x49 <= 1
C1223: + x217 + x461 <= 1
C1224: + x150 + x487 <= 1
C1225: + x9 + x28 <= 1
C1226: + x131 + x370 <= 1
C1227: + x42 + x187 <= 1
C1228: + x43 + x73 <= 1
C1229: + x6 + x69 <= 1
C1230: + x5 + x331 <= 1
C1231: + x30 + x351 <= 1
C1232: + x16 + x289 <= 1
C1233: + x181 + x223 <= 1
C1234: + x7 + x321 <= 1
C1235: + x2 + x144 <= 1
C1236: + x395 + x431 <= 1
C1237: + x170 + x287 <= 1
C1238: + x134 + x289 <= 1
C1239: + x255 + x479 <= 1
C1240: + x57 + x66 <= 1
C1241: + x3 + x6 <= 1
C1242: + x6 + x9 <= 1
C1243: + x181 + x273 <= 1
C1244: + x147 + x174 <= 1
C1245: + x294 + x427 <= 1
C1246: + x97 + x251 <= 1
C1247: + x5 + x20 <= 1
C1248: + x17 + x234 <= 1
C1249: + x4 + x63 <= 1
C1250: + x25 + x90 <= 1
C1251: + x97 + x362 <= 1
C1252: + x5 + x163 <= 1
C1253: + x88 + x199 <= 1
C1254: + x152 + x206 <= 1
C1255: + x231 + x404 <= 1
C1256: + x13 + x35 <= 1
C1257: + x41 + x58 <= 1
C1258: + x6 + x299 <= 1
C1259: + x62 + x161 <= 1
C1260: + x6 + x225 <= 1
C1261: + x26 + x309 <= 1
C1262: + x247 + x419 <= 1
C1263: + x230 + x299 <= 1
C1264: + x293 + x298 <= 1
C1265: + x42 + x112 <= 1
C1266: + x88 + x140 <= 1
C1267: + x58 + x77 <= 1
C1268: + x264 + x371 <= 1
C1269: + x27 + x44 <= 1
C1270: + x135 + x313 <= 1
C1271: + x146 + x442 <= 1
C1272: + x29 + x129 <= 1
C1273: + x132 + x424 <= 1
C1274: + x78 + x458 <= 1
C1275: + x25 + x161 <= 1
C1276: + x7 + x17 <= 1
C1277: + x80 + x144 <= 1
C1278: + x55 + x63 <= 1
C1279: + x37 + x65 <= 1
C1280: + x38 + x95 <= 1
C1281: + x134 + x222 <= 1
C1282: + x262 + x350 <= 1
C1283: + x192 + x428 <= 1
C1284: + x9 + x443 <= 1
C1285: + x18 + x136 <= 1
C1286: + x11 + x177 <= 1
C1287: + x152 + x469 <= 1
C1288: + x21 + x423 <= 1
C1289: + x42 + x165 <= 1
C1290: + x161 + x453 <= 1
C1291: + x144 + x207 <= 1
C1292: + x5 + x222 <= 1
C1293: + x135 + x264 <= 1
C1294: + x120 + x224 <= 1
C1295: + x5 + x115 <= 1
C1296: + x98 + x142 <= 1
C1297: + x6 + x456 <= 1
C1298: + x389 + x466 <= 1
C1299: + x70 + x77 <= 1
C1300: + x179 + x358 <= 1
C1301: + x18 + x95 <= 1
C1302: + x49 + x290 <= 1
C1303: + x72 + x168 <= 1
C1304: + x108 + x394 <= 1
C1305: + x70 + x240 <= 1
C1306: + x2 + x11 <= 1
C1307: + x202 + x499 <= 1
C1308: + x133 + x386 <= 1
C1309: + x325 + x364 <= 1
C1310: + x36 + x70 <= 1
C1311: + x38 + x229 <= 1
C1312: + x12 + x114 <= 1
C1313: + x222 + x328 <= 1
C1314: + x4 + x45 <= 1
C1315: + x160 + x330 <= 1
C1316: + x13 + x372 <= 1
C1317: + x10 + x44 <= 1
C1318: + x11 + x188 <= 1
C1319: + x42 + x448 <= 1
C1320: + x5 + x54 <= 1
C1321: + x23 + x140 <= 1
C1322: + x6 + x448 <= 1
C1323: + x54 + x86 <= 1
C1324: + x144 + x216 <= 1
C1325: + x138 + x208 <= 1
C1326: + x132 + x331 <= 1
C1327: + x87 + x187 <= 1
C1328: + x215 + x315 <= 1
C1329: + x73 + x139 <= 1
C1330: + x17 + x350 <= 1
C1331: + x121 + x314 <= 1
C1332: + x23 + x265 <= 1
C1333: + x244 + x279 <= 1
C1334: + x99 + x442 <= 1
C1335: + x12 + x26 <= 1
C1336: + x52 + x191 <= 1
C1337: + x57 + x361 <= 1
C1338: + x374 + x464 <= 1
C1339: + x184 + x320 <= 1
C1340: + x22 + x65 <= 1
C1341: + x60 + x335 <= 1
C1342: + x67 + x116 <= 1
C1343: + x267 + x453 <= 1
C1344: + x47 + x480 <= 1
C1345: + x51 + x136 <= 1
C1346: + x70 + x122 <= 1
C1347: + x31 + x364 <= 1
C1348: + x143 + x155 <= 1
C1349: + x74 + x127 <= 1
C1350: + x16 + x478 <= 1
C1351: + x42 + x235 <= 1
C1352: + x3 + x35 <= 1
C1353: + x76 + x150 <= 1
C1354: + x131 + x240 <= 1
C1355: + x5 + x160 <= 1
C1356: + x6 + x24 <= 1
C1357: + x7 + x176 <= 1
C1358: + x119 + x417 <= 1
C1359: + x49 + x208 <= 1
C1360: + x267 + x344 <= 1
C1361: + x271 + x440 <= 1
C1362: + x38 + x383 <= 1
C1363: + x25 + x361 <= 1
C1364: + x25 + x222 <= 1
C1365: + x29 + x171 <= 1
C1366: + x12 + x35 <= 1
C1367: + x30 + x85 <= 1
C1368: + x194 + x238 <= 1
C1369: + x25 + x123 <= 1
C1370: + x17 + x56 <= 1
C1371: + x271 + x295 <= 1
C1372: + x144 + x221 <= 1
C1373: + x194 + x500 <= 1
C1374: + x178 + x410 <= 1
C1375: + x6 + x220 <= 1
C1376: + x346 + x387 <= 1
C1377: + x154 + x195 <= 1
C1378: + x9 + x370 <= 1
C1379: + x28 + x99 <= 1
C1380: + x12 + x180 <= 1
C1381: + x5 + x97 <= 1
C1382: + x5 + x339 <= 1
C1383: + x135 + x385 <= 1
C1384: + x2 + x5 <= 1
C1385: + x20 + x358 <= 1
C1386: + x356 + x447 <= 1
C1387: + x22 + x74 <= 1
C1388: + x108 + x277 <= 1
C1389: + x62 + x430 <= 1
C1390: + x144 + x499 <= 1
C1391: + x233 + x455 <= 1
C1392: + x52 + x53 <= 1
C1393: + x53 + x175 <= 1
C1394: + x54 + x148 <= 1
C1395: + x256 + x317 <= 1
C1396: + x330 + x443 <= 1
C1397: + x28 + x350 <= 1
C1398: + x64 + x253 <= 1
C1399: + x133 + x263 <= 1
C1400: + x229 + x432 <= 1
C1401: + x368 + x416 <= 1
C1402: + x5 + x60 <= 1
C1403: + x23 + x134 <= 1
C1404: + x72 + x351 <= 1
C1405: + x75 + x463 <= 1
C1406: + x74 + x497 <= 1
C1407: + x322 + x359 <= 1
C1408: + x331 + x482 <= 1
C1409: + x78 + x116 <= 1
C1410: + x72 + x254 <= 1
C1411: + x11 + x484 <= 1
C1412: + x42 + x59 <= 1
C1413: + x6 + x197 <= 1
C1414: + x16 + x249 <= 1
C1415: + x9 + x142 <= 1
C1416: + x274 + x317 <= 1
C1417: + x38 + x172 <= 1
C1418: + x12 + x169 <= 1
C1419: + x4 + x88 <= 1
C1420: + x5 + x112 <= 1
C1421: + x16 + x32 <= 1
C1422: + x16 + x25 + x38 <= 1
C1423: + x55 + x108 <= 1
C1424: + x37 + x419 <= 1
C1425: + x140 + x186 <= 1
C1426: + x5 + x255 <= 1
C1427: + x44 + x78 <= 1
C1428: + x16 + x141 <= 1
C1429: + x97 + x432 <= 1
C1430: + x42 + x120 <= 1
C1431: + x206 + x423 <= 1
C1432: + x26 + x462 <= 1
C1433: + x140 + x374 <= 1
C1434: + x22 + x39 <= 1
C1435: + x71 + x336 <= 1
C1436: + x7 + x400 <= 1
C1437: + x10 + x186 <= 1
C1438: + x20 + x150 <= 1
C1439: + x193 + x248 <= 1
C1440: + x4 + x387 <= 1
C1441: + x12 + x81 <= 1
C1442: + x314 + x433 <= 1
C1443: + x83 + x122 <= 1
C1444: + x70 + x160 <= 1
C1445: + x253 + x402 <= 1
C1446: + x103 + x125 <= 1
C1447: + x233 + x236 <= 1
C1448: + x95 + x170 <= 1
C1449: + x57 + x399 <= 1
C1450: + x89 + x440 <= 1
C1451: + x62 + x335 <= 1
C1452: + x41 + x230 <= 1
C1453: + x5 + x321 <= 1
C1454: + x17 + x466 <= 1
C1455: + x54 + x117 <= 1
C1456: + x74 + x129 <= 1
C1457: + x2 + x420 <= 1
C1458: + x78 + x260 <= 1
C1459: + x33 + x469 <= 1
C1460: + x35 + x118 <= 1
C1461: + x93 + x119 <= 1
C1462: + x378 + x456 <= 1
C1463: + x4 + x9 <= 1
C1464: + x277 + x382 <= 1
C1465: + x26 + x60 <= 1
C1466: + x198 + x451 <= 1
C1467: + x71 + x81 <= 1
C1468: + x380 + x405 <= 1
C1469: + x80 + x282 <= 1
C1470: + x8 + x13 <= 1
C1471: + x239 + x474 <= 1
C1472: + x49 + x68 <= 1
C1473: + x5 + x284 <= 1
C1474: + x390 + x442 <= 1
C1475: + x339 + x446 <= 1
C1476: + x72 + x244 <= 1
C1477: + x30 + x270 <= 1
C1478: + x32 + x58 <= 1
C1479: + x72 + x478 <= 1
C1480: + x10 + x52 <= 1
C1481: + x305 + x360 <= 1
C1482: + x340 + x401 <= 1
C1483: + x68 + x96 <= 1
C1484: + x42 + x465 <= 1
C1485: + x6 + x251 <= 1
C1486: + x1 + x5 <= 1
C1487: + x285 + x424 <= 1
C1488: + x167 + x496 <= 1
C1489: + x253 + x468 <= 1
C1490: + x16 + x50 <= 1
C1491: + x110 + x439 <= 1
C1492: + x3 + x7 <= 1
C1493: + x76 + x178 <= 1
C1494: + x4 + x356 <= 1
C1495: + x394 + x399 <= 1
C1496: + x6 + x12 <= 1
C1497: + x15 + x95 <= 1
C1498: + x105 + x135 + x398 <= 1
C1499: + x12 + x228 <= 1
C1500: + x6 + x175 <= 1
C1501: + x316 + x328 <= 1
C1502: + x67 + x397 <= 1
C1503: + x17 + x20 <= 1
C1504: + x7 + x27 <= 1
C1505: + x119 + x320 <= 1
C1506: + x51 + x65 <= 1
C1507: + x52 + x371 <= 1
C1508: + x237 + x284 <= 1
C1509: + x37 + x329 <= 1
C1510: + x72 + x475 <= 1
C1511: + x114 + x158 <= 1
C1512: + x28 + x79 <= 1
C1513: + x224 + x390 <= 1
C1514: + x11 + x139 <= 1
C1515: + x10 + x152 <= 1
C1516: + x183 + x340 <= 1
C1517: + x395 + x476 <= 1
C1518: + x70 + x182 <= 1
C1519: + x14 + x478 <= 1
C1520: + x4 + x445 <= 1
C1521: + x354 + x381 <= 1
C1522: + x111 + x469 <= 1
C1523: + x206 + x449 <= 1
C1524: + x18 + x371 <= 1
C1525: + x10 + x225 <= 1
C1526: + x66 + x452 <= 1
C1527: + x230 + x459 <= 1
C1528: + x114 + x202 <= 1
C1529: + x22 + x380 <= 1
C1530: + x412 + x462 <= 1
C1531: + x42 + x107 <= 1
C1532: + x5 + x379 <= 1
C1533: + x323 + x376 <= 1
C1534: + x74 + x306 <= 1
C1535: + x46 + x425 <= 1
C1536: + x104 + x172 <= 1
C1537: + x304 + x372 <= 1
C1538: + x5 + x32 <= 1
C1539: + x109 + x183 <= 1
C1540: + x28 + x215 <= 1
C1541: + x55 + x159 <= 1
C1542: + x38 + x255 <= 1
C1543: + x64 + x98 <= 1
C1544: + x246 + x473 <= 1
C1545: + x32 + x393 <= 1
C1546: + x3 + x86 <= 1
C1547: + x141 + x250 <= 1
C1548: + x6 + x57 <= 1
C1549: + x3 + x247 <= 1
C1550: + x86 + x267 <= 1
C1551: + x231 + x408 <= 1
C1552: + x161 + x192 <= 1
C1553: + x6 + x74 <= 1
C1554: + x247 + x312 <= 1
C1555: + x20 + x391 <= 1
C1556: + x184 + x274 <= 1
C1557: + x295 + x364 <= 1
C1558: + x8 + x72 <= 1
C1559: + x2 + x133 <= 1
C1560: + x206 + x349 <= 1
C1561: + x5 + x461 <= 1
C1562: + x94 + x495 <= 1
C1563: + x195 + x262 <= 1
C1564: + x177 + x500 <= 1
C1565: + x5 + x7 <= 1
C1566: + x198 + x337 <= 1
C1567: + x43 + x261 <= 1
C1568: + x16 + x181 <= 1
C1569: + x154 + x484 <= 1
C1570: + x64 + x111 <= 1
C1571: + x13 + x71 <= 1
C1572: + x286 + x374 <= 1
C1573: + x73 + x127 <= 1
C1574: + x10 + x305 <= 1
C1575: + x12 + x367 <= 1
C1576: + x87 + x236 <= 1
C1577: + x6 + x34 <= 1
C1578: + x144 + x273 <= 1
C1579: + x10 + x39 <= 1
C1580: + x47 + x414 <= 1
C1581: + x23 + x314 <= 1
C1582: + x17 + x145 <= 1
C1583: + x8 + x48 <= 1
C1584: + x322 + x408 <= 1
C1585: + x157 + x465 <= 1
C1586: + x35 + x140 <= 1
C1587: + x11 + x16 <= 1
C1588: + x202 + x395 <= 1
C1589: + x156 + x177 <= 1
C1590: + x163 + x195 <= 1
C1591: + x254 + x260 <= 1
C1592: + x299 + x352 <= 1
C1593: + x58 + x332 <= 1
C1594: + x348 + x469 <= 1
C1595: + x331 + x489 <= 1
C1596: + x7 + x125 <= 1
C1597: + x74 + x233 <= 1
C1598: + x48 + x459 <= 1
C1599: + x4 + x246 <= 1
C1600: + x93 + x111 <= 1
C1601: + x33 + x298 <= 1
C1602: + x304 + x485 <= 1
C1603: + x9 + x422 <= 1
C1604: + x3 + x40 <= 1
C1605: + x258 + x470 <= 1
C1606: + x165 + x230 <= 1
C1607: + x3 + x201 <= 1
C1608: + x20 + x296 <= 1
C1609: + x47 + x421 <= 1
C1610: + x43 + x141 <= 1
C1611: + x52 + x92 <= 1
C1612: + x87 + x497 <= 1
C1613: + x359 + x377 <= 1
C1614: + x6 + x444 <= 1
C1615: + x66 + x268 <= 1
C1616: + x140 + x212 <= 1
C1617: + x118 + x181 <= 1
C1618: + x19 + x55 <= 1
C1619: + x92 + x162 <= 1
C1620: + x3 + x285 <= 1
C1621: + x52 + x104 <= 1
C1622: + x28 + x269 <= 1
C1623: + x302 + x369 <= 1
C1624: + x13 + x307 <= 1
C1625: + x306 + x313 <= 1
C1626: + x15 + x59 <= 1
C1627: + x9 + x478 <= 1
C1628: + x63 + x77 + x155 <= 1
C1629: + x37 + x441 <= 1
C1630: + x87 + x139 <= 1
C1631: + x15 + x216 <= 1
C1632: + x5 + x245 <= 1
C1633: + x83 + x427 <= 1
C1634: + x42 + x239 <= 1
C1635: + x25 + x179 <= 1
C1636: + x5 + x487 <= 1
C1637: + x54 + x151 <= 1
C1638: + x72 + x205 <= 1
C1639: + x69 + x143 <= 1
C1640: + x15 + x71 <= 1
C1641: + x338 + x438 <= 1
C1642: + x382 + x397 <= 1
C1643: + x10 + x81 <= 1
C1644: + x148 + x173 <= 1
C1645: + x120 + x150 <= 1
C1646: + x86 + x294 <= 1
C1647: + x98 + x200 <= 1
C1648: + x218 + x329 <= 1
C1649: + x41 + x261 <= 1
C1650: + x349 + x409 <= 1
C1651: + x398 + x472 <= 1
C1652: + x7 + x51 <= 1
C1653: + x319 + x353 <= 1
C1654: + x49 + x325 <= 1
C1655: + x150 + x189 <= 1
C1656: + x296 + x359 <= 1
C1657: + x12 + x184 <= 1
C1658: + x43 + x367 <= 1
C1659: + x65 + x69 <= 1
C1660: + x28 + x262 <= 1
C1661: + x123 + x327 <= 1
C1662: + x39 + x94 + x146 <= 1
C1663: + x4 + x228 <= 1
C1664: + x14 + x25 <= 1
C1665: + x162 + x248 <= 1
C1666: + x82 + x286 <= 1
C1667: + x55 + x379 <= 1
C1668: + x56 + x105 <= 1
C1669: + x283 + x439 <= 1
C1670: + x4 + x31 <= 1
C1671: + x97 + x104 <= 1
C1672: + x150 + x415 <= 1
C1673: + x12 + x100 <= 1
C1674: + x78 + x159 <= 1
C1675: + x98 + x126 <= 1
C1676: + x6 + x29 <= 1
C1677: + x5 + x131 <= 1
C1678: + x262 + x472 <= 1
C1679: + x16 + x88 <= 1
C1680: + x306 + x383 <= 1
C1681: + x6 + x430 <= 1
C1682: + x271 + x302 <= 1
C1683: + x74 + x88 <= 1
C1684: + x54 + x164 <= 1
C1685: + x2 + x403 <= 1
C1686: + x16 + x491 <= 1
C1687: + x270 + x489 <= 1
C1688: + x16 + x266 <= 1
C1689: + x62 + x495 <= 1
C1690: + x145 + x346 <= 1
C1691: + x2 + x225 <= 1
C1692: + x157 + x173 <= 1
C1693: + x140 + x301 <= 1
C1694: + x20 + x258 <= 1
C1695: + x171 + x384 <= 1
C1696: + x10 + x353 <= 1
C1697: + x121 + x169 <= 1
C1698: + x4 + x334 <= 1
C1699: + x31 + x463 <= 1
C1700: + x18 + x481 <= 1
C1701: + x138 + x279 <= 1
C1702: + x46 + x390 <= 1
C1703: + x356 + x428 <= 1
C1704: + x3 + x130 <= 1
C1705: + x52 + x304 <= 1
C1706: + x143 + x464 <= 1
C1707: + x285 + x430 <= 1
C1708: + x4 + x8 <= 1
C1709: + x135 + x198 <= 1
C1710: + x64 + x226 <= 1
C1711: + x49 + x242 <= 1
C1712: + x173 + x452 <= 1
C1713: + x48 + x343 <= 1
C1714: + x192 + x460 <= 1
C1715: + x128 + x363 <= 1
C1716: + x38 + x127 <= 1
C1717: + x42 + x124 <= 1
C1718: + x28 + x57 <= 1
C1719: + x148 + x187 <= 1
C1720: + x6 + x185 <= 1
C1721: + x90 + x173 <= 1
C1722: + x9 + x42 <= 1
C1723: + x34 + x40 <= 1
C1724: + x160 + x341 <= 1
C1725: + x55 + x416 <= 1
C1726: + x11 + x36 <= 1
C1727: + x12 + x327 <= 1
C1728: + x141 + x201 <= 1
C1729: + x91 + x214 <= 1
C1730: + x9 + x185 <= 1
C1731: + x51 + x304 <= 1
C1732: + x34 + x49 + x145 <= 1
C1733: + x161 + x340 <= 1
C1734: + x25 + x252 <= 1
C1735: + x30 + x119 <= 1
C1736: + x11 + x24 <= 1
C1737: + x49 + x431 <= 1
C1738: + x112 + x303 <= 1
C1739: + x4 + x210 <= 1
C1740: + x15 + x169 <= 1
C1741: + x6 + x329 <= 1
C1742: + x16 + x146 <= 1
C1743: + x135 + x276 <= 1
C1744: + x292 + x464 <= 1
C1745: + x4 + x13 <= 1
C1746: + x115 + x164 <= 1
C1747: + x43 + x210 <= 1
C1748: + x32 + x339 <= 1
C1749: + x154 + x499 <= 1
C1750: + x33 + x72 <= 1
C1751: + x124 + x180 + x270 <= 1
C1752: + x38 + x278 <= 1
C1753: + x378 + x437 <= 1
C1754: + x5 + x22 <= 1
C1755: + x25 + x322 <= 1
C1756: + x296 + x445 <= 1
C1757: + x87 + x108 <= 1
C1758: + x8 + x9 <= 1
C1759: + x16 + x166 <= 1
C1760: + x52 + x211 <= 1
C1761: + x83 + x109 <= 1
C1762: + x348 + x409 <= 1
C1763: + x87 + x219 <= 1
C1764: + x6 + x51 <= 1
C1765: + x53 + x354 <= 1
C1766: + x145 + x344 <= 1
C1767: + x66 + x435 <= 1
C1768: + x157 + x163 <= 1
C1769: + x12 + x219 <= 1
C1770: + x231 + x410 <= 1
C1771: + x39 + x90 <= 1
C1772: + x5 + x90 <= 1
C1773: + x5 + x407 <= 1
C1774: + x326 + x444 <= 1
C1775: + x10 + x147 <= 1
C1776: + x30 + x80 <= 1
C1777: + x41 + x294 <= 1
C1778: + x68 + x338 <= 1
C1779: + x86 + x488 <= 1
C1780: + x6 + x68 <= 1
C1781: + x64 + x135 <= 1
C1782: + x3 + x148 <= 1
C1783: + x166 + x171 <= 1
C1784: + x38 + x299 <= 1
C1785: + x215 + x279 <= 1
C1786: + x18 + x193 <= 1
C1787: + x3 + x309 <= 1
C1788: + x5 + x475 <= 1
C1789: + x244 + x259 <= 1
C1790: + x9 + x73 <= 1
C1791: + x10 + x351 <= 1
C1792: + x17 + x92 <= 1
C1793: + x38 + x97 <= 1
C1794: + x48 + x60 <= 1
C1795: + x197 + x349 <= 1
C1796: + x27 + x34 <= 1
C1797: + x3 + x11 + x14 + x33 <= 1
C1798: + x255 + x396 <= 1
C1799: + x140 + x245 <= 1
C1800: + x217 + x312 <= 1
C1801: + x152 + x205 <= 1
C1802: + x83 + x342 <= 1
C1803: + x19 + x22 <= 1
C1804: + x1 + x196 <= 1
C1805: + x6 + x298 <= 1
C1806: + x127 + x194 <= 1
C1807: + x391 + x456 <= 1
C1808: + x105 + x493 <= 1
C1809: + x25 + x103 <= 1
C1810: + x70 + x178 <= 1
C1811: + x144 + x193 <= 1
C1812: + x204 + x481 <= 1
C1813: + x61 + x368 <= 1
C1814: + x18 + x375 <= 1
C1815: + x38 + x183 <= 1
C1816: + x103 + x316 <= 1
C1817: + x442 + x457 <= 1
C1818: + x49 + x231 <= 1
C1819: + x323 + x372 <= 1
C1820: + x15 + x38 <= 1
C1821: + x209 + x320 <= 1
C1822: + x7 + x135 <= 1
C1823: + x93 + x248 <= 1
C1824: + x279 + x495 <= 1
C1825: + x7 + x373 <= 1
C1826: + x73 + x287 <= 1
C1827: + x12 + x124 <= 1
C1828: + x141 + x460 <= 1
C1829: + x4 + x39 <= 1
C1830: + x14 + x287 <= 1
C1831: + x3 + x82 <= 1
C1832: + x149 + x177 <= 1
C1833: + x4 + x281 <= 1
C1834: + x5 + x171 <= 1
C1835: + x73 + x217 <= 1
C1836: + x97 + x207 <= 1
C1837: + x161 + x377 <= 1
C1838: + x45 + x167 <= 1
C1839: + x35 + x141 <= 1
C1840: + x227 + x250 <= 1
C1841: + x337 + x464 <= 1
C1842: + x129 + x202 <= 1
C1843: + x64 + x324 <= 1
C1844: + x29 + x424 <= 1
C1845: + x233 + x241 <= 1
C1846: + x177 + x281 <= 1
C1847: + x6 + x233 <= 1
C1848: + x7 + x308 <= 1
C1849: + x82 + x371 <= 1
C1850: + x107 + x267 <= 1
C1851: + x90 + x467 <= 1
C1852: + x48 + x363 <= 1
C1853: + x33 + x109 <= 1
C1854: + x15 + x45 <= 1
C1855: + x7 + x122 <= 1
C1856: + x8 + x209 <= 1
C1857: + x192 + x323 <= 1
C1858: + x27 + x52 <= 1
C1859: + x45 + x106 <= 1
C1860: + x13 + x67 <= 1
C1861: + x22 + x154 <= 1
C1862: + x306 + x404 <= 1
C1863: + x235 + x268 <= 1
C1864: + x98 + x260 <= 1
C1865: + x11 + x395 <= 1
C1866: + x59 + x62 <= 1
C1867: + x15 + x121 <= 1
C1868: + x190 + x449 <= 1
C1869: + x91 + x170 <= 1
C1870: + x20 + x291 <= 1
C1871: + x105 + x233 <= 1
C1872: + x378 + x412 <= 1
C1873: + x38 + x373 <= 1
C1874: + x5 + x55 <= 1
C1875: + x98 + x202 <= 1
C1876: + x472 + x476 <= 1
C1877: + x42 + x173 <= 1
C1878: + x4 + x431 <= 1
C1879: + x156 + x181 <= 1
C1880: + x185 + x467 <= 1
C1881: + x38 + x185 <= 1
C1882: + x21 + x225 <= 1
C1883: + x105 + x149 <= 1
C1884: + x5 + x123 <= 1
C1885: + x150 + x453 <= 1
C1886: + x12 + x25 <= 1
C1887: + x233 + x434 <= 1
C1888: + x39 + x156 <= 1
C1889: + x5 + x341 <= 1
C1890: + x7 + x113 <= 1
C1891: + x134 + x190 <= 1
C1892: + x10 + x104 <= 1
C1893: + x119 + x406 <= 1
C1894: + x108 + x204 <= 1
C1895: + x17 + x224 <= 1
C1896: + x299 + x491 <= 1
C1897: + x49 + x100 <= 1
C1898: + x253 + x457 <= 1
C1899: + x171 + x435 <= 1
C1900: + x66 + x137 <= 1
C1901: + x38 + x80 <= 1
C1902: + x3 + x36 <= 1
C1903: + x6 + x23 <= 1
C1904: + x66 + x415 <= 1
C1905: + x25 + x223 <= 1
C1906: + x17 + x140 <= 1
C1907: + x16 + x78 <= 1
C1908: + x9 + x57 <= 1
C1909: + x39 + x167 <= 1
C1910: + x323 + x393 <= 1
C1911: + x80 + x161 <= 1
C1912: + x256 + x379 <= 1
C1913: + x111 + x494 <= 1
C1914: + x3 + x120 <= 1
C1915: + x332 + x347 <= 1
C1916: + x6 + x219 <= 1
C1917: + x7 + x302 <= 1
C1918: + x111 + x132 <= 1
C1919: + x229 + x406 <= 1
C1920: + x125 + x282 <= 1
C1921: + x162 + x437 <= 1
C1922: + x73 + x421 <= 1
C1923: + x59 + x252 <= 1
C1924: + x39 + x296 <= 1
C1925: + x6 + x108 <= 1
C1926: + x10 + x105 <= 1
C1927: + x38 + x307 <= 1
C1928: + x269 + x473 <= 1
C1929: + x345 + x346 <= 1
C1930: + x9 + x244 <= 1
C1931: + x8 + x102 <= 1
C1932: + x154 + x321 <= 1
C1933: + x3 + x301 <= 1
C1934: + x130 + x490 <= 1
C1935: + x4 + x30 <= 1
C1936: + x42 + x211 <= 1
C1937: + x87 + x413 <= 1
C1938: + x7 + x8 + x12 + x41 <= 1
C1939: + x20 + x31 <= 1
C1940: + x3 + x59 <= 1

binary
x1 x2 x3 x4 x5 x6 x7 x8 x9 x10 x11 x12 x13 x14 x15 x16 x17 x18 x19 x20 x21 x22 x23 x24 x25 x26 x27 x28 x29 x30 x31 x32 x33 x34 x35 x36 x37 x38 x39 x40 x41 x42 x43 x44 x45 x46 x47 x48 x49 x50 x51 x52 x53 x54 x55 x56 x57 x58 x59 x60 x61 x62 x63 x64 x65 x66 x67 x68 x69 x70 x71 x72 x73 x74 x75 x76 x77 x78 x79 x80 x81 x82 x83 x84 x85 x86 x87 x88 x89 x90 x91 x92 x93 x94 x95 x96 x97 x98 x99 x100 x101 x102 x103 x104 x105 x106 x107 x108 x109 x110 x111 x112 x113 x114 x115 x116 x117 x118 x119 x120 x121 x122 x123 x124 x125 x126 x127 x128 x129 x130 x131 x132 x133 x134 x135 x136 x137 x138 x139 x140 x141 x142 x143 x144 x145 x146 x147 x148 x149 x150 x151 x152 x153 x154 x155 x156 x157 x158 x159 x160 x161 x162 x163 x164 x165 x166 x167 x168 x169 x170 x171 x172 x173 x174 x175 x176 x177 x178 x179 x180 x181 x182 x183 x184 x185 x186 x187 x188 x189 x190 x191 x192 x193 x194 x195 x196 x197 x198 x199 x200 x201 x202 x203 x204 x205 x206 x207 x208 x209 x210 x211 x212 x213 x214 x215 x216 x217 x218 x219 x220 x221 x222 x223 x224 x225 x226 x227 x228 x229 x230 x231 x232 x233 x234 x235 x236 x237 x238 x239 x240 x241 x242 x243 x244 x245 x246 x247 x248 x249 x250 x251 x252 x253 x254 x255 x256 x257 x258 x259 x260 x261 x262 x263 x264 x265 x266 x267 x268 x269 x270 x271 x272 x273 x274 x275 x276 x277 x278 x279 x280 x281 x282 x283 x284 x285 x286 x287 x288 x289 x290 x291 x292 x293 x294 x295 x296 x297 x298 x299 x300 x301 x302 x303 x304 x305 x306 x307 x308 x309 x310 x311 x312 x313 x314 x315 x316 x317 x318 x319 x320 x321 x322 x323 x324 x325 x326 x327 x328 x329 x330 x331 x332 x333 x334 x335 x336 x337 x338 x339 x340 x341 x342 x343 x344 x345 x346 x347 x348 x349 x350 x351 x352 x353 x354 x355 x356 x357 x358 x359 x360 x361 x362 x363 x364 x365 x366 x367 x368 x369 x370 x371 x372 x373 x374 x375 x376 x377 x378 x379 x380 x381 x382 x383 x384 x385 x386 x387 x388 x389 x390 x391 x392 x393 x394 x395 x396 x397 x398 x399 x400 x401 x402 x403 x404 x405 x406 x407 x408 x409 x410 x411 x412 x413 x414 x415 x416 x417 x418 x419 x420 x421 x422 x423 x424 x425 x426 x427 x428 x429 x430 x431 x432 x433 x434 x435 x436 x437 x438 x439 x440 x441 x442 x443 x444 x445 x446 x447 x448 x449 x450 x451 x452 x453 x454 x455 x456 x457 x458 x459 x460 x461 x462 x463 x464 x465 x466 x467 x468 x469 x470 x471 x472 x473 x474 x475 x476 x477 x478 x479 x480 x481 x482 x483 x484 x485 x486 x487 x488 x489 x490 x491 x492 x493 x494 x495 x496 x497 x498 x499 x500
