maximize
OBJ: + 1 x1 + 1 x2 + 1 x3 + 1 x4 + 1 x5 + 1 x6 + 1 x7 + 1 x8 + 1 x9 + 1 x10 + 1 x11 + 1 x12 + 1 x13 + 1 x14 + 1 x15 + 1 x16 + 1 x17 + 1 x18 + 1 x19 + 1 x20 + 1 x21 + 1 x22 + 1 x23 + 1 x24 + 1 x25 + 1 x26 + 1 x27 + 1 x28 + 1 x29 + 1 x30 + 1 x31 + 1 x32 + 1 x33 + 1 x34 + 1 x35 + 1 x36 + 1 x37 + 1 x38 + 1 x39 + 1 x40 + 1 x41 + 1 x42 + 1 x43 + 1 x44 + 1 x45 + 1 x46 + 1 x47 + 1 x48 + 1 x49 + 1 x50 + 1 x51 + 1 x52 + 1 x53 + 1 x54 + 1 x55 + 1 x56 + 1 x57 + 1 x58 + 1 x59 + 1 x60 + 1 x61 + 1 x62 + 1 x63 + 1 x64 + 1 x65 + 1 x66 + 1 x67 + 1 x68 + 1 x69 + 1 x70 + 1 x71 + 1 x72 + 1 x73 + 1 x74 + 1 x75 + 1 x76 + 1 x77 + 1 x78 + 1 x79 + 1 x80 + 1 x81 + 1 x82 + 1 x83 + 1 x84 + 1 x85 + 1 x86 + 1 x87 + 1 x88 + 1 x89 + 1 x90 + 1 x91 + 1 x92 + 1 x93 + 1 x94 + 1 x95 + 1 x96 + 1 x97 + 1 x98 + 1 x99 + 1 x100 + 1 x101 + 1 x102 + 1 x103 + 1 x104 + 1 x105 + 1 x106 + 1 x107 + 1 x108 + 1 x109 + 1 x110 + 1 x111 + 1 x112 + 1 x113 + 1 x114 + 1 x115 + 1 x116 + 1 x117 + 1 x118 + 1 x119 + 1 x120 + 1 x121 + 1 x122 + 1 x123 + 1 x124 + 1 x125 + 1 x126 + 1 x127 + 1 x128 + 1 x129 + 1 x130 + 1 x131 + 1 x132 + 1 x133 + 1 x134 + 1 x135 + 1 x136 + 1 x137 + 1 x138 + 1 x139 + 1 x140 + 1 x141 + 1 x142 + 1 x143 + 1 x144 + 1 x145 + 1 x146 + 1 x147 + 1 x148 + 1 x149 + 1 x150 + 1 x151 + 1 x152 + 1 x153 + 1 x154 + 1 x155 + 1 x156 + 1 x157 + 1 x158 + 1 x159 + 1 x160 + 1 x161 + 1 x162 + 1 x163 + 1 x164 + 1 x165 + 1 x166 + 1 x167 + 1 x168 + 1 x169 + 1 x170 + 1 x171 + 1 x172 + 1 x173 + 1 x174 + 1 x175 + 1 x176 + 1 x177 + 1 x178 + 1 x179 + 1 x180 + 1 x181 + 1 x182 + 1 x183 + 1 x184 + 1 x185 + 1 x186 + 1 x187 + 1 x188 + 1 x189 + 1 x190 + 1 x191 + 1 x192 + 1 x193 + 1 x194 + 1 x195 + 1 x196 + 1 x197 + 1 x198 + 1 x199 + 1 x200 + 1 x201 + 1 x202 + 1 x203 + 1 x204 + 1 x205 + 1 x206 + 1 x207 + 1 x208 + 1 x209 + 1 x210 + 1 x211 + 1 x212 + 1 x213 + 1 x214 + 1 x215 + 1 x216 + 1 x217 + 1 x218 + 1 x219 + 1 x220 + 1 x221 + 1 x222 + 1 x223 + 1 x224 + 1 x225 + 1 x226 + 1 x227 + 1 x228 + 1 x229 + 1 x230 + 1 x231 + 1 x232 + 1 x233 + 1 x234 + 1 x235 + 1 x236 + 1 x237 + 1 x238 + 1 x239 + 1 x240 + 1 x241 + 1 x242 + 1 x243 + 1 x244 + 1 x245 + 1 x246 + 1 x247 + 1 x248 + 1 x249 + 1 x250 + 1 x251 + 1 x252 + 1 x253 + 1 x254 + 1 x255 + 1 x256 + 1 x257 + 1 x258 + 1 x259 + 1 x260 + 1 x261 + 1 x262 + 1 x263 + 1 x264 + 1 x265 + 1 x266 + 1 x267 + 1 x268 + 1 x269 + 1 x270 + 1 x271 + 1 x272 + 1 x273 + 1 x274 + 1 x275 + 1 x276 + 1 x277 + 1 x278 + 1 x279 + 1 x280 + 1 x281 + 1 x282 + 1 x283 + 1 x284 + 1 x285 + 1 x286 + 1 x287 + 1 x288 + 1 x289 + 1 x290 + 1 x291 + 1 x292 + 1 x293 + 1 x294 + 1 x295 + 1 x296 + 1 x297 + 1 x298 + 1 x299 + 1 x300 + 1 x301 + 1 x302 + 1 x303 + 1 x304 + 1 x305 + 1 x306 + 1 x307 + 1 x308 + 1 x309 + 1 x310 + 1 x311 + 1 x312 + 1 x313 + 1 x314 + 1 x315 + 1 x316 + 1 x317 + 1 x318 + 1 x319 + 1 x320 + 1 x321 + 1 x322 + 1 x323 + 1 x324 + 1 x325 + 1 x326 + 1 x327 + 1 x328 + 1 x329 + 1 x330 + 1 x331 + 1 x332 + 1 x333 + 1 x334 + 1 x335 + 1 x336 + 1 x337 + 1 x338 + 1 x339 + 1 x340 + 1 x341 + 1 x342 + 1 x343 + 1 x344 + 1 x345 + 1 x346 + 1 x347 + 1 x348 + 1 x349 + 1 x350 + 1 x351 + 1 x352 + 1 x353 + 1 x354 + 1 x355 + 1 x356 + 1 x357 + 1 x358 + 1 x359 + 1 x360 + 1 x361 + 1 x362 + 1 x363 + 1 x364 + 1 x365 + 1 x366 + 1 x367 + 1 x368 + 1 x369 + 1 x370 + 1 x371 + 1 x372 + 1 x373 + 1 x374 + 1 x375 + 1 x376 + 1 x377 + 1 x378 + 1 x379 + 1 x380 + 1 x381 + 1 x382 + 1 x383 + 1 x384 + 1 x385 + 1 x386 + 1 x387 + 1 x388 + 1 x389 + 1 x390 + 1 x391 + 1 x392 + 1 x393 + 1 x394 + 1 x395 + 1 x396 + 1 x397 + 1 x398 + 1 x399 + 1 x400 + 1 x401 + 1 x402 + 1 x403 + 1 x404 + 1 x405 + 1 x406 + 1 x407 + 1 x408 + 1 x409 + 1 x410 + 1 x411 + 1 x412 + 1 x413 + 1 x414 + 1 x415 + 1 x416 + 1 x417 + 1 x418 + 1 x419 + 1 x420 + 1 x421 + 1 x422 + 1 x423 + 1 x424 + 1 x425 + 1 x426 + 1 x427 + 1 x428 + 1 x429 + 1 x430 + 1 x431 + 1 x432 + 1 x433 + 1 x434 + 1 x435 + 1 x436 + 1 x437 + 1 x438 + 1 x439 + 1 x440 + 1 x441 + 1 x442 + 1 x443 + 1 x444 + 1 x445 + 1 x446 + 1 x447 + 1 x448 + 1 x449 + 1 x450 + 1 x451 + 1 x452 + 1 x453 + 1 x454 + 1 x455 + 1 x456 + 1 x457 + 1 x458 + 1 x459 + 1 x460 + 1 x461 + 1 x462 + 1 x463 + 1 x464 + 1 x465 + 1 x466 + 1 x467 + 1 x468 + 1 x469 + 1 x470 + 1 x471 + 1 x472 + 1 x473 + 1 x474 + 1 x475 + 1 x476 + 1 x477 + 1 x478 + 1 x479 + 1 x480 + 1 x481 + 1 x482 + 1 x483 + 1 x484 + 1 x485 + 1 x486 + 1 x487 + 1 x488 + 1 x489 + 1 x490 + 1 x491 + 1 x492 + 1 x493 + 1 x494 + 1 x495 + 1 x496 + 1 x497 + 1 x498 + 1 x499 + 1 x500

subject to
C1: + x159 + x194 <= 1
C2: + x288 + x350 <= 1
C3: + x71 + x104 <= 1
C4: + x34 + x441 <= 1
C5: + x136 + x450 <= 1
C6: + x21 + x163 <= 1
C7: + x51 + x454 <= 1
C8: + x5 + x37 <= 1
C9: + x10 + x184 <= 1
C10: + x20 + x144 <= 1
C11: + x30 + x45 <= 1
C12: + x21 + x445 <= 1
C13: + x42 + x159 <= 1
C14: + x73 + x93 <= 1
C15: + x92 + x425 <= 1
C16: + x328 + x332 <= 1
C17: + x109 + x115 + x422 <= 1
C18: + x251 + x269 <= 1
C19: + x5 + x204 <= 1
C20: + x99 + x187 <= 1
C21: + x14 + x33 <= 1
C22: + x9 + x143 <= 1
C23: + x67 + x468 <= 1
C24: + x230 + x491 <= 1
C25: + x13 + x60 <= 1
C26: + x89 + x125 <= 1
C27: + x42 + x341 <= 1
C28: + x6 + x306 <= 1
C29: + x156 + x461 <= 1
C30: + x20 + x92 <= 1
C31: + x39 + x150 <= 1
C32: + x4 + x329 <= 1
C33: + x61 + x227 <= 1
C34: + x113 + x373 <= 1
C35: + x13 + x139 <= 1
C36: + x22 + x82 <= 1
C37: + x426 + x500 <= 1
C38: + x99 + x316 <= 1
C39: + x47 + x76 <= 1
C40: + x26 + x50 <= 1
C41: + x19 + x259 <= 1
C42: + x20 + x40 <= 1
C43: + x49 + x260 <= 1
C44: + x86 + x88 <= 1
C45: + x38 + x114 <= 1
C46: + x278 + x382 <= 1
C47: + x17 + x408 <= 1
C48: + x63 + x76 <= 1
C49: + x21 + x170 <= 1
C50: + x114 + x183 <= 1
C51: + x5 + x36 <= 1
C52: + x305 + x310 <= 1
C53: + x227 + x313 <= 1
C54: + x71 + x333 <= 1
C55: + x55 + x139 <= 1
C56: + x239 + x472 <= 1
C57: + x12 + x84 <= 1
C58: + x25 + x74 <= 1
C59: + x17 + x39 <= 1
C60: + x255 + x411 <= 1
C61: + x37 + x42 <= 1
C62: + x2 + x90 <= 1
C63: + x20 + x423 <= 1
C64: + x66 + x215 <= 1
C65: + x60 + x153 <= 1
C66: + x5 + x179 <= 1
C67: + x87 + x205 <= 1
C68: + x1 + x243 <= 1
C69: + x274 + x309 <= 1
C70: + x20 + x262 <= 1
C71: + x14 + x189 <= 1
C72: + x52 + x122 <= 1
C73: + x39 + x338 <= 1
C74: + x14 + x427 <= 1
C75: + x6 + x94 <= 1
C76: + x88 + x168 <= 1
C77: + x147 + x312 <= 1
C78: + x13 + x130 <= 1
C79: + x117 + x356 <= 1
C80: + x145 + x266 <= 1
C81: + x13 + x103 <= 1
C82: + x4 + x479 <= 1
C83: + x25 + x133 <= 1
C84: + x124 + x244 <= 1
C85: + x160 + x301 <= 1
C86: + x65 + x108 <= 1
C87: + x157 + x386 <= 1
C88: + x185 + x419 <= 1
C89: + x25 + x34 <= 1
C90: + x24 + x444 <= 1
C91: + x18 + x273 <= 1
C92: + x208 + x399 <= 1
C93: + x37 + x415 <= 1
C94: + x68 + x390 <= 1
C95: + x22 + x47 <= 1
C96: + x81 + x108 <= 1
C97: + x6 + x165 <= 1
C98: + x94 + x308 <= 1
C99: + x140 + x457 <= 1
C100: + x205 + x283 <= 1
C101: + x481 + x494 <= 1
C102: + x1 + x488 <= 1
C103: + x76 + x248 <= 1
C104: + x95 + x146 <= 1
C105: + x20 + x432 <= 1
C106: + x32 + x57 <= 1
C107: + x7 + x279 <= 1
C108: + x66 + x446 <= 1
C109: + x20 + x267 <= 1
C110: + x32 + x224 <= 1
C111: + x25 + x256 <= 1
C112: + x315 + x410 <= 1
C113: + x9 + x26 <= 1
C114: + x46 + x141 <= 1
C115: + x96 + x266 <= 1
C116: + x209 + x266 <= 1
C117: + x199 + x285 <= 1
C118: + x40 + x58 <= 1
C119: + x362 + x491 <= 1
C120: + x1 + x6 <= 1
C121: + x146 + x407 <= 1
C122: + x13 + x427 <= 1
C123: + x385 + x477 <= 1
C124: + x3 + x8 <= 1
C125: + x72 + x91 <= 1
C126: + x147 + x176 <= 1
C127: + x148 + x200 <= 1
C128: + x5 + x18 <= 1
C129: + x17 + x291 <= 1
C130: + x35 + x405 <= 1
C131: + x435 + x453 <= 1
C132: + x144 + x413 <= 1
C133: + x4 + x61 <= 1
C134: + x34 + x61 <= 1
C135: + x17 + x21 <= 1
C136: + x87 + x382 <= 1
C137: + x134 + x215 <= 1
C138: + x29 + x45 <= 1
C139: + x67 + x303 <= 1
C140: + x23 + x31 <= 1
C141: + x14 + x378 <= 1
C142: + x53 + x128 <= 1
C143: + x8 + x57 <= 1
C144: + x35 + x375 <= 1
C145: + x402 + x493 <= 1
C146: + x195 + x409 <= 1
C147: + x10 + x232 <= 1
C148: + x311 + x437 <= 1
C149: + x47 + x93 <= 1
C150: + x4 + x122 <= 1
C151: + x60 + x450 <= 1
C152: + x25 + x147 <= 1
C153: + x99 + x426 <= 1
C154: + x35 + x234 <= 1
C155: + x236 + x358 <= 1
C156: + x95 + x241 <= 1
C157: + x68 + x116 <= 1
C158: + x5 + x25 <= 1
C159: + x6 + x151 <= 1
C160: + x18 + x241 <= 1
C161: + x19 + x292 <= 1
C162: + x313 + x456 <= 1
C163: + x239 + x255 <= 1
C164: + x5 + x176 <= 1
C165: + x18 + x319 <= 1
C166: + x16 + x224 <= 1
C167: + x137 + x384 <= 1
C168: + x55 + x271 <= 1
C169: + x20 + x281 <= 1
C170: + x12 + x216 <= 1
C171: + x16 + x49 + x56 <= 1
C172: + x5 + x319 <= 1
C173: + x6 + x73 <= 1
C174: + x7 + x79 <= 1
C175: + x17 + x456 <= 1
C176: + x13 + x175 <= 1
C177: + x32 + x83 <= 1
C178: + x17 + x357 <= 1
C179: + x143 + x421 <= 1
C180: + x50 + x386 <= 1
C181: + x206 + x231 <= 1
C182: + x32 + x333 <= 1
C183: + x239 + x257 <= 1
C184: + x412 + x454 <= 1
C185: + x33 + x106 <= 1
C186: + x187 + x424 <= 1
C187: + x15 + x42 <= 1
C188: + x19 + x33 + x419 <= 1
C189: + x19 + x396 <= 1
C190: + x146 + x274 <= 1
C191: + x347 + x468 <= 1
C192: + x29 + x377 <= 1
C193: + x49 + x397 <= 1
C194: + x26 + x332 <= 1
C195: + x233 + x471 <= 1
C196: + x45 + x276 <= 1
C197: + x13 + x370 <= 1
C198: + x71 + x119 <= 1
C199: + x210 + x398 <= 1
C200: + x39 + x80 <= 1
C201: + x224 + x395 <= 1
C202: + x470 + x495 <= 1
C203: + x16 + x124 <= 1
C204: + x6 + x287 <= 1
C205: + x7 + x421 <= 1
C206: + x203 + x236 <= 1
C207: + x70 + x167 <= 1
C208: + x32 + x421 <= 1
C209: + x7 + x66 <= 1
C210: + x4 + x201 <= 1
C211: + x52 + x272 <= 1
C212: + x9 + x158 <= 1
C213: + x210 + x442 <= 1
C214: + x20 + x238 <= 1
C215: + x379 + x465 <= 1
C216: + x210 + x229 <= 1
C217: + x98 + x407 <= 1
C218: + x142 + x206 <= 1
C219: + x71 + x190 <= 1
C220: + x1 + x341 <= 1
C221: + x7 + x126 <= 1
C222: + x5 + x15 <= 1
C223: + x10 + x222 <= 1
C224: + x49 + x97 <= 1
C225: + x4 + x20 <= 1
C226: + x25 + x173 <= 1
C227: + x24 + x77 <= 1
C228: + x100 + x488 <= 1
C229: + x310 + x328 <= 1
C230: + x147 + x351 <= 1
C231: + x20 + x460 <= 1
C232: + x2 + x460 <= 1
C233: + x156 + x266 <= 1
C234: + x47 + x329 <= 1
C235: + x192 + x480 <= 1
C236: + x36 + x387 <= 1
C237: + x346 + x497 <= 1
C238: + x17 + x137 <= 1
C239: + x218 + x327 <= 1
C240: + x144 + x448 <= 1
C241: + x204 + x225 <= 1
C242: + x12 + x33 <= 1
C243: + x55 + x71 <= 1
C244: + x158 + x165 <= 1
C245: + x51 + x95 <= 1
C246: + x12 + x339 <= 1
C247: + x70 + x486 <= 1
C248: + x27 + x152 <= 1
C249: + x210 + x222 <= 1
C250: + x101 + x435 <= 1
C251: + x349 + x471 <= 1
C252: + x5 + x337 <= 1
C253: + x15 + x60 <= 1
C254: + x79 + x252 <= 1
C255: + x26 + x443 <= 1
C256: + x46 + x403 <= 1
C257: + x5 + x246 <= 1
C258: + x4 + x25 <= 1
C259: + x97 + x98 <= 1
C260: + x61 + x96 <= 1
C261: + x310 + x321 <= 1
C262: + x23 + x59 <= 1
C263: + x14 + x112 <= 1
C264: + x91 + x189 <= 1
C265: + x145 + x227 <= 1
C266: + x55 + x276 <= 1
C267: + x5 + x58 <= 1
C268: + x9 + x61 <= 1
C269: + x256 + x388 <= 1
C270: + x20 + x139 <= 1
C271: + x12 + x493 <= 1
C272: + x176 + x496 <= 1
C273: + x82 + x115 <= 1
C274: + x45 + x310 <= 1
C275: + x9 + x410 <= 1
C276: + x73 + x90 <= 1
C277: + x271 + x300 <= 1
C278: + x50 + x74 <= 1
C279: + x61 + x369 <= 1
C280: + x6 + x199 <= 1
C281: + x192 + x240 <= 1
C282: + x12 + x183 <= 1
C283: + x104 + x122 <= 1
C284: + x5 + x110 <= 1
C285: + x179 + x200 <= 1
C286: + x18 + x68 <= 1
C287: + x263 + x280 <= 1
C288: + x191 + x320 <= 1
C289: + x39 + x348 <= 1
C290: + x46 + x396 <= 1
C291: + x95 + x237 <= 1
C292: + x25 + x425 <= 1
C293: + x70 + x384 <= 1
C294: + x435 + x484 <= 1
C295: + x51 + x188 <= 1
C296: + x125 + x151 <= 1
C297: + x25 + x187 <= 1
C298: + x74 + x107 <= 1
C299: + x1 + x466 <= 1
C300: + x20 + x35 <= 1
C301: + x3 + x55 <= 1
C302: + x46 + x82 <= 1
C303: + x78 + x158 <= 1
C304: + x47 + x162 <= 1
C305: + x13 + x287 <= 1
C306: + x7 + x156 <= 1
C307: + x8 + x247 <= 1
C308: + x3 + x220 <= 1
C309: + x223 + x494 <= 1
C310: + x23 + x159 <= 1
C311: + x104 + x429 <= 1
C312: + x34 + x46 <= 1
C313: + x52 + x200 <= 1
C314: + x28 + x365 <= 1
C315: + x2 + x69 <= 1
C316: + x221 + x329 <= 1
C317: + x5 + x184 <= 1
C318: + x344 + x353 <= 1
C319: + x12 + x176 <= 1
C320: + x153 + x299 <= 1
C321: + x18 + x69 <= 1
C322: + x36 + x239 <= 1
C323: + x19 + x331 <= 1
C324: + x183 + x493 <= 1
C325: + x138 + x169 <= 1
C326: + x38 + x296 <= 1
C327: + x68 + x85 <= 1
C328: + x31 + x105 <= 1
C329: + x5 + x252 <= 1
C330: + x6 + x244 <= 1
C331: + x25 + x432 <= 1
C332: + x1 + x12 <= 1
C333: + x38 + x155 <= 1
C334: + x16 + x47 <= 1
C335: + x58 + x298 <= 1
C336: + x122 + x413 <= 1
C337: + x5 + x139 <= 1
C338: + x345 + x468 <= 1
C339: + x355 + x423 <= 1
C340: + x190 + x488 <= 1
C341: + x151 + x400 <= 1
C342: + x55 + x143 <= 1
C343: + x4 + x51 <= 1
C344: + x23 + x424 <= 1
C345: + x190 + x345 <= 1
C346: + x10 + x14 <= 1
C347: + x174 + x237 <= 1
C348: + x116 + x199 <= 1
C349: + x46 + x144 <= 1
C350: + x250 + x423 <= 1
C351: + x222 + x310 <= 1
C352: + x314 + x392 <= 1
C353: + x110 + x296 <= 1
C354: + x136 + x177 <= 1
C355: + x103 + x271 <= 1
C356: + x12 + x145 <= 1
C357: + x13 + x99 <= 1
C358: + x4 + x16 <= 1
C359: + x32 + x100 + x188 <= 1
C360: + x299 + x357 <= 1
C361: + x485 + x486 <= 1
C362: + x71 + x86 <= 1
C363: + x36 + x447 <= 1
C364: + x83 + x296 <= 1
C365: + x128 + x498 <= 1
C366: + x5 + x23 <= 1
C367: + x261 + x356 <= 1
C368: + x35 + x67 <= 1
C369: + x291 + x441 <= 1
C370: + x10 + x166 <= 1
C371: + x83 + x457 <= 1
C372: + x187 + x378 <= 1
C373: + x6 + x415 <= 1
C374: + x7 + x37 <= 1
C375: + x347 + x374 <= 1
C376: + x11 + x44 <= 1
C377: + x56 + x288 <= 1
C378: + x78 + x196 <= 1
C379: + x14 + x79 <= 1
C380: + x5 + x166 <= 1
C381: + x352 + x436 <= 1
C382: + x13 + x38 <= 1
C383: + x5 + x91 <= 1
C384: + x137 + x144 <= 1
C385: + x184 + x287 <= 1
C386: + x343 + x345 <= 1
C387: + x190 + x393 <= 1
C388: + x18 + x381 <= 1
C389: + x73 + x301 <= 1
C390: + x71 + x391 <= 1
C391: + x47 + x90 <= 1
C392: + x105 + x161 <= 1
C393: + x55 + x333 <= 1
C394: + x42 + x202 <= 1
C395: + x307 + x315 <= 1
C396: + x108 + x414 <= 1
C397: + x54 + x234 <= 1
C398: + x210 + x246 <= 1
C399: + x176 + x275 <= 1
C400: + x79 + x228 <= 1
C401: + x15 + x36 <= 1
C402: + x38 + x286 <= 1
C403: + x5 + x30 <= 1
C404: + x26 + x382 <= 1
C405: + x26 + x177 <= 1
C406: + x74 + x495 <= 1
C407: + x137 + x494 <= 1
C408: + x3 + x330 <= 1
C409: + x115 + x345 <= 1
C410: + x62 + x235 <= 1
C411: + x63 + x201 <= 1
C412: + x182 + x318 <= 1
C413: + x89 + x185 <= 1
C414: + x7 + x185 <= 1
C415: + x68 + x443 <= 1
C416: + x4 + x178 <= 1
C417: + x5 + x66 <= 1
C418: + x13 + x221 <= 1
C419: + x24 + x147 <= 1
C420: + x26 + x253 <= 1
C421: + x6 + x297 <= 1
C422: + x121 + x191 <= 1
C423: + x14 + x171 <= 1
C424: + x213 + x464 <= 1
C425: + x189 + x433 <= 1
C426: + x13 + x180 <= 1
C427: + x25 + x389 <= 1
C428: + x234 + x285 <= 1
C429: + x4 + x126 <= 1
C430: + x5 + x118 <= 1
C431: + x14 + x298 <= 1
C432: + x25 + x290 <= 1
C433: + x18 + x92 <= 1
C434: + x20 + x63 <= 1
C435: + x3 + x27 <= 1
C436: + x239 + x382 <= 1
C437: + x4 + x368 <= 1
C438: + x385 + x472 <= 1
C439: + x23 + x474 <= 1
C440: + x45 + x386 <= 1
C441: + x137 + x227 <= 1
C442: + x8 + x272 <= 1
C443: + x109 + x322 <= 1
C444: + x49 + x394 <= 1
C445: + x2 + x56 <= 1
C446: + x148 + x209 <= 1
C447: + x185 + x274 <= 1
C448: + x225 + x372 <= 1
C449: + x92 + x110 <= 1
C450: + x388 + x391 <= 1
C451: + x190 + x356 <= 1
C452: + x92 + x393 <= 1
C453: + x86 + x179 <= 1
C454: + x14 + x65 <= 1
C455: + x74 + x353 <= 1
C456: + x280 + x447 <= 1
C457: + x117 + x131 <= 1
C458: + x145 + x484 <= 1
C459: + x239 + x313 <= 1
C460: + x21 + x108 <= 1
C461: + x50 + x256 <= 1
C462: + x131 + x322 <= 1
C463: + x221 + x353 <= 1
C464: + x60 + x384 <= 1
C465: + x427 + x484 <= 1
C466: + x67 + x456 <= 1
C467: + x231 + x453 <= 1
C468: + x13 + x16 <= 1
C469: + x14 + x152 <= 1
C470: + x286 + x317 <= 1
C471: + x35 + x253 <= 1
C472: + x20 + x233 <= 1
C473: + x294 + x458 <= 1
C474: + x22 + x213 <= 1
C475: + x20 + x72 <= 1
C476: + x3 + x22 <= 1
C477: + x168 + x481 <= 1
C478: + x9 + x120 <= 1
C479: + x46 + x175 <= 1
C480: + x79 + x238 <= 1
C481: + x114 + x343 <= 1
C482: + x361 + x499 <= 1
C483: + x26 + x336 <= 1
C484: + x44 + x89 <= 1
C485: + x7 + x10 <= 1
C486: + x38 + x70 <= 1
C487: + x225 + x250 <= 1
C488: + x23 + x45 <= 1
C489: + x4 + x257 <= 1
C490: + x65 + x174 <= 1
C491: + x85 + x161 <= 1
C492: + x23 + x138 <= 1
C493: + x125 + x245 <= 1
C494: + x26 + x207 <= 1
C495: + x20 + x129 <= 1
C496: + x184 + x455 <= 1
C497: + x70 + x163 <= 1
C498: + x203 + x262 <= 1
C499: + x26 + x261 <= 1
C500: + x41 + x86 <= 1
C501: + x287 + x446 <= 1
C502: + x98 + x133 <= 1
C503: + x168 + x410 <= 1
C504: + x99 + x440 <= 1
C505: + x39 + x302 <= 1
C506: + x4 + x350 <= 1
C507: + x151 + x157 <= 1
C508: + x95 + x231 <= 1
C509: + x5 + x11 <= 1
C510: + x17 + x268 <= 1
C511: + x45 + x98 <= 1
C512: + x1 + x59 <= 1
C513: + x135 + x297 <= 1
C514: + x241 + x293 <= 1
C515: + x186 + x243 <= 1
C516: + x22 + x162 <= 1
C517: + x60 + x83 <= 1
C518: + x61 + x93 <= 1
C519: + x5 + x485 <= 1
C520: + x190 + x374 <= 1
C521: + x120 + x235 <= 1
C522: + x13 + x123 <= 1
C523: + x214 + x354 <= 1
C524: + x49 + x279 <= 1
C525: + x20 + x25 <= 1
C526: + x311 + x372 <= 1
C527: + x6 + x22 <= 1
C528: + x7 + x174 <= 1
C529: + x40 + x73 <= 1
C530: + x98 + x194 <= 1
C531: + x205 + x394 <= 1
C532: + x5 + x396 <= 1
C533: + x7 + x404 <= 1
C534: + x14 + x214 <= 1
C535: + x18 + x19 <= 1
C536: + x176 + x483 <= 1
C537: + x26 + x115 <= 1
C538: + x341 + x385 <= 1
C539: + x18 + x164 <= 1
C540: + x71 + x483 <= 1
C541: + x55 + x297 <= 1
C542: + x29 + x220 <= 1
C543: + x158 + x324 <= 1
C544: + x240 + x298 <= 1
C545: + x25 + x311 <= 1
C546: + x85 + x465 <= 1
C547: + x32 + x478 <= 1
C548: + x15 + x64 <= 1
C549: + x1 + x149 <= 1
C550: + x38 + x306 <= 1
C551: + x13 + x141 <= 1
C552: + x23 + x80 <= 1
C553: + x61 + x330 <= 1
C554: + x56 + x111 <= 1
C555: + x4 + x29 <= 1
C556: + x295 + x440 <= 1
C557: + x38 + x120 <= 1
C558: + x41 + x379 <= 1
C559: + x51 + x98 <= 1
C560: + x69 + x140 <= 1
C561: + x196 + x463 <= 1
C562: + x6 + x31 <= 1
C563: + x5 + x38 <= 1
C564: + x6 + x178 <= 1
C565: + x17 + x132 <= 1
C566: + x111 + x281 <= 1
C567: + x184 + x469 <= 1
C568: + x39 + x461 <= 1
C569: + x278 + x328 <= 1
C570: + x446 + x455 <= 1
C571: + x202 + x283 <= 1
C572: + x5 + x106 <= 1
C573: + x171 + x370 <= 1
C574: + x20 + x91 <= 1
C575: + x7 + x100 <= 1
C576: + x62 + x151 <= 1
C577: + x28 + x138 <= 1
C578: + x50 + x357 <= 1
C579: + x9 + x89 <= 1
C580: + x164 + x493 <= 1
C581: + x192 + x458 <= 1
C582: + x41 + x354 <= 1
C583: + x169 + x311 <= 1
C584: + x70 + x269 <= 1
C585: + x270 + x304 <= 1
C586: + x6 + x8 <= 1
C587: + x62 + x107 <= 1
C588: + x74 + x285 <= 1
C589: + x151 + x251 <= 1
C590: + x140 + x376 <= 1
C591: + x6 + x187 <= 1
C592: + x193 + x202 <= 1
C593: + x51 + x351 <= 1
C594: + x51 + x236 <= 1
C595: + x22 + x136 <= 1
C596: + x402 + x454 <= 1
C597: + x22 + x406 <= 1
C598: + x135 + x482 <= 1
C599: + x129 + x441 <= 1
C600: + x213 + x447 <= 1
C601: + x13 + x52 <= 1
C602: + x38 + x54 <= 1
C603: + x222 + x313 <= 1
C604: + x39 + x343 <= 1
C605: + x78 + x95 <= 1
C606: + x22 + x263 <= 1
C607: + x115 + x288 <= 1
C608: + x12 + x15 <= 1
C609: + x10 + x455 <= 1
C610: + x46 + x54 <= 1
C611: + x2 + x21 <= 1
C612: + x4 + x240 <= 1
C613: + x215 + x282 <= 1
C614: + x287 + x290 <= 1
C615: + x61 + x352 <= 1
C616: + x8 + x91 <= 1
C617: + x47 + x84 <= 1
C618: + x4 + x11 <= 1
C619: + x20 + x48 <= 1
C620: + x404 + x461 <= 1
C621: + x98 + x394 <= 1
C622: + x5 + x44 <= 1
C623: + x81 + x109 <= 1
C624: + x35 + x72 <= 1
C625: + x101 + x104 <= 1
C626: + x54 + x277 <= 1
C627: + x74 + x481 <= 1
C628: + x20 + x157 <= 1
C629: + x88 + x364 <= 1
C630: + x218 + x249 <= 1
C631: + x182 + x312 <= 1
C632: + x7 + x34 <= 1
C633: + x63 + x195 <= 1
C634: + x263 + x363 <= 1
C635: + x6 + x53 <= 1
C636: + x299 + x412 <= 1
C637: + x19 + x29 <= 1
C638: + x11 + x130 <= 1
C639: + x5 + x96 <= 1
C640: + x17 + x174 <= 1
C641: + x308 + x492 <= 1
C642: + x9 + x27 <= 1
C643: + x50 + x262 <= 1
C644: + x15 + x17 <= 1
C645: + x83 + x163 <= 1
C646: + x103 + x162 <= 1
C647: + x18 + x195 <= 1
C648: + x7 + x324 <= 1
C649: + x28 + x136 <= 1
C650: + x40 + x160 <= 1
C651: + x24 + x109 <= 1
C652: + x54 + x237 <= 1
C653: + x37 + x149 <= 1
C654: + x20 + x53 <= 1
C655: + x3 + x5 <= 1
C656: + x68 + x239 <= 1
C657: + x26 + x478 <= 1
C658: + x74 + x252 <= 1
C659: + x148 + x199 <= 1
C660: + x192 + x339 <= 1
C661: + x5 + x19 <= 1
C662: + x228 + x428 <= 1
C663: + x174 + x337 <= 1
C664: + x124 + x200 <= 1
C665: + x379 + x393 <= 1
C666: + x36 + x308 <= 1
C667: + x33 + x41 <= 1
C668: + x127 + x430 <= 1
C669: + x7 + x271 <= 1
C670: + x174 + x226 <= 1
C671: + x85 + x152 <= 1
C672: + x37 + x331 <= 1
C673: + x125 + x319 <= 1
C674: + x151 + x471 <= 1
C675: + x2 + x273 <= 1
C676: + x38 + x40 <= 1
C677: + x31 + x318 <= 1
C678: + x88 + x181 <= 1
C679: + x7 + x85 <= 1
C680: + x191 + x434 <= 1
C681: + x109 + x403 <= 1
C682: + x114 + x365 <= 1
C683: + x45 + x61 <= 1
C684: + x51 + x280 <= 1
C685: + x43 + x198 <= 1
C686: + x179 + x366 <= 1
C687: + x67 + x275 <= 1
C688: + x20 + x62 <= 1
C689: + x130 + x219 <= 1
C690: + x106 + x297 <= 1
C691: + x90 + x103 <= 1
C692: + x79 + x232 <= 1
C693: + x39 + x410 <= 1
C694: + x5 + x26 <= 1
C695: + x11 + x289 <= 1
C696: + x3 + x326 <= 1
C697: + x115 + x140 <= 1
C698: + x22 + x147 <= 1
C699: + x34 + x53 <= 1
C700: + x235 + x259 <= 1
C701: + x26 + x88 <= 1
C702: + x110 + x482 <= 1
C703: + x7 + x20 <= 1
C704: + x94 + x424 <= 1
C705: + x99 + x390 <= 1
C706: + x105 + x323 <= 1
C707: + x27 + x94 <= 1
C708: + x83 + x335 <= 1
C709: + x211 + x284 <= 1
C710: + x103 + x193 <= 1
C711: + x286 + x492 <= 1
C712: + x5 + x78 <= 1
C713: + x18 + x36 <= 1
C714: + x58 + x373 <= 1
C715: + x21 + x105 <= 1
C716: + x67 + x346 <= 1
C717: + x16 + x401 <= 1
C718: + x147 + x290 <= 1
C719: + x266 + x283 <= 1
C720: + x188 + x418 <= 1
C721: + x18 + x362 <= 1
C722: + x7 + x233 <= 1
C723: + x8 + x66 <= 1
C724: + x40 + x142 <= 1
C725: + x5 + x114 <= 1
C726: + x5 + x463 <= 1
C727: + x24 + x99 <= 1
C728: + x17 + x88 <= 1
C729: + x135 + x164 <= 1
C730: + x19 + x360 <= 1
C731: + x50 + x183 <= 1
C732: + x13 + x319 <= 1
C733: + x30 + x451 <= 1
C734: + x131 + x196 <= 1
C735: + x204 + x373 <= 1
C736: + x7 + x124 <= 1
C737: + x192 + x321 <= 1
C738: + x30 + x358 <= 1
C739: + x44 + x104 <= 1
C740: + x64 + x105 <= 1
C741: + x33 + x218 <= 1
C742: + x13 + x398 <= 1
C743: + x7 + x11 <= 1
C744: + x46 + x102 <= 1
C745: + x3 + x43 <= 1
C746: + x110 + x201 <= 1
C747: + x55 + x263 <= 1
C748: + x13 + x216 <= 1
C749: + x43 + x132 <= 1
C750: + x5 + x386 <= 1
C751: + x28 + x254 <= 1
C752: + x35 + x138 <= 1
C753: + x7 + x71 <= 1
C754: + x262 + x268 <= 1
C755: + x18 + x26 + x44 <= 1
C756: + x11 + x14 <= 1
C757: + x233 + x246 <= 1
C758: + x13 + x167 <= 1
C759: + x3 + x260 <= 1
C760: + x39 + x57 <= 1
C761: + x94 + x323 <= 1
C762: + x25 + x301 <= 1
C763: + x85 + x362 <= 1
C764: + x389 + x480 <= 1
C765: + x20 + x76 <= 1
C766: + x3 + x18 <= 1
C767: + x105 + x389 <= 1
C768: + x5 + x363 <= 1
C769: + x6 + x101 <= 1
C770: + x20 + x350 <= 1
C771: + x141 + x283 <= 1
C772: + x161 + x244 <= 1
C773: + x134 + x430 <= 1
C774: + x28 + x167 <= 1
C775: + x248 + x469 <= 1
C776: + x244 + x292 <= 1
C777: + x74 + x128 <= 1
C778: + x27 + x499 <= 1
C779: + x137 + x218 <= 1
C780: + x246 + x346 <= 1
C781: + x5 + x52 <= 1
C782: + x25 + x360 <= 1
C783: + x61 + x396 <= 1
C784: + x38 + x211 <= 1
C785: + x148 + x261 <= 1
C786: + x222 + x278 <= 1
C787: + x3 + x364 <= 1
C788: + x119 + x467 <= 1
C789: + x74 + x172 <= 1
C790: + x193 + x459 <= 1
C791: + x4 + x305 <= 1
C792: + x19 + x53 <= 1
C793: + x38 + x164 <= 1
C794: + x26 + x31 <= 1
C795: + x55 + x247 <= 1
C796: + x47 + x212 <= 1
C797: + x110 + x316 <= 1
C798: + x1 + x146 <= 1
C799: + x368 + x457 <= 1
C800: + x1 + x63 <= 1
C801: + x229 + x480 <= 1
C802: + x251 + x474 <= 1
C803: + x26 + x43 <= 1
C804: + x95 + x118 <= 1
C805: + x68 + x247 <= 1
C806: + x8 + x302 <= 1
C807: + x300 + x381 <= 1
C808: + x13 + x198 <= 1
C809: + x34 + x262 <= 1
C810: + x126 + x248 <= 1
C811: + x142 + x424 <= 1
C812: + x142 + x267 <= 1
C813: + x8 + x323 <= 1
C814: + x169 + x377 <= 1
C815: + x22 + x400 <= 1
C816: + x270 + x494 <= 1
C817: + x154 + x320 <= 1
C818: + x121 + x327 <= 1
C819: + x21 + x245 <= 1
C820: + x40 + x185 <= 1
C821: + x13 + x58 <= 1
C822: + x43 + x186 <= 1
C823: + x6 + x308 <= 1
C824: + x33 + x366 <= 1
C825: + x135 + x149 <= 1
C826: + x379 + x484 <= 1
C827: + x111 + x354 <= 1
C828: + x58 + x348 <= 1
C829: + x54 + x109 <= 1
C830: + x23 + x68 <= 1
C831: + x5 + x254 <= 1
C832: + x24 + x255 <= 1
C833: + x92 + x117 <= 1
C834: + x193 + x315 <= 1
C835: + x140 + x486 <= 1
C836: + x13 + x110 <= 1
C837: + x61 + x88 <= 1
C838: + x18 + x127 <= 1
C839: + x66 + x133 <= 1
C840: + x20 + x473 <= 1
C841: + x42 + x113 <= 1
C842: + x4 + x371 <= 1
C843: + x89 + x153 <= 1
C844: + x16 + x328 <= 1
C845: + x70 + x419 <= 1
C846: + x244 + x479 <= 1
C847: + x87 + x366 <= 1
C848: + x334 + x452 <= 1
C849: + x199 + x364 <= 1
C850: + x147 + x207 <= 1
C851: + x429 + x474 <= 1
C852: + x87 + x207 <= 1
C853: + x5 + x177 <= 1
C854: + x100 + x243 <= 1
C855: + x1 + x241 <= 1
C856: + x10 + x12 <= 1
C857: + x20 + x260 <= 1
C858: + x101 + x205 <= 1
C859: + x40 + x178 <= 1
C860: + x66 + x423 <= 1
C861: + x7 + x443 <= 1
C862: + x263 + x272 <= 1
C863: + x156 + x452 <= 1
C864: + x55 + x193 <= 1
C865: + x131 + x168 <= 1
C866: + x83 + x173 <= 1
C867: + x55 + x110 <= 1
C868: + x30 + x330 <= 1
C869: + x224 + x294 <= 1
C870: + x44 + x68 <= 1
C871: + x81 + x387 <= 1
C872: + x46 + x295 <= 1
C873: + x240 + x263 <= 1
C874: + x4 + x10 <= 1
C875: + x13 + x434 <= 1
C876: + x5 + x471 <= 1
C877: + x36 + x222 <= 1
C878: + x322 + x449 <= 1
C879: + x59 + x212 <= 1
C880: + x70 + x265 <= 1
C881: + x99 + x123 <= 1
C882: + x52 + x351 <= 1
C883: + x10 + x65 <= 1
C884: + x11 + x95 <= 1
C885: + x54 + x58 <= 1
C886: + x5 + x41 <= 1
C887: + x25 + x381 <= 1
C888: + x100 + x107 <= 1
C889: + x133 + x155 <= 1
C890: + x70 + x154 <= 1
C891: + x17 + x28 <= 1
C892: + x220 + x236 <= 1
C893: + x21 + x294 <= 1
C894: + x159 + x250 <= 1
C895: + x181 + x338 <= 1
C896: + x7 + x273 <= 1
C897: + x10 + x13 <= 1
C898: + x76 + x81 <= 1
C899: + x148 + x488 <= 1
C900: + x30 + x117 <= 1
C901: + x7 + x95 <= 1
C902: + x31 + x81 <= 1
C903: + x287 + x294 <= 1
C904: + x51 + x445 <= 1
C905: + x34 + x477 <= 1
C906: + x45 + x75 <= 1
C907: + x237 + x472 <= 1
C908: + x3 + x316 <= 1
C909: + x4 + x15 <= 1
C910: + x60 + x126 <= 1
C911: + x10 + x348 <= 1
C912: + x131 + x243 <= 1
C913: + x5 + x371 <= 1
C914: + x6 + x13 <= 1
C915: + x9 + x289 <= 1
C916: + x192 + x338 <= 1
C917: + x158 + x279 <= 1
C918: + x231 + x420 <= 1
C919: + x5 + x24 <= 1
C920: + x1 + x96 <= 1
C921: + x61 + x186 <= 1
C922: + x24 + x40 <= 1
C923: + x155 + x435 <= 1
C924: + x11 + x41 <= 1
C925: + x238 + x258 <= 1
C926: + x89 + x179 <= 1
C927: + x375 + x443 <= 1
C928: + x105 + x246 <= 1
C929: + x124 + x180 <= 1
C930: + x31 + x201 <= 1
C931: + x14 + x380 <= 1
C932: + x227 + x257 <= 1
C933: + x40 + x242 <= 1
C934: + x5 + x310 <= 1
C935: + x393 + x454 <= 1
C936: + x20 + x383 <= 1
C937: + x375 + x470 <= 1
C938: + x12 + x302 <= 1
C939: + x5 + x235 <= 1
C940: + x111 + x230 <= 1
C941: + x240 + x277 <= 1
C942: + x16 + x64 <= 1
C943: + x218 + x314 <= 1
C944: + x308 + x444 <= 1
C945: + x20 + x57 <= 1
C946: + x60 + x210 <= 1
C947: + x31 + x491 <= 1
C948: + x71 + x78 <= 1
C949: + x347 + x459 <= 1
C950: + x59 + x71 <= 1
C951: + x34 + x290 <= 1
C952: + x25 + x331 <= 1
C953: + x15 + x311 <= 1
C954: + x27 + x48 <= 1
C955: + x156 + x411 <= 1
C956: + x169 + x440 <= 1
C957: + x61 + x177 <= 1
C958: + x51 + x154 <= 1
C959: + x62 + x234 <= 1
C960: + x9 + x439 <= 1
C961: + x29 + x42 <= 1
C962: + x20 + x444 <= 1
C963: + x86 + x169 <= 1
C964: + x32 + x45 <= 1
C965: + x108 + x120 <= 1
C966: + x5 + x174 <= 1
C967: + x218 + x476 <= 1
C968: + x20 + x279 <= 1
C969: + x185 + x344 <= 1
C970: + x223 + x500 <= 1
C971: + x5 + x67 <= 1
C972: + x387 + x390 <= 1
C973: + x469 + x496 <= 1
C974: + x480 + x481 <= 1
C975: + x16 + x113 <= 1
C976: + x66 + x85 <= 1
C977: + x71 + x368 <= 1
C978: + x183 + x342 <= 1
C979: + x105 + x495 <= 1
C980: + x178 + x265 <= 1
C981: + x385 + x413 <= 1
C982: + x6 + x75 <= 1
C983: + x71 + x137 <= 1
C984: + x146 + x157 <= 1
C985: + x16 + x408 <= 1
C986: + x79 + x224 <= 1
C987: + x67 + x169 <= 1
C988: + x23 + x112 <= 1
C989: + x1 + x18 <= 1
C990: + x183 + x197 <= 1
C991: + x49 + x60 <= 1
C992: + x38 + x181 <= 1
C993: + x15 + x74 + x206 <= 1
C994: + x5 + x119 <= 1
C995: + x5 + x452 <= 1
C996: + x53 + x137 <= 1
C997: + x310 + x429 <= 1
C998: + x20 + x66 <= 1
C999: + x76 + x282 <= 1
C1000: + x61 + x446 <= 1
C1001: + x44 + x99 <= 1
C1002: + x6 + x365 <= 1
C1003: + x119 + x240 <= 1
C1004: + x93 + x407 <= 1
C1005: + x60 + x72 <= 1
C1006: + x179 + x350 <= 1
C1007: + x7 + x24 <= 1
C1008: + x256 + x259 <= 1
C1009: + x147 + x362 <= 1
C1010: + x30 + x282 <= 1
C1011: + x89 + x129 <= 1
C1012: + x260 + x466 <= 1
C1013: + x2 + x195 <= 1
C1014: + x265 + x314 <= 1
C1015: + x46 + x343 <= 1
C1016: + x43 + x133 <= 1
C1017: + x5 + x391 <= 1
C1018: + x9 + x13 <= 1
C1019: + x323 + x437 <= 1
C1020: + x1 + x263 <= 1
C1021: + x55 + x74 <= 1
C1022: + x84 + x154 <= 1
C1023: + x31 + x70 <= 1
C1024: + x168 + x242 <= 1
C1025: + x6 + x215 <= 1
C1026: + x45 + x491 <= 1
C1027: + x13 + x172 <= 1
C1028: + x176 + x179 <= 1
C1029: + x449 + x451 <= 1
C1030: + x5 + x459 <= 1
C1031: + x18 + x84 <= 1
C1032: + x75 + x389 <= 1
C1033: + x203 + x210 <= 1
C1034: + x42 + x86 <= 1
C1035: + x282 + x397 <= 1
C1036: + x60 + x331 <= 1
C1037: + x5 + x13 <= 1
C1038: + x35 + x420 <= 1
C1039: + x116 + x154 <= 1
C1040: + x71 + x430 <= 1
C1041: + x49 + x111 <= 1
C1042: + x69 + x405 <= 1
C1043: + x192 + x478 <= 1
C1044: + x112 + x377 <= 1
C1045: + x4 + x191 <= 1
C1046: + x9 + x52 <= 1
C1047: + x8 + x38 <= 1
C1048: + x33 + x170 <= 1
C1049: + x17 + x52 <= 1
C1050: + x20 + x406 <= 1
C1051: + x198 + x288 <= 1
C1052: + x62 + x478 <= 1
C1053: + x52 + x101 <= 1
C1054: + x6 + x462 <= 1
C1055: + x36 + x255 <= 1
C1056: + x28 + x270 <= 1
C1057: + x50 + x281 <= 1
C1058: + x271 + x367 <= 1
C1059: + x101 + x278 <= 1
C1060: + x110 + x138 <= 1
C1061: + x275 + x479 <= 1
C1062: + x22 + x78 <= 1
C1063: + x5 + x12 <= 1
C1064: + x48 + x184 <= 1
C1065: + x4 + x23 <= 1
C1066: + x13 + x124 <= 1
C1067: + x206 + x207 <= 1
C1068: + x33 + x213 <= 1
C1069: + x124 + x239 <= 1
C1070: + x17 + x127 <= 1
C1071: + x20 + x28 <= 1
C1072: + x34 + x422 <= 1
C1073: + x98 + x102 <= 1
C1074: + x71 + x99 <= 1
C1075: + x81 + x220 <= 1
C1076: + x72 + x448 <= 1
C1077: + x30 + x143 <= 1
C1078: + x4 + x168 <= 1
C1079: + x12 + x249 <= 1
C1080: + x24 + x270 <= 1
C1081: + x26 + x356 <= 1
C1082: + x334 + x363 <= 1
C1083: + x33 + x415 <= 1
C1084: + x17 + x313 <= 1
C1085: + x179 + x388 <= 1
C1086: + x107 + x492 <= 1
C1087: + x55 + x92 <= 1
C1088: + x66 + x270 <= 1
C1089: + x49 + x324 <= 1
C1090: + x77 + x205 <= 1
C1091: + x4 + x309 <= 1
C1092: + x6 + x217 <= 1
C1093: + x26 + x269 <= 1
C1094: + x7 + x292 <= 1
C1095: + x38 + x176 <= 1
C1096: + x218 + x278 <= 1
C1097: + x27 + x145 <= 1
C1098: + x11 + x375 <= 1
C1099: + x56 + x249 <= 1
C1100: + x123 + x314 <= 1
C1101: + x74 + x156 <= 1
C1102: + x55 + x473 <= 1
C1103: + x13 + x142 <= 1
C1104: + x4 + x225 <= 1
C1105: + x42 + x483 <= 1
C1106: + x291 + x469 <= 1
C1107: + x8 + x104 <= 1
C1108: + x20 + x198 <= 1
C1109: + x121 + x272 <= 1
C1110: + x4 + x32 <= 1
C1111: + x4 + x467 <= 1
C1112: + x135 + x289 <= 1
C1113: + x26 + x47 <= 1
C1114: + x195 + x216 <= 1
C1115: + x17 + x118 <= 1
C1116: + x58 + x214 <= 1
C1117: + x185 + x407 <= 1
C1118: + x31 + x48 <= 1
C1119: + x5 + x39 <= 1
C1120: + x198 + x369 <= 1
C1121: + x35 + x51 <= 1
C1122: + x62 + x383 <= 1
C1123: + x135 + x349 <= 1
C1124: + x54 + x258 <= 1
C1125: + x148 + x274 <= 1
C1126: + x3 + x383 <= 1
C1127: + x3 + x77 <= 1
C1128: + x194 + x458 <= 1
C1129: + x51 + x83 <= 1
C1130: + x425 + x434 <= 1
C1131: + x6 + x194 <= 1
C1132: + x36 + x50 <= 1
C1133: + x54 + x435 <= 1
C1134: + x233 + x261 <= 1
C1135: + x26 + x236 <= 1
C1136: + x84 + x487 <= 1
C1137: + x20 + x94 <= 1
C1138: + x3 + x435 <= 1
C1139: + x39 + x349 <= 1
C1140: + x285 + x318 <= 1
C1141: + x264 + x340 <= 1
C1142: + x7 + x500 <= 1
C1143: + x43 + x395 <= 1
C1144: + x99 + x128 <= 1
C1145: + x7 + x157 <= 1
C1146: + x185 + x379 <= 1
C1147: + x285 + x452 <= 1
C1148: + x5 + x46 <= 1
C1149: + x6 + x186 <= 1
C1150: + x26 + x161 <= 1
C1151: + x14 + x199 <= 1
C1152: + x289 + x460 <= 1
C1153: + x84 + x420 <= 1
C1154: + x19 + x148 <= 1
C1155: + x50 + x344 <= 1
C1156: + x22 + x135 <= 1
C1157: + x42 + x134 <= 1
C1158: + x17 + x25 <= 1
C1159: + x66 + x213 <= 1
C1160: + x11 + x35 <= 1
C1161: + x56 + x261 <= 1
C1162: + x124 + x475 <= 1
C1163: + x5 + x189 <= 1
C1164: + x112 + x191 <= 1
C1165: + x51 + x303 <= 1
C1166: + x125 + x215 <= 1
C1167: + x62 + x332 <= 1
C1168: + x389 + x433 <= 1
C1169: + x47 + x226 <= 1
C1170: + x34 + x125 <= 1
C1171: + x87 + x318 <= 1
C1172: + x3 + x156 <= 1
C1173: + x95 + x217 <= 1
C1174: + x287 + x295 <= 1
C1175: + x5 + x225 <= 1
C1176: + x45 + x80 <= 1
C1177: + x182 + x208 <= 1
C1178: + x201 + x377 <= 1
C1179: + x3 + x317 <= 1
C1180: + x46 + x291 <= 1
C1181: + x13 + x430 <= 1
C1182: + x161 + x303 <= 1
C1183: + x226 + x337 <= 1
C1184: + x101 + x402 <= 1
C1185: + x64 + x240 <= 1
C1186: + x248 + x323 <= 1
C1187: + x196 + x448 <= 1
C1188: + x4 + x30 <= 1
C1189: + x16 + x329 <= 1
C1190: + x92 + x255 <= 1
C1191: + x28 + x63 <= 1
C1192: + x10 + x69 <= 1
C1193: + x6 + x163 <= 1
C1194: + x319 + x444 <= 1
C1195: + x256 + x445 <= 1
C1196: + x4 + x397 <= 1
C1197: + x32 + x392 <= 1
C1198: + x17 + x32 <= 1
C1199: + x7 + x39 <= 1
C1200: + x60 + x148 <= 1
C1201: + x15 + x103 <= 1
C1202: + x35 + x267 <= 1
C1203: + x53 + x353 <= 1
C1204: + x107 + x155 <= 1
C1205: + x5 + x89 <= 1
C1206: + x79 + x437 <= 1
C1207: + x33 + x130 <= 1
C1208: + x13 + x470 <= 1
C1209: + x6 + x69 <= 1
C1210: + x81 + x140 <= 1
C1211: + x94 + x212 <= 1
C1212: + x4 + x216 <= 1
C1213: + x217 + x380 <= 1
C1214: + x9 + x342 <= 1
C1215: + x1 + x8 <= 1
C1216: + x111 + x231 <= 1
C1217: + x21 + x203 <= 1
C1218: + x33 + x241 <= 1
C1219: + x135 + x183 <= 1
C1220: + x28 + x294 <= 1
C1221: + x3 + x6 <= 1
C1222: + x331 + x439 <= 1
C1223: + x40 + x393 <= 1
C1224: + x28 + x449 <= 1
C1225: + x114 + x167 <= 1
C1226: + x184 + x209 <= 1
C1227: + x61 + x428 <= 1
C1228: + x54 + x285 <= 1
C1229: + x222 + x374 <= 1
C1230: + x60 + x391 <= 1
C1231: + x306 + x355 <= 1
C1232: + x23 + x436 <= 1
C1233: + x80 + x135 <= 1
C1234: + x174 + x499 <= 1
C1235: + x3 + x90 <= 1
C1236: + x23 + x29 <= 1
C1237: + x117 + x432 <= 1
C1238: + x345 + x492 <= 1
C1239: + x9 + x166 <= 1
C1240: + x246 + x334 <= 1
C1241: + x121 + x352 <= 1
C1242: + x18 + x316 <= 1
C1243: + x140 + x337 <= 1
C1244: + x13 + x35 <= 1
C1245: + x20 + x278 <= 1
C1246: + x23 + x250 <= 1
C1247: + x12 + x64 <= 1
C1248: + x104 + x398 <= 1
C1249: + x77 + x165 <= 1
C1250: + x40 + x49 <= 1
C1251: + x8 + x76 <= 1
C1252: + x46 + x277 <= 1
C1253: + x38 + x184 <= 1
C1254: + x61 + x121 <= 1
C1255: + x188 + x190 <= 1
C1256: + x14 + x399 <= 1
C1257: + x96 + x293 <= 1
C1258: + x163 + x374 <= 1
C1259: + x146 + x204 <= 1
C1260: + x74 + x228 <= 1
C1261: + x147 + x165 <= 1
C1262: + x56 + x483 <= 1
C1263: + x6 + x114 <= 1
C1264: + x5 + x358 <= 1
C1265: + x5 + x27 <= 1
C1266: + x45 + x392 <= 1
C1267: + x63 + x440 <= 1
C1268: + x1 + x43 <= 1
C1269: + x60 + x67 <= 1
C1270: + x7 + x17 <= 1
C1271: + x62 + x230 <= 1
C1272: + x138 + x328 <= 1
C1273: + x366 + x450 <= 1
C1274: + x353 + x406 <= 1
C1275: + x6 + x38 <= 1
C1276: + x17 + x427 <= 1
C1277: + x237 + x270 <= 1
C1278: + x120 + x140 <= 1
C1279: + x192 + x271 <= 1
C1280: + x12 + x202 <= 1
C1281: + x438 + x445 <= 1
C1282: + x452 + x460 <= 1
C1283: + x24 + x170 <= 1
C1284: + x9 + x10 <= 1
C1285: + x63 + x349 <= 1
C1286: + x46 + x253 <= 1
C1287: + x130 + x340 <= 1
C1288: + x4 + x5 + x6 + x7 + x9 <= 1
C1289: + x6 + x439 <= 1
C1290: + x221 + x359 <= 1
C1291: + x13 + x169 <= 1
C1292: + x73 + x132 <= 1
C1293: + x1 + x22 <= 1
C1294: + x37 + x295 <= 1
C1295: + x21 + x217 <= 1
C1296: + x42 + x355 <= 1
C1297: + x13 + x14 <= 1
C1298: + x17 + x73 <= 1
C1299: + x191 + x265 <= 1
C1300: + x51 + x62 <= 1
C1301: + x96 + x302 <= 1
C1302: + x270 + x339 <= 1
C1303: + x282 + x400 <= 1
C1304: + x64 + x309 <= 1
C1305: + x363 + x413 <= 1
C1306: + x35 + x82 <= 1
C1307: + x27 + x51 <= 1
C1308: + x28 + x161 <= 1
C1309: + x227 + x475 <= 1
C1310: + x58 + x433 <= 1
C1311: + x40 + x193 <= 1
C1312: + x13 + x399 <= 1
C1313: + x98 + x269 <= 1
C1314: + x24 + x50 <= 1
C1315: + x73 + x98 <= 1
C1316: + x402 + x417 <= 1
C1317: + x5 + x145 <= 1
C1318: + x6 + x47 <= 1
C1319: + x27 + x489 <= 1
C1320: + x191 + x466 <= 1
C1321: + x145 + x247 <= 1
C1322: + x131 + x442 <= 1
C1323: + x104 + x146 <= 1
C1324: + x120 + x296 <= 1
C1325: + x20 + x127 <= 1
C1326: + x214 + x218 <= 1
C1327: + x25 + x116 <= 1
C1328: + x244 + x362 <= 1
C1329: + x13 + x451 <= 1
C1330: + x66 + x312 <= 1
C1331: + x75 + x203 <= 1
C1332: + x20 + x401 <= 1
C1333: + x77 + x219 <= 1
C1334: + x5 + x197 <= 1
C1335: + x207 + x456 <= 1
C1336: + x110 + x252 <= 1
C1337: + x193 + x274 <= 1
C1338: + x4 + x106 <= 1
C1339: + x19 + x352 <= 1
C1340: + x20 + x75 <= 1
C1341: + x112 + x433 <= 1
C1342: + x65 + x151 <= 1
C1343: + x6 + x135 <= 1
C1344: + x14 + x228 <= 1
C1345: + x63 + x259 <= 1
C1346: + x4 + x22 <= 1
C1347: + x187 + x227 <= 1
C1348: + x38 + x65 <= 1
C1349: + x76 + x335 <= 1
C1350: + x38 + x412 <= 1
C1351: + x4 + x264 <= 1
C1352: + x6 + x24 <= 1
C1353: + x118 + x307 <= 1
C1354: + x142 + x192 <= 1
C1355: + x291 + x306 <= 1
C1356: + x40 + x79 <= 1
C1357: + x23 + x131 <= 1
C1358: + x5 + x394 <= 1
C1359: + x53 + x87 <= 1
C1360: + x26 + x210 <= 1
C1361: + x154 + x389 <= 1
C1362: + x38 + x210 <= 1
C1363: + x25 + x123 <= 1
C1364: + x162 + x453 <= 1
C1365: + x74 + x171 <= 1
C1366: + x122 + x476 <= 1
C1367: + x14 + x41 <= 1
C1368: + x90 + x208 <= 1
C1369: + x5 + x196 <= 1
C1370: + x355 + x496 <= 1
C1371: + x19 + x54 <= 1
C1372: + x75 + x87 <= 1
C1373: + x3 + x284 <= 1
C1374: + x309 + x368 <= 1
C1375: + x82 + x366 <= 1
C1376: + x5 + x97 <= 1
C1377: + x243 + x472 <= 1
C1378: + x245 + x371 <= 1
C1379: + x135 + x498 <= 1
C1380: + x17 + x71 <= 1
C1381: + x322 + x442 <= 1
C1382: + x21 + x68 <= 1
C1383: + x86 + x124 <= 1
C1384: + x177 + x485 <= 1
C1385: + x35 + x342 <= 1
C1386: + x28 + x429 <= 1
C1387: + x1 + x147 <= 1
C1388: + x2 + x5 <= 1
C1389: + x101 + x175 <= 1
C1390: + x135 + x385 <= 1
C1391: + x25 + x420 <= 1
C1392: + x6 + x347 <= 1
C1393: + x7 + x345 <= 1
C1394: + x16 + x136 <= 1
C1395: + x12 + x112 <= 1
C1396: + x286 + x325 <= 1
C1397: + x187 + x238 <= 1
C1398: + x42 + x212 <= 1
C1399: + x1 + x477 <= 1
C1400: + x46 + x87 <= 1
C1401: + x3 + x497 <= 1
C1402: + x49 + x268 <= 1
C1403: + x13 + x354 <= 1
C1404: + x296 + x304 <= 1
C1405: + x341 + x442 <= 1
C1406: + x216 + x363 <= 1
C1407: + x54 + x55 <= 1
C1408: + x38 + x360 <= 1
C1409: + x42 + x426 <= 1
C1410: + x26 + x219 <= 1
C1411: + x42 + x160 <= 1
C1412: + x13 + x497 <= 1
C1413: + x90 + x438 <= 1
C1414: + x100 + x475 <= 1
C1415: + x73 + x92 <= 1
C1416: + x199 + x370 <= 1
C1417: + x75 + x292 <= 1
C1418: + x50 + x80 <= 1
C1419: + x12 + x334 <= 1
C1420: + x42 + x59 <= 1
C1421: + x253 + x256 <= 1
C1422: + x155 + x181 <= 1
C1423: + x30 + x223 <= 1
C1424: + x5 + x112 <= 1
C1425: + x16 + x32 <= 1
C1426: + x65 + x72 <= 1
C1427: + x120 + x330 <= 1
C1428: + x61 + x226 <= 1
C1429: + x335 + x438 <= 1
C1430: + x54 + x108 <= 1
C1431: + x74 + x160 <= 1
C1432: + x11 + x97 <= 1
C1433: + x6 + x137 <= 1
C1434: + x291 + x465 <= 1
C1435: + x46 + x301 <= 1
C1436: + x55 + x378 <= 1
C1437: + x33 + x315 <= 1
C1438: + x185 + x411 <= 1
C1439: + x6 + x26 <= 1
C1440: + x18 + x281 <= 1
C1441: + x177 + x181 <= 1
C1442: + x39 + x119 <= 1
C1443: + x25 + x375 <= 1
C1444: + x26 + x361 <= 1
C1445: + x16 + x81 <= 1
C1446: + x1 + x67 <= 1
C1447: + x55 + x182 <= 1
C1448: + x111 + x286 <= 1
C1449: + x28 + x196 <= 1
C1450: + x131 + x145 <= 1
C1451: + x64 + x75 <= 1
C1452: + x35 + x148 <= 1
C1453: + x21 + x288 <= 1
C1454: + x287 + x376 <= 1
C1455: + x5 + x178 <= 1
C1456: + x26 + x282 <= 1
C1457: + x43 + x436 <= 1
C1458: + x65 + x306 <= 1
C1459: + x64 + x476 <= 1
C1460: + x22 + x235 <= 1
C1461: + x125 + x220 <= 1
C1462: + x27 + x232 <= 1
C1463: + x37 + x192 <= 1
C1464: + x12 + x468 <= 1
C1465: + x33 + x120 <= 1
C1466: + x352 + x477 <= 1
C1467: + x74 + x129 <= 1
C1468: + x14 + x15 <= 1
C1469: + x261 + x307 <= 1
C1470: + x55 + x369 <= 1
C1471: + x12 + x158 <= 1
C1472: + x37 + x100 <= 1
C1473: + x46 + x73 <= 1
C1474: + x14 + x30 + x46 <= 1
C1475: + x50 + x142 <= 1
C1476: + x42 + x121 <= 1
C1477: + x25 + x33 <= 1
C1478: + x37 + x414 <= 1
C1479: + x39 + x106 <= 1
C1480: + x95 + x258 <= 1
C1481: + x5 + x42 <= 1
C1482: + x88 + x96 <= 1
C1483: + x103 + x322 <= 1
C1484: + x48 + x150 <= 1
C1485: + x223 + x376 <= 1
C1486: + x139 + x462 <= 1
C1487: + x214 + x254 <= 1
C1488: + x141 + x474 <= 1
C1489: + x7 + x36 <= 1
C1490: + x339 + x446 <= 1
C1491: + x4 + x295 <= 1
C1492: + x163 + x230 <= 1
C1493: + x240 + x315 <= 1
C1494: + x234 + x392 <= 1
C1495: + x17 + x172 <= 1
C1496: + x154 + x428 <= 1
C1497: + x263 + x264 <= 1
C1498: + x165 + x412 <= 1
C1499: + x75 + x211 <= 1
C1500: + x384 + x429 <= 1
C1501: + x46 + x49 <= 1
C1502: + x22 + x101 <= 1
C1503: + x125 + x405 <= 1
C1504: + x83 + x403 <= 1
C1505: + x1 + x5 <= 1
C1506: + x29 + x251 <= 1
C1507: + x30 + x229 <= 1
C1508: + x33 + x254 <= 1
C1509: + x13 + x426 <= 1
C1510: + x43 + x221 <= 1
C1511: + x20 + x51 <= 1
C1512: + x3 + x7 <= 1
C1513: + x349 + x498 <= 1
C1514: + x169 + x291 <= 1
C1515: + x43 + x114 <= 1
C1516: + x6 + x12 <= 1
C1517: + x5 + x372 <= 1
C1518: + x30 + x499 <= 1
C1519: + x1 + x335 <= 1
C1520: + x121 + x401 <= 1
C1521: + x105 + x203 <= 1
C1522: + x34 + x304 <= 1
C1523: + x5 + x17 <= 1
C1524: + x126 + x130 <= 1
C1525: + x86 + x401 <= 1
C1526: + x24 + x39 <= 1
C1527: + x371 + x431 <= 1
C1528: + x3 + x385 <= 1
C1529: + x86 + x485 <= 1
C1530: + x114 + x121 <= 1
C1531: + x146 + x155 <= 1
C1532: + x27 + x432 <= 1
C1533: + x199 + x436 <= 1
C1534: + x1 + x28 <= 1
C1535: + x20 + x221 <= 1
C1536: + x108 + x416 <= 1
C1537: + x4 + x361 <= 1
C1538: + x5 + x379 <= 1
C1539: + x135 + x409 <= 1
C1540: + x147 + x170 <= 1
C1541: + x22 + x50 <= 1
C1542: + x4 + x35 <= 1
C1543: + x26 + x82 <= 1
C1544: + x244 + x340 <= 1
C1545: + x6 + x390 <= 1
C1546: + x49 + x223 <= 1
C1547: + x13 + x378 <= 1
C1548: + x71 + x127 <= 1
C1549: + x18 + x320 <= 1
C1550: + x75 + x118 <= 1
C1551: + x11 + x182 <= 1
C1552: + x303 + x336 <= 1
C1553: + x5 + x409 <= 1
C1554: + x123 + x173 <= 1
C1555: + x131 + x325 <= 1
C1556: + x42 + x168 <= 1
C1557: + x52 + x233 <= 1
C1558: + x179 + x408 <= 1
C1559: + x62 + x189 <= 1
C1560: + x114 + x360 <= 1
C1561: + x204 + x486 <= 1
C1562: + x1 + x19 <= 1
C1563: + x47 + x103 <= 1
C1564: + x38 + x180 <= 1
C1565: + x96 + x398 <= 1
C1566: + x7 + x473 <= 1
C1567: + x13 + x20 + x21 <= 1
C1568: + x25 + x54 <= 1
C1569: + x100 + x367 <= 1
C1570: + x137 + x229 <= 1
C1571: + x3 + x190 <= 1
C1572: + x33 + x438 <= 1
C1573: + x14 + x238 <= 1
C1574: + x10 + x214 <= 1
C1575: + x21 + x34 <= 1
C1576: + x33 + x275 <= 1
C1577: + x104 + x467 <= 1
C1578: + x5 + x497 <= 1
C1579: + x14 + x284 <= 1
C1580: + x45 + x275 <= 1
C1581: + x63 + x242 <= 1
C1582: + x10 + x305 <= 1
C1583: + x108 + x449 <= 1
C1584: + x19 + x286 <= 1
C1585: + x57 + x153 <= 1
C1586: + x33 + x37 <= 1
C1587: + x4 + x286 <= 1
C1588: + x6 + x34 <= 1
C1589: + x1 + x222 <= 1
C1590: + x62 + x339 <= 1
C1591: + x8 + x48 <= 1
C1592: + x228 + x388 <= 1
C1593: + x25 + x113 <= 1
C1594: + x16 + x416 <= 1
C1595: + x227 + x245 <= 1
C1596: + x12 + x347 <= 1
C1597: + x4 + x202 <= 1
C1598: + x10 + x19 <= 1
C1599: + x39 + x59 <= 1
C1600: + x31 + x232 <= 1
C1601: + x41 + x81 <= 1
C1602: + x21 + x229 <= 1
C1603: + x328 + x495 <= 1
C1604: + x249 + x276 <= 1
C1605: + x59 + x245 <= 1
C1606: + x4 + x343 <= 1
C1607: + x98 + x408 <= 1
C1608: + x114 + x490 <= 1
C1609: + x191 + x490 <= 1
C1610: + x110 + x325 <= 1
C1611: + x211 + x476 <= 1
C1612: + x5 + x14 <= 1
C1613: + x296 + x421 <= 1
C1614: + x7 + x355 <= 1
C1615: + x193 + x299 <= 1
C1616: + x231 + x311 <= 1
C1617: + x4 + x17 <= 1
C1618: + x285 + x321 <= 1
C1619: + x7 + x16 <= 1
C1620: + x61 + x293 <= 1
C1621: + x6 + x43 <= 1
C1622: + x43 + x141 <= 1
C1623: + x171 + x346 <= 1
C1624: + x470 + x489 <= 1
C1625: + x74 + x459 <= 1
C1626: + x21 + x125 <= 1
C1627: + x429 + x490 <= 1
C1628: + x13 + x164 <= 1
C1629: + x17 + x338 <= 1
C1630: + x92 + x162 <= 1
C1631: + x1 + x225 <= 1
C1632: + x39 + x62 <= 1
C1633: + x60 + x470 <= 1
C1634: + x6 + x461 <= 1
C1635: + x3 + x418 <= 1
C1636: + x12 + x30 <= 1
C1637: + x74 + x146 <= 1
C1638: + x46 + x404 <= 1
C1639: + x2 + x8 <= 1
C1640: + x3 + x144 <= 1
C1641: + x114 + x334 <= 1
C1642: + x14 + x32 <= 1
C1643: + x6 + x131 <= 1
C1644: + x93 + x102 <= 1
C1645: + x42 + x284 <= 1
C1646: + x42 + x239 <= 1
C1647: + x205 + x309 <= 1
C1648: + x51 + x132 <= 1
C1649: + x407 + x439 <= 1
C1650: + x51 + x101 <= 1
C1651: + x4 + x268 <= 1
C1652: + x62 + x87 <= 1
C1653: + x144 + x172 <= 1
C1654: + x1 + x359 <= 1
C1655: + x222 + x462 <= 1
C1656: + x15 + x341 <= 1
C1657: + x7 + x402 <= 1
C1658: + x465 + x473 <= 1
C1659: + x289 + x447 <= 1
C1660: + x5 + x299 <= 1
C1661: + x28 + x405 <= 1
C1662: + x2 + x77 <= 1
C1663: + x75 + x242 <= 1
C1664: + x229 + x308 <= 1
C1665: + x14 + x37 <= 1
C1666: + x82 + x159 <= 1
C1667: + x146 + x373 <= 1
C1668: + x130 + x467 <= 1
C1669: + x50 + x438 <= 1
C1670: + x5 + x109 <= 1
C1671: + x208 + x211 <= 1
C1672: + x174 + x287 <= 1
C1673: + x319 + x500 <= 1
C1674: + x40 + x425 <= 1
C1675: + x61 + x231 <= 1
C1676: + x6 + x105 <= 1
C1677: + x62 + x156 <= 1
C1678: + x18 + x496 <= 1
C1679: + x282 + x414 <= 1
C1680: + x30 + x371 <= 1
C1681: + x276 + x380 <= 1
C1682: + x4 + x31 <= 1
C1683: + x379 + x426 <= 1
C1684: + x17 + x119 <= 1
C1685: + x80 + x359 <= 1
C1686: + x67 + x250 <= 1
C1687: + x21 + x457 <= 1
C1688: + x42 + x115 <= 1
C1689: + x52 + x344 <= 1
C1690: + x92 + x317 <= 1
C1691: + x110 + x182 <= 1
C1692: + x5 + x40 <= 1
C1693: + x6 + x192 <= 1
C1694: + x61 + x416 <= 1
C1695: + x17 + x134 <= 1
C1696: + x8 + x27 <= 1
C1697: + x29 + x190 <= 1
C1698: + x397 + x455 <= 1
C1699: + x80 + x171 <= 1
C1700: + x66 + x211 <= 1
C1701: + x136 + x340 <= 1
C1702: + x49 + x380 <= 1
C1703: + x14 + x94 <= 1
C1704: + x63 + x453 <= 1
C1705: + x20 + x258 <= 1
C1706: + x48 + x113 <= 1
C1707: + x13 + x55 <= 1
C1708: + x44 + x49 <= 1
C1709: + x46 + x152 <= 1
C1710: + x20 + x93 <= 1
C1711: + x203 + x204 <= 1
C1712: + x30 + x126 <= 1
C1713: + x12 + x479 <= 1
C1714: + x5 + x326 <= 1
C1715: + x79 + x197 <= 1
C1716: + x100 + x395 <= 1
C1717: + x13 + x289 <= 1
C1718: + x192 + x379 <= 1
C1719: + x20 + x367 <= 1
C1720: + x13 + x134 <= 1
C1721: + x25 + x431 <= 1
C1722: + x74 + x434 <= 1
C1723: + x274 + x365 <= 1
C1724: + x86 + x327 <= 1
C1725: + x26 + x55 <= 1
C1726: + x366 + x418 <= 1
C1727: + x314 + x332 <= 1
C1728: + x181 + x260 <= 1
C1729: + x110 + x175 <= 1
C1730: + x300 + x361 <= 1
C1731: + x135 + x428 <= 1
C1732: + x428 + x448 <= 1
C1733: + x6 + x185 <= 1
C1734: + x8 + x20 <= 1
C1735: + x187 + x370 <= 1
C1736: + x25 + x77 <= 1
C1737: + x36 + x264 <= 1
C1738: + x272 + x465 <= 1
C1739: + x278 + x335 <= 1
C1740: + x34 + x387 <= 1
C1741: + x45 + x464 <= 1
C1742: + x91 + x214 <= 1
C1743: + x37 + x327 <= 1
C1744: + x23 + x237 <= 1
C1745: + x334 + x336 <= 1
C1746: + x226 + x412 <= 1
C1747: + x20 + x102 <= 1
C1748: + x39 + x341 <= 1
C1749: + x43 + x79 <= 1
C1750: + x15 + x16 <= 1
C1751: + x127 + x305 <= 1
C1752: + x84 + x129 <= 1
C1753: + x29 + x347 <= 1
C1754: + x20 + x376 <= 1
C1755: + x221 + x411 <= 1
C1756: + x253 + x372 <= 1
C1757: + x18 + x208 <= 1
C1758: + x100 + x166 <= 1
C1759: + x8 + x85 <= 1
C1760: + x154 + x344 <= 1
C1761: + x80 + x466 <= 1
C1762: + x96 + x403 <= 1
C1763: + x150 + x417 <= 1
C1764: + x105 + x427 <= 1
C1765: + x404 + x463 <= 1
C1766: + x309 + x317 <= 1
C1767: + x280 + x470 <= 1
C1768: + x86 + x305 <= 1
C1769: + x297 + x349 <= 1
C1770: + x381 + x397 <= 1
C1771: + x74 + x487 <= 1
C1772: + x5 + x264 <= 1
C1773: + x119 + x160 + x251 <= 1
C1774: + x263 + x361 <= 1
C1775: + x156 + x303 <= 1
C1776: + x11 + x402 <= 1
C1777: + x96 + x230 <= 1
C1778: + x154 + x218 <= 1
C1779: + x272 + x381 <= 1
C1780: + x33 + x369 <= 1
C1781: + x22 + x256 <= 1
C1782: + x20 + x107 <= 1
C1783: + x133 + x204 <= 1
C1784: + x15 + x23 <= 1
C1785: + x7 + x84 <= 1
C1786: + x181 + x462 <= 1
C1787: + x5 + x233 <= 1
C1788: + x38 + x142 <= 1
C1789: + x130 + x498 <= 1
C1790: + x42 + x203 <= 1
C1791: + x43 + x217 <= 1
C1792: + x187 + x320 <= 1
C1793: + x5 + x475 <= 1
C1794: + x172 + x333 <= 1
C1795: + x2 + x64 <= 1
C1796: + x206 + x312 <= 1
C1797: + x32 + x158 <= 1
C1798: + x14 + x248 <= 1
C1799: + x270 + x387 <= 1
C1800: + x147 + x464 <= 1
C1801: + x32 + x400 <= 1
C1802: + x17 + x24 <= 1
C1803: + x99 + x482 <= 1
C1804: + x80 + x404 <= 1
C1805: + x31 + x206 <= 1
C1806: + x5 + x65 <= 1
C1807: + x98 + x192 <= 1
C1808: + x116 + x265 <= 1
C1809: + x25 + x277 <= 1
C1810: + x5 + x414 <= 1
C1811: + x46 + x131 <= 1
C1812: + x76 + x300 <= 1
C1813: + x4 + x417 <= 1
C1814: + x5 + x307 <= 1
C1815: + x150 + x322 <= 1
C1816: + x51 + x208 <= 1
C1817: + x15 + x187 <= 1
C1818: + x127 + x416 <= 1
C1819: + x18 + x186 <= 1
C1820: + x7 + x248 <= 1
C1821: + x28 + x159 <= 1
C1822: + x157 + x334 <= 1
C1823: + x380 + x458 <= 1
C1824: + x61 + x122 <= 1
C1825: + x25 + x150 <= 1
C1826: + x326 + x489 <= 1
C1827: + x65 + x125 <= 1
C1828: + x11 + x352 <= 1
C1829: + x52 + x180 <= 1
C1830: + x62 + x116 <= 1
C1831: + x24 + x213 <= 1
C1832: + x9 + x223 <= 1
C1833: + x248 + x449 <= 1
C1834: + x20 + x173 <= 1
C1835: + x39 + x249 <= 1
C1836: + x60 + x70 <= 1
C1837: + x96 + x437 <= 1
C1838: + x26 + x86 <= 1
C1839: + x16 + x463 <= 1
C1840: + x134 + x221 <= 1
C1841: + x66 + x191 <= 1
C1842: + x5 + x171 <= 1
C1843: + x54 + x406 <= 1
C1844: + x165 + x244 <= 1
C1845: + x203 + x395 <= 1
C1846: + x206 + x357 <= 1
C1847: + x226 + x431 <= 1
C1848: + x9 + x11 <= 1
C1849: + x20 + x121 <= 1
C1850: + x40 + x326 <= 1
C1851: + x43 + x60 <= 1
C1852: + x5 + x314 <= 1
C1853: + x7 + x78 <= 1
C1854: + x35 + x141 <= 1
C1855: + x36 + x359 <= 1
C1856: + x5 + x223 <= 1
C1857: + x18 + x368 <= 1
C1858: + x45 + x489 <= 1
C1859: + x33 + x347 <= 1
C1860: + x179 + x355 <= 1
C1861: + x45 + x219 <= 1
C1862: + x65 + x116 <= 1
C1863: + x145 + x415 <= 1
C1864: + x85 + x450 <= 1
C1865: + x54 + x253 <= 1
C1866: + x78 + x188 <= 1
C1867: + x263 + x451 <= 1
C1868: + x140 + x150 <= 1
C1869: + x14 + x234 <= 1
C1870: + x75 + x490 <= 1
C1871: + x15 + x480 <= 1
C1872: + x74 + x117 <= 1
C1873: + x208 + x280 <= 1
C1874: + x46 + x100 <= 1
C1875: + x51 + x111 <= 1
C1876: + x7 + x182 <= 1
C1877: + x234 + x383 <= 1
C1878: + x61 + x399 <= 1
C1879: + x5 + x388 <= 1
C1880: + x291 + x409 <= 1
C1881: + x191 + x197 <= 1
C1882: + x185 + x193 <= 1
C1883: + x49 + x89 <= 1
C1884: + x195 + x325 <= 1
C1885: + x4 + x431 <= 1
C1886: + x25 + x117 <= 1
C1887: + x35 + x136 <= 1
C1888: + x208 + x348 <= 1
C1889: + x428 + x485 <= 1
C1890: + x147 + x228 <= 1
C1891: + x20 + x404 <= 1
C1892: + x104 + x226 <= 1
C1893: + x100 + x194 <= 1
C1894: + x383 + x425 <= 1
C1895: + x10 + x23 <= 1
C1896: + x157 + x324 <= 1
C1897: + x5 + x123 <= 1
C1898: + x34 + x326 <= 1
C1899: + x21 + x70 <= 1
C1900: + x89 + x321 <= 1
C1901: + x15 + x56 <= 1
C1902: + x45 + x375 <= 1
C1903: + x101 + x364 <= 1
C1904: + x148 + x224 <= 1
C1905: + x349 + x384 <= 1
C1906: + x225 + x257 <= 1
C1907: + x5 + x10 <= 1
C1908: + x6 + x134 <= 1
C1909: + x99 + x298 <= 1
C1910: + x9 + x205 <= 1
C1911: + x10 + x195 <= 1
C1912: + x157 + x280 <= 1
C1913: + x231 + x299 <= 1
C1914: + x196 + x300 <= 1
C1915: + x29 + x482 <= 1
C1916: + x5 + x153 <= 1
C1917: + x113 + x307 <= 1
C1918: + x5 + x62 <= 1
C1919: + x26 + x209 <= 1
C1920: + x45 + x149 <= 1
C1921: + x226 + x441 <= 1
C1922: + x20 + x135 <= 1
C1923: + x38 + x209 <= 1
C1924: + x222 + x276 <= 1
C1925: + x157 + x300 <= 1
C1926: + x5 + x304 <= 1
C1927: + x96 + x367 <= 1
C1928: + x23 + x402 <= 1
C1929: + x251 + x417 <= 1
C1930: + x181 + x418 <= 1
C1931: + x195 + x481 <= 1
C1932: + x21 + x267 <= 1
C1933: + x70 + x336 <= 1
C1934: + x296 + x358 <= 1
C1935: + x18 + x346 <= 1
C1936: + x48 + x111 <= 1
C1937: + x243 + x469 <= 1
C1938: + x26 + x29 <= 1
C1939: + x155 + x464 <= 1
C1940: + x29 + x128 <= 1
C1941: + x12 + x18 <= 1
C1942: + x20 + x83 <= 1
C1943: + x15 + x63 <= 1
C1944: + x209 + x293 <= 1
C1945: + x144 + x351 <= 1
C1946: + x39 + x385 <= 1
C1947: + x78 + x273 <= 1
C1948: + x13 + x148 <= 1
C1949: + x6 + x143 <= 1
C1950: + x14 + x28 <= 1
C1951: + x35 + x97 <= 1
C1952: + x135 + x291 <= 1
C1953: + x280 + x342 <= 1
C1954: + x66 + x487 <= 1
C1955: + x60 + x422 <= 1
C1956: + x35 + x198 <= 1
C1957: + x91 + x487 <= 1

binary
x1 x2 x3 x4 x5 x6 x7 x8 x9 x10 x11 x12 x13 x14 x15 x16 x17 x18 x19 x20 x21 x22 x23 x24 x25 x26 x27 x28 x29 x30 x31 x32 x33 x34 x35 x36 x37 x38 x39 x40 x41 x42 x43 x44 x45 x46 x47 x48 x49 x50 x51 x52 x53 x54 x55 x56 x57 x58 x59 x60 x61 x62 x63 x64 x65 x66 x67 x68 x69 x70 x71 x72 x73 x74 x75 x76 x77 x78 x79 x80 x81 x82 x83 x84 x85 x86 x87 x88 x89 x90 x91 x92 x93 x94 x95 x96 x97 x98 x99 x100 x101 x102 x103 x104 x105 x106 x107 x108 x109 x110 x111 x112 x113 x114 x115 x116 x117 x118 x119 x120 x121 x122 x123 x124 x125 x126 x127 x128 x129 x130 x131 x132 x133 x134 x135 x136 x137 x138 x139 x140 x141 x142 x143 x144 x145 x146 x147 x148 x149 x150 x151 x152 x153 x154 x155 x156 x157 x158 x159 x160 x161 x162 x163 x164 x165 x166 x167 x168 x169 x170 x171 x172 x173 x174 x175 x176 x177 x178 x179 x180 x181 x182 x183 x184 x185 x186 x187 x188 x189 x190 x191 x192 x193 x194 x195 x196 x197 x198 x199 x200 x201 x202 x203 x204 x205 x206 x207 x208 x209 x210 x211 x212 x213 x214 x215 x216 x217 x218 x219 x220 x221 x222 x223 x224 x225 x226 x227 x228 x229 x230 x231 x232 x233 x234 x235 x236 x237 x238 x239 x240 x241 x242 x243 x244 x245 x246 x247 x248 x249 x250 x251 x252 x253 x254 x255 x256 x257 x258 x259 x260 x261 x262 x263 x264 x265 x266 x267 x268 x269 x270 x271 x272 x273 x274 x275 x276 x277 x278 x279 x280 x281 x282 x283 x284 x285 x286 x287 x288 x289 x290 x291 x292 x293 x294 x295 x296 x297 x298 x299 x300 x301 x302 x303 x304 x305 x306 x307 x308 x309 x310 x311 x312 x313 x314 x315 x316 x317 x318 x319 x320 x321 x322 x323 x324 x325 x326 x327 x328 x329 x330 x331 x332 x333 x334 x335 x336 x337 x338 x339 x340 x341 x342 x343 x344 x345 x346 x347 x348 x349 x350 x351 x352 x353 x354 x355 x356 x357 x358 x359 x360 x361 x362 x363 x364 x365 x366 x367 x368 x369 x370 x371 x372 x373 x374 x375 x376 x377 x378 x379 x380 x381 x382 x383 x384 x385 x386 x387 x388 x389 x390 x391 x392 x393 x394 x395 x396 x397 x398 x399 x400 x401 x402 x403 x404 x405 x406 x407 x408 x409 x410 x411 x412 x413 x414 x415 x416 x417 x418 x419 x420 x421 x422 x423 x424 x425 x426 x427 x428 x429 x430 x431 x432 x433 x434 x435 x436 x437 x438 x439 x440 x441 x442 x443 x444 x445 x446 x447 x448 x449 x450 x451 x452 x453 x454 x455 x456 x457 x458 x459 x460 x461 x462 x463 x464 x465 x466 x467 x468 x469 x470 x471 x472 x473 x474 x475 x476 x477 x478 x479 x480 x481 x482 x483 x484 x485 x486 x487 x488 x489 x490 x491 x492 x493 x494 x495 x496 x497 x498 x499 x500
