maximize
OBJ: + 1 x1 + 1 x2 + 1 x3 + 1 x4 + 1 x5 + 1 x6 + 1 x7 + 1 x8 + 1 x9 + 1 x10 + 1 x11 + 1 x12 + 1 x13 + 1 x14 + 1 x15 + 1 x16 + 1 x17 + 1 x18 + 1 x19 + 1 x20 + 1 x21 + 1 x22 + 1 x23 + 1 x24 + 1 x25 + 1 x26 + 1 x27 + 1 x28 + 1 x29 + 1 x30 + 1 x31 + 1 x32 + 1 x33 + 1 x34 + 1 x35 + 1 x36 + 1 x37 + 1 x38 + 1 x39 + 1 x40 + 1 x41 + 1 x42 + 1 x43 + 1 x44 + 1 x45 + 1 x46 + 1 x47 + 1 x48 + 1 x49 + 1 x50 + 1 x51 + 1 x52 + 1 x53 + 1 x54 + 1 x55 + 1 x56 + 1 x57 + 1 x58 + 1 x59 + 1 x60 + 1 x61 + 1 x62 + 1 x63 + 1 x64 + 1 x65 + 1 x66 + 1 x67 + 1 x68 + 1 x69 + 1 x70 + 1 x71 + 1 x72 + 1 x73 + 1 x74 + 1 x75 + 1 x76 + 1 x77 + 1 x78 + 1 x79 + 1 x80 + 1 x81 + 1 x82 + 1 x83 + 1 x84 + 1 x85 + 1 x86 + 1 x87 + 1 x88 + 1 x89 + 1 x90 + 1 x91 + 1 x92 + 1 x93 + 1 x94 + 1 x95 + 1 x96 + 1 x97 + 1 x98 + 1 x99 + 1 x100 + 1 x101 + 1 x102 + 1 x103 + 1 x104 + 1 x105 + 1 x106 + 1 x107 + 1 x108 + 1 x109 + 1 x110 + 1 x111 + 1 x112 + 1 x113 + 1 x114 + 1 x115 + 1 x116 + 1 x117 + 1 x118 + 1 x119 + 1 x120 + 1 x121 + 1 x122 + 1 x123 + 1 x124 + 1 x125 + 1 x126 + 1 x127 + 1 x128 + 1 x129 + 1 x130 + 1 x131 + 1 x132 + 1 x133 + 1 x134 + 1 x135 + 1 x136 + 1 x137 + 1 x138 + 1 x139 + 1 x140 + 1 x141 + 1 x142 + 1 x143 + 1 x144 + 1 x145 + 1 x146 + 1 x147 + 1 x148 + 1 x149 + 1 x150 + 1 x151 + 1 x152 + 1 x153 + 1 x154 + 1 x155 + 1 x156 + 1 x157 + 1 x158 + 1 x159 + 1 x160 + 1 x161 + 1 x162 + 1 x163 + 1 x164 + 1 x165 + 1 x166 + 1 x167 + 1 x168 + 1 x169 + 1 x170 + 1 x171 + 1 x172 + 1 x173 + 1 x174 + 1 x175 + 1 x176 + 1 x177 + 1 x178 + 1 x179 + 1 x180 + 1 x181 + 1 x182 + 1 x183 + 1 x184 + 1 x185 + 1 x186 + 1 x187 + 1 x188 + 1 x189 + 1 x190 + 1 x191 + 1 x192 + 1 x193 + 1 x194 + 1 x195 + 1 x196 + 1 x197 + 1 x198 + 1 x199 + 1 x200 + 1 x201 + 1 x202 + 1 x203 + 1 x204 + 1 x205 + 1 x206 + 1 x207 + 1 x208 + 1 x209 + 1 x210 + 1 x211 + 1 x212 + 1 x213 + 1 x214 + 1 x215 + 1 x216 + 1 x217 + 1 x218 + 1 x219 + 1 x220 + 1 x221 + 1 x222 + 1 x223 + 1 x224 + 1 x225 + 1 x226 + 1 x227 + 1 x228 + 1 x229 + 1 x230 + 1 x231 + 1 x232 + 1 x233 + 1 x234 + 1 x235 + 1 x236 + 1 x237 + 1 x238 + 1 x239 + 1 x240 + 1 x241 + 1 x242 + 1 x243 + 1 x244 + 1 x245 + 1 x246 + 1 x247 + 1 x248 + 1 x249 + 1 x250 + 1 x251 + 1 x252 + 1 x253 + 1 x254 + 1 x255 + 1 x256 + 1 x257 + 1 x258 + 1 x259 + 1 x260 + 1 x261 + 1 x262 + 1 x263 + 1 x264 + 1 x265 + 1 x266 + 1 x267 + 1 x268 + 1 x269 + 1 x270 + 1 x271 + 1 x272 + 1 x273 + 1 x274 + 1 x275 + 1 x276 + 1 x277 + 1 x278 + 1 x279 + 1 x280 + 1 x281 + 1 x282 + 1 x283 + 1 x284 + 1 x285 + 1 x286 + 1 x287 + 1 x288 + 1 x289 + 1 x290 + 1 x291 + 1 x292 + 1 x293 + 1 x294 + 1 x295 + 1 x296 + 1 x297 + 1 x298 + 1 x299 + 1 x300 + 1 x301 + 1 x302 + 1 x303 + 1 x304 + 1 x305 + 1 x306 + 1 x307 + 1 x308 + 1 x309 + 1 x310 + 1 x311 + 1 x312 + 1 x313 + 1 x314 + 1 x315 + 1 x316 + 1 x317 + 1 x318 + 1 x319 + 1 x320 + 1 x321 + 1 x322 + 1 x323 + 1 x324 + 1 x325 + 1 x326 + 1 x327 + 1 x328 + 1 x329 + 1 x330 + 1 x331 + 1 x332 + 1 x333 + 1 x334 + 1 x335 + 1 x336 + 1 x337 + 1 x338 + 1 x339 + 1 x340 + 1 x341 + 1 x342 + 1 x343 + 1 x344 + 1 x345 + 1 x346 + 1 x347 + 1 x348 + 1 x349 + 1 x350 + 1 x351 + 1 x352 + 1 x353 + 1 x354 + 1 x355 + 1 x356 + 1 x357 + 1 x358 + 1 x359 + 1 x360 + 1 x361 + 1 x362 + 1 x363 + 1 x364 + 1 x365 + 1 x366 + 1 x367 + 1 x368 + 1 x369 + 1 x370 + 1 x371 + 1 x372 + 1 x373 + 1 x374 + 1 x375 + 1 x376 + 1 x377 + 1 x378 + 1 x379 + 1 x380 + 1 x381 + 1 x382 + 1 x383 + 1 x384 + 1 x385 + 1 x386 + 1 x387 + 1 x388 + 1 x389 + 1 x390 + 1 x391 + 1 x392 + 1 x393 + 1 x394 + 1 x395 + 1 x396 + 1 x397 + 1 x398 + 1 x399 + 1 x400 + 1 x401 + 1 x402 + 1 x403 + 1 x404 + 1 x405 + 1 x406 + 1 x407 + 1 x408 + 1 x409 + 1 x410 + 1 x411 + 1 x412 + 1 x413 + 1 x414 + 1 x415 + 1 x416 + 1 x417 + 1 x418 + 1 x419 + 1 x420 + 1 x421 + 1 x422 + 1 x423 + 1 x424 + 1 x425 + 1 x426 + 1 x427 + 1 x428 + 1 x429 + 1 x430 + 1 x431 + 1 x432 + 1 x433 + 1 x434 + 1 x435 + 1 x436 + 1 x437 + 1 x438 + 1 x439 + 1 x440 + 1 x441 + 1 x442 + 1 x443 + 1 x444 + 1 x445 + 1 x446 + 1 x447 + 1 x448 + 1 x449 + 1 x450 + 1 x451 + 1 x452 + 1 x453 + 1 x454 + 1 x455 + 1 x456 + 1 x457 + 1 x458 + 1 x459 + 1 x460 + 1 x461 + 1 x462 + 1 x463 + 1 x464 + 1 x465 + 1 x466 + 1 x467 + 1 x468 + 1 x469 + 1 x470 + 1 x471 + 1 x472 + 1 x473 + 1 x474 + 1 x475 + 1 x476 + 1 x477 + 1 x478 + 1 x479 + 1 x480 + 1 x481 + 1 x482 + 1 x483 + 1 x484 + 1 x485 + 1 x486 + 1 x487 + 1 x488 + 1 x489 + 1 x490 + 1 x491 + 1 x492 + 1 x493 + 1 x494 + 1 x495 + 1 x496 + 1 x497 + 1 x498 + 1 x499 + 1 x500

subject to
C1: + x52 + x339 <= 1
C2: + x98 + x121 <= 1
C3: + x101 + x327 <= 1
C4: + x144 + x355 <= 1
C5: + x131 + x393 <= 1
C6: + x79 + x409 <= 1
C7: + x218 + x333 <= 1
C8: + x46 + x231 <= 1
C9: + x3 + x353 <= 1
C10: + x115 + x308 <= 1
C11: + x24 + x27 <= 1
C12: + x55 + x93 <= 1
C13: + x257 + x457 <= 1
C14: + x106 + x378 <= 1
C15: + x6 + x196 <= 1
C16: + x76 + x421 <= 1
C17: + x23 + x215 <= 1
C18: + x32 + x293 <= 1
C19: + x182 + x344 <= 1
C20: + x2 + x271 <= 1
C21: + x155 + x471 <= 1
C22: + x164 + x285 <= 1
C23: + x122 + x304 <= 1
C24: + x68 + x81 <= 1
C25: + x23 + x66 <= 1
C26: + x311 + x420 <= 1
C27: + x130 + x483 <= 1
C28: + x151 + x281 <= 1
C29: + x16 + x35 <= 1
C30: + x10 + x304 <= 1
C31: + x20 + x40 <= 1
C32: + x22 + x451 <= 1
C33: + x92 + x305 <= 1
C34: + x136 + x319 <= 1
C35: + x69 + x279 <= 1
C36: + x23 + x158 <= 1
C37: + x296 + x395 <= 1
C38: + x9 + x39 <= 1
C39: + x200 + x215 <= 1
C40: + x144 + x399 <= 1
C41: + x148 + x277 <= 1
C42: + x30 + x38 <= 1
C43: + x25 + x74 <= 1
C44: + x6 + x426 <= 1
C45: + x7 + x42 <= 1
C46: + x10 + x284 <= 1
C47: + x2 + x90 <= 1
C48: + x257 + x464 <= 1
C49: + x139 + x242 <= 1
C50: + x29 + x396 <= 1
C51: + x24 + x375 <= 1
C52: + x27 + x407 <= 1
C53: + x17 + x324 <= 1
C54: + x73 + x161 <= 1
C55: + x265 + x288 <= 1
C56: + x1 + x243 <= 1
C57: + x104 + x116 <= 1
C58: + x5 + x88 <= 1
C59: + x61 + x496 <= 1
C60: + x2 + x264 <= 1
C61: + x196 + x370 <= 1
C62: + x7 + x102 <= 1
C63: + x66 + x342 <= 1
C64: + x64 + x157 <= 1
C65: + x20 + x371 <= 1
C66: + x4 + x237 <= 1
C67: + x70 + x358 <= 1
C68: + x96 + x168 <= 1
C69: + x35 + x115 <= 1
C70: + x24 + x242 <= 1
C71: + x12 + x157 <= 1
C72: + x31 + x137 <= 1
C73: + x46 + x72 <= 1
C74: + x3 + x13 <= 1
C75: + x1 + x76 + x143 <= 1
C76: + x97 + x261 <= 1
C77: + x96 + x309 <= 1
C78: + x36 + x443 <= 1
C79: + x57 + x331 <= 1
C80: + x40 + x117 <= 1
C81: + x4 + x153 <= 1
C82: + x108 + x235 <= 1
C83: + x17 + x241 <= 1
C84: + x2 + x333 <= 1
C85: + x48 + x149 <= 1
C86: + x73 + x75 <= 1
C87: + x2 + x496 <= 1
C88: + x3 + x65 <= 1
C89: + x40 + x454 <= 1
C90: + x7 + x206 <= 1
C91: + x16 + x275 <= 1
C92: + x36 + x62 <= 1
C93: + x18 + x152 <= 1
C94: + x16 + x202 <= 1
C95: + x86 + x264 <= 1
C96: + x98 + x162 <= 1
C97: + x23 + x225 <= 1
C98: + x188 + x292 <= 1
C99: + x55 + x218 <= 1
C100: + x12 + x460 <= 1
C101: + x1 + x6 <= 1
C102: + x129 + x459 <= 1
C103: + x119 + x200 <= 1
C104: + x4 + x456 <= 1
C105: + x324 + x475 <= 1
C106: + x35 + x239 <= 1
C107: + x65 + x99 <= 1
C108: + x230 + x255 <= 1
C109: + x3 + x8 <= 1
C110: + x61 + x197 <= 1
C111: + x24 + x433 <= 1
C112: + x10 + x437 <= 1
C113: + x92 + x246 <= 1
C114: + x348 + x368 <= 1
C115: + x77 + x360 <= 1
C116: + x129 + x378 <= 1
C117: + x5 + x18 <= 1
C118: + x83 + x291 <= 1
C119: + x410 + x453 <= 1
C120: + x50 + x481 <= 1
C121: + x29 + x144 <= 1
C122: + x277 + x330 <= 1
C123: + x78 + x467 <= 1
C124: + x5 + x260 <= 1
C125: + x17 + x21 <= 1
C126: + x24 + x34 <= 1
C127: + x84 + x267 <= 1
C128: + x106 + x365 <= 1
C129: + x14 + x76 <= 1
C130: + x45 + x451 <= 1
C131: + x57 + x414 <= 1
C132: + x3 + x253 <= 1
C133: + x5 + x70 <= 1
C134: + x32 + x276 <= 1
C135: + x206 + x367 <= 1
C136: + x57 + x123 <= 1
C137: + x85 + x492 <= 1
C138: + x6 + x80 <= 1
C139: + x7 + x88 <= 1
C140: + x80 + x201 <= 1
C141: + x11 + x27 <= 1
C142: + x113 + x410 <= 1
C143: + x36 + x111 <= 1
C144: + x37 + x318 <= 1
C145: + x86 + x341 <= 1
C146: + x22 + x208 <= 1
C147: + x13 + x21 <= 1
C148: + x61 + x127 <= 1
C149: + x65 + x122 <= 1
C150: + x336 + x437 <= 1
C151: + x76 + x170 <= 1
C152: + x107 + x442 <= 1
C153: + x15 + x39 <= 1
C154: + x364 + x385 <= 1
C155: + x170 + x445 <= 1
C156: + x7 + x132 <= 1
C157: + x40 + x107 <= 1
C158: + x60 + x319 <= 1
C159: + x90 + x131 <= 1
C160: + x50 + x325 <= 1
C161: + x285 + x372 <= 1
C162: + x37 + x71 <= 1
C163: + x6 + x40 <= 1
C164: + x7 + x192 <= 1
C165: + x364 + x445 <= 1
C166: + x10 + x61 <= 1
C167: + x375 + x436 <= 1
C168: + x12 + x216 <= 1
C169: + x197 + x218 <= 1
C170: + x6 + x278 <= 1
C171: + x16 + x115 <= 1
C172: + x46 + x255 <= 1
C173: + x23 + x385 <= 1
C174: + x17 + x456 <= 1
C175: + x55 + x117 <= 1
C176: + x328 + x356 <= 1
C177: + x2 + x438 <= 1
C178: + x400 + x444 <= 1
C179: + x43 + x466 <= 1
C180: + x15 + x191 <= 1
C181: + x17 + x357 <= 1
C182: + x36 + x449 <= 1
C183: + x156 + x376 <= 1
C184: + x37 + x293 <= 1
C185: + x273 + x324 <= 1
C186: + x83 + x390 <= 1
C187: + x231 + x449 <= 1
C188: + x13 + x20 <= 1
C189: + x52 + x422 <= 1
C190: + x34 + x243 <= 1
C191: + x338 + x356 <= 1
C192: + x57 + x78 <= 1
C193: + x3 + x429 <= 1
C194: + x422 + x439 <= 1
C195: + x87 + x285 <= 1
C196: + x343 + x450 <= 1
C197: + x182 + x403 <= 1
C198: + x438 + x500 <= 1
C199: + x5 + x8 <= 1
C200: + x32 + x135 <= 1
C201: + x88 + x102 <= 1
C202: + x10 + x213 <= 1
C203: + x18 + x234 <= 1
C204: + x72 + x315 <= 1
C205: + x104 + x462 <= 1
C206: + x87 + x400 <= 1
C207: + x61 + x74 <= 1
C208: + x258 + x468 <= 1
C209: + x6 + x33 <= 1
C210: + x16 + x362 <= 1
C211: + x375 + x395 <= 1
C212: + x47 + x419 <= 1
C213: + x50 + x463 <= 1
C214: + x32 + x203 <= 1
C215: + x17 + x146 <= 1
C216: + x9 + x15 <= 1
C217: + x27 + x249 <= 1
C218: + x50 + x253 <= 1
C219: + x167 + x391 <= 1
C220: + x61 + x158 <= 1
C221: + x235 + x305 <= 1
C222: + x84 + x156 <= 1
C223: + x30 + x300 <= 1
C224: + x24 + x367 <= 1
C225: + x201 + x403 <= 1
C226: + x129 + x480 <= 1
C227: + x10 + x18 <= 1
C228: + x213 + x422 <= 1
C229: + x78 + x394 <= 1
C230: + x68 + x465 <= 1
C231: + x89 + x108 <= 1
C232: + x24 + x121 <= 1
C233: + x153 + x470 <= 1
C234: + x32 + x255 <= 1
C235: + x161 + x329 <= 1
C236: + x72 + x163 <= 1
C237: + x37 + x129 <= 1
C238: + x183 + x383 <= 1
C239: + x196 + x410 <= 1
C240: + x101 + x361 <= 1
C241: + x31 + x120 <= 1
C242: + x5 + x15 <= 1
C243: + x81 + x88 <= 1
C244: + x51 + x412 <= 1
C245: + x33 + x462 <= 1
C246: + x92 + x104 <= 1
C247: + x67 + x407 <= 1
C248: + x77 + x498 <= 1
C249: + x33 + x224 <= 1
C250: + x179 + x339 <= 1
C251: + x97 + x107 <= 1
C252: + x27 + x337 <= 1
C253: + x20 + x21 <= 1
C254: + x3 + x37 <= 1
C255: + x77 + x228 <= 1
C256: + x31 + x36 <= 1
C257: + x34 + x270 <= 1
C258: + x70 + x434 <= 1
C259: + x53 + x85 <= 1
C260: + x237 + x423 <= 1
C261: + x49 + x93 <= 1
C262: + x17 + x54 <= 1
C263: + x10 + x485 <= 1
C264: + x11 + x56 <= 1
C265: + x248 + x252 <= 1
C266: + x261 + x287 <= 1
C267: + x52 + x103 <= 1
C268: + x44 + x198 <= 1
C269: + x99 + x435 <= 1
C270: + x173 + x411 <= 1
C271: + x241 + x457 <= 1
C272: + x86 + x126 <= 1
C273: + x167 + x374 <= 1
C274: + x15 + x60 <= 1
C275: + x6 + x111 <= 1
C276: + x9 + x479 <= 1
C277: + x19 + x71 <= 1
C278: + x11 + x124 <= 1
C279: + x149 + x212 <= 1
C280: + x12 + x271 <= 1
C281: + x5 + x246 <= 1
C282: + x207 + x405 <= 1
C283: + x6 + x349 <= 1
C284: + x45 + x93 <= 1
C285: + x13 + x118 <= 1
C286: + x60 + x417 <= 1
C287: + x18 + x391 <= 1
C288: + x58 + x288 <= 1
C289: + x60 + x179 <= 1
C290: + x53 + x322 <= 1
C291: + x149 + x296 <= 1
C292: + x5 + x58 <= 1
C293: + x260 + x381 <= 1
C294: + x144 + x389 <= 1
C295: + x377 + x396 <= 1
C296: + x96 + x363 <= 1
C297: + x7 + x52 <= 1
C298: + x16 + x260 <= 1
C299: + x149 + x364 <= 1
C300: + x9 + x105 <= 1
C301: + x15 + x36 + x45 <= 1
C302: + x128 + x416 <= 1
C303: + x228 + x367 <= 1
C304: + x220 + x286 <= 1
C305: + x211 + x459 <= 1
C306: + x87 + x131 <= 1
C307: + x222 + x341 <= 1
C308: + x22 + x184 <= 1
C309: + x62 + x268 <= 1
C310: + x317 + x457 <= 1
C311: + x76 + x130 <= 1
C312: + x72 + x439 <= 1
C313: + x32 + x162 <= 1
C314: + x241 + x267 <= 1
C315: + x7 + x43 <= 1
C316: + x8 + x441 <= 1
C317: + x36 + x52 <= 1
C318: + x1 + x256 <= 1
C319: + x20 + x257 <= 1
C320: + x222 + x410 <= 1
C321: + x223 + x282 <= 1
C322: + x214 + x301 <= 1
C323: + x250 + x414 <= 1
C324: + x55 + x109 <= 1
C325: + x55 + x466 <= 1
C326: + x3 + x159 <= 1
C327: + x156 + x211 <= 1
C328: + x159 + x190 <= 1
C329: + x316 + x369 <= 1
C330: + x15 + x284 <= 1
C331: + x135 + x282 <= 1
C332: + x219 + x262 <= 1
C333: + x4 + x7 <= 1
C334: + x116 + x321 <= 1
C335: + x45 + x248 <= 1
C336: + x1 + x425 <= 1
C337: + x5 + x139 <= 1
C338: + x206 + x418 <= 1
C339: + x25 + x479 <= 1
C340: + x11 + x82 <= 1
C341: + x8 + x19 <= 1
C342: + x321 + x333 <= 1
C343: + x148 + x281 <= 1
C344: + x466 + x480 <= 1
C345: + x48 + x140 <= 1
C346: + x31 + x178 <= 1
C347: + x5 + x282 <= 1
C348: + x26 + x66 <= 1
C349: + x80 + x179 <= 1
C350: + x119 + x295 <= 1
C351: + x247 + x364 <= 1
C352: + x8 + x434 <= 1
C353: + x32 + x409 <= 1
C354: + x35 + x173 <= 1
C355: + x219 + x235 <= 1
C356: + x164 + x478 <= 1
C357: + x149 + x165 <= 1
C358: + x9 + x186 <= 1
C359: + x10 + x14 <= 1
C360: + x3 + x231 <= 1
C361: + x41 + x78 <= 1
C362: + x38 + x352 <= 1
C363: + x61 + x492 <= 1
C364: + x48 + x121 <= 1
C365: + x266 + x485 <= 1
C366: + x12 + x310 <= 1
C367: + x61 + x347 <= 1
C368: + x52 + x312 <= 1
C369: + x7 + x336 <= 1
C370: + x48 + x77 <= 1
C371: + x31 + x141 <= 1
C372: + x51 + x174 <= 1
C373: + x4 + x16 <= 1
C374: + x35 + x212 <= 1
C375: + x132 + x226 <= 1
C376: + x251 + x343 <= 1
C377: + x53 + x351 <= 1
C378: + x9 + x320 <= 1
C379: + x282 + x443 <= 1
C380: + x11 + x89 <= 1
C381: + x121 + x399 <= 1
C382: + x5 + x23 <= 1
C383: + x53 + x500 <= 1
C384: + x15 + x303 <= 1
C385: + x99 + x218 <= 1
C386: + x9 + x210 <= 1
C387: + x5 + x257 <= 1
C388: + x6 + x415 <= 1
C389: + x7 + x37 <= 1
C390: + x32 + x37 <= 1
C391: + x34 + x411 <= 1
C392: + x175 + x199 <= 1
C393: + x5 + x91 <= 1
C394: + x6 + x304 <= 1
C395: + x94 + x452 <= 1
C396: + x21 + x102 <= 1
C397: + x13 + x472 <= 1
C398: + x4 + x443 <= 1
C399: + x15 + x24 <= 1
C400: + x61 + x141 <= 1
C401: + x26 + x407 <= 1
C402: + x75 + x224 <= 1
C403: + x94 + x210 <= 1
C404: + x77 + x176 <= 1
C405: + x11 + x32 <= 1
C406: + x67 + x81 <= 1
C407: + x156 + x161 <= 1
C408: + x87 + x152 <= 1
C409: + x317 + x369 <= 1
C410: + x83 + x400 <= 1
C411: + x11 + x241 <= 1
C412: + x299 + x459 <= 1
C413: + x114 + x204 <= 1
C414: + x17 + x93 <= 1
C415: + x172 + x336 <= 1
C416: + x83 + x214 <= 1
C417: + x8 + x222 <= 1
C418: + x19 + x95 <= 1
C419: + x40 + x106 <= 1
C420: + x34 + x291 <= 1
C421: + x279 + x469 <= 1
C422: + x18 + x244 <= 1
C423: + x2 + x346 <= 1
C424: + x214 + x343 <= 1
C425: + x34 + x49 <= 1
C426: + x83 + x101 <= 1
C427: + x182 + x318 <= 1
C428: + x31 + x402 <= 1
C429: + x46 + x351 <= 1
C430: + x113 + x271 <= 1
C431: + x149 + x272 <= 1
C432: + x5 + x66 <= 1
C433: + x11 + x361 <= 1
C434: + x35 + x371 <= 1
C435: + x57 + x220 <= 1
C436: + x57 + x273 <= 1
C437: + x328 + x359 <= 1
C438: + x260 + x406 <= 1
C439: + x117 + x382 <= 1
C440: + x22 + x204 <= 1
C441: + x14 + x298 <= 1
C442: + x24 + x103 <= 1
C443: + x27 + x135 <= 1
C444: + x19 + x364 <= 1
C445: + x299 + x343 <= 1
C446: + x20 + x63 <= 1
C447: + x411 + x467 <= 1
C448: + x23 + x474 <= 1
C449: + x7 + x136 <= 1
C450: + x116 + x146 <= 1
C451: + x53 + x63 <= 1
C452: + x37 + x238 <= 1
C453: + x120 + x277 <= 1
C454: + x11 + x304 <= 1
C455: + x60 + x69 <= 1
C456: + x23 + x329 <= 1
C457: + x191 + x372 <= 1
C458: + x46 + x106 <= 1
C459: + x55 + x61 <= 1
C460: + x37 + x67 <= 1
C461: + x14 + x65 <= 1
C462: + x5 + x172 <= 1
C463: + x83 + x334 <= 1
C464: + x242 + x266 <= 1
C465: + x23 + x247 <= 1
C466: + x9 + x12 <= 1
C467: + x131 + x322 <= 1
C468: + x131 + x139 <= 1
C469: + x112 + x482 <= 1
C470: + x84 + x356 <= 1
C471: + x84 + x151 <= 1
C472: + x167 + x237 <= 1
C473: + x163 + x197 <= 1
C474: + x67 + x456 <= 1
C475: + x3 + x22 <= 1
C476: + x25 + x59 <= 1
C477: + x343 + x454 <= 1
C478: + x80 + x226 <= 1
C479: + x274 + x473 <= 1
C480: + x175 + x272 <= 1
C481: + x145 + x303 <= 1
C482: + x19 + x246 <= 1
C483: + x136 + x446 <= 1
C484: + x139 + x484 <= 1
C485: + x4 + x47 <= 1
C486: + x4 + x486 <= 1
C487: + x7 + x10 <= 1
C488: + x75 + x332 <= 1
C489: + x47 + x145 <= 1
C490: + x49 + x203 <= 1
C491: + x12 + x358 <= 1
C492: + x34 + x430 <= 1
C493: + x279 + x338 <= 1
C494: + x173 + x199 <= 1
C495: + x41 + x42 <= 1
C496: + x29 + x174 <= 1
C497: + x68 + x155 <= 1
C498: + x70 + x163 <= 1
C499: + x116 + x437 <= 1
C500: + x123 + x463 <= 1
C501: + x52 + x276 <= 1
C502: + x228 + x280 <= 1
C503: + x148 + x370 <= 1
C504: + x5 + x433 <= 1
C505: + x73 + x447 <= 1
C506: + x9 + x127 <= 1
C507: + x27 + x137 <= 1
C508: + x232 + x242 <= 1
C509: + x7 + x114 <= 1
C510: + x13 + x150 <= 1
C511: + x5 + x6 + x7 + x9 + x11 <= 1
C512: + x27 + x60 <= 1
C513: + x280 + x352 <= 1
C514: + x29 + x145 <= 1
C515: + x4 + x24 <= 1
C516: + x304 + x484 <= 1
C517: + x3 + x33 <= 1
C518: + x105 + x436 <= 1
C519: + x257 + x423 <= 1
C520: + x167 + x291 <= 1
C521: + x28 + x41 <= 1
C522: + x77 + x381 <= 1
C523: + x36 + x185 <= 1
C524: + x61 + x145 <= 1
C525: + x168 + x258 <= 1
C526: + x84 + x98 + x301 <= 1
C527: + x31 + x439 <= 1
C528: + x206 + x487 <= 1
C529: + x9 + x137 <= 1
C530: + x10 + x31 <= 1
C531: + x120 + x176 <= 1
C532: + x164 + x221 <= 1
C533: + x12 + x182 <= 1
C534: + x20 + x247 <= 1
C535: + x4 + x81 <= 1
C536: + x5 + x448 <= 1
C537: + x17 + x185 <= 1
C538: + x68 + x208 <= 1
C539: + x50 + x275 <= 1
C540: + x209 + x294 <= 1
C541: + x345 + x446 <= 1
C542: + x15 + x270 <= 1
C543: + x73 + x309 <= 1
C544: + x24 + x227 <= 1
C545: + x31 + x337 <= 1
C546: + x155 + x401 <= 1
C547: + x141 + x228 <= 1
C548: + x6 + x31 <= 1
C549: + x7 + x165 <= 1
C550: + x1 + x380 <= 1
C551: + x128 + x455 <= 1
C552: + x111 + x192 <= 1
C553: + x172 + x360 <= 1
C554: + x10 + x92 <= 1
C555: + x17 + x132 <= 1
C556: + x45 + x141 <= 1
C557: + x15 + x346 <= 1
C558: + x73 + x94 <= 1
C559: + x75 + x96 <= 1
C560: + x51 + x311 <= 1
C561: + x20 + x91 <= 1
C562: + x424 + x442 <= 1
C563: + x24 + x490 <= 1
C564: + x65 + x231 <= 1
C565: + x155 + x361 <= 1
C566: + x71 + x164 <= 1
C567: + x14 + x20 <= 1
C568: + x261 + x310 <= 1
C569: + x36 + x123 <= 1
C570: + x1 + x9 <= 1
C571: + x4 + x6 <= 1
C572: + x5 + x491 <= 1
C573: + x164 + x493 <= 1
C574: + x248 + x331 <= 1
C575: + x29 + x497 <= 1
C576: + x38 + x113 <= 1
C577: + x3 + x51 <= 1
C578: + x6 + x8 <= 1
C579: + x338 + x418 <= 1
C580: + x1 + x168 <= 1
C581: + x5 + x45 <= 1
C582: + x307 + x413 <= 1
C583: + x160 + x440 <= 1
C584: + x321 + x330 <= 1
C585: + x4 + x50 <= 1
C586: + x5 + x287 <= 1
C587: + x67 + x94 + x256 <= 1
C588: + x19 + x312 <= 1
C589: + x220 + x347 <= 1
C590: + x46 + x461 <= 1
C591: + x14 + x89 <= 1
C592: + x79 + x95 <= 1
C593: + x154 + x211 <= 1
C594: + x36 + x56 <= 1
C595: + x134 + x373 <= 1
C596: + x48 + x211 <= 1
C597: + x68 + x190 <= 1
C598: + x50 + x216 <= 1
C599: + x247 + x289 <= 1
C600: + x13 + x131 <= 1
C601: + x277 + x411 <= 1
C602: + x36 + x100 <= 1
C603: + x18 + x202 <= 1
C604: + x9 + x227 <= 1
C605: + x47 + x84 <= 1
C606: + x295 + x418 <= 1
C607: + x53 + x191 <= 1
C608: + x45 + x244 <= 1
C609: + x134 + x313 <= 1
C610: + x16 + x43 <= 1
C611: + x36 + x223 <= 1
C612: + x143 + x366 <= 1
C613: + x267 + x335 <= 1
C614: + x12 + x386 <= 1
C615: + x34 + x74 <= 1
C616: + x142 + x169 <= 1
C617: + x181 + x265 <= 1
C618: + x180 + x407 <= 1
C619: + x41 + x361 <= 1
C620: + x63 + x116 <= 1
C621: + x9 + x47 <= 1
C622: + x101 + x104 <= 1
C623: + x391 + x403 <= 1
C624: + x228 + x419 <= 1
C625: + x19 + x142 <= 1
C626: + x293 + x394 <= 1
C627: + x21 + x23 <= 1
C628: + x209 + x223 <= 1
C629: + x83 + x111 <= 1
C630: + x2 + x495 <= 1
C631: + x120 + x425 <= 1
C632: + x47 + x302 <= 1
C633: + x190 + x440 <= 1
C634: + x10 + x50 <= 1
C635: + x28 + x76 <= 1
C636: + x47 + x399 <= 1
C637: + x32 + x223 <= 1
C638: + x24 + x153 <= 1
C639: + x7 + x433 <= 1
C640: + x328 + x458 <= 1
C641: + x250 + x427 <= 1
C642: + x52 + x157 <= 1
C643: + x7 + x94 <= 1
C644: + x10 + x464 <= 1
C645: + x11 + x17 <= 1
C646: + x80 + x98 <= 1
C647: + x1 + x7 <= 1
C648: + x41 + x126 <= 1
C649: + x5 + x473 <= 1
C650: + x389 + x483 <= 1
C651: + x127 + x133 <= 1
C652: + x2 + x300 <= 1
C653: + x3 + x5 <= 1
C654: + x6 + x10 <= 1
C655: + x73 + x228 <= 1
C656: + x10 + x79 <= 1
C657: + x60 + x313 <= 1
C658: + x5 + x19 <= 1
C659: + x226 + x476 <= 1
C660: + x9 + x214 <= 1
C661: + x7 + x384 <= 1
C662: + x33 + x263 <= 1
C663: + x268 + x280 <= 1
C664: + x34 + x52 <= 1
C665: + x22 + x31 + x96 <= 1
C666: + x7 + x25 <= 1
C667: + x9 + x435 <= 1
C668: + x37 + x89 <= 1
C669: + x38 + x87 <= 1
C670: + x310 + x364 <= 1
C671: + x84 + x270 <= 1
C672: + x247 + x359 <= 1
C673: + x48 + x431 <= 1
C674: + x124 + x490 <= 1
C675: + x109 + x260 <= 1
C676: + x27 + x83 <= 1
C677: + x1 + x194 <= 1
C678: + x212 + x467 <= 1
C679: + x13 + x34 <= 1
C680: + x23 + x249 <= 1
C681: + x125 + x236 <= 1
C682: + x65 + x431 <= 1
C683: + x258 + x370 <= 1
C684: + x78 + x81 <= 1
C685: + x15 + x28 <= 1
C686: + x7 + x85 <= 1
C687: + x198 + x290 <= 1
C688: + x9 + x348 <= 1
C689: + x245 + x357 <= 1
C690: + x82 + x380 <= 1
C691: + x9 + x78 <= 1
C692: + x80 + x377 <= 1
C693: + x36 + x205 <= 1
C694: + x67 + x224 <= 1
C695: + x212 + x305 <= 1
C696: + x12 + x448 <= 1
C697: + x3 + x32 <= 1
C698: + x112 + x420 <= 1
C699: + x9 + x299 <= 1
C700: + x101 + x380 <= 1
C701: + x83 + x283 <= 1
C702: + x212 + x400 <= 1
C703: + x60 + x306 <= 1
C704: + x5 + x26 <= 1
C705: + x72 + x317 <= 1
C706: + x111 + x309 <= 1
C707: + x248 + x455 <= 1
C708: + x34 + x53 <= 1
C709: + x351 + x398 <= 1
C710: + x46 + x109 <= 1
C711: + x58 + x268 <= 1
C712: + x21 + x311 <= 1
C713: + x18 + x318 <= 1
C714: + x42 + x440 <= 1
C715: + x98 + x179 <= 1
C716: + x5 + x411 <= 1
C717: + x142 + x445 <= 1
C718: + x371 + x424 <= 1
C719: + x227 + x279 <= 1
C720: + x37 + x215 <= 1
C721: + x76 + x303 <= 1
C722: + x244 + x451 <= 1
C723: + x5 + x320 <= 1
C724: + x179 + x406 <= 1
C725: + x19 + x469 <= 1
C726: + x2 + x128 <= 1
C727: + x90 + x255 <= 1
C728: + x7 + x233 <= 1
C729: + x80 + x419 <= 1
C730: + x83 + x387 <= 1
C731: + x464 + x469 <= 1
C732: + x105 + x172 <= 1
C733: + x22 + x216 <= 1
C734: + x61 + x458 <= 1
C735: + x53 + x140 <= 1
C736: + x145 + x413 <= 1
C737: + x58 + x321 <= 1
C738: + x30 + x451 <= 1
C739: + x60 + x236 <= 1
C740: + x167 + x377 <= 1
C741: + x199 + x316 <= 1
C742: + x10 + x121 <= 1
C743: + x2 + x12 <= 1
C744: + x37 + x437 <= 1
C745: + x67 + x124 <= 1
C746: + x22 + x57 <= 1
C747: + x40 + x99 <= 1
C748: + x69 + x268 <= 1
C749: + x245 + x312 <= 1
C750: + x61 + x75 <= 1
C751: + x376 + x405 <= 1
C752: + x5 + x152 <= 1
C753: + x353 + x428 <= 1
C754: + x52 + x323 <= 1
C755: + x63 + x486 <= 1
C756: + x4 + x429 <= 1
C757: + x17 + x64 <= 1
C758: + x262 + x268 <= 1
C759: + x83 + x144 <= 1
C760: + x35 + x138 <= 1
C761: + x11 + x14 <= 1
C762: + x57 + x231 <= 1
C763: + x147 + x230 <= 1
C764: + x172 + x289 <= 1
C765: + x129 + x465 <= 1
C766: + x40 + x139 <= 1
C767: + x43 + x379 <= 1
C768: + x57 + x86 <= 1
C769: + x29 + x103 <= 1
C770: + x50 + x176 <= 1
C771: + x43 + x105 <= 1
C772: + x5 + x363 <= 1
C773: + x144 + x344 <= 1
C774: + x113 + x325 <= 1
C775: + x41 + x482 <= 1
C776: + x5 + x16 <= 1
C777: + x107 + x206 <= 1
C778: + x35 + x205 <= 1
C779: + x7 + x14 <= 1
C780: + x310 + x327 <= 1
C781: + x247 + x332 <= 1
C782: + x49 + x207 <= 1
C783: + x11 + x440 <= 1
C784: + x97 + x382 <= 1
C785: + x159 + x217 <= 1
C786: + x6 + x41 <= 1
C787: + x28 + x88 <= 1
C788: + x11 + x166 <= 1
C789: + x41 + x46 <= 1
C790: + x31 + x33 <= 1
C791: + x13 + x207 <= 1
C792: + x39 + x72 <= 1
C793: + x98 + x376 <= 1
C794: + x298 + x387 <= 1
C795: + x9 + x55 <= 1
C796: + x67 + x428 <= 1
C797: + x57 + x238 <= 1
C798: + x3 + x122 <= 1
C799: + x16 + x241 <= 1
C800: + x10 + x26 <= 1
C801: + x84 + x127 <= 1
C802: + x338 + x349 <= 1
C803: + x211 + x227 <= 1
C804: + x56 + x253 <= 1
C805: + x12 + x32 <= 1
C806: + x7 + x118 <= 1
C807: + x59 + x95 <= 1
C808: + x205 + x466 <= 1
C809: + x20 + x194 <= 1
C810: + x41 + x134 <= 1
C811: + x31 + x153 <= 1
C812: + x94 + x368 <= 1
C813: + x32 + x354 <= 1
C814: + x17 + x114 <= 1
C815: + x115 + x322 <= 1
C816: + x54 + x149 <= 1
C817: + x243 + x395 <= 1
C818: + x264 + x496 <= 1
C819: + x4 + x20 + x161 <= 1
C820: + x18 + x289 <= 1
C821: + x144 + x182 <= 1
C822: + x121 + x379 <= 1
C823: + x31 + x44 <= 1
C824: + x81 + x124 <= 1
C825: + x354 + x393 <= 1
C826: + x228 + x436 <= 1
C827: + x2 + x381 <= 1
C828: + x94 + x292 <= 1
C829: + x50 + x238 <= 1
C830: + x98 + x492 <= 1
C831: + x45 + x311 <= 1
C832: + x8 + x323 <= 1
C833: + x27 + x365 <= 1
C834: + x84 + x169 <= 1
C835: + x76 + x200 <= 1
C836: + x178 + x404 <= 1
C837: + x23 + x120 <= 1
C838: + x99 + x189 <= 1
C839: + x145 + x160 <= 1
C840: + x245 + x414 <= 1
C841: + x111 + x354 <= 1
C842: + x30 + x430 <= 1
C843: + x419 + x444 <= 1
C844: + x267 + x458 <= 1
C845: + x125 + x390 <= 1
C846: + x36 + x122 <= 1
C847: + x196 + x280 <= 1
C848: + x13 + x443 <= 1
C849: + x324 + x491 <= 1
C850: + x9 + x86 <= 1
C851: + x3 + x56 <= 1
C852: + x41 + x383 <= 1
C853: + x40 + x415 <= 1
C854: + x50 + x150 <= 1
C855: + x190 + x494 <= 1
C856: + x10 + x389 <= 1
C857: + x103 + x237 <= 1
C858: + x23 + x160 <= 1
C859: + x26 + x362 <= 1
C860: + x198 + x201 <= 1
C861: + x144 + x397 <= 1
C862: + x59 + x188 <= 1
C863: + x4 + x319 <= 1
C864: + x52 + x358 <= 1
C865: + x245 + x328 <= 1
C866: + x19 + x39 <= 1
C867: + x92 + x178 <= 1
C868: + x203 + x405 <= 1
C869: + x105 + x136 <= 1
C870: + x30 + x217 <= 1
C871: + x32 + x213 <= 1
C872: + x250 + x413 <= 1
C873: + x41 + x229 <= 1
C874: + x5 + x328 <= 1
C875: + x53 + x269 <= 1
C876: + x11 + x107 <= 1
C877: + x6 + x243 <= 1
C878: + x26 + x154 <= 1
C879: + x24 + x329 <= 1
C880: + x231 + x474 <= 1
C881: + x4 + x10 <= 1
C882: + x124 + x293 <= 1
C883: + x22 + x363 <= 1
C884: + x6 + x481 <= 1
C885: + x99 + x123 <= 1
C886: + x9 + x314 <= 1
C887: + x173 + x355 <= 1
C888: + x228 + x323 <= 1
C889: + x182 + x442 <= 1
C890: + x375 + x408 <= 1
C891: + x30 + x158 <= 1
C892: + x69 + x276 <= 1
C893: + x215 + x471 <= 1
C894: + x5 + x41 <= 1
C895: + x6 + x370 <= 1
C896: + x1 + x89 <= 1
C897: + x8 + x14 <= 1
C898: + x38 + x206 <= 1
C899: + x105 + x128 <= 1
C900: + x48 + x139 <= 1
C901: + x24 + x47 <= 1
C902: + x75 + x226 <= 1
C903: + x284 + x326 <= 1
C904: + x28 + x119 <= 1
C905: + x246 + x377 <= 1
C906: + x64 + x450 <= 1
C907: + x4 + x67 <= 1
C908: + x13 + x48 <= 1
C909: + x25 + x254 <= 1
C910: + x112 + x470 <= 1
C911: + x5 + x335 <= 1
C912: + x17 + x472 <= 1
C913: + x7 + x95 <= 1
C914: + x200 + x421 <= 1
C915: + x19 + x488 <= 1
C916: + x84 + x131 <= 1
C917: + x113 + x353 <= 1
C918: + x114 + x375 <= 1
C919: + x32 + x99 <= 1
C920: + x71 + x397 <= 1
C921: + x77 + x279 <= 1
C922: + x17 + x103 <= 1
C923: + x26 + x62 <= 1
C924: + x84 + x317 <= 1
C925: + x66 + x151 <= 1
C926: + x39 + x263 <= 1
C927: + x403 + x419 <= 1
C928: + x116 + x488 <= 1
C929: + x6 + x13 <= 1
C930: + x55 + x486 <= 1
C931: + x12 + x225 <= 1
C932: + x34 + x297 <= 1
C933: + x90 + x188 <= 1
C934: + x317 + x335 <= 1
C935: + x93 + x385 <= 1
C936: + x11 + x315 <= 1
C937: + x85 + x294 <= 1
C938: + x7 + x38 <= 1
C939: + x134 + x233 <= 1
C940: + x11 + x416 <= 1
C941: + x120 + x421 <= 1
C942: + x29 + x416 <= 1
C943: + x36 + x271 <= 1
C944: + x176 + x345 <= 1
C945: + x75 + x233 <= 1
C946: + x77 + x245 <= 1
C947: + x181 + x345 <= 1
C948: + x23 + x25 <= 1
C949: + x9 + x162 <= 1
C950: + x37 + x336 <= 1
C951: + x20 + x274 <= 1
C952: + x11 + x142 <= 1
C953: + x43 + x147 <= 1
C954: + x87 + x495 <= 1
C955: + x18 + x54 <= 1
C956: + x40 + x242 <= 1
C957: + x64 + x352 <= 1
C958: + x58 + x125 <= 1
C959: + x267 + x483 <= 1
C960: + x190 + x392 <= 1
C961: + x67 + x499 <= 1
C962: + x94 + x372 <= 1
C963: + x451 + x489 <= 1
C964: + x184 + x189 <= 1
C965: + x5 + x453 <= 1
C966: + x157 + x232 <= 1
C967: + x49 + x404 <= 1
C968: + x34 + x290 <= 1
C969: + x5 + x31 <= 1
C970: + x31 + x374 <= 1
C971: + x5 + x265 <= 1
C972: + x34 + x56 <= 1
C973: + x7 + x29 <= 1
C974: + x36 + x312 <= 1
C975: + x5 + x174 <= 1
C976: + x308 + x346 <= 1
C977: + x7 + x259 <= 1
C978: + x76 + x79 <= 1
C979: + x41 + x61 <= 1
C980: + x83 + x340 <= 1
C981: + x175 + x207 <= 1
C982: + x50 + x472 <= 1
C983: + x14 + x170 <= 1
C984: + x32 + x196 <= 1
C985: + x12 + x49 <= 1
C986: + x149 + x494 <= 1
C987: + x196 + x355 <= 1
C988: + x5 + x317 <= 1
C989: + x6 + x75 <= 1
C990: + x80 + x216 <= 1
C991: + x365 + x494 <= 1
C992: + x51 + x431 <= 1
C993: + x197 + x402 <= 1
C994: + x198 + x302 <= 1
C995: + x17 + x355 <= 1
C996: + x214 + x267 <= 1
C997: + x107 + x181 <= 1
C998: + x5 + x119 <= 1
C999: + x5 + x452 <= 1
C1000: + x9 + x114 <= 1
C1001: + x11 + x350 <= 1
C1002: + x3 + x28 <= 1
C1003: + x131 + x197 <= 1
C1004: + x35 + x328 <= 1
C1005: + x16 + x348 <= 1
C1006: + x65 + x156 <= 1
C1007: + x144 + x151 <= 1
C1008: + x258 + x429 <= 1
C1009: + x60 + x310 <= 1
C1010: + x88 + x108 <= 1
C1011: + x6 + x146 <= 1
C1012: + x16 + x182 <= 1
C1013: + x100 + x130 <= 1
C1014: + x40 + x197 <= 1
C1015: + x42 + x254 <= 1
C1016: + x178 + x342 <= 1
C1017: + x80 + x137 <= 1
C1018: + x263 + x345 <= 1
C1019: + x37 + x68 <= 1
C1020: + x322 + x488 <= 1
C1021: + x50 + x110 <= 1
C1022: + x332 + x371 <= 1
C1023: + x35 + x284 <= 1
C1024: + x36 + x412 <= 1
C1025: + x10 + x40 <= 1
C1026: + x12 + x203 <= 1
C1027: + x24 + x171 <= 1
C1028: + x9 + x13 <= 1
C1029: + x50 + x300 <= 1
C1030: + x204 + x234 <= 1
C1031: + x5 + x316 <= 1
C1032: + x321 + x396 <= 1
C1033: + x429 + x498 <= 1
C1034: + x22 + x113 <= 1
C1035: + x132 + x327 <= 1
C1036: + x9 + x156 <= 1
C1037: + x59 + x474 <= 1
C1038: + x101 + x394 <= 1
C1039: + x58 + x256 <= 1
C1040: + x139 + x171 <= 1
C1041: + x48 + x373 <= 1
C1042: + x176 + x292 <= 1
C1043: + x15 + x51 <= 1
C1044: + x7 + x128 <= 1
C1045: + x114 + x342 <= 1
C1046: + x13 + x160 <= 1
C1047: + x5 + x13 <= 1
C1048: + x98 + x244 <= 1
C1049: + x36 + x71 <= 1
C1050: + x172 + x175 <= 1
C1051: + x2 + x171 <= 1
C1052: + x20 + x184 <= 1
C1053: + x75 + x80 + x117 <= 1
C1054: + x63 + x252 <= 1
C1055: + x10 + x315 <= 1
C1056: + x57 + x159 <= 1
C1057: + x76 + x146 <= 1
C1058: + x12 + x357 <= 1
C1059: + x35 + x275 <= 1
C1060: + x145 + x234 <= 1
C1061: + x6 + x44 <= 1
C1062: + x1 + x212 <= 1
C1063: + x76 + x125 <= 1
C1064: + x7 + x59 <= 1
C1065: + x144 + x209 <= 1
C1066: + x31 + x77 <= 1
C1067: + x9 + x334 <= 1
C1068: + x245 + x375 <= 1
C1069: + x145 + x166 <= 1
C1070: + x181 + x183 <= 1
C1071: + x166 + x295 <= 1
C1072: + x305 + x383 <= 1
C1073: + x94 + x351 <= 1
C1074: + x52 + x434 <= 1
C1075: + x22 + x221 <= 1
C1076: + x242 + x382 <= 1
C1077: + x37 + x142 <= 1
C1078: + x20 + x80 <= 1
C1079: + x46 + x167 <= 1
C1080: + x52 + x132 <= 1
C1081: + x246 + x274 <= 1
C1082: + x166 + x184 <= 1
C1083: + x5 + x12 <= 1
C1084: + x35 + x104 <= 1
C1085: + x4 + x23 <= 1
C1086: + x40 + x258 <= 1
C1087: + x31 + x150 <= 1
C1088: + x15 + x421 <= 1
C1089: + x27 + x350 <= 1
C1090: + x197 + x475 <= 1
C1091: + x98 + x102 <= 1
C1092: + x119 + x424 <= 1
C1093: + x456 + x466 <= 1
C1094: + x361 + x423 <= 1
C1095: + x215 + x450 <= 1
C1096: + x235 + x388 <= 1
C1097: + x84 + x406 <= 1
C1098: + x248 + x485 <= 1
C1099: + x32 + x425 <= 1
C1100: + x17 + x43 <= 1
C1101: + x35 + x157 <= 1
C1102: + x200 + x386 <= 1
C1103: + x37 + x38 <= 1
C1104: + x55 + x92 <= 1
C1105: + x185 + x476 <= 1
C1106: + x105 + x353 <= 1
C1107: + x87 + x177 <= 1
C1108: + x6 + x217 <= 1
C1109: + x262 + x404 <= 1
C1110: + x360 + x424 <= 1
C1111: + x250 + x316 <= 1
C1112: + x31 + x209 <= 1
C1113: + x107 + x162 <= 1
C1114: + x70 + x481 <= 1
C1115: + x142 + x415 <= 1
C1116: + x61 + x476 <= 1
C1117: + x5 + x441 <= 1
C1118: + x6 + x311 <= 1
C1119: + x244 + x481 <= 1
C1120: + x59 + x250 <= 1
C1121: + x123 + x314 <= 1
C1122: + x13 + x297 <= 1
C1123: + x101 + x285 <= 1
C1124: + x11 + x101 <= 1
C1125: + x69 + x358 <= 1
C1126: + x52 + x296 <= 1
C1127: + x14 + x26 <= 1
C1128: + x90 + x153 <= 1
C1129: + x4 + x225 <= 1
C1130: + x224 + x308 <= 1
C1131: + x135 + x289 <= 1
C1132: + x38 + x148 <= 1
C1133: + x112 + x125 <= 1
C1134: + x20 + x198 <= 1
C1135: + x148 + x326 <= 1
C1136: + x162 + x391 <= 1
C1137: + x9 + x83 <= 1
C1138: + x49 + x250 <= 1
C1139: + x375 + x381 <= 1
C1140: + x58 + x214 <= 1
C1141: + x33 + x73 <= 1
C1142: + x61 + x314 <= 1
C1143: + x15 + x73 <= 1
C1144: + x36 + x399 <= 1
C1145: + x22 + x27 <= 1
C1146: + x31 + x48 <= 1
C1147: + x15 + x230 <= 1
C1148: + x119 + x141 <= 1
C1149: + x2 + x369 <= 1
C1150: + x194 + x252 <= 1
C1151: + x186 + x199 <= 1
C1152: + x34 + x48 <= 1
C1153: + x5 + x273 <= 1
C1154: + x36 + x288 <= 1
C1155: + x257 + x459 <= 1
C1156: + x50 + x432 <= 1
C1157: + x17 + x177 <= 1
C1158: + x6 + x320 <= 1
C1159: + x350 + x469 <= 1
C1160: + x243 + x303 <= 1
C1161: + x65 + x232 <= 1
C1162: + x84 + x326 <= 1
C1163: + x94 + x194 <= 1
C1164: + x48 + x487 <= 1
C1165: + x299 + x475 <= 1
C1166: + x4 + x5 <= 1
C1167: + x53 + x177 <= 1
C1168: + x27 + x176 <= 1
C1169: + x230 + x320 <= 1
C1170: + x375 + x376 <= 1
C1171: + x123 + x277 <= 1
C1172: + x23 + x55 <= 1
C1173: + x15 + x84 <= 1
C1174: + x74 + x201 <= 1
C1175: + x424 + x493 <= 1
C1176: + x11 + x84 <= 1
C1177: + x22 + x36 <= 1
C1178: + x5 + x46 <= 1
C1179: + x33 + x191 <= 1
C1180: + x78 + x106 <= 1
C1181: + x92 + x420 <= 1
C1182: + x32 + x62 <= 1
C1183: + x73 + x163 <= 1
C1184: + x7 + x286 <= 1
C1185: + x57 + x402 <= 1
C1186: + x178 + x236 <= 1
C1187: + x14 + x187 <= 1
C1188: + x36 + x369 <= 1
C1189: + x10 + x454 <= 1
C1190: + x31 + x110 <= 1
C1191: + x87 + x159 <= 1
C1192: + x171 + x265 <= 1
C1193: + x3 + x10 + x16 <= 1
C1194: + x8 + x86 <= 1
C1195: + x324 + x472 <= 1
C1196: + x15 + x91 <= 1
C1197: + x119 + x126 <= 1
C1198: + x105 + x199 <= 1
C1199: + x22 + x45 <= 1
C1200: + x5 + x21 <= 1
C1201: + x169 + x220 <= 1
C1202: + x295 + x306 <= 1
C1203: + x10 + x168 <= 1
C1204: + x321 + x322 <= 1
C1205: + x38 + x202 <= 1
C1206: + x286 + x360 <= 1
C1207: + x196 + x333 <= 1
C1208: + x60 + x386 <= 1
C1209: + x42 + x143 <= 1
C1210: + x73 + x77 <= 1
C1211: + x36 + x270 <= 1
C1212: + x129 + x175 <= 1
C1213: + x111 + x389 <= 1
C1214: + x56 + x286 <= 1
C1215: + x92 + x441 <= 1
C1216: + x118 + x444 <= 1
C1217: + x27 + x73 <= 1
C1218: + x63 + x498 <= 1
C1219: + x237 + x288 <= 1
C1220: + x31 + x198 <= 1
C1221: + x10 + x148 <= 1
C1222: + x57 + x118 <= 1
C1223: + x4 + x441 <= 1
C1224: + x81 + x140 <= 1
C1225: + x208 + x334 <= 1
C1226: + x83 + x164 <= 1
C1227: + x15 + x18 <= 1
C1228: + x17 + x460 <= 1
C1229: + x284 + x406 <= 1
C1230: + x1 + x310 <= 1
C1231: + x200 + x417 <= 1
C1232: + x181 + x461 <= 1
C1233: + x206 + x453 <= 1
C1234: + x16 + x160 <= 1
C1235: + x250 + x283 <= 1
C1236: + x40 + x294 <= 1
C1237: + x3 + x6 <= 1
C1238: + x12 + x442 <= 1
C1239: + x13 + x266 <= 1
C1240: + x113 + x500 <= 1
C1241: + x163 + x379 <= 1
C1242: + x114 + x167 <= 1
C1243: + x184 + x209 <= 1
C1244: + x107 + x210 <= 1
C1245: + x77 + x455 <= 1
C1246: + x119 + x307 <= 1
C1247: + x93 + x290 <= 1
C1248: + x32 + x36 <= 1
C1249: + x89 + x183 <= 1
C1250: + x9 + x273 <= 1
C1251: + x11 + x138 <= 1
C1252: + x194 + x384 <= 1
C1253: + x378 + x395 <= 1
C1254: + x13 + x35 <= 1
C1255: + x50 + x467 <= 1
C1256: + x43 + x326 <= 1
C1257: + x152 + x480 <= 1
C1258: + x10 + x149 <= 1
C1259: + x49 + x170 <= 1
C1260: + x3 + x110 <= 1
C1261: + x217 + x323 <= 1
C1262: + x125 + x431 <= 1
C1263: + x202 + x377 <= 1
C1264: + x122 + x164 <= 1
C1265: + x30 + x251 <= 1
C1266: + x31 + x249 <= 1
C1267: + x92 + x282 <= 1
C1268: + x57 + x347 <= 1
C1269: + x59 + x67 <= 1
C1270: + x22 + x63 <= 1
C1271: + x5 + x27 <= 1
C1272: + x27 + x44 <= 1
C1273: + x1 + x43 <= 1
C1274: + x273 + x379 <= 1
C1275: + x232 + x396 <= 1
C1276: + x7 + x17 <= 1
C1277: + x10 + x269 <= 1
C1278: + x117 + x439 <= 1
C1279: + x172 + x383 <= 1
C1280: + x246 + x343 <= 1
C1281: + x25 + x283 <= 1
C1282: + x34 + x165 <= 1
C1283: + x108 + x350 <= 1
C1284: + x228 + x416 <= 1
C1285: + x131 + x324 <= 1
C1286: + x291 + x500 <= 1
C1287: + x58 + x485 <= 1
C1288: + x4 + x97 <= 1
C1289: + x53 + x149 <= 1
C1290: + x20 + x70 <= 1
C1291: + x241 + x477 <= 1
C1292: + x14 + x392 <= 1
C1293: + x88 + x129 <= 1
C1294: + x20 + x344 <= 1
C1295: + x114 + x337 <= 1
C1296: + x32 + x129 <= 1
C1297: + x108 + x212 <= 1
C1298: + x19 + x248 <= 1
C1299: + x47 + x50 <= 1
C1300: + x47 + x147 <= 1
C1301: + x14 + x124 <= 1
C1302: + x198 + x495 <= 1
C1303: + x63 + x82 <= 1
C1304: + x11 + x188 <= 1
C1305: + x55 + x264 <= 1
C1306: + x40 + x82 <= 1
C1307: + x32 + x181 <= 1
C1308: + x81 + x468 <= 1
C1309: + x36 + x178 <= 1
C1310: + x249 + x331 <= 1
C1311: + x349 + x390 <= 1
C1312: + x112 + x493 <= 1
C1313: + x51 + x193 <= 1
C1314: + x316 + x386 <= 1
C1315: + x52 + x243 <= 1
C1316: + x104 + x388 <= 1
C1317: + x84 + x359 <= 1
C1318: + x15 + x491 <= 1
C1319: + x1 + x283 <= 1
C1320: + x37 + x52 <= 1
C1321: + x2 + x397 <= 1
C1322: + x70 + x328 <= 1
C1323: + x130 + x187 <= 1
C1324: + x77 + x219 <= 1
C1325: + x168 + x238 <= 1
C1326: + x58 + x494 <= 1
C1327: + x29 + x195 <= 1
C1328: + x12 + x187 <= 1
C1329: + x260 + x317 <= 1
C1330: + x43 + x181 <= 1
C1331: + x243 + x477 <= 1
C1332: + x245 + x393 <= 1
C1333: + x34 + x138 <= 1
C1334: + x17 + x80 <= 1
C1335: + x88 + x315 <= 1
C1336: + x30 + x112 <= 1
C1337: + x107 + x373 <= 1
C1338: + x341 + x495 <= 1
C1339: + x20 + x75 <= 1
C1340: + x25 + x64 <= 1
C1341: + x344 + x453 <= 1
C1342: + x133 + x236 <= 1
C1343: + x7 + x116 <= 1
C1344: + x9 + x474 <= 1
C1345: + x3 + x180 <= 1
C1346: + x7 + x354 <= 1
C1347: + x26 + x33 <= 1
C1348: + x18 + x388 <= 1
C1349: + x10 + x319 <= 1
C1350: + x20 + x462 <= 1
C1351: + x59 + x200 <= 1
C1352: + x4 + x264 <= 1
C1353: + x23 + x34 <= 1
C1354: + x99 + x111 <= 1
C1355: + x266 + x352 <= 1
C1356: + x28 + x484 <= 1
C1357: + x17 + x409 <= 1
C1358: + x220 + x478 <= 1
C1359: + x264 + x277 <= 1
C1360: + x5 + x61 <= 1
C1361: + x16 + x67 <= 1
C1362: + x10 + x144 <= 1
C1363: + x30 + x85 <= 1
C1364: + x77 + x109 <= 1
C1365: + x23 + x401 <= 1
C1366: + x10 + x491 <= 1
C1367: + x229 + x251 <= 1
C1368: + x11 + x54 <= 1
C1369: + x84 + x368 <= 1
C1370: + x50 + x87 <= 1
C1371: + x141 + x223 <= 1
C1372: + x74 + x171 <= 1
C1373: + x97 + x331 <= 1
C1374: + x27 + x392 <= 1
C1375: + x27 + x32 + x53 <= 1
C1376: + x12 + x180 <= 1
C1377: + x17 + x71 <= 1
C1378: + x154 + x465 <= 1
C1379: + x3 + x445 <= 1
C1380: + x59 + x251 <= 1
C1381: + x87 + x301 <= 1
C1382: + x10 + x106 <= 1
C1383: + x2 + x5 <= 1
C1384: + x166 + x180 <= 1
C1385: + x167 + x213 <= 1
C1386: + x51 + x401 <= 1
C1387: + x15 + x272 <= 1
C1388: + x7 + x345 <= 1
C1389: + x210 + x365 <= 1
C1390: + x174 + x180 <= 1
C1391: + x250 + x259 <= 1
C1392: + x20 + x193 <= 1
C1393: + x31 + x154 <= 1
C1394: + x31 + x339 <= 1
C1395: + x107 + x292 <= 1
C1396: + x98 + x287 <= 1
C1397: + x344 + x435 <= 1
C1398: + x26 + x42 <= 1
C1399: + x81 + x307 <= 1
C1400: + x3 + x62 <= 1
C1401: + x50 + x148 <= 1
C1402: + x195 + x295 <= 1
C1403: + x5 + x135 <= 1
C1404: + x6 + x17 <= 1
C1405: + x24 + x427 <= 1
C1406: + x54 + x55 <= 1
C1407: + x164 + x321 <= 1
C1408: + x19 + x40 + x432 <= 1
C1409: + x5 + x60 <= 1
C1410: + x37 + x205 <= 1
C1411: + x17 + x47 <= 1
C1412: + x9 + x412 <= 1
C1413: + x57 + x299 <= 1
C1414: + x53 + x408 <= 1
C1415: + x172 + x229 <= 1
C1416: + x55 + x302 <= 1
C1417: + x94 + x340 <= 1
C1418: + x214 + x290 <= 1
C1419: + x25 + x316 <= 1
C1420: + x371 + x390 <= 1
C1421: + x51 + x313 <= 1
C1422: + x289 + x398 <= 1
C1423: + x65 + x72 <= 1
C1424: + x127 + x169 <= 1
C1425: + x48 + x204 <= 1
C1426: + x68 + x384 <= 1
C1427: + x40 + x422 <= 1
C1428: + x236 + x239 <= 1
C1429: + x120 + x493 <= 1
C1430: + x2 + x30 <= 1
C1431: + x367 + x483 <= 1
C1432: + x33 + x478 <= 1
C1433: + x14 + x22 <= 1
C1434: + x117 + x284 <= 1
C1435: + x53 + x476 <= 1
C1436: + x20 + x202 <= 1
C1437: + x160 + x293 <= 1
C1438: + x81 + x298 <= 1
C1439: + x9 + x87 <= 1
C1440: + x3 + x53 <= 1
C1441: + x123 + x266 <= 1
C1442: + x6 + x26 <= 1
C1443: + x207 + x269 <= 1
C1444: + x84 + x196 <= 1
C1445: + x4 + x145 <= 1
C1446: + x5 + x35 <= 1
C1447: + x29 + x185 <= 1
C1448: + x105 + x122 <= 1
C1449: + x77 + x99 <= 1
C1450: + x214 + x245 <= 1
C1451: + x9 + x387 <= 1
C1452: + x130 + x142 <= 1
C1453: + x77 + x200 <= 1
C1454: + x6 + x206 <= 1
C1455: + x369 + x417 <= 1
C1456: + x98 + x170 <= 1
C1457: + x452 + x468 <= 1
C1458: + x198 + x252 <= 1
C1459: + x119 + x349 <= 1
C1460: + x111 + x362 <= 1
C1461: + x75 + x446 <= 1
C1462: + x26 + x28 + x105 <= 1
C1463: + x115 + x482 <= 1
C1464: + x79 + x204 <= 1
C1465: + x261 + x414 <= 1
C1466: + x263 + x426 <= 1
C1467: + x142 + x247 <= 1
C1468: + x94 + x222 <= 1
C1469: + x5 + x230 <= 1
C1470: + x119 + x208 <= 1
C1471: + x112 + x130 <= 1
C1472: + x40 + x308 <= 1
C1473: + x98 + x297 <= 1
C1474: + x24 + x86 <= 1
C1475: + x47 + x175 <= 1
C1476: + x49 + x245 <= 1
C1477: + x57 + x330 <= 1
C1478: + x5 + x42 <= 1
C1479: + x16 + x90 <= 1
C1480: + x190 + x244 <= 1
C1481: + x75 + x497 <= 1
C1482: + x94 + x309 <= 1
C1483: + x109 + x486 <= 1
C1484: + x155 + x425 <= 1
C1485: + x58 + x175 <= 1
C1486: + x6 + x55 <= 1
C1487: + x79 + x164 <= 1
C1488: + x7 + x274 <= 1
C1489: + x282 + x452 <= 1
C1490: + x301 + x426 <= 1
C1491: + x94 + x166 <= 1
C1492: + x212 + x460 <= 1
C1493: + x115 + x235 <= 1
C1494: + x34 + x150 <= 1
C1495: + x24 + x159 <= 1
C1496: + x119 + x344 <= 1
C1497: + x54 + x219 <= 1
C1498: + x89 + x348 <= 1
C1499: + x15 + x19 <= 1
C1500: + x7 + x96 <= 1
C1501: + x50 + x54 <= 1
C1502: + x36 + x468 <= 1
C1503: + x1 + x5 <= 1
C1504: + x13 + x29 <= 1
C1505: + x5 + x479 <= 1
C1506: + x6 + x489 <= 1
C1507: + x50 + x135 <= 1
C1508: + x150 + x257 <= 1
C1509: + x82 + x203 <= 1
C1510: + x172 + x329 <= 1
C1511: + x10 + x73 <= 1
C1512: + x93 + x253 <= 1
C1513: + x3 + x172 <= 1
C1514: + x141 + x372 <= 1
C1515: + x7 + x378 <= 1
C1516: + x309 + x477 <= 1
C1517: + x196 + x305 <= 1
C1518: + x6 + x413 <= 1
C1519: + x80 + x134 <= 1
C1520: + x36 + x306 <= 1
C1521: + x344 + x430 <= 1
C1522: + x2 + x85 <= 1
C1523: + x141 + x195 <= 1
C1524: + x6 + x64 <= 1
C1525: + x178 + x225 <= 1
C1526: + x5 + x69 <= 1
C1527: + x39 + x186 <= 1
C1528: + x23 + x393 <= 1
C1529: + x36 + x382 <= 1
C1530: + x7 + x87 <= 1
C1531: + x116 + x127 <= 1
C1532: + x99 + x155 <= 1
C1533: + x36 + x112 <= 1
C1534: + x94 + x371 <= 1
C1535: + x88 + x300 <= 1
C1536: + x15 + x389 <= 1
C1537: + x24 + x108 <= 1
C1538: + x336 + x438 <= 1
C1539: + x130 + x274 <= 1
C1540: + x11 + x340 <= 1
C1541: + x195 + x267 <= 1
C1542: + x70 + x250 <= 1
C1543: + x10 + x447 <= 1
C1544: + x365 + x428 <= 1
C1545: + x85 + x201 <= 1
C1546: + x15 + x195 <= 1
C1547: + x6 + x152 <= 1
C1548: + x24 + x302 <= 1
C1549: + x472 + x499 <= 1
C1550: + x84 + x438 <= 1
C1551: + x4 + x35 <= 1
C1552: + x22 + x336 <= 1
C1553: + x5 + x266 <= 1
C1554: + x295 + x394 <= 1
C1555: + x7 + x30 <= 1
C1556: + x208 + x259 <= 1
C1557: + x69 + x424 <= 1
C1558: + x344 + x427 <= 1
C1559: + x14 + x70 <= 1
C1560: + x36 + x41 <= 1
C1561: + x12 + x17 + x240 <= 1
C1562: + x31 + x49 <= 1
C1563: + x5 + x68 <= 1
C1564: + x87 + x487 <= 1
C1565: + x4 + x422 <= 1
C1566: + x15 + x29 <= 1
C1567: + x90 + x94 <= 1
C1568: + x84 + x349 <= 1
C1569: + x84 + x148 <= 1
C1570: + x229 + x263 <= 1
C1571: + x15 + x186 <= 1
C1572: + x145 + x169 <= 1
C1573: + x45 + x58 <= 1
C1574: + x63 + x297 <= 1
C1575: + x5 + x120 <= 1
C1576: + x116 + x227 <= 1
C1577: + x15 + x400 <= 1
C1578: + x24 + x97 <= 1
C1579: + x7 + x473 <= 1
C1580: + x10 + x325 <= 1
C1581: + x3 + x432 <= 1
C1582: + x40 + x97 <= 1
C1583: + x90 + x133 <= 1
C1584: + x53 + x57 <= 1
C1585: + x36 + x65 <= 1
C1586: + x19 + x249 <= 1
C1587: + x46 + x104 <= 1
C1588: + x50 + x109 <= 1
C1589: + x33 + x37 <= 1
C1590: + x70 + x279 <= 1
C1591: + x175 + x374 <= 1
C1592: + x23 + x44 <= 1
C1593: + x119 + x427 <= 1
C1594: + x74 + x359 <= 1
C1595: + x2 + x194 <= 1
C1596: + x135 + x464 <= 1
C1597: + x59 + x403 <= 1
C1598: + x5 + x392 <= 1
C1599: + x210 + x298 <= 1
C1600: + x48 + x391 <= 1
C1601: + x14 + x51 <= 1
C1602: + x54 + x423 <= 1
C1603: + x4 + x101 <= 1
C1604: + x98 + x130 <= 1
C1605: + x134 + x287 <= 1
C1606: + x65 + x119 <= 1
C1607: + x46 + x173 <= 1
C1608: + x20 + x74 <= 1
C1609: + x56 + x230 <= 1
C1610: + x195 + x285 <= 1
C1611: + x142 + x207 <= 1
C1612: + x398 + x410 <= 1
C1613: + x336 + x351 <= 1
C1614: + x195 + x418 <= 1
C1615: + x4 + x246 <= 1
C1616: + x52 + x473 <= 1
C1617: + x60 + x334 <= 1
C1618: + x6 + x154 <= 1
C1619: + x236 + x482 <= 1
C1620: + x3 + x346 <= 1
C1621: + x131 + x259 <= 1
C1622: + x13 + x126 <= 1
C1623: + x179 + x342 <= 1
C1624: + x81 + x313 <= 1
C1625: + x141 + x240 <= 1
C1626: + x359 + x490 <= 1
C1627: + x10 + x48 <= 1
C1628: + x1 + x114 <= 1
C1629: + x19 + x168 <= 1
C1630: + x200 + x229 <= 1
C1631: + x12 + x34 <= 1
C1632: + x3 + x366 <= 1
C1633: + x87 + x350 <= 1
C1634: + x199 + x380 <= 1
C1635: + x388 + x446 <= 1
C1636: + x76 + x205 <= 1
C1637: + x60 + x375 <= 1
C1638: + x5 + x193 <= 1
C1639: + x24 + x357 <= 1
C1640: + x279 + x420 <= 1
C1641: + x7 + x298 <= 1
C1642: + x84 + x125 <= 1
C1643: + x12 + x191 <= 1
C1644: + x21 + x228 <= 1
C1645: + x125 + x286 <= 1
C1646: + x6 + x461 <= 1
C1647: + x20 + x79 <= 1
C1648: + x12 + x30 <= 1
C1649: + x83 + x189 <= 1
C1650: + x15 + x265 <= 1
C1651: + x144 + x498 <= 1
C1652: + x196 + x218 <= 1
C1653: + x6 + x20 <= 1
C1654: + x65 + x167 <= 1
C1655: + x5 + x57 <= 1
C1656: + x6 + x183 <= 1
C1657: + x99 + x208 <= 1
C1658: + x61 + x385 <= 1
C1659: + x17 + x143 <= 1
C1660: + x7 + x51 <= 1
C1661: + x80 + x174 <= 1
C1662: + x266 + x272 <= 1
C1663: + x61 + x376 <= 1
C1664: + x34 + x497 <= 1
C1665: + x91 + x196 <= 1
C1666: + x13 + x64 <= 1
C1667: + x14 + x136 <= 1
C1668: + x12 + x19 <= 1
C1669: + x50 + x220 <= 1
C1670: + x22 + x499 <= 1
C1671: + x14 + x25 <= 1
C1672: + x17 + x261 <= 1
C1673: + x45 + x91 <= 1
C1674: + x2 + x188 <= 1
C1675: + x192 + x209 <= 1
C1676: + x4 + x470 <= 1
C1677: + x106 + x408 <= 1
C1678: + x32 + x365 <= 1
C1679: + x36 + x211 <= 1
C1680: + x28 + x338 <= 1
C1681: + x55 + x57 + x155 <= 1
C1682: + x370 + x373 <= 1
C1683: + x3 + x461 <= 1
C1684: + x3 + x58 <= 1
C1685: + x129 + x134 <= 1
C1686: + x167 + x348 <= 1
C1687: + x209 + x340 <= 1
C1688: + x409 + x449 <= 1
C1689: + x211 + x258 <= 1
C1690: + x50 + x499 <= 1
C1691: + x87 + x90 <= 1
C1692: + x53 + x90 <= 1
C1693: + x245 + x471 <= 1
C1694: + x465 + x480 <= 1
C1695: + x29 + x190 <= 1
C1696: + x204 + x291 <= 1
C1697: + x40 + x366 <= 1
C1698: + x89 + x262 <= 1
C1699: + x11 + x496 <= 1
C1700: + x257 + x460 <= 1
C1701: + x50 + x68 <= 1
C1702: + x40 + x465 <= 1
C1703: + x150 + x198 <= 1
C1704: + x51 + x84 <= 1
C1705: + x288 + x387 <= 1
C1706: + x9 + x178 <= 1
C1707: + x121 + x332 <= 1
C1708: + x3 + x239 <= 1
C1709: + x32 + x235 <= 1
C1710: + x5 + x108 <= 1
C1711: + x5 + x417 <= 1
C1712: + x79 + x428 <= 1
C1713: + x128 + x295 <= 1
C1714: + x135 + x138 <= 1
C1715: + x76 + x261 <= 1
C1716: + x49 + x134 <= 1
C1717: + x337 + x484 <= 1
C1718: + x220 + x276 <= 1
C1719: + x103 + x182 <= 1
C1720: + x70 + x378 <= 1
C1721: + x360 + x404 <= 1
C1722: + x145 + x278 <= 1
C1723: + x2 + x189 <= 1
C1724: + x56 + x98 <= 1
C1725: + x102 + x129 <= 1
C1726: + x4 + x8 <= 1
C1727: + x43 + x215 <= 1
C1728: + x45 + x247 <= 1
C1729: + x7 + x497 <= 1
C1730: + x3 + x49 <= 1
C1731: + x144 + x186 <= 1
C1732: + x280 + x477 <= 1
C1733: + x12 + x234 <= 1
C1734: + x96 + x112 <= 1
C1735: + x98 + x210 <= 1
C1736: + x107 + x237 <= 1
C1737: + x160 + x434 <= 1
C1738: + x20 + x154 <= 1
C1739: + x80 + x398 <= 1
C1740: + x11 + x133 <= 1
C1741: + x157 + x172 <= 1
C1742: + x114 + x232 <= 1
C1743: + x115 + x240 <= 1
C1744: + x240 + x314 <= 1
C1745: + x117 + x181 <= 1
C1746: + x7 + x448 <= 1
C1747: + x72 + x136 <= 1
C1748: + x178 + x281 <= 1
C1749: + x11 + x24 <= 1
C1750: + x58 + x118 <= 1
C1751: + x32 + x97 <= 1
C1752: + x25 + x120 + x307 <= 1
C1753: + x10 + x251 <= 1
C1754: + x250 + x273 <= 1
C1755: + x105 + x185 <= 1
C1756: + x132 + x397 <= 1
C1757: + x298 + x368 <= 1
C1758: + x27 + x184 <= 1
C1759: + x7 + x492 <= 1
C1760: + x145 + x426 <= 1
C1761: + x15 + x92 <= 1
C1762: + x198 + x463 <= 1
C1763: + x200 + x479 <= 1
C1764: + x6 + x15 <= 1
C1765: + x2 + x39 <= 1
C1766: + x58 + x66 <= 1
C1767: + x39 + x110 <= 1
C1768: + x149 + x308 <= 1
C1769: + x5 + x22 <= 1
C1770: + x10 + x433 <= 1
C1771: + x181 + x229 <= 1
C1772: + x12 + x78 <= 1
C1773: + x84 + x190 <= 1
C1774: + x114 + x318 <= 1
C1775: + x5 + x165 <= 1
C1776: + x32 + x38 <= 1
C1777: + x9 + x363 <= 1
C1778: + x9 + x192 <= 1
C1779: + x173 + x217 <= 1
C1780: + x101 + x241 <= 1
C1781: + x34 + x412 <= 1
C1782: + x91 + x221 <= 1
C1783: + x312 + x367 <= 1
C1784: + x19 + x192 <= 1
C1785: + x10 + x147 <= 1
C1786: + x20 + x107 <= 1
C1787: + x11 + x353 <= 1
C1788: + x41 + x294 <= 1
C1789: + x5 + x332 <= 1
C1790: + x6 + x68 <= 1
C1791: + x87 + x151 <= 1
C1792: + x102 + x278 <= 1
C1793: + x41 + x338 <= 1
C1794: + x74 + x250 <= 1
C1795: + x49 + x402 <= 1
C1796: + x39 + x101 <= 1
C1797: + x5 + x29 <= 1
C1798: + x170 + x220 <= 1
C1799: + x17 + x24 <= 1
C1800: + x19 + x296 <= 1
C1801: + x139 + x239 <= 1
C1802: + x87 + x222 <= 1
C1803: + x6 + x60 <= 1
C1804: + x65 + x260 <= 1
C1805: + x19 + x22 <= 1
C1806: + x40 + x163 <= 1
C1807: + x34 + x384 <= 1
C1808: + x307 + x449 <= 1
C1809: + x10 + x156 <= 1
C1810: + x6 + x77 <= 1
C1811: + x36 + x354 <= 1
C1812: + x74 + x183 <= 1
C1813: + x69 + x347 <= 1
C1814: + x15 + x187 <= 1
C1815: + x45 + x63 <= 1
C1816: + x49 + x58 <= 1
C1817: + x14 + x299 <= 1
C1818: + x17 + x83 <= 1
C1819: + x32 + x321 <= 1
C1820: + x326 + x489 <= 1
C1821: + x3 + x30 <= 1
C1822: + x30 + x456 <= 1
C1823: + x115 + x452 <= 1
C1824: + x36 + x430 <= 1
C1825: + x100 + x366 <= 1
C1826: + x63 + x100 <= 1
C1827: + x5 + x28 <= 1
C1828: + x20 + x173 <= 1
C1829: + x41 + x147 <= 1
C1830: + x70 + x119 <= 1
C1831: + x235 + x257 <= 1
C1832: + x134 + x221 <= 1
C1833: + x45 + x280 <= 1
C1834: + x49 + x360 <= 1
C1835: + x13 + x374 <= 1
C1836: + x87 + x213 <= 1
C1837: + x7 + x179 <= 1
C1838: + x27 + x92 <= 1
C1839: + x1 + x219 <= 1
C1840: + x98 + x177 <= 1
C1841: + x153 + x262 <= 1
C1842: + x36 + x140 <= 1
C1843: + x45 + x167 <= 1
C1844: + x139 + x222 <= 1
C1845: + x21 + x261 <= 1
C1846: + x31 + x72 <= 1
C1847: + x22 + x115 <= 1
C1848: + x6 + x233 <= 1
C1849: + x27 + x112 <= 1
C1850: + x265 + x356 <= 1
C1851: + x157 + x325 <= 1
C1852: + x12 + x133 <= 1
C1853: + x4 + x100 <= 1
C1854: + x13 + x15 <= 1
C1855: + x51 + x269 <= 1
C1856: + x70 + x76 <= 1
C1857: + x32 + x330 <= 1
C1858: + x65 + x116 <= 1
C1859: + x36 + x248 <= 1
C1860: + x145 + x415 <= 1
C1861: + x200 + x454 <= 1
C1862: + x300 + x341 <= 1
C1863: + x205 + x478 <= 1
C1864: + x98 + x254 <= 1
C1865: + x36 + x69 <= 1
C1866: + x120 + x275 <= 1
C1867: + x21 + x46 <= 1
C1868: + x31 + x173 <= 1
C1869: + x22 + x341 <= 1
C1870: + x6 + x46 <= 1
C1871: + x24 + x408 <= 1
C1872: + x5 + x388 <= 1
C1873: + x15 + x335 <= 1
C1874: + x16 + x69 <= 1
C1875: + x9 + x50 <= 1
C1876: + x250 + x324 <= 1
C1877: + x27 + x281 <= 1
C1878: + x11 + x12 <= 1
C1879: + x37 + x458 <= 1
C1880: + x31 + x79 <= 1
C1881: + x7 + x299 <= 1
C1882: + x2 + x23 + x59 <= 1
C1883: + x5 + x123 <= 1
C1884: + x6 + x464 <= 1
C1885: + x17 + x65 <= 1
C1886: + x339 + x362 <= 1
C1887: + x55 + x254 <= 1
C1888: + x12 + x25 <= 1
C1889: + x190 + x262 <= 1
C1890: + x74 + x296 <= 1
C1891: + x11 + x128 <= 1
C1892: + x67 + x113 <= 1
C1893: + x95 + x226 <= 1
C1894: + x186 + x401 <= 1
C1895: + x104 + x214 <= 1
C1896: + x10 + x195 <= 1
C1897: + x49 + x100 <= 1
C1898: + x459 + x487 <= 1
C1899: + x60 + x429 <= 1
C1900: + x179 + x338 <= 1
C1901: + x100 + x489 <= 1
C1902: + x1 + x455 <= 1
C1903: + x49 + x193 <= 1
C1904: + x95 + x113 <= 1
C1905: + x251 + x306 <= 1
C1906: + x198 + x471 <= 1
C1907: + x383 + x488 <= 1
C1908: + x39 + x70 <= 1
C1909: + x106 + x232 <= 1
C1910: + x268 + x398 <= 1
C1911: + x23 + x132 <= 1
C1912: + x71 + x339 <= 1
C1913: + x93 + x447 <= 1
C1914: + x148 + x263 <= 1
C1915: + x166 + x337 <= 1
C1916: + x104 + x444 <= 1
C1917: + x106 + x470 <= 1
C1918: + x18 + x447 <= 1
C1919: + x398 + x475 <= 1
C1920: + x84 + x166 <= 1
C1921: + x411 + x448 <= 1
C1922: + x20 + x409 <= 1
C1923: + x141 + x224 <= 1
C1924: + x23 + x115 <= 1
C1925: + x15 + x144 <= 1
C1926: + x181 + x327 <= 1
C1927: + x6 + x219 <= 1
C1928: + x20 + x248 <= 1
C1929: + x369 + x436 <= 1
C1930: + x451 + x463 <= 1
C1931: + x5 + x98 <= 1
C1932: + x6 + x457 <= 1
C1933: + x16 + x18 <= 1
C1934: + x20 + x83 <= 1
C1935: + x43 + x82 <= 1
C1936: + x191 + x405 <= 1
C1937: + x260 + x438 <= 1
C1938: + x57 + x462 <= 1
C1939: + x250 + x258 <= 1
C1940: + x166 + x278 <= 1
C1941: + x186 + x245 <= 1
C1942: + x130 + x490 <= 1
C1943: + x108 + x435 <= 1
C1944: + x2 + x450 <= 1
C1945: + x47 + x158 <= 1

binary
x1 x2 x3 x4 x5 x6 x7 x8 x9 x10 x11 x12 x13 x14 x15 x16 x17 x18 x19 x20 x21 x22 x23 x24 x25 x26 x27 x28 x29 x30 x31 x32 x33 x34 x35 x36 x37 x38 x39 x40 x41 x42 x43 x44 x45 x46 x47 x48 x49 x50 x51 x52 x53 x54 x55 x56 x57 x58 x59 x60 x61 x62 x63 x64 x65 x66 x67 x68 x69 x70 x71 x72 x73 x74 x75 x76 x77 x78 x79 x80 x81 x82 x83 x84 x85 x86 x87 x88 x89 x90 x91 x92 x93 x94 x95 x96 x97 x98 x99 x100 x101 x102 x103 x104 x105 x106 x107 x108 x109 x110 x111 x112 x113 x114 x115 x116 x117 x118 x119 x120 x121 x122 x123 x124 x125 x126 x127 x128 x129 x130 x131 x132 x133 x134 x135 x136 x137 x138 x139 x140 x141 x142 x143 x144 x145 x146 x147 x148 x149 x150 x151 x152 x153 x154 x155 x156 x157 x158 x159 x160 x161 x162 x163 x164 x165 x166 x167 x168 x169 x170 x171 x172 x173 x174 x175 x176 x177 x178 x179 x180 x181 x182 x183 x184 x185 x186 x187 x188 x189 x190 x191 x192 x193 x194 x195 x196 x197 x198 x199 x200 x201 x202 x203 x204 x205 x206 x207 x208 x209 x210 x211 x212 x213 x214 x215 x216 x217 x218 x219 x220 x221 x222 x223 x224 x225 x226 x227 x228 x229 x230 x231 x232 x233 x234 x235 x236 x237 x238 x239 x240 x241 x242 x243 x244 x245 x246 x247 x248 x249 x250 x251 x252 x253 x254 x255 x256 x257 x258 x259 x260 x261 x262 x263 x264 x265 x266 x267 x268 x269 x270 x271 x272 x273 x274 x275 x276 x277 x278 x279 x280 x281 x282 x283 x284 x285 x286 x287 x288 x289 x290 x291 x292 x293 x294 x295 x296 x297 x298 x299 x300 x301 x302 x303 x304 x305 x306 x307 x308 x309 x310 x311 x312 x313 x314 x315 x316 x317 x318 x319 x320 x321 x322 x323 x324 x325 x326 x327 x328 x329 x330 x331 x332 x333 x334 x335 x336 x337 x338 x339 x340 x341 x342 x343 x344 x345 x346 x347 x348 x349 x350 x351 x352 x353 x354 x355 x356 x357 x358 x359 x360 x361 x362 x363 x364 x365 x366 x367 x368 x369 x370 x371 x372 x373 x374 x375 x376 x377 x378 x379 x380 x381 x382 x383 x384 x385 x386 x387 x388 x389 x390 x391 x392 x393 x394 x395 x396 x397 x398 x399 x400 x401 x402 x403 x404 x405 x406 x407 x408 x409 x410 x411 x412 x413 x414 x415 x416 x417 x418 x419 x420 x421 x422 x423 x424 x425 x426 x427 x428 x429 x430 x431 x432 x433 x434 x435 x436 x437 x438 x439 x440 x441 x442 x443 x444 x445 x446 x447 x448 x449 x450 x451 x452 x453 x454 x455 x456 x457 x458 x459 x460 x461 x462 x463 x464 x465 x466 x467 x468 x469 x470 x471 x472 x473 x474 x475 x476 x477 x478 x479 x480 x481 x482 x483 x484 x485 x486 x487 x488 x489 x490 x491 x492 x493 x494 x495 x496 x497 x498 x499 x500
