maximize
OBJ: + 1 x1 + 1 x2 + 1 x3 + 1 x4 + 1 x5 + 1 x6 + 1 x7 + 1 x8 + 1 x9 + 1 x10 + 1 x11 + 1 x12 + 1 x13 + 1 x14 + 1 x15 + 1 x16 + 1 x17 + 1 x18 + 1 x19 + 1 x20 + 1 x21 + 1 x22 + 1 x23 + 1 x24 + 1 x25 + 1 x26 + 1 x27 + 1 x28 + 1 x29 + 1 x30 + 1 x31 + 1 x32 + 1 x33 + 1 x34 + 1 x35 + 1 x36 + 1 x37 + 1 x38 + 1 x39 + 1 x40 + 1 x41 + 1 x42 + 1 x43 + 1 x44 + 1 x45 + 1 x46 + 1 x47 + 1 x48 + 1 x49 + 1 x50 + 1 x51 + 1 x52 + 1 x53 + 1 x54 + 1 x55 + 1 x56 + 1 x57 + 1 x58 + 1 x59 + 1 x60 + 1 x61 + 1 x62 + 1 x63 + 1 x64 + 1 x65 + 1 x66 + 1 x67 + 1 x68 + 1 x69 + 1 x70 + 1 x71 + 1 x72 + 1 x73 + 1 x74 + 1 x75 + 1 x76 + 1 x77 + 1 x78 + 1 x79 + 1 x80 + 1 x81 + 1 x82 + 1 x83 + 1 x84 + 1 x85 + 1 x86 + 1 x87 + 1 x88 + 1 x89 + 1 x90 + 1 x91 + 1 x92 + 1 x93 + 1 x94 + 1 x95 + 1 x96 + 1 x97 + 1 x98 + 1 x99 + 1 x100 + 1 x101 + 1 x102 + 1 x103 + 1 x104 + 1 x105 + 1 x106 + 1 x107 + 1 x108 + 1 x109 + 1 x110 + 1 x111 + 1 x112 + 1 x113 + 1 x114 + 1 x115 + 1 x116 + 1 x117 + 1 x118 + 1 x119 + 1 x120 + 1 x121 + 1 x122 + 1 x123 + 1 x124 + 1 x125 + 1 x126 + 1 x127 + 1 x128 + 1 x129 + 1 x130 + 1 x131 + 1 x132 + 1 x133 + 1 x134 + 1 x135 + 1 x136 + 1 x137 + 1 x138 + 1 x139 + 1 x140 + 1 x141 + 1 x142 + 1 x143 + 1 x144 + 1 x145 + 1 x146 + 1 x147 + 1 x148 + 1 x149 + 1 x150 + 1 x151 + 1 x152 + 1 x153 + 1 x154 + 1 x155 + 1 x156 + 1 x157 + 1 x158 + 1 x159 + 1 x160 + 1 x161 + 1 x162 + 1 x163 + 1 x164 + 1 x165 + 1 x166 + 1 x167 + 1 x168 + 1 x169 + 1 x170 + 1 x171 + 1 x172 + 1 x173 + 1 x174 + 1 x175 + 1 x176 + 1 x177 + 1 x178 + 1 x179 + 1 x180 + 1 x181 + 1 x182 + 1 x183 + 1 x184 + 1 x185 + 1 x186 + 1 x187 + 1 x188 + 1 x189 + 1 x190 + 1 x191 + 1 x192 + 1 x193 + 1 x194 + 1 x195 + 1 x196 + 1 x197 + 1 x198 + 1 x199 + 1 x200 + 1 x201 + 1 x202 + 1 x203 + 1 x204 + 1 x205 + 1 x206 + 1 x207 + 1 x208 + 1 x209 + 1 x210 + 1 x211 + 1 x212 + 1 x213 + 1 x214 + 1 x215 + 1 x216 + 1 x217 + 1 x218 + 1 x219 + 1 x220 + 1 x221 + 1 x222 + 1 x223 + 1 x224 + 1 x225 + 1 x226 + 1 x227 + 1 x228 + 1 x229 + 1 x230 + 1 x231 + 1 x232 + 1 x233 + 1 x234 + 1 x235 + 1 x236 + 1 x237 + 1 x238 + 1 x239 + 1 x240 + 1 x241 + 1 x242 + 1 x243 + 1 x244 + 1 x245 + 1 x246 + 1 x247 + 1 x248 + 1 x249 + 1 x250 + 1 x251 + 1 x252 + 1 x253 + 1 x254 + 1 x255 + 1 x256 + 1 x257 + 1 x258 + 1 x259 + 1 x260 + 1 x261 + 1 x262 + 1 x263 + 1 x264 + 1 x265 + 1 x266 + 1 x267 + 1 x268 + 1 x269 + 1 x270 + 1 x271 + 1 x272 + 1 x273 + 1 x274 + 1 x275 + 1 x276 + 1 x277 + 1 x278 + 1 x279 + 1 x280 + 1 x281 + 1 x282 + 1 x283 + 1 x284 + 1 x285 + 1 x286 + 1 x287 + 1 x288 + 1 x289 + 1 x290 + 1 x291 + 1 x292 + 1 x293 + 1 x294 + 1 x295 + 1 x296 + 1 x297 + 1 x298 + 1 x299 + 1 x300 + 1 x301 + 1 x302 + 1 x303 + 1 x304 + 1 x305 + 1 x306 + 1 x307 + 1 x308 + 1 x309 + 1 x310 + 1 x311 + 1 x312 + 1 x313 + 1 x314 + 1 x315 + 1 x316 + 1 x317 + 1 x318 + 1 x319 + 1 x320 + 1 x321 + 1 x322 + 1 x323 + 1 x324 + 1 x325 + 1 x326 + 1 x327 + 1 x328 + 1 x329 + 1 x330 + 1 x331 + 1 x332 + 1 x333 + 1 x334 + 1 x335 + 1 x336 + 1 x337 + 1 x338 + 1 x339 + 1 x340 + 1 x341 + 1 x342 + 1 x343 + 1 x344 + 1 x345 + 1 x346 + 1 x347 + 1 x348 + 1 x349 + 1 x350 + 1 x351 + 1 x352 + 1 x353 + 1 x354 + 1 x355 + 1 x356 + 1 x357 + 1 x358 + 1 x359 + 1 x360 + 1 x361 + 1 x362 + 1 x363 + 1 x364 + 1 x365 + 1 x366 + 1 x367 + 1 x368 + 1 x369 + 1 x370 + 1 x371 + 1 x372 + 1 x373 + 1 x374 + 1 x375 + 1 x376 + 1 x377 + 1 x378 + 1 x379 + 1 x380 + 1 x381 + 1 x382 + 1 x383 + 1 x384 + 1 x385 + 1 x386 + 1 x387 + 1 x388 + 1 x389 + 1 x390 + 1 x391 + 1 x392 + 1 x393 + 1 x394 + 1 x395 + 1 x396 + 1 x397 + 1 x398 + 1 x399 + 1 x400 + 1 x401 + 1 x402 + 1 x403 + 1 x404 + 1 x405 + 1 x406 + 1 x407 + 1 x408 + 1 x409 + 1 x410 + 1 x411 + 1 x412 + 1 x413 + 1 x414 + 1 x415 + 1 x416 + 1 x417 + 1 x418 + 1 x419 + 1 x420 + 1 x421 + 1 x422 + 1 x423 + 1 x424 + 1 x425 + 1 x426 + 1 x427 + 1 x428 + 1 x429 + 1 x430 + 1 x431 + 1 x432 + 1 x433 + 1 x434 + 1 x435 + 1 x436 + 1 x437 + 1 x438 + 1 x439 + 1 x440 + 1 x441 + 1 x442 + 1 x443 + 1 x444 + 1 x445 + 1 x446 + 1 x447 + 1 x448 + 1 x449 + 1 x450 + 1 x451 + 1 x452 + 1 x453 + 1 x454 + 1 x455 + 1 x456 + 1 x457 + 1 x458 + 1 x459 + 1 x460 + 1 x461 + 1 x462 + 1 x463 + 1 x464 + 1 x465 + 1 x466 + 1 x467 + 1 x468 + 1 x469 + 1 x470 + 1 x471 + 1 x472 + 1 x473 + 1 x474 + 1 x475 + 1 x476 + 1 x477 + 1 x478 + 1 x479 + 1 x480 + 1 x481 + 1 x482 + 1 x483 + 1 x484 + 1 x485 + 1 x486 + 1 x487 + 1 x488 + 1 x489 + 1 x490 + 1 x491 + 1 x492 + 1 x493 + 1 x494 + 1 x495 + 1 x496 + 1 x497 + 1 x498 + 1 x499 + 1 x500

subject to
C1: + x352 + x414 <= 1
C2: + x6 + x179 <= 1
C3: + x6 + x270 <= 1
C4: + x100 + x127 <= 1
C5: + x8 + x26 <= 1
C6: + x17 + x100 + x424 <= 1
C7: + x471 + x486 <= 1
C8: + x55 + x180 <= 1
C9: + x267 + x303 <= 1
C10: + x5 + x279 <= 1
C11: + x2 + x65 <= 1
C12: + x153 + x213 <= 1
C13: + x26 + x280 <= 1
C14: + x3 + x276 <= 1
C15: + x43 + x168 <= 1
C16: + x6 + x306 <= 1
C17: + x80 + x351 <= 1
C18: + x66 + x79 <= 1
C19: + x48 + x258 <= 1
C20: + x4 + x329 <= 1
C21: + x5 + x347 <= 1
C22: + x116 + x464 <= 1
C23: + x52 + x144 <= 1
C24: + x18 + x484 <= 1
C25: + x51 + x393 <= 1
C26: + x14 + x21 <= 1
C27: + x5 + x256 <= 1
C28: + x90 + x343 <= 1
C29: + x307 + x428 <= 1
C30: + x6 + x323 <= 1
C31: + x62 + x422 <= 1
C32: + x122 + x139 <= 1
C33: + x5 + x490 <= 1
C34: + x63 + x239 <= 1
C35: + x84 + x305 <= 1
C36: + x327 + x391 <= 1
C37: + x3 + x54 <= 1
C38: + x6 + x25 <= 1
C39: + x10 + x395 <= 1
C40: + x63 + x413 <= 1
C41: + x2 + x41 <= 1
C42: + x177 + x182 <= 1
C43: + x34 + x285 <= 1
C44: + x354 + x392 <= 1
C45: + x151 + x396 <= 1
C46: + x16 + x84 <= 1
C47: + x1 + x68 <= 1
C48: + x85 + x274 <= 1
C49: + x12 + x84 <= 1
C50: + x394 + x493 <= 1
C51: + x42 + x136 <= 1
C52: + x336 + x494 <= 1
C53: + x221 + x332 <= 1
C54: + x158 + x180 <= 1
C55: + x6 + x205 <= 1
C56: + x26 + x281 <= 1
C57: + x201 + x395 <= 1
C58: + x242 + x355 <= 1
C59: + x13 + x51 <= 1
C60: + x126 + x195 <= 1
C61: + x143 + x289 <= 1
C62: + x39 + x338 <= 1
C63: + x74 + x136 <= 1
C64: + x284 + x411 <= 1
C65: + x50 + x52 <= 1
C66: + x12 + x306 <= 1
C67: + x13 + x103 <= 1
C68: + x42 + x221 <= 1
C69: + x45 + x243 <= 1
C70: + x173 + x448 <= 1
C71: + x57 + x185 <= 1
C72: + x78 + x148 <= 1
C73: + x17 + x399 <= 1
C74: + x73 + x252 <= 1
C75: + x26 + x470 <= 1
C76: + x110 + x171 <= 1
C77: + x219 + x436 <= 1
C78: + x368 + x429 <= 1
C79: + x5 + x43 <= 1
C80: + x6 + x165 <= 1
C81: + x13 + x246 <= 1
C82: + x33 + x180 <= 1
C83: + x51 + x230 <= 1
C84: + x196 + x331 <= 1
C85: + x26 + x71 <= 1
C86: + x182 + x297 <= 1
C87: + x191 + x350 <= 1
C88: + x66 + x176 <= 1
C89: + x130 + x134 <= 1
C90: + x366 + x466 <= 1
C91: + x66 + x275 <= 1
C92: + x9 + x360 <= 1
C93: + x71 + x471 <= 1
C94: + x10 + x51 <= 1
C95: + x8 + x157 <= 1
C96: + x114 + x156 <= 1
C97: + x14 + x182 <= 1
C98: + x145 + x498 <= 1
C99: + x3 + x391 <= 1
C100: + x45 + x347 <= 1
C101: + x11 + x20 <= 1
C102: + x25 + x442 <= 1
C103: + x9 + x340 <= 1
C104: + x1 + x6 <= 1
C105: + x31 + x244 <= 1
C106: + x9 + x70 <= 1
C107: + x191 + x281 <= 1
C108: + x3 + x8 <= 1
C109: + x40 + x399 <= 1
C110: + x252 + x322 <= 1
C111: + x6 + x11 <= 1
C112: + x7 + x137 <= 1
C113: + x282 + x448 <= 1
C114: + x5 + x18 <= 1
C115: + x6 + x174 <= 1
C116: + x160 + x443 <= 1
C117: + x131 + x311 <= 1
C118: + x60 + x389 <= 1
C119: + x26 + x80 <= 1
C120: + x7 + x28 <= 1
C121: + x38 + x88 <= 1
C122: + x178 + x389 <= 1
C123: + x208 + x476 <= 1
C124: + x73 + x175 <= 1
C125: + x19 + x23 <= 1
C126: + x266 + x386 <= 1
C127: + x13 + x33 <= 1
C128: + x368 + x378 <= 1
C129: + x26 + x249 <= 1
C130: + x42 + x190 <= 1
C131: + x161 + x460 <= 1
C132: + x20 + x385 <= 1
C133: + x6 + x227 <= 1
C134: + x18 + x197 <= 1
C135: + x145 + x264 <= 1
C136: + x9 + x240 <= 1
C137: + x24 + x107 <= 1
C138: + x16 + x58 <= 1
C139: + x249 + x263 <= 1
C140: + x179 + x466 <= 1
C141: + x43 + x122 <= 1
C142: + x44 + x382 <= 1
C143: + x182 + x394 <= 1
C144: + x116 + x495 <= 1
C145: + x83 + x209 <= 1
C146: + x221 + x418 <= 1
C147: + x95 + x241 <= 1
C148: + x132 + x263 <= 1
C149: + x66 + x372 <= 1
C150: + x6 + x151 <= 1
C151: + x68 + x116 <= 1
C152: + x180 + x248 <= 1
C153: + x12 + x60 + x96 <= 1
C154: + x13 + x73 <= 1
C155: + x306 + x358 <= 1
C156: + x5 + x267 <= 1
C157: + x8 + x417 <= 1
C158: + x11 + x389 <= 1
C159: + x76 + x351 <= 1
C160: + x47 + x134 <= 1
C161: + x101 + x252 <= 1
C162: + x116 + x218 <= 1
C163: + x52 + x77 <= 1
C164: + x179 + x308 <= 1
C165: + x6 + x278 <= 1
C166: + x334 + x382 <= 1
C167: + x11 + x280 <= 1
C168: + x3 + x409 <= 1
C169: + x15 + x30 <= 1
C170: + x90 + x93 <= 1
C171: + x164 + x313 <= 1
C172: + x270 + x353 <= 1
C173: + x220 + x379 <= 1
C174: + x6 + x236 <= 1
C175: + x143 + x421 <= 1
C176: + x8 + x71 <= 1
C177: + x136 + x398 <= 1
C178: + x157 + x330 <= 1
C179: + x42 + x381 <= 1
C180: + x5 + x462 <= 1
C181: + x17 + x87 <= 1
C182: + x78 + x191 <= 1
C183: + x217 + x247 <= 1
C184: + x142 + x213 <= 1
C185: + x10 + x122 <= 1
C186: + x63 + x441 <= 1
C187: + x5 + x8 <= 1
C188: + x6 + x160 <= 1
C189: + x6 + x363 <= 1
C190: + x188 + x379 <= 1
C191: + x70 + x389 <= 1
C192: + x21 + x35 <= 1
C193: + x70 + x115 <= 1
C194: + x43 + x244 <= 1
C195: + x24 + x56 <= 1
C196: + x128 + x370 <= 1
C197: + x37 + x78 <= 1
C198: + x6 + x33 <= 1
C199: + x190 + x452 <= 1
C200: + x8 + x140 <= 1
C201: + x101 + x227 <= 1
C202: + x1 + x223 <= 1
C203: + x237 + x267 <= 1
C204: + x179 + x226 <= 1
C205: + x282 + x369 <= 1
C206: + x55 + x163 <= 1
C207: + x30 + x94 <= 1
C208: + x5 + x294 <= 1
C209: + x8 + x334 <= 1
C210: + x29 + x420 <= 1
C211: + x358 + x468 <= 1
C212: + x286 + x407 <= 1
C213: + x38 + x473 <= 1
C214: + x96 + x156 <= 1
C215: + x6 + x213 <= 1
C216: + x4 + x104 <= 1
C217: + x25 + x225 <= 1
C218: + x324 + x434 <= 1
C219: + x411 + x473 <= 1
C220: + x63 + x111 <= 1
C221: + x3 + x182 <= 1
C222: + x15 + x263 <= 1
C223: + x245 + x318 <= 1
C224: + x22 + x166 <= 1
C225: + x90 + x483 <= 1
C226: + x6 + x42 <= 1
C227: + x207 + x317 <= 1
C228: + x10 + x47 <= 1
C229: + x146 + x327 <= 1
C230: + x85 + x164 <= 1
C231: + x369 + x453 <= 1
C232: + x98 + x206 <= 1
C233: + x43 + x142 <= 1
C234: + x22 + x293 <= 1
C235: + x5 + x301 <= 1
C236: + x116 + x442 <= 1
C237: + x173 + x268 <= 1
C238: + x10 + x485 <= 1
C239: + x11 + x56 <= 1
C240: + x283 + x328 <= 1
C241: + x37 + x57 <= 1
C242: + x3 + x121 <= 1
C243: + x275 + x297 <= 1
C244: + x4 + x306 <= 1
C245: + x24 + x360 <= 1
C246: + x209 + x403 <= 1
C247: + x44 + x468 <= 1
C248: + x165 + x171 <= 1
C249: + x11 + x233 <= 1
C250: + x16 + x33 + x83 <= 1
C251: + x17 + x69 <= 1
C252: + x80 + x341 <= 1
C253: + x329 + x375 <= 1
C254: + x21 + x66 <= 1
C255: + x34 + x112 <= 1
C256: + x88 + x149 <= 1
C257: + x144 + x231 <= 1
C258: + x10 + x108 <= 1
C259: + x65 + x337 <= 1
C260: + x30 + x377 <= 1
C261: + x31 + x127 <= 1
C262: + x88 + x124 <= 1
C263: + x26 + x137 <= 1
C264: + x108 + x208 <= 1
C265: + x13 + x118 <= 1
C266: + x31 + x365 <= 1
C267: + x4 + x25 <= 1
C268: + x42 + x238 <= 1
C269: + x143 + x160 <= 1
C270: + x100 + x493 <= 1
C271: + x336 + x472 <= 1
C272: + x56 + x178 <= 1
C273: + x3 + x64 <= 1
C274: + x101 + x487 <= 1
C275: + x6 + x19 <= 1
C276: + x282 + x424 <= 1
C277: + x1 + x173 <= 1
C278: + x2 + x211 <= 1
C279: + x3 + x193 <= 1
C280: + x81 + x464 <= 1
C281: + x183 + x317 <= 1
C282: + x40 + x376 <= 1
C283: + x5 + x300 <= 1
C284: + x51 + x245 <= 1
C285: + x159 + x366 <= 1
C286: + x60 + x143 <= 1
C287: + x6 + x199 <= 1
C288: + x181 + x323 <= 1
C289: + x145 + x356 <= 1
C290: + x382 + x480 <= 1
C291: + x116 + x249 <= 1
C292: + x5 + x443 <= 1
C293: + x6 + x309 <= 1
C294: + x126 + x205 <= 1
C295: + x18 + x68 <= 1
C296: + x71 + x259 <= 1
C297: + x103 + x398 <= 1
C298: + x54 + x110 <= 1
C299: + x10 + x109 <= 1
C300: + x264 + x341 <= 1
C301: + x188 + x386 <= 1
C302: + x53 + x474 <= 1
C303: + x83 + x419 <= 1
C304: + x211 + x368 <= 1
C305: + x178 + x383 <= 1
C306: + x5 + x495 <= 1
C307: + x35 + x194 <= 1
C308: + x95 + x128 <= 1
C309: + x5 + x132 <= 1
C310: + x24 + x418 <= 1
C311: + x160 + x218 <= 1
C312: + x18 + x283 <= 1
C313: + x10 + x89 <= 1
C314: + x255 + x261 <= 1
C315: + x163 + x368 <= 1
C316: + x35 + x49 <= 1
C317: + x9 + x36 <= 1
C318: + x2 + x375 <= 1
C319: + x231 + x286 <= 1
C320: + x7 + x43 <= 1
C321: + x62 + x224 <= 1
C322: + x347 + x356 <= 1
C323: + x2 + x402 <= 1
C324: + x57 + x304 <= 1
C325: + x3 + x75 <= 1
C326: + x11 + x155 <= 1
C327: + x193 + x357 <= 1
C328: + x39 + x45 <= 1
C329: + x22 + x237 <= 1
C330: + x60 + x483 <= 1
C331: + x48 + x116 <= 1
C332: + x66 + x67 <= 1
C333: + x106 + x271 <= 1
C334: + x198 + x401 <= 1
C335: + x226 + x237 <= 1
C336: + x174 + x442 <= 1
C337: + x7 + x341 <= 1
C338: + x36 + x128 <= 1
C339: + x1 + x12 <= 1
C340: + x30 + x238 <= 1
C341: + x106 + x416 <= 1
C342: + x81 + x303 <= 1
C343: + x80 + x367 <= 1
C344: + x341 + x462 <= 1
C345: + x5 + x139 <= 1
C346: + x117 + x408 <= 1
C347: + x11 + x82 <= 1
C348: + x266 + x432 <= 1
C349: + x37 + x63 + x425 <= 1
C350: + x8 + x19 <= 1
C351: + x42 + x140 <= 1
C352: + x72 + x242 <= 1
C353: + x6 + x201 <= 1
C354: + x18 + x147 <= 1
C355: + x10 + x14 <= 1
C356: + x166 + x224 <= 1
C357: + x266 + x412 <= 1
C358: + x13 + x47 <= 1
C359: + x141 + x431 <= 1
C360: + x189 + x222 <= 1
C361: + x6 + x295 <= 1
C362: + x336 + x415 <= 1
C363: + x18 + x62 <= 1
C364: + x157 + x458 <= 1
C365: + x30 + x118 <= 1
C366: + x403 + x498 <= 1
C367: + x9 + x500 <= 1
C368: + x19 + x487 <= 1
C369: + x57 + x206 <= 1
C370: + x2 + x423 <= 1
C371: + x158 + x196 <= 1
C372: + x40 + x61 <= 1
C373: + x32 + x100 <= 1
C374: + x302 + x492 <= 1
C375: + x268 + x296 <= 1
C376: + x42 + x193 <= 1
C377: + x201 + x216 <= 1
C378: + x484 + x494 <= 1
C379: + x6 + x14 <= 1
C380: + x62 + x97 <= 1
C381: + x100 + x383 <= 1
C382: + x10 + x440 <= 1
C383: + x156 + x232 <= 1
C384: + x2 + x38 <= 1
C385: + x12 + x226 <= 1
C386: + x13 + x242 <= 1
C387: + x40 + x113 <= 1
C388: + x5 + x23 <= 1
C389: + x188 + x364 <= 1
C390: + x8 + x12 <= 1
C391: + x24 + x37 <= 1
C392: + x102 + x480 <= 1
C393: + x20 + x436 <= 1
C394: + x271 + x474 <= 1
C395: + x82 + x129 <= 1
C396: + x27 + x87 <= 1
C397: + x2 + x242 <= 1
C398: + x11 + x141 <= 1
C399: + x86 + x260 <= 1
C400: + x378 + x392 <= 1
C401: + x5 + x91 <= 1
C402: + x391 + x462 <= 1
C403: + x49 + x181 <= 1
C404: + x50 + x315 <= 1
C405: + x322 + x392 <= 1
C406: + x2 + x448 <= 1
C407: + x13 + x181 <= 1
C408: + x25 + x446 <= 1
C409: + x343 + x345 <= 1
C410: + x73 + x301 <= 1
C411: + x8 + x77 <= 1
C412: + x37 + x307 <= 1
C413: + x68 + x482 <= 1
C414: + x51 + x165 <= 1
C415: + x9 + x74 <= 1
C416: + x135 + x181 <= 1
C417: + x241 + x417 <= 1
C418: + x106 + x293 <= 1
C419: + x109 + x331 <= 1
C420: + x11 + x68 <= 1
C421: + x75 + x132 <= 1
C422: + x68 + x399 <= 1
C423: + x5 + x30 <= 1
C424: + x172 + x178 <= 1
C425: + x1 + x86 <= 1
C426: + x156 + x412 <= 1
C427: + x5 + x272 <= 1
C428: + x172 + x477 <= 1
C429: + x199 + x352 <= 1
C430: + x156 + x295 <= 1
C431: + x8 + x146 <= 1
C432: + x201 + x282 <= 1
C433: + x187 + x341 <= 1
C434: + x150 + x321 <= 1
C435: + x15 + x31 <= 1
C436: + x19 + x473 <= 1
C437: + x3 + x108 <= 1
C438: + x140 + x164 <= 1
C439: + x60 + x359 <= 1
C440: + x95 + x358 <= 1
C441: + x13 + x17 <= 1
C442: + x15 + x394 <= 1
C443: + x54 + x243 <= 1
C444: + x8 + x489 <= 1
C445: + x20 + x63 <= 1
C446: + x130 + x277 <= 1
C447: + x6 + x128 <= 1
C448: + x90 + x108 <= 1
C449: + x8 + x272 <= 1
C450: + x10 + x117 <= 1
C451: + x145 + x198 <= 1
C452: + x1 + x347 <= 1
C453: + x346 + x479 <= 1
C454: + x116 + x146 <= 1
C455: + x88 + x105 <= 1
C456: + x16 + x171 <= 1
C457: + x37 + x238 <= 1
C458: + x64 + x109 <= 1
C459: + x13 + x69 <= 1
C460: + x14 + x286 <= 1
C461: + x26 + x85 <= 1
C462: + x23 + x145 + x438 <= 1
C463: + x54 + x135 <= 1
C464: + x3 + x244 <= 1
C465: + x478 + x479 <= 1
C466: + x73 + x460 <= 1
C467: + x68 + x150 <= 1
C468: + x298 + x305 <= 1
C469: + x37 + x55 <= 1
C470: + x3 + x99 <= 1
C471: + x370 + x430 <= 1
C472: + x1 + x437 <= 1
C473: + x255 + x463 <= 1
C474: + x20 + x72 <= 1
C475: + x191 + x271 <= 1
C476: + x232 + x249 <= 1
C477: + x9 + x469 <= 1
C478: + x28 + x465 <= 1
C479: + x10 + x126 <= 1
C480: + x123 + x396 <= 1
C481: + x35 + x419 <= 1
C482: + x6 + x343 <= 1
C483: + x118 + x242 <= 1
C484: + x2 + x172 <= 1
C485: + x12 + x116 <= 1
C486: + x4 + x47 <= 1
C487: + x40 + x266 <= 1
C488: + x7 + x10 <= 1
C489: + x119 + x259 <= 1
C490: + x46 + x99 <= 1
C491: + x55 + x56 <= 1
C492: + x139 + x146 <= 1
C493: + x49 + x288 <= 1
C494: + x33 + x58 <= 1
C495: + x13 + x366 <= 1
C496: + x34 + x430 <= 1
C497: + x188 + x496 <= 1
C498: + x146 + x255 <= 1
C499: + x105 + x234 <= 1
C500: + x29 + x174 <= 1
C501: + x14 + x459 <= 1
C502: + x25 + x118 <= 1
C503: + x7 + x70 <= 1
C504: + x2 + x387 <= 1
C505: + x69 + x330 <= 1
C506: + x5 + x199 <= 1
C507: + x6 + x209 <= 1
C508: + x10 + x22 <= 1
C509: + x19 + x57 <= 1
C510: + x2 + x145 <= 1
C511: + x33 + x339 <= 1
C512: + x27 + x137 <= 1
C513: + x63 + x178 <= 1
C514: + x147 + x423 <= 1
C515: + x47 + x208 <= 1
C516: + x306 + x315 <= 1
C517: + x6 + x98 <= 1
C518: + x10 + x103 <= 1
C519: + x21 + x337 <= 1
C520: + x141 + x278 <= 1
C521: + x61 + x435 <= 1
C522: + x245 + x314 <= 1
C523: + x49 + x101 <= 1
C524: + x21 + x54 <= 1
C525: + x165 + x497 <= 1
C526: + x56 + x356 <= 1
C527: + x78 + x232 <= 1
C528: + x5 + x154 <= 1
C529: + x26 + x450 <= 1
C530: + x10 + x416 <= 1
C531: + x190 + x231 <= 1
C532: + x213 + x247 <= 1
C533: + x323 + x394 <= 1
C534: + x4 + x407 <= 1
C535: + x5 + x206 <= 1
C536: + x14 + x39 <= 1
C537: + x6 + x312 <= 1
C538: + x175 + x445 <= 1
C539: + x5 + x349 <= 1
C540: + x52 + x138 <= 1
C541: + x36 + x324 <= 1
C542: + x68 + x107 <= 1
C543: + x22 + x88 <= 1
C544: + x14 + x27 <= 1
C545: + x60 + x346 <= 1
C546: + x6 + x142 <= 1
C547: + x209 + x451 <= 1
C548: + x2 + x166 <= 1
C549: + x13 + x114 <= 1
C550: + x33 + x235 <= 1
C551: + x5 + x484 <= 1
C552: + x94 + x123 <= 1
C553: + x39 + x273 <= 1
C554: + x142 + x183 <= 1
C555: + x352 + x413 <= 1
C556: + x74 + x193 <= 1
C557: + x335 + x381 <= 1
C558: + x116 + x177 <= 1
C559: + x218 + x340 <= 1
C560: + x12 + x481 <= 1
C561: + x131 + x152 <= 1
C562: + x93 + x129 <= 1
C563: + x136 + x338 <= 1
C564: + x37 + x350 <= 1
C565: + x43 + x364 <= 1
C566: + x61 + x466 <= 1
C567: + x198 + x241 <= 1
C568: + x26 + x229 <= 1
C569: + x92 + x473 <= 1
C570: + x230 + x333 <= 1
C571: + x216 + x298 <= 1
C572: + x32 + x122 <= 1
C573: + x69 + x94 <= 1
C574: + x34 + x214 <= 1
C575: + x263 + x328 <= 1
C576: + x101 + x490 <= 1
C577: + x20 + x478 <= 1
C578: + x6 + x8 <= 1
C579: + x101 + x335 <= 1
C580: + x1 + x168 <= 1
C581: + x10 + x93 <= 1
C582: + x221 + x470 <= 1
C583: + x40 + x127 <= 1
C584: + x5 + x45 <= 1
C585: + x277 + x488 <= 1
C586: + x14 + x200 <= 1
C587: + x34 + x276 <= 1
C588: + x259 + x348 <= 1
C589: + x307 + x322 <= 1
C590: + x169 + x355 <= 1
C591: + x96 + x243 <= 1
C592: + x187 + x469 <= 1
C593: + x70 + x305 <= 1
C594: + x362 + x437 <= 1
C595: + x18 + x331 <= 1
C596: + x179 + x251 <= 1
C597: + x6 + x314 <= 1
C598: + x9 + x20 <= 1
C599: + x8 + x454 <= 1
C600: + x77 + x81 <= 1
C601: + x128 + x385 <= 1
C602: + x49 + x429 <= 1
C603: + x68 + x89 <= 1
C604: + x13 + x131 <= 1
C605: + x168 + x207 <= 1
C606: + x180 + x362 <= 1
C607: + x180 + x221 <= 1
C608: + x5 + x232 <= 1
C609: + x3 + x320 <= 1
C610: + x24 + x88 <= 1
C611: + x9 + x96 <= 1
C612: + x143 + x366 <= 1
C613: + x110 + x444 <= 1
C614: + x3 + x14 <= 1
C615: + x3 + x175 <= 1
C616: + x85 + x197 <= 1
C617: + x5 + x44 <= 1
C618: + x6 + x164 <= 1
C619: + x44 + x113 <= 1
C620: + x45 + x131 <= 1
C621: + x32 + x171 <= 1
C622: + x90 + x363 <= 1
C623: + x103 + x328 <= 1
C624: + x1 + x92 <= 1
C625: + x37 + x253 <= 1
C626: + x2 + x324 <= 1
C627: + x135 + x235 <= 1
C628: + x60 + x145 <= 1
C629: + x154 + x220 <= 1
C630: + x364 + x450 <= 1
C631: + x77 + x350 <= 1
C632: + x5 + x96 <= 1
C633: + x9 + x27 <= 1
C634: + x329 + x368 <= 1
C635: + x131 + x190 <= 1
C636: + x51 + x215 <= 1
C637: + x34 + x119 <= 1
C638: + x374 + x418 <= 1
C639: + x51 + x444 <= 1
C640: + x8 + x84 <= 1
C641: + x119 + x197 <= 1
C642: + x30 + x227 <= 1
C643: + x116 + x334 <= 1
C644: + x24 + x109 <= 1
C645: + x20 + x53 <= 1
C646: + x185 + x427 <= 1
C647: + x60 + x313 <= 1
C648: + x15 + x250 <= 1
C649: + x24 + x222 <= 1
C650: + x2 + x325 <= 1
C651: + x60 + x392 <= 1
C652: + x33 + x204 <= 1
C653: + x96 + x334 <= 1
C654: + x26 + x79 <= 1
C655: + x7 + x25 <= 1
C656: + x256 + x282 <= 1
C657: + x130 + x299 <= 1
C658: + x64 + x218 <= 1
C659: + x95 + x154 <= 1
C660: + x125 + x319 <= 1
C661: + x5 + x404 <= 1
C662: + x201 + x279 <= 1
C663: + x37 + x176 <= 1
C664: + x49 + x169 <= 1
C665: + x55 + x115 <= 1
C666: + x18 + x369 <= 1
C667: + x57 + x491 <= 1
C668: + x17 + x81 <= 1
C669: + x289 + x353 <= 1
C670: + x15 + x395 <= 1
C671: + x3 + x32 <= 1
C672: + x68 + x216 <= 1
C673: + x42 + x105 <= 1
C674: + x2 + x51 <= 1
C675: + x67 + x97 <= 1
C676: + x204 + x475 <= 1
C677: + x4 + x138 <= 1
C678: + x5 + x26 <= 1
C679: + x267 + x470 <= 1
C680: + x226 + x477 <= 1
C681: + x198 + x342 <= 1
C682: + x35 + x90 <= 1
C683: + x11 + x289 <= 1
C684: + x18 + x248 <= 1
C685: + x55 + x157 <= 1
C686: + x323 + x485 <= 1
C687: + x314 + x458 <= 1
C688: + x84 + x440 <= 1
C689: + x316 + x446 <= 1
C690: + x92 + x440 <= 1
C691: + x57 + x148 <= 1
C692: + x67 + x295 <= 1
C693: + x6 + x39 <= 1
C694: + x26 + x499 <= 1
C695: + x28 + x90 <= 1
C696: + x1 + x217 <= 1
C697: + x35 + x46 <= 1
C698: + x36 + x138 <= 1
C699: + x110 + x115 <= 1
C700: + x276 + x302 <= 1
C701: + x84 + x150 <= 1
C702: + x5 + x221 <= 1
C703: + x199 + x425 <= 1
C704: + x3 + x23 <= 1
C705: + x175 + x432 <= 1
C706: + x42 + x82 <= 1
C707: + x6 + x124 <= 1
C708: + x47 + x472 <= 1
C709: + x21 + x335 <= 1
C710: + x14 + x236 <= 1
C711: + x6 + x159 <= 1
C712: + x24 + x212 <= 1
C713: + x201 + x345 <= 1
C714: + x21 + x36 <= 1
C715: + x26 + x89 <= 1
C716: + x73 + x97 <= 1
C717: + x263 + x352 <= 1
C718: + x376 + x405 <= 1
C719: + x251 + x297 <= 1
C720: + x6 + x48 <= 1
C721: + x16 + x361 <= 1
C722: + x10 + x37 <= 1
C723: + x61 + x397 <= 1
C724: + x246 + x500 <= 1
C725: + x388 + x439 <= 1
C726: + x136 + x156 <= 1
C727: + x66 + x305 <= 1
C728: + x38 + x456 <= 1
C729: + x13 + x167 <= 1
C730: + x133 + x348 <= 1
C731: + x35 + x491 <= 1
C732: + x18 + x355 <= 1
C733: + x3 + x260 <= 1
C734: + x24 + x124 <= 1
C735: + x6 + x450 <= 1
C736: + x28 + x266 <= 1
C737: + x390 + x472 <= 1
C738: + x8 + x478 <= 1
C739: + x18 + x81 <= 1
C740: + x1 + x393 <= 1
C741: + x37 + x130 <= 1
C742: + x3 + x421 <= 1
C743: + x3 + x18 <= 1
C744: + x19 + x77 <= 1
C745: + x77 + x142 <= 1
C746: + x97 + x143 <= 1
C747: + x5 + x16 <= 1
C748: + x70 + x397 <= 1
C749: + x90 + x148 <= 1
C750: + x62 + x406 <= 1
C751: + x162 + x303 <= 1
C752: + x36 + x76 <= 1
C753: + x3 + x344 <= 1
C754: + x115 + x327 <= 1
C755: + x159 + x448 <= 1
C756: + x235 + x373 <= 1
C757: + x61 + x66 <= 1
C758: + x43 + x252 <= 1
C759: + x23 + x33 <= 1
C760: + x62 + x92 <= 1
C761: + x28 + x88 <= 1
C762: + x37 + x360 <= 1
C763: + x3 + x199 <= 1
C764: + x86 + x283 <= 1
C765: + x5 + x52 <= 1
C766: + x161 + x373 <= 1
C767: + x157 + x298 <= 1
C768: + x334 + x466 <= 1
C769: + x90 + x430 <= 1
C770: + x14 + x42 <= 1
C771: + x56 + x90 <= 1
C772: + x25 + x308 <= 1
C773: + x26 + x31 <= 1
C774: + x208 + x216 <= 1
C775: + x63 + x182 <= 1
C776: + x6 + x459 <= 1
C777: + x71 + x265 <= 1
C778: + x62 + x129 <= 1
C779: + x110 + x316 <= 1
C780: + x407 + x454 <= 1
C781: + x2 + x6 <= 1
C782: + x282 + x411 <= 1
C783: + x68 + x106 <= 1
C784: + x431 + x464 <= 1
C785: + x23 + x73 <= 1
C786: + x109 + x158 <= 1
C787: + x46 + x309 <= 1
C788: + x20 + x194 <= 1
C789: + x76 + x410 <= 1
C790: + x42 + x237 <= 1
C791: + x187 + x282 <= 1
C792: + x73 + x111 <= 1
C793: + x63 + x226 <= 1
C794: + x194 + x442 <= 1
C795: + x41 + x376 <= 1
C796: + x259 + x467 <= 1
C797: + x6 + x18 <= 1
C798: + x9 + x268 <= 1
C799: + x10 + x388 <= 1
C800: + x24 + x428 <= 1
C801: + x18 + x289 <= 1
C802: + x3 + x194 <= 1
C803: + x4 + x169 <= 1
C804: + x5 + x59 <= 1
C805: + x2 + x381 <= 1
C806: + x3 + x355 <= 1
C807: + x81 + x366 <= 1
C808: + x18 + x434 <= 1
C809: + x83 + x130 <= 1
C810: + x64 + x162 <= 1
C811: + x66 + x224 <= 1
C812: + x108 + x140 <= 1
C813: + x16 + x250 <= 1
C814: + x134 + x492 <= 1
C815: + x3 + x278 <= 1
C816: + x205 + x378 <= 1
C817: + x61 + x471 <= 1
C818: + x14 + x134 <= 1
C819: + x179 + x274 <= 1
C820: + x18 + x67 <= 1
C821: + x249 + x292 <= 1
C822: + x2 + x265 <= 1
C823: + x303 + x400 <= 1
C824: + x13 + x300 <= 1
C825: + x136 + x190 <= 1
C826: + x34 + x451 <= 1
C827: + x92 + x117 <= 1
C828: + x5 + x496 <= 1
C829: + x50 + x150 <= 1
C830: + x60 + x203 <= 1
C831: + x133 + x269 <= 1
C832: + x117 + x394 <= 1
C833: + x100 + x372 <= 1
C834: + x24 + x417 <= 1
C835: + x72 + x107 <= 1
C836: + x66 + x363 <= 1
C837: + x19 + x426 <= 1
C838: + x94 + x154 <= 1
C839: + x106 + x212 <= 1
C840: + x34 + x287 <= 1
C841: + x53 + x495 <= 1
C842: + x3 + x217 <= 1
C843: + x6 + x265 <= 1
C844: + x30 + x40 <= 1
C845: + x3 + x5 + x6 + x13 <= 1
C846: + x7 + x44 <= 1
C847: + x330 + x489 <= 1
C848: + x356 + x482 <= 1
C849: + x204 + x388 <= 1
C850: + x61 + x265 <= 1
C851: + x145 + x151 <= 1
C852: + x109 + x224 <= 1
C853: + x8 + x166 <= 1
C854: + x122 + x322 <= 1
C855: + x30 + x217 <= 1
C856: + x51 + x307 <= 1
C857: + x5 + x86 <= 1
C858: + x6 + x317 <= 1
C859: + x9 + x17 <= 1
C860: + x154 + x420 <= 1
C861: + x109 + x125 <= 1
C862: + x92 + x477 <= 1
C863: + x303 + x407 <= 1
C864: + x48 + x269 <= 1
C865: + x141 + x163 <= 1
C866: + x117 + x461 <= 1
C867: + x55 + x110 <= 1
C868: + x57 + x381 <= 1
C869: + x258 + x398 <= 1
C870: + x5 + x229 <= 1
C871: + x11 + x107 <= 1
C872: + x33 + x468 <= 1
C873: + x14 + x16 <= 1
C874: + x54 + x324 <= 1
C875: + x37 + x270 <= 1
C876: + x13 + x101 <= 1
C877: + x26 + x53 <= 1
C878: + x143 + x367 <= 1
C879: + x63 + x148 <= 1
C880: + x3 + x15 <= 1
C881: + x106 + x314 <= 1
C882: + x99 + x123 <= 1
C883: + x208 + x397 <= 1
C884: + x336 + x380 <= 1
C885: + x1 + x188 <= 1
C886: + x11 + x95 <= 1
C887: + x141 + x380 <= 1
C888: + x5 + x41 <= 1
C889: + x88 + x93 <= 1
C890: + x10 + x164 <= 1
C891: + x97 + x498 <= 1
C892: + x89 + x271 <= 1
C893: + x143 + x187 <= 1
C894: + x156 + x300 <= 1
C895: + x141 + x203 <= 1
C896: + x14 + x85 <= 1
C897: + x345 + x481 <= 1
C898: + x163 + x316 <= 1
C899: + x109 + x215 <= 1
C900: + x332 + x336 <= 1
C901: + x2 + x256 <= 1
C902: + x152 + x185 <= 1
C903: + x154 + x266 <= 1
C904: + x10 + x13 <= 1
C905: + x120 + x186 <= 1
C906: + x23 + x280 <= 1
C907: + x13 + x48 <= 1
C908: + x323 + x428 <= 1
C909: + x226 + x229 <= 1
C910: + x16 + x386 <= 1
C911: + x1 + x306 <= 1
C912: + x92 + x369 <= 1
C913: + x2 + x422 <= 1
C914: + x21 + x362 <= 1
C915: + x353 + x480 <= 1
C916: + x102 + x184 <= 1
C917: + x60 + x439 <= 1
C918: + x179 + x376 <= 1
C919: + x116 + x329 <= 1
C920: + x16 + x55 <= 1
C921: + x357 + x436 <= 1
C922: + x41 + x365 <= 1
C923: + x13 + x270 <= 1
C924: + x87 + x269 <= 1
C925: + x196 + x417 <= 1
C926: + x71 + x75 <= 1
C927: + x17 + x289 <= 1
C928: + x27 + x37 <= 1
C929: + x200 + x203 <= 1
C930: + x3 + x336 <= 1
C931: + x7 + x38 <= 1
C932: + x119 + x319 <= 1
C933: + x271 + x318 <= 1
C934: + x19 + x299 <= 1
C935: + x37 + x94 <= 1
C936: + x184 + x326 <= 1
C937: + x61 + x287 <= 1
C938: + x8 + x156 <= 1
C939: + x275 + x431 <= 1
C940: + x41 + x54 <= 1
C941: + x27 + x101 + x488 <= 1
C942: + x161 + x365 <= 1
C943: + x9 + x31 <= 1
C944: + x30 + x441 <= 1
C945: + x5 + x310 <= 1
C946: + x26 + x406 <= 1
C947: + x94 + x209 <= 1
C948: + x60 + x353 <= 1
C949: + x433 + x434 <= 1
C950: + x99 + x158 <= 1
C951: + x8 + x80 <= 1
C952: + x1 + x27 <= 1
C953: + x128 + x168 <= 1
C954: + x12 + x137 <= 1
C955: + x14 + x34 + x257 <= 1
C956: + x411 + x457 <= 1
C957: + x60 + x210 <= 1
C958: + x13 + x261 <= 1
C959: + x6 + x118 <= 1
C960: + x31 + x491 <= 1
C961: + x126 + x398 <= 1
C962: + x2 + x62 <= 1
C963: + x38 + x285 <= 1
C964: + x41 + x497 <= 1
C965: + x4 + x133 <= 1
C966: + x23 + x161 <= 1
C967: + x35 + x91 <= 1
C968: + x26 + x184 <= 1
C969: + x285 + x370 <= 1
C970: + x14 + x484 <= 1
C971: + x83 + x102 <= 1
C972: + x189 + x451 <= 1
C973: + x2 + x202 <= 1
C974: + x3 + x250 <= 1
C975: + x102 + x246 <= 1
C976: + x192 + x259 <= 1
C977: + x5 + x67 <= 1
C978: + x43 + x321 <= 1
C979: + x7 + x432 <= 1
C980: + x47 + x247 <= 1
C981: + x21 + x110 <= 1
C982: + x16 + x408 <= 1
C983: + x57 + x221 <= 1
C984: + x2 + x123 <= 1
C985: + x22 + x120 <= 1
C986: + x13 + x173 <= 1
C987: + x352 + x368 <= 1
C988: + x8 + x69 <= 1
C989: + x55 + x325 <= 1
C990: + x124 + x133 <= 1
C991: + x34 + x330 <= 1
C992: + x4 + x125 <= 1
C993: + x5 + x119 <= 1
C994: + x23 + x201 <= 1
C995: + x6 + x476 <= 1
C996: + x49 + x302 <= 1
C997: + x323 + x370 <= 1
C998: + x70 + x228 <= 1
C999: + x7 + x133 <= 1
C1000: + x63 + x98 <= 1
C1001: + x10 + x124 <= 1
C1002: + x181 + x283 <= 1
C1003: + x3 + x189 <= 1
C1004: + x38 + x262 <= 1
C1005: + x42 + x400 <= 1
C1006: + x23 + x188 <= 1
C1007: + x117 + x256 <= 1
C1008: + x174 + x326 <= 1
C1009: + x307 + x359 <= 1
C1010: + x134 + x219 <= 1
C1011: + x73 + x126 <= 1
C1012: + x339 + x426 <= 1
C1013: + x15 + x475 <= 1
C1014: + x55 + x62 <= 1
C1015: + x105 + x327 <= 1
C1016: + x221 + x225 <= 1
C1017: + x221 + x302 <= 1
C1018: + x62 + x70 <= 1
C1019: + x118 + x153 <= 1
C1020: + x312 + x383 <= 1
C1021: + x18 + x40 <= 1
C1022: + x97 + x467 <= 1
C1023: + x35 + x139 <= 1
C1024: + x18 + x451 <= 1
C1025: + x183 + x458 <= 1
C1026: + x11 + x15 <= 1
C1027: + x12 + x348 <= 1
C1028: + x15 + x132 <= 1
C1029: + x53 + x390 <= 1
C1030: + x18 + x177 <= 1
C1031: + x1 + x233 <= 1
C1032: + x12 + x135 <= 1
C1033: + x61 + x115 <= 1
C1034: + x123 + x312 <= 1
C1035: + x25 + x60 <= 1
C1036: + x98 + x401 <= 1
C1037: + x17 + x489 <= 1
C1038: + x63 + x105 <= 1
C1039: + x2 + x16 <= 1
C1040: + x13 + x160 <= 1
C1041: + x189 + x354 <= 1
C1042: + x21 + x48 <= 1
C1043: + x40 + x254 <= 1
C1044: + x7 + x15 <= 1
C1045: + x30 + x275 <= 1
C1046: + x209 + x357 <= 1
C1047: + x71 + x108 <= 1
C1048: + x92 + x304 <= 1
C1049: + x9 + x258 <= 1
C1050: + x24 + x402 <= 1
C1051: + x185 + x358 <= 1
C1052: + x406 + x412 <= 1
C1053: + x88 + x484 <= 1
C1054: + x8 + x38 <= 1
C1055: + x123 + x363 <= 1
C1056: + x30 + x388 <= 1
C1057: + x159 + x357 <= 1
C1058: + x15 + x490 <= 1
C1059: + x271 + x291 <= 1
C1060: + x6 + x445 <= 1
C1061: + x57 + x235 <= 1
C1062: + x7 + x59 <= 1
C1063: + x104 + x228 <= 1
C1064: + x45 + x47 <= 1
C1065: + x29 + x222 <= 1
C1066: + x225 + x404 <= 1
C1067: + x125 + x285 <= 1
C1068: + x235 + x333 <= 1
C1069: + x316 + x500 <= 1
C1070: + x110 + x412 <= 1
C1071: + x4 + x349 <= 1
C1072: + x159 + x273 <= 1
C1073: + x6 + x97 <= 1
C1074: + x8 + x9 + x11 <= 1
C1075: + x241 + x249 <= 1
C1076: + x86 + x211 <= 1
C1077: + x4 + x252 <= 1
C1078: + x170 + x205 <= 1
C1079: + x25 + x352 <= 1
C1080: + x35 + x104 <= 1
C1081: + x181 + x251 <= 1
C1082: + x317 + x339 <= 1
C1083: + x135 + x298 <= 1
C1084: + x20 + x189 <= 1
C1085: + x281 + x447 <= 1
C1086: + x88 + x268 <= 1
C1087: + x27 + x350 <= 1
C1088: + x18 + x385 <= 1
C1089: + x85 + x415 <= 1
C1090: + x34 + x422 <= 1
C1091: + x133 + x283 <= 1
C1092: + x30 + x143 <= 1
C1093: + x9 + x59 <= 1
C1094: + x10 + x141 <= 1
C1095: + x18 + x445 <= 1
C1096: + x184 + x382 <= 1
C1097: + x188 + x436 <= 1
C1098: + x6 + x217 <= 1
C1099: + x53 + x102 <= 1
C1100: + x18 + x78 <= 1
C1101: + x235 + x440 <= 1
C1102: + x12 + x20 <= 1
C1103: + x13 + x297 <= 1
C1104: + x70 + x223 <= 1
C1105: + x352 + x492 <= 1
C1106: + x7 + x106 <= 1
C1107: + x85 + x228 <= 1
C1108: + x3 + x138 <= 1
C1109: + x220 + x423 <= 1
C1110: + x56 + x106 <= 1
C1111: + x78 + x498 <= 1
C1112: + x116 + x378 <= 1
C1113: + x168 + x454 <= 1
C1114: + x14 + x264 <= 1
C1115: + x5 + x130 <= 1
C1116: + x6 + x30 <= 1
C1117: + x71 + x102 <= 1
C1118: + x91 + x186 <= 1
C1119: + x19 + x120 <= 1
C1120: + x271 + x446 <= 1
C1121: + x8 + x245 <= 1
C1122: + x2 + x10 + x24 <= 1
C1123: + x31 + x48 <= 1
C1124: + x36 + x161 <= 1
C1125: + x8 + x28 <= 1
C1126: + x63 + x373 <= 1
C1127: + x71 + x332 <= 1
C1128: + x145 + x458 <= 1
C1129: + x31 + x286 <= 1
C1130: + x133 + x145 <= 1
C1131: + x36 + x288 <= 1
C1132: + x10 + x273 <= 1
C1133: + x2 + x71 <= 1
C1134: + x21 + x276 <= 1
C1135: + x188 + x457 <= 1
C1136: + x454 + x483 <= 1
C1137: + x185 + x192 <= 1
C1138: + x43 + x361 <= 1
C1139: + x25 + x244 <= 1
C1140: + x57 + x104 <= 1
C1141: + x176 + x319 <= 1
C1142: + x6 + x83 <= 1
C1143: + x271 + x377 <= 1
C1144: + x164 + x287 <= 1
C1145: + x66 + x339 <= 1
C1146: + x77 + x192 <= 1
C1147: + x14 + x19 <= 1
C1148: + x52 + x301 <= 1
C1149: + x4 + x5 <= 1
C1150: + x3 + x52 <= 1
C1151: + x56 + x369 <= 1
C1152: + x13 + x284 <= 1
C1153: + x23 + x55 <= 1
C1154: + x6 + x7 <= 1
C1155: + x54 + x61 <= 1
C1156: + x42 + x408 <= 1
C1157: + x153 + x175 <= 1
C1158: + x10 + x191 <= 1
C1159: + x84 + x420 <= 1
C1160: + x147 + x477 <= 1
C1161: + x30 + x36 <= 1
C1162: + x113 + x144 <= 1
C1163: + x222 + x356 <= 1
C1164: + x142 + x320 <= 1
C1165: + x92 + x420 <= 1
C1166: + x390 + x446 <= 1
C1167: + x60 + x155 <= 1
C1168: + x102 + x199 <= 1
C1169: + x13 + x45 <= 1
C1170: + x142 + x401 <= 1
C1171: + x18 + x64 <= 1
C1172: + x334 + x337 <= 1
C1173: + x88 + x162 <= 1
C1174: + x86 + x238 <= 1
C1175: + x90 + x235 <= 1
C1176: + x6 + x255 <= 1
C1177: + x80 + x471 <= 1
C1178: + x250 + x274 <= 1
C1179: + x316 + x467 <= 1
C1180: + x27 + x183 <= 1
C1181: + x49 + x248 <= 1
C1182: + x4 + x384 <= 1
C1183: + x14 + x413 <= 1
C1184: + x6 + x16 <= 1
C1185: + x38 + x279 <= 1
C1186: + x21 + x179 <= 1
C1187: + x4 + x155 <= 1
C1188: + x5 + x21 <= 1
C1189: + x71 + x326 <= 1
C1190: + x8 + x10 <= 1
C1191: + x289 + x304 <= 1
C1192: + x128 + x325 <= 1
C1193: + x429 + x461 <= 1
C1194: + x86 + x163 <= 1
C1195: + x78 + x198 <= 1
C1196: + x299 + x409 <= 1
C1197: + x229 + x397 <= 1
C1198: + x381 + x483 <= 1
C1199: + x30 + x174 <= 1
C1200: + x33 + x384 <= 1
C1201: + x19 + x30 <= 1
C1202: + x166 + x219 <= 1
C1203: + x90 + x310 <= 1
C1204: + x5 + x89 <= 1
C1205: + x59 + x147 <= 1
C1206: + x172 + x402 <= 1
C1207: + x11 + x453 <= 1
C1208: + x59 + x120 <= 1
C1209: + x31 + x85 <= 1
C1210: + x159 + x170 <= 1
C1211: + x61 + x344 <= 1
C1212: + x163 + x268 <= 1
C1213: + x1 + x8 <= 1
C1214: + x219 + x266 <= 1
C1215: + x143 + x374 <= 1
C1216: + x121 + x130 <= 1
C1217: + x67 + x198 <= 1
C1218: + x6 + x9 <= 1
C1219: + x16 + x338 <= 1
C1220: + x57 + x340 <= 1
C1221: + x40 + x112 <= 1
C1222: + x167 + x169 <= 1
C1223: + x13 + x239 <= 1
C1224: + x179 + x186 <= 1
C1225: + x198 + x364 <= 1
C1226: + x33 + x443 <= 1
C1227: + x60 + x78 <= 1
C1228: + x6 + x410 <= 1
C1229: + x327 + x419 <= 1
C1230: + x3 + x493 <= 1
C1231: + x141 + x254 <= 1
C1232: + x251 + x296 <= 1
C1233: + x10 + x58 <= 1
C1234: + x8 + x152 <= 1
C1235: + x19 + x21 <= 1
C1236: + x5 + x72 <= 1
C1237: + x82 + x490 <= 1
C1238: + x10 + x149 <= 1
C1239: + x30 + x74 <= 1
C1240: + x314 + x404 <= 1
C1241: + x4 + x418 <= 1
C1242: + x124 + x346 <= 1
C1243: + x395 + x455 <= 1
C1244: + x155 + x323 <= 1
C1245: + x15 + x25 <= 1
C1246: + x33 + x486 <= 1
C1247: + x181 + x361 <= 1
C1248: + x10 + x230 <= 1
C1249: + x176 + x443 <= 1
C1250: + x134 + x298 <= 1
C1251: + x97 + x277 <= 1
C1252: + x70 + x231 <= 1
C1253: + x15 + x37 <= 1
C1254: + x207 + x357 <= 1
C1255: + x92 + x282 <= 1
C1256: + x157 + x257 <= 1
C1257: + x42 + x294 <= 1
C1258: + x31 + x378 <= 1
C1259: + x34 + x204 <= 1
C1260: + x235 + x260 <= 1
C1261: + x314 + x457 <= 1
C1262: + x19 + x290 <= 1
C1263: + x151 + x384 <= 1
C1264: + x174 + x492 <= 1
C1265: + x18 + x21 + x29 <= 1
C1266: + x23 + x24 <= 1
C1267: + x6 + x38 <= 1
C1268: + x71 + x126 <= 1
C1269: + x9 + x173 <= 1
C1270: + x5 + x79 <= 1
C1271: + x35 + x43 <= 1
C1272: + x50 + x311 <= 1
C1273: + x43 + x59 <= 1
C1274: + x5 + x313 <= 1
C1275: + x397 + x478 <= 1
C1276: + x156 + x330 <= 1
C1277: + x71 + x141 <= 1
C1278: + x2 + x396 <= 1
C1279: + x3 + x101 <= 1
C1280: + x5 + x222 <= 1
C1281: + x1 + x22 <= 1
C1282: + x19 + x196 <= 1
C1283: + x6 + x456 <= 1
C1284: + x18 + x95 <= 1
C1285: + x29 + x105 <= 1
C1286: + x203 + x211 <= 1
C1287: + x24 + x449 <= 1
C1288: + x118 + x486 <= 1
C1289: + x11 + x120 <= 1
C1290: + x3 + x185 <= 1
C1291: + x12 + x275 <= 1
C1292: + x440 + x494 <= 1
C1293: + x2 + x342 <= 1
C1294: + x67 + x414 <= 1
C1295: + x147 + x449 <= 1
C1296: + x51 + x324 <= 1
C1297: + x21 + x45 <= 1
C1298: + x14 + x281 <= 1
C1299: + x179 + x346 <= 1
C1300: + x90 + x416 <= 1
C1301: + x110 + x474 <= 1
C1302: + x5 + x500 <= 1
C1303: + x59 + x61 <= 1
C1304: + x88 + x213 <= 1
C1305: + x164 + x234 <= 1
C1306: + x188 + x329 <= 1
C1307: + x25 + x215 <= 1
C1308: + x160 + x479 <= 1
C1309: + x10 + x135 <= 1
C1310: + x342 + x405 <= 1
C1311: + x100 + x429 <= 1
C1312: + x71 + x136 <= 1
C1313: + x37 + x52 <= 1
C1314: + x20 + x401 <= 1
C1315: + x15 + x136 <= 1
C1316: + x24 + x361 <= 1
C1317: + x7 + x310 <= 1
C1318: + x2 + x147 <= 1
C1319: + x296 + x465 <= 1
C1320: + x79 + x342 <= 1
C1321: + x17 + x80 <= 1
C1322: + x236 + x342 <= 1
C1323: + x195 + x284 <= 1
C1324: + x27 + x304 <= 1
C1325: + x172 + x433 <= 1
C1326: + x5 + x9 <= 1
C1327: + x61 + x433 <= 1
C1328: + x26 + x134 <= 1
C1329: + x11 + x212 <= 1
C1330: + x49 + x99 <= 1
C1331: + x252 + x456 <= 1
C1332: + x218 + x220 <= 1
C1333: + x37 + x119 <= 1
C1334: + x38 + x65 <= 1
C1335: + x56 + x354 <= 1
C1336: + x267 + x344 <= 1
C1337: + x23 + x34 <= 1
C1338: + x10 + x410 <= 1
C1339: + x12 + x200 <= 1
C1340: + x21 + x155 <= 1
C1341: + x5 + x61 <= 1
C1342: + x6 + x262 <= 1
C1343: + x100 + x119 <= 1
C1344: + x8 + x34 <= 1
C1345: + x30 + x85 <= 1
C1346: + x42 + x151 <= 1
C1347: + x14 + x454 <= 1
C1348: + x54 + x95 <= 1
C1349: + x93 + x144 <= 1
C1350: + x13 + x351 <= 1
C1351: + x43 + x450 <= 1
C1352: + x53 + x393 <= 1
C1353: + x6 + x220 <= 1
C1354: + x2 + x236 <= 1
C1355: + x283 + x487 <= 1
C1356: + x41 + x91 <= 1
C1357: + x14 + x140 <= 1
C1358: + x9 + x100 <= 1
C1359: + x80 + x343 <= 1
C1360: + x326 + x453 <= 1
C1361: + x2 + x5 <= 1
C1362: + x185 + x293 <= 1
C1363: + x60 + x328 <= 1
C1364: + x6 + x144 <= 1
C1365: + x11 + x219 <= 1
C1366: + x139 + x408 <= 1
C1367: + x31 + x154 <= 1
C1368: + x5 + x482 <= 1
C1369: + x10 + x296 <= 1
C1370: + x56 + x383 <= 1
C1371: + x30 + x488 <= 1
C1372: + x97 + x374 <= 1
C1373: + x5 + x135 <= 1
C1374: + x6 + x17 <= 1
C1375: + x7 + x167 <= 1
C1376: + x246 + x290 <= 1
C1377: + x197 + x380 <= 1
C1378: + x24 + x181 <= 1
C1379: + x16 + x76 <= 1
C1380: + x12 + x92 <= 1
C1381: + x7 + x50 <= 1
C1382: + x172 + x274 <= 1
C1383: + x18 + x167 <= 1
C1384: + x8 + x176 <= 1
C1385: + x139 + x427 <= 1
C1386: + x5 + x112 <= 1
C1387: + x243 + x463 <= 1
C1388: + x16 + x32 <= 1
C1389: + x11 + x371 <= 1
C1390: + x21 + x75 <= 1
C1391: + x39 + x149 <= 1
C1392: + x59 + x329 <= 1
C1393: + x35 + x365 <= 1
C1394: + x345 + x387 <= 1
C1395: + x138 + x275 <= 1
C1396: + x59 + x103 <= 1
C1397: + x368 + x465 <= 1
C1398: + x30 + x336 <= 1
C1399: + x14 + x22 <= 1
C1400: + x35 + x434 <= 1
C1401: + x21 + x58 <= 1
C1402: + x13 + x111 <= 1
C1403: + x40 + x240 <= 1
C1404: + x187 + x290 <= 1
C1405: + x317 + x459 <= 1
C1406: + x2 + x476 <= 1
C1407: + x4 + x374 <= 1
C1408: + x83 + x231 <= 1
C1409: + x8 + x294 <= 1
C1410: + x148 + x183 <= 1
C1411: + x5 + x35 <= 1
C1412: + x28 + x196 <= 1
C1413: + x30 + x39 <= 1
C1414: + x135 + x254 <= 1
C1415: + x347 + x354 <= 1
C1416: + x55 + x87 <= 1
C1417: + x221 + x331 <= 1
C1418: + x358 + x461 <= 1
C1419: + x15 + x153 <= 1
C1420: + x45 + x468 <= 1
C1421: + x100 + x246 <= 1
C1422: + x10 + x11 <= 1
C1423: + x103 + x218 <= 1
C1424: + x4 + x93 <= 1
C1425: + x5 + x87 <= 1
C1426: + x78 + x435 <= 1
C1427: + x67 + x335 <= 1
C1428: + x5 + x321 <= 1
C1429: + x18 + x486 <= 1
C1430: + x101 + x264 <= 1
C1431: + x147 + x311 <= 1
C1432: + x10 + x449 <= 1
C1433: + x38 + x294 <= 1
C1434: + x11 + x479 <= 1
C1435: + x22 + x92 <= 1
C1436: + x5 + x230 <= 1
C1437: + x99 + x310 <= 1
C1438: + x153 + x348 <= 1
C1439: + x10 + x247 <= 1
C1440: + x88 + x439 <= 1
C1441: + x40 + x308 <= 1
C1442: + x324 + x467 <= 1
C1443: + x46 + x73 <= 1
C1444: + x139 + x379 <= 1
C1445: + x60 + x195 <= 1
C1446: + x8 + x234 <= 1
C1447: + x46 + x439 <= 1
C1448: + x5 + x42 <= 1
C1449: + x6 + x166 <= 1
C1450: + x253 + x332 <= 1
C1451: + x25 + x382 <= 1
C1452: + x49 + x68 <= 1
C1453: + x41 + x161 <= 1
C1454: + x33 + x179 <= 1
C1455: + x5 + x284 <= 1
C1456: + x62 + x215 <= 1
C1457: + x61 + x257 <= 1
C1458: + x18 + x334 <= 1
C1459: + x91 + x270 <= 1
C1460: + x13 + x41 <= 1
C1461: + x69 + x449 <= 1
C1462: + x89 + x447 <= 1
C1463: + x10 + x367 <= 1
C1464: + x121 + x179 <= 1
C1465: + x157 + x460 <= 1
C1466: + x38 + x49 <= 1
C1467: + x97 + x463 <= 1
C1468: + x116 + x475 <= 1
C1469: + x6 + x72 <= 1
C1470: + x79 + x211 <= 1
C1471: + x11 + x19 <= 1
C1472: + x25 + x441 <= 1
C1473: + x181 + x212 <= 1
C1474: + x83 + x403 <= 1
C1475: + x1 + x5 <= 1
C1476: + x218 + x405 <= 1
C1477: + x66 + x150 <= 1
C1478: + x56 + x159 <= 1
C1479: + x3 + x7 <= 1
C1480: + x39 + x264 <= 1
C1481: + x48 + x345 <= 1
C1482: + x70 + x241 <= 1
C1483: + x6 + x12 <= 1
C1484: + x63 + x117 <= 1
C1485: + x48 + x64 <= 1
C1486: + x5 + x17 <= 1
C1487: + x90 + x187 <= 1
C1488: + x10 + x172 <= 1
C1489: + x64 + x121 <= 1
C1490: + x29 + x143 <= 1
C1491: + x20 + x438 <= 1
C1492: + x42 + x46 <= 1
C1493: + x32 + x39 <= 1
C1494: + x40 + x452 <= 1
C1495: + x163 + x308 <= 1
C1496: + x118 + x347 <= 1
C1497: + x28 + x79 <= 1
C1498: + x280 + x427 <= 1
C1499: + x14 + x176 <= 1
C1500: + x188 + x237 <= 1
C1501: + x6 + x302 <= 1
C1502: + x18 + x53 <= 1
C1503: + x19 + x187 <= 1
C1504: + x80 + x202 <= 1
C1505: + x174 + x426 <= 1
C1506: + x15 + x183 <= 1
C1507: + x33 + x245 <= 1
C1508: + x9 + x76 <= 1
C1509: + x1 + x441 <= 1
C1510: + x6 + x117 <= 1
C1511: + x15 + x34 <= 1
C1512: + x36 + x426 <= 1
C1513: + x266 + x480 <= 1
C1514: + x5 + x32 <= 1
C1515: + x71 + x433 <= 1
C1516: + x157 + x262 <= 1
C1517: + x60 + x411 <= 1
C1518: + x196 + x314 <= 1
C1519: + x25 + x94 <= 1
C1520: + x6 + x390 <= 1
C1521: + x119 + x311 <= 1
C1522: + x191 + x335 <= 1
C1523: + x102 + x455 <= 1
C1524: + x38 + x82 <= 1
C1525: + x76 + x352 <= 1
C1526: + x41 + x385 <= 1
C1527: + x43 + x429 <= 1
C1528: + x345 + x496 <= 1
C1529: + x18 + x131 <= 1
C1530: + x26 + x195 <= 1
C1531: + x213 + x303 <= 1
C1532: + x68 + x175 <= 1
C1533: + x42 + x168 <= 1
C1534: + x62 + x189 <= 1
C1535: + x67 + x170 <= 1
C1536: + x215 + x301 <= 1
C1537: + x118 + x376 <= 1
C1538: + x7 + x320 <= 1
C1539: + x211 + x338 <= 1
C1540: + x12 + x129 <= 1
C1541: + x450 + x499 <= 1
C1542: + x188 + x267 <= 1
C1543: + x6 + x475 <= 1
C1544: + x173 + x428 <= 1
C1545: + x2 + x296 <= 1
C1546: + x84 + x462 <= 1
C1547: + x21 + x496 <= 1
C1548: + x60 + x234 <= 1
C1549: + x145 + x200 <= 1
C1550: + x136 + x292 <= 1
C1551: + x2 + x54 <= 1
C1552: + x68 + x122 <= 1
C1553: + x5 + x7 <= 1
C1554: + x26 + x325 <= 1
C1555: + x6 + x364 <= 1
C1556: + x60 + x404 <= 1
C1557: + x60 + x71 <= 1
C1558: + x90 + x411 <= 1
C1559: + x172 + x472 <= 1
C1560: + x18 + x406 <= 1
C1561: + x57 + x153 <= 1
C1562: + x117 + x435 <= 1
C1563: + x73 + x220 <= 1
C1564: + x11 + x189 <= 1
C1565: + x12 + x206 <= 1
C1566: + x303 + x343 <= 1
C1567: + x14 + x162 <= 1
C1568: + x179 + x399 <= 1
C1569: + x61 + x157 <= 1
C1570: + x271 + x345 <= 1
C1571: + x54 + x73 <= 1
C1572: + x16 + x416 <= 1
C1573: + x26 + x103 <= 1
C1574: + x283 + x384 <= 1
C1575: + x105 + x372 <= 1
C1576: + x111 + x245 <= 1
C1577: + x12 + x186 <= 1
C1578: + x30 + x208 <= 1
C1579: + x20 + x74 <= 1
C1580: + x142 + x207 <= 1
C1581: + x7 + x125 <= 1
C1582: + x80 + x228 <= 1
C1583: + x10 + x100 <= 1
C1584: + x101 + x165 <= 1
C1585: + x2 + x15 <= 1
C1586: + x68 + x127 <= 1
C1587: + x5 + x14 <= 1
C1588: + x82 + x292 <= 1
C1589: + x63 + x288 <= 1
C1590: + x332 + x400 <= 1
C1591: + x53 + x165 <= 1
C1592: + x195 + x465 <= 1
C1593: + x209 + x358 <= 1
C1594: + x163 + x349 <= 1
C1595: + x28 + x495 <= 1
C1596: + x185 + x359 <= 1
C1597: + x140 + x323 <= 1
C1598: + x5 + x50 <= 1
C1599: + x188 + x333 <= 1
C1600: + x16 + x66 <= 1
C1601: + x10 + x139 <= 1
C1602: + x191 + x204 <= 1
C1603: + x41 + x201 <= 1
C1604: + x17 + x53 <= 1
C1605: + x62 + x207 <= 1
C1606: + x173 + x267 <= 1
C1607: + x47 + x280 <= 1
C1608: + x105 + x379 <= 1
C1609: + x141 + x292 <= 1
C1610: + x25 + x405 <= 1
C1611: + x14 + x44 <= 1
C1612: + x100 + x272 <= 1
C1613: + x52 + x278 <= 1
C1614: + x1 + x225 <= 1
C1615: + x2 + x151 <= 1
C1616: + x146 + x372 <= 1
C1617: + x48 + x99 <= 1
C1618: + x60 + x470 <= 1
C1619: + x188 + x208 <= 1
C1620: + x208 + x214 <= 1
C1621: + x248 + x291 <= 1
C1622: + x123 + x131 <= 1
C1623: + x164 + x167 <= 1
C1624: + x13 + x152 <= 1
C1625: + x89 + x225 <= 1
C1626: + x108 + x205 <= 1
C1627: + x136 + x437 <= 1
C1628: + x68 + x259 <= 1
C1629: + x4 + x26 <= 1
C1630: + x4 + x493 <= 1
C1631: + x168 + x464 <= 1
C1632: + x51 + x375 <= 1
C1633: + x51 + x132 <= 1
C1634: + x19 + x272 <= 1
C1635: + x33 + x51 <= 1
C1636: + x251 + x317 <= 1
C1637: + x97 + x371 <= 1
C1638: + x145 + x226 <= 1
C1639: + x335 + x380 <= 1
C1640: + x54 + x485 <= 1
C1641: + x53 + x83 <= 1
C1642: + x80 + x271 <= 1
C1643: + x7 + x402 <= 1
C1644: + x157 + x295 <= 1
C1645: + x24 + x31 <= 1
C1646: + x102 + x422 <= 1
C1647: + x11 + x50 <= 1
C1648: + x167 + x285 <= 1
C1649: + x31 + x210 <= 1
C1650: + x99 + x333 <= 1
C1651: + x391 + x476 <= 1
C1652: + x133 + x223 <= 1
C1653: + x27 + x307 <= 1
C1654: + x344 + x474 <= 1
C1655: + x282 + x414 <= 1
C1656: + x1 + x290 <= 1
C1657: + x19 + x65 <= 1
C1658: + x175 + x288 <= 1
C1659: + x92 + x216 <= 1
C1660: + x34 + x461 <= 1
C1661: + x17 + x261 <= 1
C1662: + x154 + x326 <= 1
C1663: + x160 + x316 <= 1
C1664: + x235 + x377 <= 1
C1665: + x90 + x494 <= 1
C1666: + x33 + x74 <= 1
C1667: + x14 + x106 <= 1
C1668: + x362 + x390 <= 1
C1669: + x63 + x72 <= 1
C1670: + x10 + x90 <= 1
C1671: + x10 + x391 <= 1
C1672: + x266 + x424 <= 1
C1673: + x22 + x26 <= 1
C1674: + x6 + x192 <= 1
C1675: + x153 + x286 <= 1
C1676: + x1 + x80 <= 1
C1677: + x37 + x201 <= 1
C1678: + x103 + x332 <= 1
C1679: + x144 + x387 <= 1
C1680: + x135 + x255 <= 1
C1681: + x37 + x46 <= 1
C1682: + x2 + x70 <= 1
C1683: + x42 + x63 <= 1
C1684: + x96 + x248 <= 1
C1685: + x6 + x193 <= 1
C1686: + x22 + x395 <= 1
C1687: + x290 + x427 <= 1
C1688: + x12 + x173 <= 1
C1689: + x51 + x309 <= 1
C1690: + x179 + x194 <= 1
C1691: + x68 + x453 <= 1
C1692: + x9 + x111 <= 1
C1693: + x6 + x82 <= 1
C1694: + x9 + x460 <= 1
C1695: + x28 + x42 + x191 <= 1
C1696: + x2 + x431 <= 1
C1697: + x111 + x121 <= 1
C1698: + x68 + x86 <= 1
C1699: + x104 + x197 <= 1
C1700: + x352 + x375 <= 1
C1701: + x128 + x184 <= 1
C1702: + x120 + x251 <= 1
C1703: + x140 + x281 <= 1
C1704: + x18 + x114 <= 1
C1705: + x145 + x435 <= 1
C1706: + x3 + x49 <= 1
C1707: + x43 + x396 <= 1
C1708: + x99 + x125 <= 1
C1709: + x19 + x419 <= 1
C1710: + x31 + x55 + x113 <= 1
C1711: + x30 + x35 <= 1
C1712: + x13 + x95 <= 1
C1713: + x34 + x40 <= 1
C1714: + x263 + x370 <= 1
C1715: + x339 + x447 <= 1
C1716: + x11 + x36 <= 1
C1717: + x106 + x360 <= 1
C1718: + x5 + x190 <= 1
C1719: + x6 + x202 <= 1
C1720: + x16 + x279 <= 1
C1721: + x157 + x172 <= 1
C1722: + x166 + x209 <= 1
C1723: + x13 + x46 <= 1
C1724: + x25 + x263 <= 1
C1725: + x43 + x337 <= 1
C1726: + x15 + x371 <= 1
C1727: + x18 + x63 <= 1
C1728: + x9 + x22 <= 1
C1729: + x177 + x407 <= 1
C1730: + x34 + x116 <= 1
C1731: + x9 + x499 <= 1
C1732: + x1 + x320 <= 1
C1733: + x11 + x24 <= 1
C1734: + x77 + x184 <= 1
C1735: + x206 + x459 <= 1
C1736: + x17 + x371 <= 1
C1737: + x142 + x481 <= 1
C1738: + x9 + x229 <= 1
C1739: + x238 + x482 <= 1
C1740: + x60 + x437 <= 1
C1741: + x4 + x452 <= 1
C1742: + x13 + x98 <= 1
C1743: + x317 + x478 <= 1
C1744: + x101 + x403 <= 1
C1745: + x73 + x386 <= 1
C1746: + x49 + x233 <= 1
C1747: + x37 + x112 <= 1
C1748: + x35 + x312 <= 1
C1749: + x73 + x255 <= 1
C1750: + x199 + x469 <= 1
C1751: + x8 + x287 <= 1
C1752: + x10 + x76 <= 1
C1753: + x175 + x246 <= 1
C1754: + x22 + x44 <= 1
C1755: + x40 + x114 <= 1
C1756: + x6 + x162 <= 1
C1757: + x31 + x269 <= 1
C1758: + x7 + x40 <= 1
C1759: + x318 + x414 <= 1
C1760: + x139 + x232 <= 1
C1761: + x77 + x251 <= 1
C1762: + x21 + x291 <= 1
C1763: + x24 + x393 <= 1
C1764: + x9 + x192 <= 1
C1765: + x10 + x56 <= 1
C1766: + x57 + x410 <= 1
C1767: + x12 + x219 <= 1
C1768: + x89 + x387 <= 1
C1769: + x9 + x29 <= 1
C1770: + x10 + x147 <= 1
C1771: + x139 + x318 <= 1
C1772: + x39 + x336 <= 1
C1773: + x13 + x471 <= 1
C1774: + x134 + x159 <= 1
C1775: + x136 + x374 <= 1
C1776: + x114 + x362 <= 1
C1777: + x116 + x126 <= 1
C1778: + x15 + x180 <= 1
C1779: + x24 + x349 <= 1
C1780: + x8 + x78 <= 1
C1781: + x57 + x67 <= 1
C1782: + x139 + x187 <= 1
C1783: + x30 + x463 <= 1
C1784: + x42 + x102 <= 1
C1785: + x157 + x230 <= 1
C1786: + x5 + x29 <= 1
C1787: + x18 + x253 <= 1
C1788: + x239 + x485 <= 1
C1789: + x214 + x344 <= 1
C1790: + x34 + x50 <= 1
C1791: + x6 + x409 <= 1
C1792: + x407 + x431 <= 1
C1793: + x4 + x276 <= 1
C1794: + x61 + x284 <= 1
C1795: + x6 + x60 <= 1
C1796: + x18 + x315 <= 1
C1797: + x10 + x57 <= 1
C1798: + x40 + x163 <= 1
C1799: + x14 + x172 <= 1
C1800: + x5 + x65 <= 1
C1801: + x26 + x254 <= 1
C1802: + x236 + x299 <= 1
C1803: + x37 + x170 <= 1
C1804: + x102 + x299 <= 1
C1805: + x68 + x174 <= 1
C1806: + x6 + x77 <= 1
C1807: + x374 + x425 <= 1
C1808: + x183 + x497 <= 1
C1809: + x1 + x32 <= 1
C1810: + x55 + x327 <= 1
C1811: + x28 + x159 <= 1
C1812: + x24 + x104 <= 1
C1813: + x36 + x207 <= 1
C1814: + x155 + x499 <= 1
C1815: + x38 + x421 <= 1
C1816: + x33 + x86 <= 1
C1817: + x13 + x258 <= 1
C1818: + x26 + x421 <= 1
C1819: + x376 + x489 <= 1
C1820: + x169 + x203 <= 1
C1821: + x5 + x28 <= 1
C1822: + x34 + x293 <= 1
C1823: + x6 + x367 <= 1
C1824: + x9 + x223 <= 1
C1825: + x7 + x373 <= 1
C1826: + x144 + x487 <= 1
C1827: + x2 + x340 <= 1
C1828: + x1 + x7 + x277 <= 1
C1829: + x69 + x121 <= 1
C1830: + x1 + x457 <= 1
C1831: + x97 + x354 <= 1
C1832: + x69 + x158 <= 1
C1833: + x47 + x415 <= 1
C1834: + x3 + x243 <= 1
C1835: + x438 + x444 <= 1
C1836: + x34 + x188 <= 1
C1837: + x10 + x157 <= 1
C1838: + x30 + x66 <= 1
C1839: + x177 + x444 <= 1
C1840: + x43 + x60 <= 1
C1841: + x6 + x438 <= 1
C1842: + x100 + x423 <= 1
C1843: + x119 + x455 <= 1
C1844: + x84 + x152 <= 1
C1845: + x265 + x391 <= 1
C1846: + x13 + x170 <= 1
C1847: + x6 + x233 <= 1
C1848: + x12 + x133 <= 1
C1849: + x22 + x214 <= 1
C1850: + x98 + x141 <= 1
C1851: + x70 + x497 <= 1
C1852: + x6 + x455 <= 1
C1853: + x2 + x316 <= 1
C1854: + x78 + x188 <= 1
C1855: + x70 + x239 <= 1
C1856: + x90 + x110 <= 1
C1857: + x61 + x214 <= 1
C1858: + x155 + x204 <= 1
C1859: + x59 + x75 <= 1
C1860: + x277 + x390 <= 1
C1861: + x13 + x158 <= 1
C1862: + x34 + x318 <= 1
C1863: + x1 + x35 <= 1
C1864: + x123 + x240 <= 1
C1865: + x13 + x400 <= 1
C1866: + x34 + x196 <= 1
C1867: + x60 + x91 <= 1
C1868: + x61 + x69 <= 1
C1869: + x24 + x49 <= 1
C1870: + x7 + x9 <= 1
C1871: + x3 + x41 <= 1
C1872: + x58 + x198 <= 1
C1873: + x97 + x377 <= 1
C1874: + x33 + x57 <= 1
C1875: + x36 + x415 <= 1
C1876: + x10 + x43 <= 1
C1877: + x28 + x81 <= 1
C1878: + x11 + x185 <= 1
C1879: + x31 + x64 <= 1
C1880: + x13 + x210 <= 1
C1881: + x98 + x202 <= 1
C1882: + x18 + x27 <= 1
C1883: + x2 + x353 <= 1
C1884: + x311 + x491 <= 1
C1885: + x314 + x413 <= 1
C1886: + x13 + x452 <= 1
C1887: + x83 + x142 <= 1
C1888: + x229 + x253 <= 1
C1889: + x11 + x12 <= 1
C1890: + x264 + x432 <= 1
C1891: + x13 + x161 <= 1
C1892: + x17 + x351 <= 1
C1893: + x6 + x210 <= 1
C1894: + x2 + x146 <= 1
C1895: + x274 + x322 <= 1
C1896: + x239 + x430 <= 1
C1897: + x115 + x200 <= 1
C1898: + x48 + x98 <= 1
C1899: + x31 + x236 <= 1
C1900: + x268 + x321 <= 1
C1901: + x63 + x177 <= 1
C1902: + x49 + x149 <= 1
C1903: + x86 + x114 <= 1
C1904: + x13 + x312 <= 1
C1905: + x88 + x153 <= 1
C1906: + x57 + x362 <= 1
C1907: + x3 + x177 <= 1
C1908: + x11 + x128 <= 1
C1909: + x5 + x10 <= 1
C1910: + x206 + x291 <= 1
C1911: + x14 + x227 <= 1
C1912: + x7 + x359 <= 1
C1913: + x10 + x195 <= 1
C1914: + x68 + x258 <= 1
C1915: + x259 + x309 <= 1
C1916: + x14 + x273 <= 1
C1917: + x332 + x388 <= 1
C1918: + x97 + x403 <= 1
C1919: + x255 + x445 <= 1
C1920: + x6 + x23 <= 1
C1921: + x145 + x239 <= 1
C1922: + x1 + x169 <= 1
C1923: + x113 + x307 <= 1
C1924: + x105 + x240 <= 1
C1925: + x5 + x62 <= 1
C1926: + x18 + x20 <= 1
C1927: + x11 + x261 <= 1
C1928: + x30 + x84 <= 1
C1929: + x131 + x160 <= 1
C1930: + x48 + x250 <= 1
C1931: + x340 + x433 <= 1
C1932: + x71 + x256 <= 1
C1933: + x18 + x447 <= 1
C1934: + x195 + x481 <= 1
C1935: + x44 + x469 <= 1
C1936: + x18 + x346 <= 1
C1937: + x8 + x178 <= 1
C1938: + x274 + x315 <= 1
C1939: + x51 + x319 <= 1
C1940: + x16 + x18 <= 1
C1941: + x308 + x406 <= 1
C1942: + x139 + x262 <= 1
C1943: + x231 + x339 <= 1
C1944: + x33 + x123 <= 1
C1945: + x34 + x109 <= 1
C1946: + x199 + x300 <= 1
C1947: + x2 + x28 <= 1
C1948: + x12 + x260 <= 1
C1949: + x33 + x456 <= 1
C1950: + x5 + x241 <= 1
C1951: + x64 + x409 <= 1
C1952: + x45 + x253 <= 1
C1953: + x221 + x313 <= 1

binary
x1 x2 x3 x4 x5 x6 x7 x8 x9 x10 x11 x12 x13 x14 x15 x16 x17 x18 x19 x20 x21 x22 x23 x24 x25 x26 x27 x28 x29 x30 x31 x32 x33 x34 x35 x36 x37 x38 x39 x40 x41 x42 x43 x44 x45 x46 x47 x48 x49 x50 x51 x52 x53 x54 x55 x56 x57 x58 x59 x60 x61 x62 x63 x64 x65 x66 x67 x68 x69 x70 x71 x72 x73 x74 x75 x76 x77 x78 x79 x80 x81 x82 x83 x84 x85 x86 x87 x88 x89 x90 x91 x92 x93 x94 x95 x96 x97 x98 x99 x100 x101 x102 x103 x104 x105 x106 x107 x108 x109 x110 x111 x112 x113 x114 x115 x116 x117 x118 x119 x120 x121 x122 x123 x124 x125 x126 x127 x128 x129 x130 x131 x132 x133 x134 x135 x136 x137 x138 x139 x140 x141 x142 x143 x144 x145 x146 x147 x148 x149 x150 x151 x152 x153 x154 x155 x156 x157 x158 x159 x160 x161 x162 x163 x164 x165 x166 x167 x168 x169 x170 x171 x172 x173 x174 x175 x176 x177 x178 x179 x180 x181 x182 x183 x184 x185 x186 x187 x188 x189 x190 x191 x192 x193 x194 x195 x196 x197 x198 x199 x200 x201 x202 x203 x204 x205 x206 x207 x208 x209 x210 x211 x212 x213 x214 x215 x216 x217 x218 x219 x220 x221 x222 x223 x224 x225 x226 x227 x228 x229 x230 x231 x232 x233 x234 x235 x236 x237 x238 x239 x240 x241 x242 x243 x244 x245 x246 x247 x248 x249 x250 x251 x252 x253 x254 x255 x256 x257 x258 x259 x260 x261 x262 x263 x264 x265 x266 x267 x268 x269 x270 x271 x272 x273 x274 x275 x276 x277 x278 x279 x280 x281 x282 x283 x284 x285 x286 x287 x288 x289 x290 x291 x292 x293 x294 x295 x296 x297 x298 x299 x300 x301 x302 x303 x304 x305 x306 x307 x308 x309 x310 x311 x312 x313 x314 x315 x316 x317 x318 x319 x320 x321 x322 x323 x324 x325 x326 x327 x328 x329 x330 x331 x332 x333 x334 x335 x336 x337 x338 x339 x340 x341 x342 x343 x344 x345 x346 x347 x348 x349 x350 x351 x352 x353 x354 x355 x356 x357 x358 x359 x360 x361 x362 x363 x364 x365 x366 x367 x368 x369 x370 x371 x372 x373 x374 x375 x376 x377 x378 x379 x380 x381 x382 x383 x384 x385 x386 x387 x388 x389 x390 x391 x392 x393 x394 x395 x396 x397 x398 x399 x400 x401 x402 x403 x404 x405 x406 x407 x408 x409 x410 x411 x412 x413 x414 x415 x416 x417 x418 x419 x420 x421 x422 x423 x424 x425 x426 x427 x428 x429 x430 x431 x432 x433 x434 x435 x436 x437 x438 x439 x440 x441 x442 x443 x444 x445 x446 x447 x448 x449 x450 x451 x452 x453 x454 x455 x456 x457 x458 x459 x460 x461 x462 x463 x464 x465 x466 x467 x468 x469 x470 x471 x472 x473 x474 x475 x476 x477 x478 x479 x480 x481 x482 x483 x484 x485 x486 x487 x488 x489 x490 x491 x492 x493 x494 x495 x496 x497 x498 x499 x500
