maximize
OBJ: + 1 x1 + 1 x2 + 1 x3 + 1 x4 + 1 x5 + 1 x6 + 1 x7 + 1 x8 + 1 x9 + 1 x10 + 1 x11 + 1 x12 + 1 x13 + 1 x14 + 1 x15 + 1 x16 + 1 x17 + 1 x18 + 1 x19 + 1 x20 + 1 x21 + 1 x22 + 1 x23 + 1 x24 + 1 x25 + 1 x26 + 1 x27 + 1 x28 + 1 x29 + 1 x30 + 1 x31 + 1 x32 + 1 x33 + 1 x34 + 1 x35 + 1 x36 + 1 x37 + 1 x38 + 1 x39 + 1 x40 + 1 x41 + 1 x42 + 1 x43 + 1 x44 + 1 x45 + 1 x46 + 1 x47 + 1 x48 + 1 x49 + 1 x50 + 1 x51 + 1 x52 + 1 x53 + 1 x54 + 1 x55 + 1 x56 + 1 x57 + 1 x58 + 1 x59 + 1 x60 + 1 x61 + 1 x62 + 1 x63 + 1 x64 + 1 x65 + 1 x66 + 1 x67 + 1 x68 + 1 x69 + 1 x70 + 1 x71 + 1 x72 + 1 x73 + 1 x74 + 1 x75 + 1 x76 + 1 x77 + 1 x78 + 1 x79 + 1 x80 + 1 x81 + 1 x82 + 1 x83 + 1 x84 + 1 x85 + 1 x86 + 1 x87 + 1 x88 + 1 x89 + 1 x90 + 1 x91 + 1 x92 + 1 x93 + 1 x94 + 1 x95 + 1 x96 + 1 x97 + 1 x98 + 1 x99 + 1 x100 + 1 x101 + 1 x102 + 1 x103 + 1 x104 + 1 x105 + 1 x106 + 1 x107 + 1 x108 + 1 x109 + 1 x110 + 1 x111 + 1 x112 + 1 x113 + 1 x114 + 1 x115 + 1 x116 + 1 x117 + 1 x118 + 1 x119 + 1 x120 + 1 x121 + 1 x122 + 1 x123 + 1 x124 + 1 x125 + 1 x126 + 1 x127 + 1 x128 + 1 x129 + 1 x130 + 1 x131 + 1 x132 + 1 x133 + 1 x134 + 1 x135 + 1 x136 + 1 x137 + 1 x138 + 1 x139 + 1 x140 + 1 x141 + 1 x142 + 1 x143 + 1 x144 + 1 x145 + 1 x146 + 1 x147 + 1 x148 + 1 x149 + 1 x150 + 1 x151 + 1 x152 + 1 x153 + 1 x154 + 1 x155 + 1 x156 + 1 x157 + 1 x158 + 1 x159 + 1 x160 + 1 x161 + 1 x162 + 1 x163 + 1 x164 + 1 x165 + 1 x166 + 1 x167 + 1 x168 + 1 x169 + 1 x170 + 1 x171 + 1 x172 + 1 x173 + 1 x174 + 1 x175 + 1 x176 + 1 x177 + 1 x178 + 1 x179 + 1 x180 + 1 x181 + 1 x182 + 1 x183 + 1 x184 + 1 x185 + 1 x186 + 1 x187 + 1 x188 + 1 x189 + 1 x190 + 1 x191 + 1 x192 + 1 x193 + 1 x194 + 1 x195 + 1 x196 + 1 x197 + 1 x198 + 1 x199 + 1 x200 + 1 x201 + 1 x202 + 1 x203 + 1 x204 + 1 x205 + 1 x206 + 1 x207 + 1 x208 + 1 x209 + 1 x210 + 1 x211 + 1 x212 + 1 x213 + 1 x214 + 1 x215 + 1 x216 + 1 x217 + 1 x218 + 1 x219 + 1 x220 + 1 x221 + 1 x222 + 1 x223 + 1 x224 + 1 x225 + 1 x226 + 1 x227 + 1 x228 + 1 x229 + 1 x230 + 1 x231 + 1 x232 + 1 x233 + 1 x234 + 1 x235 + 1 x236 + 1 x237 + 1 x238 + 1 x239 + 1 x240 + 1 x241 + 1 x242 + 1 x243 + 1 x244 + 1 x245 + 1 x246 + 1 x247 + 1 x248 + 1 x249 + 1 x250 + 1 x251 + 1 x252 + 1 x253 + 1 x254 + 1 x255 + 1 x256 + 1 x257 + 1 x258 + 1 x259 + 1 x260 + 1 x261 + 1 x262 + 1 x263 + 1 x264 + 1 x265 + 1 x266 + 1 x267 + 1 x268 + 1 x269 + 1 x270 + 1 x271 + 1 x272 + 1 x273 + 1 x274 + 1 x275 + 1 x276 + 1 x277 + 1 x278 + 1 x279 + 1 x280 + 1 x281 + 1 x282 + 1 x283 + 1 x284 + 1 x285 + 1 x286 + 1 x287 + 1 x288 + 1 x289 + 1 x290 + 1 x291 + 1 x292 + 1 x293 + 1 x294 + 1 x295 + 1 x296 + 1 x297 + 1 x298 + 1 x299 + 1 x300 + 1 x301 + 1 x302 + 1 x303 + 1 x304 + 1 x305 + 1 x306 + 1 x307 + 1 x308 + 1 x309 + 1 x310 + 1 x311 + 1 x312 + 1 x313 + 1 x314 + 1 x315 + 1 x316 + 1 x317 + 1 x318 + 1 x319 + 1 x320 + 1 x321 + 1 x322 + 1 x323 + 1 x324 + 1 x325 + 1 x326 + 1 x327 + 1 x328 + 1 x329 + 1 x330 + 1 x331 + 1 x332 + 1 x333 + 1 x334 + 1 x335 + 1 x336 + 1 x337 + 1 x338 + 1 x339 + 1 x340 + 1 x341 + 1 x342 + 1 x343 + 1 x344 + 1 x345 + 1 x346 + 1 x347 + 1 x348 + 1 x349 + 1 x350 + 1 x351 + 1 x352 + 1 x353 + 1 x354 + 1 x355 + 1 x356 + 1 x357 + 1 x358 + 1 x359 + 1 x360 + 1 x361 + 1 x362 + 1 x363 + 1 x364 + 1 x365 + 1 x366 + 1 x367 + 1 x368 + 1 x369 + 1 x370 + 1 x371 + 1 x372 + 1 x373 + 1 x374 + 1 x375 + 1 x376 + 1 x377 + 1 x378 + 1 x379 + 1 x380 + 1 x381 + 1 x382 + 1 x383 + 1 x384 + 1 x385 + 1 x386 + 1 x387 + 1 x388 + 1 x389 + 1 x390 + 1 x391 + 1 x392 + 1 x393 + 1 x394 + 1 x395 + 1 x396 + 1 x397 + 1 x398 + 1 x399 + 1 x400 + 1 x401 + 1 x402 + 1 x403 + 1 x404 + 1 x405 + 1 x406 + 1 x407 + 1 x408 + 1 x409 + 1 x410 + 1 x411 + 1 x412 + 1 x413 + 1 x414 + 1 x415 + 1 x416 + 1 x417 + 1 x418 + 1 x419 + 1 x420 + 1 x421 + 1 x422 + 1 x423 + 1 x424 + 1 x425 + 1 x426 + 1 x427 + 1 x428 + 1 x429 + 1 x430 + 1 x431 + 1 x432 + 1 x433 + 1 x434 + 1 x435 + 1 x436 + 1 x437 + 1 x438 + 1 x439 + 1 x440 + 1 x441 + 1 x442 + 1 x443 + 1 x444 + 1 x445 + 1 x446 + 1 x447 + 1 x448 + 1 x449 + 1 x450 + 1 x451 + 1 x452 + 1 x453 + 1 x454 + 1 x455 + 1 x456 + 1 x457 + 1 x458 + 1 x459 + 1 x460 + 1 x461 + 1 x462 + 1 x463 + 1 x464 + 1 x465 + 1 x466 + 1 x467 + 1 x468 + 1 x469 + 1 x470 + 1 x471 + 1 x472 + 1 x473 + 1 x474 + 1 x475 + 1 x476 + 1 x477 + 1 x478 + 1 x479 + 1 x480 + 1 x481 + 1 x482 + 1 x483 + 1 x484 + 1 x485 + 1 x486 + 1 x487 + 1 x488 + 1 x489 + 1 x490 + 1 x491 + 1 x492 + 1 x493 + 1 x494 + 1 x495 + 1 x496 + 1 x497 + 1 x498 + 1 x499 + 1 x500

subject to
C1: + x61 + x320 <= 1
C2: + x63 + x65 <= 1
C3: + x75 + x107 <= 1
C4: + x2 + x216 <= 1
C5: + x20 + x305 <= 1
C6: + x221 + x478 <= 1
C7: + x140 + x384 <= 1
C8: + x31 + x42 <= 1
C9: + x8 + x26 <= 1
C10: + x46 + x231 <= 1
C11: + x113 + x151 <= 1
C12: + x241 + x279 <= 1
C13: + x214 + x235 <= 1
C14: + x4 + x413 <= 1
C15: + x3 + x79 <= 1
C16: + x76 + x250 <= 1
C17: + x9 + x378 <= 1
C18: + x16 + x252 <= 1
C19: + x143 + x445 <= 1
C20: + x114 + x234 <= 1
C21: + x33 + x368 <= 1
C22: + x14 + x132 <= 1
C23: + x108 + x384 <= 1
C24: + x28 + x282 <= 1
C25: + x37 + x178 <= 1
C26: + x150 + x298 <= 1
C27: + x262 + x304 <= 1
C28: + x46 + x62 <= 1
C29: + x11 + x98 <= 1
C30: + x3 + x131 <= 1
C31: + x17 + x377 <= 1
C32: + x17 + x206 <= 1
C33: + x108 + x269 <= 1
C34: + x28 + x183 <= 1
C35: + x52 + x61 <= 1
C36: + x151 + x281 <= 1
C37: + x19 + x259 <= 1
C38: + x249 + x498 <= 1
C39: + x293 + x307 <= 1
C40: + x3 + x54 <= 1
C41: + x24 + x419 <= 1
C42: + x54 + x63 <= 1
C43: + x13 + x255 <= 1
C44: + x96 + x99 <= 1
C45: + x154 + x406 <= 1
C46: + x8 + x23 <= 1
C47: + x300 + x403 <= 1
C48: + x36 + x168 <= 1
C49: + x3 + x380 <= 1
C50: + x11 + x37 <= 1
C51: + x108 + x131 <= 1
C52: + x417 + x500 <= 1
C53: + x109 + x218 <= 1
C54: + x146 + x354 <= 1
C55: + x46 + x369 <= 1
C56: + x266 + x408 <= 1
C57: + x52 + x122 <= 1
C58: + x108 + x373 <= 1
C59: + x36 + x148 <= 1
C60: + x142 + x403 <= 1
C61: + x37 + x185 <= 1
C62: + x2 + x264 <= 1
C63: + x76 + x313 <= 1
C64: + x99 + x324 <= 1
C65: + x347 + x435 <= 1
C66: + x11 + x105 <= 1
C67: + x97 + x150 <= 1
C68: + x108 + x191 <= 1
C69: + x18 + x203 <= 1
C70: + x381 + x446 <= 1
C71: + x119 + x205 <= 1
C72: + x12 + x157 <= 1
C73: + x460 + x484 <= 1
C74: + x9 + x95 <= 1
C75: + x191 + x274 <= 1
C76: + x85 + x103 <= 1
C77: + x50 + x141 <= 1
C78: + x33 + x69 <= 1
C79: + x123 + x274 <= 1
C80: + x340 + x471 <= 1
C81: + x60 + x198 <= 1
C82: + x167 + x343 <= 1
C83: + x19 + x108 <= 1
C84: + x207 + x277 <= 1
C85: + x23 + x460 <= 1
C86: + x119 + x128 <= 1
C87: + x17 + x300 <= 1
C88: + x45 + x130 <= 1
C89: + x49 + x69 <= 1
C90: + x12 + x73 <= 1
C91: + x34 + x60 <= 1
C92: + x11 + x403 <= 1
C93: + x11 + x129 <= 1
C94: + x194 + x353 <= 1
C95: + x158 + x304 <= 1
C96: + x114 + x156 <= 1
C97: + x324 + x431 <= 1
C98: + x17 + x173 <= 1
C99: + x36 + x153 <= 1
C100: + x126 + x220 <= 1
C101: + x45 + x182 <= 1
C102: + x44 + x329 <= 1
C103: + x80 + x196 <= 1
C104: + x138 + x260 <= 1
C105: + x37 + x466 <= 1
C106: + x108 + x184 <= 1
C107: + x1 + x6 <= 1
C108: + x102 + x182 <= 1
C109: + x107 + x286 <= 1
C110: + x9 + x70 <= 1
C111: + x85 + x110 <= 1
C112: + x359 + x394 <= 1
C113: + x217 + x233 <= 1
C114: + x53 + x346 <= 1
C115: + x329 + x440 <= 1
C116: + x272 + x437 <= 1
C117: + x3 + x169 <= 1
C118: + x100 + x150 <= 1
C119: + x46 + x210 <= 1
C120: + x3 + x334 <= 1
C121: + x70 + x129 <= 1
C122: + x32 + x387 <= 1
C123: + x90 + x400 <= 1
C124: + x255 + x389 <= 1
C125: + x92 + x448 <= 1
C126: + x15 + x463 <= 1
C127: + x80 + x92 <= 1
C128: + x7 + x197 <= 1
C129: + x27 + x409 <= 1
C130: + x52 + x72 <= 1
C131: + x170 + x342 <= 1
C132: + x171 + x366 <= 1
C133: + x151 + x466 <= 1
C134: + x239 + x302 <= 1
C135: + x31 + x317 <= 1
C136: + x207 + x347 <= 1
C137: + x143 + x208 <= 1
C138: + x173 + x287 <= 1
C139: + x3 + x112 <= 1
C140: + x77 + x171 <= 1
C141: + x87 + x171 <= 1
C142: + x261 + x290 <= 1
C143: + x154 + x234 <= 1
C144: + x100 + x284 <= 1
C145: + x8 + x74 <= 1
C146: + x56 + x116 <= 1
C147: + x114 + x201 <= 1
C148: + x58 + x478 <= 1
C149: + x23 + x377 <= 1
C150: + x243 + x429 <= 1
C151: + x27 + x187 <= 1
C152: + x128 + x261 <= 1
C153: + x20 + x59 <= 1
C154: + x85 + x117 <= 1
C155: + x340 + x485 <= 1
C156: + x33 + x46 + x76 <= 1
C157: + x207 + x359 <= 1
C158: + x163 + x376 <= 1
C159: + x146 + x214 <= 1
C160: + x10 + x113 <= 1
C161: + x349 + x367 <= 1
C162: + x22 + x49 <= 1
C163: + x40 + x107 <= 1
C164: + x6 + x354 <= 1
C165: + x27 + x46 <= 1
C166: + x48 + x155 <= 1
C167: + x4 + x38 <= 1
C168: + x5 + x267 <= 1
C169: + x7 + x19 <= 1
C170: + x72 + x225 <= 1
C171: + x241 + x416 <= 1
C172: + x76 + x230 <= 1
C173: + x3 + x490 <= 1
C174: + x33 + x47 <= 1
C175: + x6 + x40 <= 1
C176: + x8 + x147 <= 1
C177: + x29 + x310 <= 1
C178: + x32 + x206 <= 1
C179: + x53 + x71 <= 1
C180: + x153 + x259 <= 1
C181: + x43 + x61 <= 1
C182: + x150 + x334 <= 1
C183: + x7 + x79 <= 1
C184: + x70 + x190 <= 1
C185: + x179 + x405 <= 1
C186: + x146 + x147 <= 1
C187: + x19 + x472 <= 1
C188: + x55 + x442 <= 1
C189: + x90 + x256 <= 1
C190: + x273 + x324 <= 1
C191: + x8 + x71 <= 1
C192: + x33 + x328 <= 1
C193: + x206 + x231 <= 1
C194: + x35 + x225 <= 1
C195: + x27 + x134 <= 1
C196: + x145 + x412 <= 1
C197: + x147 + x436 <= 1
C198: + x51 + x64 <= 1
C199: + x413 + x462 <= 1
C200: + x5 + x355 <= 1
C201: + x7 + x123 <= 1
C202: + x27 + x295 <= 1
C203: + x192 + x322 <= 1
C204: + x158 + x231 <= 1
C205: + x225 + x375 <= 1
C206: + x15 + x320 <= 1
C207: + x1 + x48 <= 1
C208: + x115 + x335 <= 1
C209: + x306 + x415 <= 1
C210: + x128 + x370 <= 1
C211: + x46 + x103 <= 1
C212: + x49 + x215 <= 1
C213: + x133 + x279 <= 1
C214: + x15 + x118 <= 1
C215: + x62 + x68 <= 1
C216: + x144 + x165 <= 1
C217: + x10 + x38 <= 1
C218: + x75 + x126 <= 1
C219: + x240 + x337 <= 1
C220: + x107 + x138 <= 1
C221: + x32 + x258 <= 1
C222: + x179 + x299 <= 1
C223: + x18 + x38 <= 1
C224: + x38 + x43 <= 1
C225: + x303 + x433 <= 1
C226: + x87 + x348 <= 1
C227: + x296 + x372 <= 1
C228: + x91 + x300 <= 1
C229: + x37 + x292 <= 1
C230: + x56 + x66 <= 1
C231: + x269 + x344 <= 1
C232: + x9 + x123 <= 1
C233: + x29 + x102 <= 1
C234: + x142 + x206 <= 1
C235: + x8 + x205 <= 1
C236: + x3 + x182 <= 1
C237: + x67 + x118 <= 1
C238: + x175 + x275 <= 1
C239: + x261 + x348 <= 1
C240: + x381 + x406 <= 1
C241: + x10 + x222 <= 1
C242: + x46 + x317 <= 1
C243: + x29 + x149 <= 1
C244: + x265 + x340 <= 1
C245: + x50 + x375 <= 1
C246: + x178 + x333 <= 1
C247: + x31 + x358 <= 1
C248: + x220 + x427 <= 1
C249: + x148 + x314 <= 1
C250: + x60 + x95 <= 1
C251: + x7 + x13 <= 1
C252: + x29 + x58 <= 1
C253: + x248 + x377 <= 1
C254: + x204 + x423 <= 1
C255: + x33 + x61 <= 1
C256: + x63 + x91 <= 1
C257: + x10 + x47 <= 1
C258: + x173 + x194 <= 1
C259: + x211 + x269 <= 1
C260: + x74 + x367 <= 1
C261: + x5 + x51 <= 1
C262: + x84 + x399 <= 1
C263: + x39 + x164 <= 1
C264: + x30 + x87 <= 1
C265: + x100 + x468 <= 1
C266: + x8 + x331 <= 1
C267: + x2 + x392 <= 1
C268: + x11 + x56 <= 1
C269: + x13 + x349 <= 1
C270: + x4 + x306 <= 1
C271: + x427 + x490 <= 1
C272: + x7 + x303 <= 1
C273: + x19 + x56 <= 1
C274: + x144 + x301 <= 1
C275: + x246 + x367 <= 1
C276: + x26 + x32 <= 1
C277: + x57 + x92 <= 1
C278: + x85 + x469 <= 1
C279: + x15 + x60 <= 1
C280: + x270 + x327 <= 1
C281: + x80 + x236 <= 1
C282: + x13 + x145 <= 1
C283: + x96 + x181 <= 1
C284: + x88 + x124 <= 1
C285: + x15 + x213 <= 1
C286: + x2 + x162 <= 1
C287: + x7 + x8 <= 1
C288: + x63 + x225 <= 1
C289: + x155 + x405 <= 1
C290: + x29 + x49 <= 1
C291: + x339 + x410 <= 1
C292: + x251 + x318 <= 1
C293: + x6 + x19 <= 1
C294: + x209 + x350 <= 1
C295: + x76 + x120 <= 1
C296: + x3 + x193 <= 1
C297: + x4 + x170 <= 1
C298: + x198 + x374 <= 1
C299: + x26 + x213 <= 1
C300: + x11 + x257 <= 1
C301: + x65 + x215 <= 1
C302: + x266 + x271 <= 1
C303: + x3 + x116 <= 1
C304: + x32 + x74 <= 1
C305: + x17 + x330 <= 1
C306: + x127 + x437 <= 1
C307: + x150 + x188 <= 1
C308: + x19 + x47 <= 1
C309: + x6 + x199 <= 1
C310: + x5 + x201 <= 1
C311: + x9 + x105 <= 1
C312: + x10 + x383 <= 1
C313: + x7 + x451 <= 1
C314: + x390 + x475 <= 1
C315: + x93 + x463 <= 1
C316: + x68 + x177 <= 1
C317: + x77 + x401 <= 1
C318: + x172 + x429 <= 1
C319: + x54 + x473 <= 1
C320: + x384 + x445 <= 1
C321: + x267 + x457 <= 1
C322: + x61 + x325 <= 1
C323: + x15 + x224 <= 1
C324: + x15 + x273 <= 1
C325: + x435 + x484 <= 1
C326: + x11 + x200 <= 1
C327: + x248 + x428 <= 1
C328: + x292 + x449 <= 1
C329: + x3 + x297 <= 1
C330: + x26 + x45 <= 1
C331: + x24 + x67 <= 1
C332: + x119 + x276 <= 1
C333: + x3 + x462 <= 1
C334: + x123 + x268 <= 1
C335: + x4 + x372 <= 1
C336: + x33 + x75 <= 1
C337: + x6 + x28 <= 1
C338: + x62 + x111 <= 1
C339: + x28 + x35 <= 1
C340: + x19 + x118 <= 1
C341: + x60 + x279 <= 1
C342: + x197 + x353 <= 1
C343: + x17 + x135 <= 1
C344: + x16 + x87 <= 1
C345: + x8 + x22 <= 1
C346: + x37 + x202 <= 1
C347: + x19 + x316 <= 1
C348: + x12 + x321 <= 1
C349: + x77 + x198 <= 1
C350: + x127 + x448 <= 1
C351: + x40 + x183 <= 1
C352: + x5 + x85 <= 1
C353: + x104 + x119 <= 1
C354: + x21 + x397 <= 1
C355: + x27 + x315 <= 1
C356: + x111 + x453 <= 1
C357: + x46 + x58 <= 1
C358: + x148 + x242 <= 1
C359: + x14 + x17 <= 1
C360: + x82 + x278 <= 1
C361: + x10 + x241 <= 1
C362: + x285 + x431 <= 1
C363: + x4 + x7 <= 1
C364: + x315 + x488 <= 1
C365: + x18 + x113 <= 1
C366: + x473 + x492 <= 1
C367: + x2 + x479 <= 1
C368: + x299 + x382 <= 1
C369: + x56 + x371 <= 1
C370: + x11 + x420 <= 1
C371: + x5 + x139 <= 1
C372: + x133 + x267 <= 1
C373: + x22 + x34 <= 1
C374: + x125 + x344 <= 1
C375: + x180 + x306 <= 1
C376: + x99 + x268 <= 1
C377: + x273 + x280 <= 1
C378: + x37 + x241 <= 1
C379: + x70 + x155 <= 1
C380: + x218 + x245 <= 1
C381: + x18 + x429 <= 1
C382: + x57 + x130 <= 1
C383: + x11 + x33 <= 1
C384: + x399 + x495 <= 1
C385: + x7 + x207 <= 1
C386: + x82 + x339 <= 1
C387: + x10 + x14 <= 1
C388: + x132 + x452 <= 1
C389: + x5 + x84 <= 1
C390: + x6 + x295 <= 1
C391: + x17 + x170 <= 1
C392: + x140 + x388 <= 1
C393: + x258 + x357 <= 1
C394: + x25 + x26 <= 1
C395: + x7 + x90 <= 1
C396: + x55 + x104 <= 1
C397: + x51 + x174 <= 1
C398: + x27 + x181 <= 1
C399: + x22 + x472 <= 1
C400: + x88 + x248 <= 1
C401: + x10 + x440 <= 1
C402: + x265 + x479 <= 1
C403: + x131 + x407 <= 1
C404: + x27 + x40 <= 1
C405: + x85 + x293 <= 1
C406: + x42 + x314 <= 1
C407: + x32 + x386 <= 1
C408: + x356 + x493 <= 1
C409: + x270 + x282 <= 1
C410: + x6 + x50 <= 1
C411: + x80 + x95 <= 1
C412: + x27 + x87 <= 1
C413: + x10 + x55 <= 1
C414: + x121 + x347 <= 1
C415: + x46 + x358 <= 1
C416: + x204 + x249 <= 1
C417: + x68 + x168 <= 1
C418: + x65 + x248 <= 1
C419: + x321 + x445 <= 1
C420: + x229 + x286 <= 1
C421: + x11 + x451 <= 1
C422: + x140 + x171 <= 1
C423: + x31 + x91 <= 1
C424: + x150 + x155 <= 1
C425: + x7 + x254 <= 1
C426: + x238 + x474 <= 1
C427: + x32 + x347 <= 1
C428: + x252 + x487 <= 1
C429: + x143 + x380 <= 1
C430: + x72 + x180 <= 1
C431: + x151 + x303 <= 1
C432: + x58 + x316 <= 1
C433: + x412 + x460 <= 1
C434: + x15 + x36 <= 1
C435: + x10 + x441 <= 1
C436: + x46 + x427 <= 1
C437: + x58 + x74 <= 1
C438: + x270 + x386 <= 1
C439: + x151 + x410 <= 1
C440: + x2 + x346 <= 1
C441: + x140 + x454 <= 1
C442: + x115 + x144 <= 1
C443: + x47 + x135 <= 1
C444: + x76 + x350 <= 1
C445: + x3 + x88 <= 1
C446: + x150 + x224 <= 1
C447: + x44 + x309 <= 1
C448: + x27 + x82 <= 1
C449: + x10 + x64 <= 1
C450: + x274 + x283 <= 1
C451: + x148 + x152 <= 1
C452: + x131 + x422 <= 1
C453: + x13 + x221 <= 1
C454: + x86 + x269 <= 1
C455: + x198 + x233 <= 1
C456: + x20 + x163 + x359 <= 1
C457: + x119 + x164 <= 1
C458: + x5 + x308 <= 1
C459: + x46 + x496 <= 1
C460: + x232 + x371 <= 1
C461: + x74 + x428 <= 1
C462: + x111 + x240 <= 1
C463: + x294 + x449 <= 1
C464: + x128 + x257 <= 1
C465: + x66 + x98 <= 1
C466: + x3 + x27 <= 1
C467: + x49 + x301 <= 1
C468: + x259 + x433 <= 1
C469: + x194 + x416 <= 1
C470: + x8 + x219 <= 1
C471: + x11 + x75 <= 1
C472: + x12 + x288 <= 1
C473: + x6 + x147 <= 1
C474: + x314 + x463 <= 1
C475: + x50 + x111 <= 1
C476: + x33 + x35 <= 1
C477: + x15 + x119 <= 1
C478: + x18 + x134 <= 1
C479: + x75 + x127 <= 1
C480: + x11 + x191 <= 1
C481: + x21 + x151 <= 1
C482: + x189 + x235 <= 1
C483: + x9 + x12 <= 1
C484: + x108 + x352 <= 1
C485: + x46 + x251 <= 1
C486: + x33 + x146 <= 1
C487: + x6 + x10 + x11 + x24 <= 1
C488: + x27 + x287 <= 1
C489: + x1 + x262 <= 1
C490: + x51 + x425 <= 1
C491: + x12 + x136 <= 1
C492: + x114 + x198 <= 1
C493: + x25 + x297 <= 1
C494: + x218 + x261 <= 1
C495: + x7 + x478 <= 1
C496: + x51 + x60 <= 1
C497: + x23 + x465 <= 1
C498: + x26 + x429 <= 1
C499: + x15 + x46 <= 1
C500: + x198 + x441 <= 1
C501: + x65 + x327 <= 1
C502: + x373 + x459 <= 1
C503: + x154 + x374 <= 1
C504: + x1 + x36 <= 1
C505: + x92 + x99 <= 1
C506: + x146 + x433 <= 1
C507: + x11 + x215 <= 1
C508: + x42 + x232 <= 1
C509: + x51 + x139 <= 1
C510: + x26 + x94 <= 1
C511: + x7 + x10 <= 1
C512: + x80 + x151 <= 1
C513: + x10 + x316 <= 1
C514: + x151 + x373 <= 1
C515: + x248 + x384 <= 1
C516: + x3 + x42 <= 1
C517: + x18 + x300 <= 1
C518: + x181 + x309 <= 1
C519: + x95 + x300 <= 1
C520: + x4 + x192 <= 1
C521: + x96 + x462 <= 1
C522: + x32 + x270 <= 1
C523: + x108 + x341 <= 1
C524: + x10 + x133 <= 1
C525: + x252 + x434 <= 1
C526: + x55 + x167 <= 1
C527: + x27 + x282 <= 1
C528: + x211 + x417 <= 1
C529: + x192 + x230 <= 1
C530: + x302 + x464 <= 1
C531: + x217 + x496 <= 1
C532: + x5 + x124 <= 1
C533: + x1 + x396 <= 1
C534: + x27 + x302 <= 1
C535: + x10 + x103 <= 1
C536: + x156 + x196 <= 1
C537: + x237 + x330 <= 1
C538: + x12 + x270 <= 1
C539: + x41 + x485 <= 1
C540: + x32 + x140 <= 1
C541: + x5 + x11 <= 1
C542: + x117 + x280 <= 1
C543: + x44 + x82 <= 1
C544: + x273 + x363 <= 1
C545: + x298 + x476 <= 1
C546: + x39 + x236 <= 1
C547: + x42 + x278 <= 1
C548: + x132 + x408 <= 1
C549: + x5 + x485 <= 1
C550: + x3 + x33 <= 1
C551: + x225 + x241 <= 1
C552: + x5 + x154 <= 1
C553: + x4 + x266 <= 1
C554: + x7 + x174 <= 1
C555: + x138 + x175 + x202 <= 1
C556: + x242 + x316 <= 1
C557: + x269 + x279 <= 1
C558: + x34 + x181 <= 1
C559: + x199 + x212 <= 1
C560: + x131 + x157 <= 1
C561: + x42 + x149 <= 1
C562: + x397 + x462 <= 1
C563: + x93 + x138 <= 1
C564: + x130 + x178 <= 1
C565: + x57 + x294 <= 1
C566: + x50 + x85 <= 1
C567: + x52 + x65 + x318 <= 1
C568: + x337 + x348 <= 1
C569: + x10 + x31 <= 1
C570: + x85 + x372 <= 1
C571: + x80 + x337 <= 1
C572: + x65 + x67 <= 1
C573: + x57 + x96 <= 1
C574: + x56 + x250 <= 1
C575: + x339 + x354 <= 1
C576: + x31 + x450 <= 1
C577: + x15 + x64 <= 1
C578: + x142 + x195 <= 1
C579: + x65 + x341 <= 1
C580: + x264 + x348 <= 1
C581: + x6 + x345 <= 1
C582: + x163 + x171 <= 1
C583: + x2 + x166 <= 1
C584: + x3 + x302 <= 1
C585: + x11 + x217 <= 1
C586: + x31 + x160 <= 1
C587: + x14 + x265 <= 1
C588: + x107 + x290 <= 1
C589: + x8 + x396 <= 1
C590: + x76 + x141 <= 1
C591: + x335 + x381 <= 1
C592: + x8 + x303 <= 1
C593: + x447 + x481 <= 1
C594: + x52 + x497 <= 1
C595: + x9 + x33 <= 1
C596: + x143 + x275 <= 1
C597: + x91 + x407 <= 1
C598: + x291 + x428 <= 1
C599: + x12 + x94 <= 1
C600: + x12 + x27 + x32 <= 1
C601: + x115 + x305 <= 1
C602: + x199 + x376 <= 1
C603: + x109 + x498 <= 1
C604: + x138 + x256 <= 1
C605: + x42 + x57 <= 1
C606: + x287 + x371 <= 1
C607: + x27 + x122 <= 1
C608: + x8 + x170 <= 1
C609: + x7 + x294 <= 1
C610: + x16 + x251 <= 1
C611: + x30 + x221 <= 1
C612: + x19 + x43 <= 1
C613: + x15 + x358 <= 1
C614: + x143 + x351 <= 1
C615: + x41 + x310 <= 1
C616: + x132 + x204 <= 1
C617: + x315 + x362 <= 1
C618: + x33 + x115 <= 1
C619: + x70 + x217 <= 1
C620: + x104 + x360 <= 1
C621: + x19 + x497 <= 1
C622: + x31 + x102 <= 1
C623: + x15 + x277 <= 1
C624: + x4 + x6 <= 1
C625: + x315 + x473 <= 1
C626: + x46 + x78 <= 1
C627: + x362 + x393 <= 1
C628: + x5 + x144 <= 1
C629: + x109 + x346 <= 1
C630: + x6 + x8 <= 1
C631: + x27 + x452 <= 1
C632: + x437 + x481 <= 1
C633: + x12 + x248 <= 1
C634: + x9 + x40 <= 1
C635: + x130 + x446 <= 1
C636: + x5 + x287 <= 1
C637: + x151 + x342 <= 1
C638: + x182 + x303 <= 1
C639: + x37 + x43 <= 1
C640: + x15 + x18 + x19 <= 1
C641: + x107 + x114 <= 1
C642: + x6 + x204 <= 1
C643: + x9 + x354 <= 1
C644: + x143 + x389 <= 1
C645: + x50 + x418 <= 1
C646: + x9 + x20 <= 1
C647: + x37 + x186 <= 1
C648: + x12 + x15 <= 1
C649: + x6 + x93 <= 1
C650: + x335 + x387 <= 1
C651: + x111 + x126 <= 1
C652: + x258 + x387 <= 1
C653: + x63 + x310 <= 1
C654: + x11 + x203 <= 1
C655: + x320 + x325 <= 1
C656: + x283 + x443 <= 1
C657: + x3 + x14 <= 1
C658: + x33 + x70 <= 1
C659: + x42 + x127 <= 1
C660: + x60 + x197 <= 1
C661: + x300 + x368 <= 1
C662: + x277 + x495 <= 1
C663: + x133 + x428 <= 1
C664: + x99 + x219 <= 1
C665: + x99 + x264 <= 1
C666: + x434 + x453 <= 1
C667: + x8 + x15 <= 1
C668: + x46 + x216 <= 1
C669: + x11 + x319 <= 1
C670: + x135 + x330 <= 1
C671: + x35 + x411 <= 1
C672: + x17 + x242 <= 1
C673: + x32 + x389 <= 1
C674: + x146 + x457 <= 1
C675: + x39 + x201 <= 1
C676: + x4 + x55 <= 1
C677: + x11 + x45 <= 1
C678: + x15 + x98 <= 1
C679: + x101 + x247 <= 1
C680: + x46 + x361 <= 1
C681: + x19 + x29 <= 1
C682: + x378 + x387 <= 1
C683: + x165 + x196 <= 1
C684: + x6 + x291 <= 1
C685: + x145 + x499 <= 1
C686: + x153 + x310 <= 1
C687: + x55 + x223 <= 1
C688: + x165 + x289 <= 1
C689: + x11 + x355 <= 1
C690: + x213 + x283 <= 1
C691: + x50 + x201 <= 1
C692: + x124 + x322 <= 1
C693: + x107 + x396 <= 1
C694: + x10 + x464 <= 1
C695: + x266 + x489 <= 1
C696: + x97 + x174 <= 1
C697: + x23 + x81 <= 1
C698: + x126 + x257 <= 1
C699: + x91 + x227 <= 1
C700: + x18 + x195 <= 1
C701: + x1 + x7 <= 1
C702: + x315 + x491 <= 1
C703: + x110 + x437 <= 1
C704: + x86 + x89 <= 1
C705: + x14 + x407 <= 1
C706: + x43 + x128 <= 1
C707: + x7 + x138 <= 1
C708: + x10 + x79 <= 1
C709: + x11 + x69 <= 1
C710: + x32 + x148 <= 1
C711: + x88 + x414 <= 1
C712: + x19 + x133 <= 1
C713: + x146 + x450 <= 1
C714: + x21 + x30 <= 1
C715: + x6 + x411 <= 1
C716: + x7 + x25 <= 1
C717: + x80 + x136 <= 1
C718: + x27 + x325 <= 1
C719: + x320 + x405 <= 1
C720: + x76 + x240 <= 1
C721: + x23 + x32 <= 1
C722: + x5 + x162 <= 1
C723: + x17 + x435 <= 1
C724: + x55 + x309 <= 1
C725: + x114 + x148 <= 1
C726: + x52 + x404 <= 1
C727: + x116 + x212 <= 1
C728: + x170 + x341 <= 1
C729: + x153 + x317 <= 1
C730: + x131 + x181 <= 1
C731: + x80 + x204 <= 1
C732: + x376 + x475 <= 1
C733: + x1 + x30 <= 1
C734: + x165 + x191 <= 1
C735: + x121 + x299 <= 1
C736: + x34 + x249 <= 1
C737: + x299 + x364 <= 1
C738: + x56 + x146 <= 1
C739: + x107 + x423 <= 1
C740: + x62 + x118 <= 1
C741: + x7 + x129 <= 1
C742: + x83 + x210 <= 1
C743: + x11 + x80 <= 1
C744: + x119 + x390 <= 1
C745: + x86 + x197 <= 1
C746: + x158 + x237 <= 1
C747: + x23 + x168 <= 1
C748: + x6 + x150 <= 1
C749: + x126 + x153 <= 1
C750: + x7 + x375 <= 1
C751: + x91 + x363 <= 1
C752: + x49 + x116 <= 1
C753: + x213 + x357 <= 1
C754: + x186 + x228 <= 1
C755: + x131 + x271 <= 1
C756: + x34 + x53 <= 1
C757: + x49 + x209 <= 1
C758: + x12 + x364 <= 1
C759: + x7 + x189 <= 1
C760: + x229 + x434 <= 1
C761: + x231 + x406 <= 1
C762: + x18 + x36 <= 1
C763: + x183 + x297 <= 1
C764: + x12 + x54 <= 1
C765: + x153 + x417 <= 1
C766: + x18 + x463 <= 1
C767: + x28 + x388 <= 1
C768: + x46 + x492 <= 1
C769: + x3 + x104 <= 1
C770: + x76 + x209 <= 1
C771: + x14 + x56 <= 1
C772: + x108 + x165 <= 1
C773: + x49 + x63 <= 1
C774: + x4 + x98 <= 1
C775: + x33 + x345 <= 1
C776: + x299 + x339 <= 1
C777: + x18 + x96 <= 1
C778: + x3 + x23 <= 1
C779: + x96 + x291 <= 1
C780: + x7 + x124 <= 1
C781: + x410 + x470 <= 1
C782: + x19 + x86 <= 1
C783: + x11 + x119 <= 1
C784: + x47 + x472 <= 1
C785: + x12 + x276 <= 1
C786: + x4 + x143 <= 1
C787: + x265 + x497 <= 1
C788: + x6 + x362 <= 1
C789: + x108 + x296 <= 1
C790: + x144 + x494 <= 1
C791: + x46 + x195 <= 1
C792: + x243 + x409 <= 1
C793: + x127 + x355 <= 1
C794: + x136 + x232 <= 1
C795: + x29 + x36 <= 1
C796: + x3 + x43 <= 1
C797: + x25 + x452 <= 1
C798: + x52 + x323 <= 1
C799: + x355 + x388 <= 1
C800: + x10 + x37 <= 1
C801: + x92 + x159 <= 1
C802: + x55 + x263 <= 1
C803: + x18 + x37 <= 1
C804: + x9 + x16 <= 1
C805: + x68 + x154 <= 1
C806: + x14 + x49 <= 1
C807: + x90 + x200 <= 1
C808: + x236 + x440 <= 1
C809: + x19 + x62 <= 1
C810: + x202 + x364 <= 1
C811: + x3 + x260 <= 1
C812: + x10 + x17 <= 1
C813: + x50 + x442 <= 1
C814: + x217 + x493 <= 1
C815: + x23 + x268 <= 1
C816: + x28 + x266 <= 1
C817: + x12 + x430 <= 1
C818: + x59 + x243 <= 1
C819: + x146 + x199 <= 1
C820: + x11 + x114 <= 1
C821: + x3 + x179 <= 1
C822: + x5 + x16 <= 1
C823: + x117 + x194 <= 1
C824: + x152 + x280 <= 1
C825: + x18 + x226 <= 1
C826: + x229 + x465 <= 1
C827: + x2 + x176 <= 1
C828: + x14 + x275 <= 1
C829: + x315 + x460 <= 1
C830: + x2 + x459 <= 1
C831: + x34 + x418 <= 1
C832: + x279 + x342 <= 1
C833: + x1 + x215 <= 1
C834: + x23 + x142 <= 1
C835: + x5 + x393 <= 1
C836: + x281 + x327 <= 1
C837: + x1 + x273 <= 1
C838: + x212 + x343 <= 1
C839: + x50 + x88 <= 1
C840: + x92 + x164 <= 1
C841: + x155 + x173 <= 1
C842: + x39 + x52 <= 1
C843: + x4 + x112 <= 1
C844: + x5 + x104 <= 1
C845: + x40 + x132 <= 1
C846: + x16 + x24 <= 1
C847: + x28 + x271 <= 1
C848: + x18 + x74 <= 1
C849: + x139 + x264 <= 1
C850: + x251 + x375 <= 1
C851: + x126 + x406 <= 1
C852: + x17 + x483 <= 1
C853: + x2 + x6 <= 1
C854: + x20 + x355 <= 1
C855: + x46 + x402 <= 1
C856: + x167 + x216 <= 1
C857: + x108 + x207 <= 1
C858: + x24 + x226 <= 1
C859: + x144 + x500 <= 1
C860: + x11 + x222 <= 1
C861: + x37 + x288 <= 1
C862: + x69 + x108 <= 1
C863: + x168 + x458 <= 1
C864: + x118 + x410 <= 1
C865: + x74 + x97 <= 1
C866: + x335 + x477 <= 1
C867: + x6 + x18 <= 1
C868: + x17 + x415 <= 1
C869: + x19 + x431 <= 1
C870: + x2 + x210 <= 1
C871: + x3 + x194 <= 1
C872: + x21 + x161 <= 1
C873: + x5 + x59 <= 1
C874: + x6 + x272 <= 1
C875: + x24 + x182 <= 1
C876: + x9 + x62 <= 1
C877: + x64 + x67 <= 1
C878: + x12 + x89 <= 1
C879: + x6 + x419 <= 1
C880: + x102 + x127 <= 1
C881: + x58 + x158 <= 1
C882: + x5 + x202 <= 1
C883: + x133 + x330 <= 1
C884: + x7 + x222 <= 1
C885: + x88 + x458 <= 1
C886: + x127 + x261 <= 1
C887: + x66 + x236 <= 1
C888: + x11 + x100 <= 1
C889: + x32 + x125 <= 1
C890: + x34 + x451 <= 1
C891: + x132 + x385 <= 1
C892: + x5 + x496 <= 1
C893: + x127 + x152 <= 1
C894: + x8 + x392 <= 1
C895: + x3 + x56 <= 1
C896: + x42 + x113 <= 1
C897: + x21 + x442 <= 1
C898: + x33 + x187 <= 1
C899: + x96 + x339 <= 1
C900: + x108 + x486 <= 1
C901: + x10 + x278 <= 1
C902: + x2 + x92 <= 1
C903: + x50 + x66 <= 1
C904: + x70 + x308 <= 1
C905: + x133 + x305 <= 1
C906: + x74 + x332 <= 1
C907: + x11 + x156 <= 1
C908: + x9 + x17 <= 1
C909: + x249 + x299 <= 1
C910: + x302 + x353 <= 1
C911: + x50 + x272 <= 1
C912: + x86 + x468 <= 1
C913: + x131 + x168 <= 1
C914: + x207 + x331 <= 1
C915: + x20 + x369 <= 1
C916: + x169 + x172 <= 1
C917: + x159 + x163 <= 1
C918: + x28 + x142 <= 1
C919: + x4 + x10 <= 1
C920: + x17 + x112 <= 1
C921: + x253 + x476 <= 1
C922: + x10 + x339 <= 1
C923: + x47 + x170 <= 1
C924: + x4 + x380 <= 1
C925: + x5 + x140 <= 1
C926: + x163 + x360 <= 1
C927: + x10 + x398 <= 1
C928: + x10 + x65 <= 1
C929: + x121 + x393 <= 1
C930: + x50 + x490 <= 1
C931: + x22 + x33 <= 1
C932: + x23 + x151 <= 1
C933: + x15 + x293 <= 1
C934: + x326 + x397 <= 1
C935: + x19 + x143 <= 1
C936: + x6 + x370 <= 1
C937: + x12 + x87 <= 1
C938: + x32 + x412 <= 1
C939: + x7 + x35 <= 1
C940: + x62 + x216 <= 1
C941: + x138 + x338 <= 1
C942: + x156 + x159 <= 1
C943: + x27 + x383 <= 1
C944: + x11 + x405 <= 1
C945: + x88 + x206 <= 1
C946: + x127 + x424 <= 1
C947: + x308 + x332 <= 1
C948: + x10 + x13 <= 1
C949: + x373 + x444 <= 1
C950: + x76 + x81 <= 1
C951: + x107 + x159 <= 1
C952: + x98 + x343 <= 1
C953: + x168 + x385 <= 1
C954: + x199 + x254 <= 1
C955: + x37 + x166 <= 1
C956: + x64 + x156 <= 1
C957: + x75 + x214 <= 1
C958: + x185 + x313 <= 1
C959: + x85 + x253 <= 1
C960: + x13 + x191 <= 1
C961: + x96 + x163 <= 1
C962: + x137 + x444 <= 1
C963: + x300 + x467 <= 1
C964: + x192 + x193 <= 1
C965: + x320 + x321 <= 1
C966: + x33 + x312 <= 1
C967: + x33 + x253 <= 1
C968: + x273 + x340 <= 1
C969: + x401 + x414 <= 1
C970: + x19 + x101 <= 1
C971: + x303 + x380 <= 1
C972: + x50 + x483 <= 1
C973: + x4 + x160 <= 1
C974: + x216 + x470 <= 1
C975: + x230 + x439 <= 1
C976: + x12 + x80 <= 1
C977: + x11 + x41 <= 1
C978: + x12 + x370 <= 1
C979: + x31 + x432 <= 1
C980: + x77 + x245 <= 1
C981: + x346 + x416 <= 1
C982: + x308 + x337 <= 1
C983: + x19 + x25 <= 1
C984: + x92 + x144 <= 1
C985: + x82 + x331 <= 1
C986: + x10 + x54 <= 1
C987: + x14 + x177 <= 1
C988: + x24 + x149 <= 1
C989: + x9 + x31 <= 1
C990: + x117 + x190 <= 1
C991: + x16 + x108 <= 1
C992: + x29 + x66 <= 1
C993: + x74 + x465 <= 1
C994: + x131 + x186 <= 1
C995: + x144 + x198 <= 1
C996: + x173 + x285 <= 1
C997: + x216 + x415 <= 1
C998: + x36 + x109 <= 1
C999: + x1 + x27 <= 1
C1000: + x377 + x477 <= 1
C1001: + x12 + x137 <= 1
C1002: + x4 + x120 <= 1
C1003: + x87 + x443 <= 1
C1004: + x76 + x353 <= 1
C1005: + x12 + x443 <= 1
C1006: + x4 + x362 <= 1
C1007: + x104 + x326 <= 1
C1008: + x356 + x392 <= 1
C1009: + x39 + x411 <= 1
C1010: + x188 + x356 <= 1
C1011: + x32 + x394 <= 1
C1012: + x173 + x488 <= 1
C1013: + x103 + x480 <= 1
C1014: + x3 + x85 <= 1
C1015: + x50 + x117 <= 1
C1016: + x108 + x120 <= 1
C1017: + x44 + x312 <= 1
C1018: + x145 + x321 <= 1
C1019: + x19 + x20 <= 1
C1020: + x60 + x265 <= 1
C1021: + x320 + x482 <= 1
C1022: + x12 + x456 <= 1
C1023: + x4 + x419 <= 1
C1024: + x36 + x356 <= 1
C1025: + x27 + x277 <= 1
C1026: + x132 + x322 <= 1
C1027: + x99 + x149 <= 1
C1028: + x6 + x238 <= 1
C1029: + x37 + x315 <= 1
C1030: + x41 + x105 <= 1
C1031: + x19 + x361 <= 1
C1032: + x211 + x246 <= 1
C1033: + x29 + x109 <= 1
C1034: + x3 + x28 <= 1
C1035: + x76 + x173 <= 1
C1036: + x123 + x301 <= 1
C1037: + x15 + x44 <= 1
C1038: + x62 + x114 <= 1
C1039: + x90 + x107 <= 1
C1040: + x58 + x82 <= 1
C1041: + x5 + x6 <= 1
C1042: + x35 + x86 <= 1
C1043: + x235 + x494 <= 1
C1044: + x146 + x447 <= 1
C1045: + x9 + x193 <= 1
C1046: + x115 + x136 <= 1
C1047: + x226 + x308 <= 1
C1048: + x166 + x476 <= 1
C1049: + x3 + x48 <= 1
C1050: + x159 + x211 <= 1
C1051: + x87 + x235 <= 1
C1052: + x62 + x70 <= 1
C1053: + x27 + x90 <= 1
C1054: + x9 + x176 <= 1
C1055: + x3 + x241 <= 1
C1056: + x231 + x394 <= 1
C1057: + x52 + x84 <= 1
C1058: + x17 + x160 <= 1
C1059: + x108 + x351 <= 1
C1060: + x8 + x45 <= 1
C1061: + x325 + x433 <= 1
C1062: + x11 + x15 <= 1
C1063: + x45 + x491 <= 1
C1064: + x27 + x110 <= 1
C1065: + x10 + x20 <= 1
C1066: + x7 + x306 <= 1
C1067: + x273 + x441 <= 1
C1068: + x132 + x486 <= 1
C1069: + x10 + x335 <= 1
C1070: + x37 + x135 <= 1
C1071: + x20 + x71 <= 1
C1072: + x3 + x426 <= 1
C1073: + x243 + x262 <= 1
C1074: + x15 + x51 <= 1
C1075: + x434 + x484 <= 1
C1076: + x417 + x422 <= 1
C1077: + x5 + x13 <= 1
C1078: + x6 + x155 <= 1
C1079: + x19 + x243 <= 1
C1080: + x9 + x200 <= 1
C1081: + x58 + x438 <= 1
C1082: + x28 + x166 <= 1
C1083: + x303 + x490 <= 1
C1084: + x13 + x125 <= 1
C1085: + x51 + x140 <= 1
C1086: + x24 + x51 <= 1
C1087: + x183 + x437 <= 1
C1088: + x148 + x403 <= 1
C1089: + x3 + x39 <= 1
C1090: + x185 + x393 <= 1
C1091: + x51 + x109 <= 1
C1092: + x296 + x315 <= 1
C1093: + x10 + x41 <= 1
C1094: + x8 + x135 <= 1
C1095: + x11 + x167 <= 1
C1096: + x122 + x359 <= 1
C1097: + x40 + x83 <= 1
C1098: + x188 + x334 <= 1
C1099: + x18 + x25 <= 1
C1100: + x19 + x167 <= 1
C1101: + x4 + x401 <= 1
C1102: + x1 + x286 <= 1
C1103: + x28 + x413 <= 1
C1104: + x9 + x131 <= 1
C1105: + x10 + x21 <= 1
C1106: + x283 + x411 <= 1
C1107: + x111 + x255 <= 1
C1108: + x12 + x192 <= 1
C1109: + x217 + x497 <= 1
C1110: + x34 + x143 <= 1
C1111: + x5 + x101 <= 1
C1112: + x9 + x128 <= 1
C1113: + x55 + x244 <= 1
C1114: + x106 + x287 <= 1
C1115: + x34 + x106 <= 1
C1116: + x65 + x351 <= 1
C1117: + x138 + x185 <= 1
C1118: + x49 + x441 <= 1
C1119: + x74 + x294 <= 1
C1120: + x272 + x399 <= 1
C1121: + x148 + x226 <= 1
C1122: + x419 + x422 <= 1
C1123: + x5 + x12 <= 1
C1124: + x171 + x195 <= 1
C1125: + x27 + x57 <= 1
C1126: + x94 + x275 <= 1
C1127: + x29 + x146 <= 1
C1128: + x32 + x357 <= 1
C1129: + x6 + x498 <= 1
C1130: + x143 + x154 <= 1
C1131: + x76 + x324 <= 1
C1132: + x3 + x34 <= 1
C1133: + x12 + x414 <= 1
C1134: + x4 + x265 <= 1
C1135: + x23 + x37 <= 1
C1136: + x6 + x21 <= 1
C1137: + x99 + x110 <= 1
C1138: + x82 + x228 <= 1
C1139: + x28 + x44 <= 1
C1140: + x60 + x288 <= 1
C1141: + x107 + x254 <= 1
C1142: + x131 + x337 <= 1
C1143: + x150 + x347 <= 1
C1144: + x283 + x315 + x319 <= 1
C1145: + x2 + x78 <= 1
C1146: + x58 + x153 <= 1
C1147: + x121 + x487 <= 1
C1148: + x332 + x349 <= 1
C1149: + x126 + x289 <= 1
C1150: + x11 + x150 <= 1
C1151: + x50 + x439 <= 1
C1152: + x87 + x455 <= 1
C1153: + x145 + x399 <= 1
C1154: + x3 + x444 <= 1
C1155: + x12 + x20 <= 1
C1156: + x50 + x165 <= 1
C1157: + x24 + x468 <= 1
C1158: + x144 + x238 <= 1
C1159: + x144 + x345 <= 1
C1160: + x149 + x217 <= 1
C1161: + x232 + x333 <= 1
C1162: + x180 + x283 <= 1
C1163: + x3 + x299 <= 1
C1164: + x34 + x212 <= 1
C1165: + x152 + x400 <= 1
C1166: + x58 + x291 <= 1
C1167: + x3 + x57 <= 1
C1168: + x78 + x160 <= 1
C1169: + x9 + x272 <= 1
C1170: + x144 + x365 <= 1
C1171: + x6 + x177 <= 1
C1172: + x245 + x470 <= 1
C1173: + x49 + x73 <= 1
C1174: + x13 + x500 <= 1
C1175: + x34 + x48 <= 1
C1176: + x27 + x361 <= 1
C1177: + x63 + x210 <= 1
C1178: + x119 + x298 <= 1
C1179: + x93 + x130 <= 1
C1180: + x3 + x77 <= 1
C1181: + x132 + x190 <= 1
C1182: + x34 + x395 <= 1
C1183: + x180 + x344 <= 1
C1184: + x245 + x325 <= 1
C1185: + x80 + x390 <= 1
C1186: + x22 + x239 <= 1
C1187: + x34 + x153 <= 1
C1188: + x19 + x333 <= 1
C1189: + x37 + x180 <= 1
C1190: + x84 + x487 <= 1
C1191: + x77 + x91 <= 1
C1192: + x134 + x174 <= 1
C1193: + x301 + x326 <= 1
C1194: + x3 + x129 <= 1
C1195: + x33 + x465 <= 1
C1196: + x22 + x96 <= 1
C1197: + x254 + x356 <= 1
C1198: + x19 + x224 <= 1
C1199: + x192 + x223 <= 1
C1200: + x4 + x5 <= 1
C1201: + x29 + x232 <= 1
C1202: + x27 + x176 <= 1
C1203: + x20 + x42 <= 1
C1204: + x50 + x138 <= 1
C1205: + x5 + x137 <= 1
C1206: + x207 + x276 <= 1
C1207: + x8 + x295 <= 1
C1208: + x28 + x58 <= 1
C1209: + x238 + x379 <= 1
C1210: + x322 + x381 <= 1
C1211: + x56 + x59 <= 1
C1212: + x40 + x364 <= 1
C1213: + x26 + x68 <= 1
C1214: + x7 + x48 <= 1
C1215: + x19 + x309 <= 1
C1216: + x6 + x408 <= 1
C1217: + x75 + x227 <= 1
C1218: + x316 + x426 <= 1
C1219: + x156 + x158 <= 1
C1220: + x123 + x473 <= 1
C1221: + x89 + x169 <= 1
C1222: + x36 + x55 <= 1
C1223: + x10 + x16 <= 1
C1224: + x37 + x326 <= 1
C1225: + x213 + x448 <= 1
C1226: + x19 + x328 <= 1
C1227: + x3 + x398 <= 1
C1228: + x312 + x438 <= 1
C1229: + x78 + x94 <= 1
C1230: + x11 + x23 <= 1
C1231: + x238 + x320 <= 1
C1232: + x20 + x373 <= 1
C1233: + x295 + x326 <= 1
C1234: + x17 + x199 <= 1
C1235: + x201 + x377 <= 1
C1236: + x146 + x404 <= 1
C1237: + x1 + x13 + x21 <= 1
C1238: + x4 + x14 <= 1
C1239: + x139 + x378 <= 1
C1240: + x94 + x385 <= 1
C1241: + x58 + x232 <= 1
C1242: + x163 + x356 <= 1
C1243: + x37 + x409 <= 1
C1244: + x55 + x487 <= 1
C1245: + x33 + x420 <= 1
C1246: + x99 + x220 <= 1
C1247: + x74 + x488 <= 1
C1248: + x123 + x214 <= 1
C1249: + x31 + x187 <= 1
C1250: + x5 + x263 <= 1
C1251: + x9 + x397 <= 1
C1252: + x182 + x311 <= 1
C1253: + x402 + x446 <= 1
C1254: + x140 + x253 <= 1
C1255: + x228 + x307 <= 1
C1256: + x228 + x402 <= 1
C1257: + x37 + x162 <= 1
C1258: + x49 + x179 <= 1
C1259: + x302 + x342 <= 1
C1260: + x131 + x187 <= 1
C1261: + x50 + x208 <= 1
C1262: + x11 + x18 <= 1
C1263: + x229 + x276 <= 1
C1264: + x31 + x85 <= 1
C1265: + x32 + x111 <= 1
C1266: + x1 + x8 <= 1
C1267: + x58 + x475 <= 1
C1268: + x12 + x152 <= 1
C1269: + x1 + x421 <= 1
C1270: + x57 + x66 <= 1
C1271: + x36 + x422 <= 1
C1272: + x28 + x449 <= 1
C1273: + x4 + x8 + x93 <= 1
C1274: + x26 + x384 <= 1
C1275: + x45 + x123 <= 1
C1276: + x165 + x357 <= 1
C1277: + x21 + x31 <= 1
C1278: + x351 + x396 <= 1
C1279: + x15 + x461 <= 1
C1280: + x327 + x419 <= 1
C1281: + x67 + x154 <= 1
C1282: + x264 + x395 <= 1
C1283: + x60 + x169 <= 1
C1284: + x13 + x382 <= 1
C1285: + x54 + x398 <= 1
C1286: + x3 + x251 <= 1
C1287: + x184 + x229 <= 1
C1288: + x14 + x376 <= 1
C1289: + x8 + x59 <= 1
C1290: + x37 + x169 <= 1
C1291: + x20 + x113 <= 1
C1292: + x21 + x99 <= 1
C1293: + x133 + x178 <= 1
C1294: + x126 + x438 <= 1
C1295: + x11 + x464 <= 1
C1296: + x13 + x178 <= 1
C1297: + x40 + x49 <= 1
C1298: + x66 + x449 <= 1
C1299: + x58 + x484 <= 1
C1300: + x12 + x141 <= 1
C1301: + x31 + x249 <= 1
C1302: + x3 + x29 <= 1
C1303: + x106 + x304 <= 1
C1304: + x70 + x231 <= 1
C1305: + x87 + x284 <= 1
C1306: + x78 + x132 <= 1
C1307: + x25 + x50 <= 1
C1308: + x129 + x371 <= 1
C1309: + x272 + x448 <= 1
C1310: + x11 + x77 <= 1
C1311: + x32 + x156 <= 1
C1312: + x27 + x44 <= 1
C1313: + x3 + x81 <= 1
C1314: + x4 + x282 <= 1
C1315: + x35 + x285 <= 1
C1316: + x345 + x499 <= 1
C1317: + x27 + x91 <= 1
C1318: + x28 + x89 <= 1
C1319: + x91 + x283 <= 1
C1320: + x236 + x390 <= 1
C1321: + x3 + x246 <= 1
C1322: + x294 + x392 <= 1
C1323: + x32 + x208 <= 1
C1324: + x5 + x412 <= 1
C1325: + x16 + x125 <= 1
C1326: + x12 + x53 <= 1
C1327: + x223 + x230 <= 1
C1328: + x5 + x313 <= 1
C1329: + x153 + x418 <= 1
C1330: + x327 + x338 <= 1
C1331: + x37 + x53 <= 1
C1332: + x19 + x470 <= 1
C1333: + x56 + x296 <= 1
C1334: + x150 + x175 <= 1
C1335: + x126 + x274 <= 1
C1336: + x133 + x350 <= 1
C1337: + x145 + x369 <= 1
C1338: + x8 + x65 <= 1
C1339: + x84 + x116 <= 1
C1340: + x46 + x270 <= 1
C1341: + x98 + x142 <= 1
C1342: + x127 + x184 <= 1
C1343: + x236 + x349 <= 1
C1344: + x78 + x189 <= 1
C1345: + x179 + x455 <= 1
C1346: + x163 + x397 <= 1
C1347: + x7 + x121 <= 1
C1348: + x2 + x11 <= 1
C1349: + x269 + x298 <= 1
C1350: + x24 + x296 <= 1
C1351: + x27 + x51 <= 1
C1352: + x18 + x240 <= 1
C1353: + x146 + x435 <= 1
C1354: + x7 + x12 <= 1
C1355: + x54 + x130 <= 1
C1356: + x155 + x385 <= 1
C1357: + x38 + x72 <= 1
C1358: + x76 + x157 <= 1
C1359: + x66 + x177 <= 1
C1360: + x173 + x475 <= 1
C1361: + x5 + x145 <= 1
C1362: + x112 + x211 <= 1
C1363: + x289 + x420 <= 1
C1364: + x16 + x70 <= 1
C1365: + x11 + x285 <= 1
C1366: + x51 + x193 <= 1
C1367: + x7 + x72 <= 1
C1368: + x37 + x52 <= 1
C1369: + x12 + x352 <= 1
C1370: + x5 + x197 <= 1
C1371: + x15 + x136 <= 1
C1372: + x144 + x290 <= 1
C1373: + x4 + x106 <= 1
C1374: + x5 + x122 <= 1
C1375: + x269 + x338 <= 1
C1376: + x7 + x471 <= 1
C1377: + x208 + x365 <= 1
C1378: + x137 + x239 <= 1
C1379: + x60 + x335 <= 1
C1380: + x43 + x267 <= 1
C1381: + x108 + x288 <= 1
C1382: + x36 + x75 <= 1
C1383: + x11 + x212 <= 1
C1384: + x66 + x495 <= 1
C1385: + x131 + x258 <= 1
C1386: + x97 + x402 <= 1
C1387: + x127 + x363 <= 1
C1388: + x111 + x417 <= 1
C1389: + x20 + x23 <= 1
C1390: + x67 + x227 <= 1
C1391: + x4 + x264 <= 1
C1392: + x33 + x63 <= 1
C1393: + x81 + x217 <= 1
C1394: + x10 + x45 <= 1
C1395: + x66 + x416 <= 1
C1396: + x49 + x498 <= 1
C1397: + x214 + x469 <= 1
C1398: + x334 + x366 <= 1
C1399: + x1 + x117 <= 1
C1400: + x133 + x175 <= 1
C1401: + x26 + x109 <= 1
C1402: + x99 + x450 <= 1
C1403: + x51 + x252 <= 1
C1404: + x19 + x456 <= 1
C1405: + x46 + x477 <= 1
C1406: + x175 + x336 <= 1
C1407: + x5 + x196 <= 1
C1408: + x15 + x143 <= 1
C1409: + x273 + x436 <= 1
C1410: + x90 + x478 <= 1
C1411: + x18 + x73 <= 1
C1412: + x182 + x336 <= 1
C1413: + x14 + x442 <= 1
C1414: + x133 + x211 <= 1
C1415: + x2 + x5 <= 1
C1416: + x86 + x223 <= 1
C1417: + x4 + x256 <= 1
C1418: + x224 + x311 <= 1
C1419: + x35 + x100 <= 1
C1420: + x227 + x493 <= 1
C1421: + x273 + x368 <= 1
C1422: + x11 + x219 <= 1
C1423: + x29 + x238 <= 1
C1424: + x33 + x233 <= 1
C1425: + x306 + x399 <= 1
C1426: + x3 + x62 <= 1
C1427: + x6 + x17 <= 1
C1428: + x62 + x84 <= 1
C1429: + x10 + x86 <= 1
C1430: + x154 + x398 <= 1
C1431: + x8 + x31 <= 1
C1432: + x76 + x469 <= 1
C1433: + x12 + x495 <= 1
C1434: + x24 + x28 <= 1
C1435: + x156 + x349 <= 1
C1436: + x84 + x373 <= 1
C1437: + x75 + x292 <= 1
C1438: + x32 + x76 <= 1
C1439: + x150 + x186 <= 1
C1440: + x236 + x421 <= 1
C1441: + x144 + x312 <= 1
C1442: + x4 + x88 <= 1
C1443: + x32 + x239 <= 1
C1444: + x6 + x307 <= 1
C1445: + x8 + x467 <= 1
C1446: + x106 + x268 <= 1
C1447: + x42 + x76 <= 1
C1448: + x126 + x430 <= 1
C1449: + x11 + x97 <= 1
C1450: + x59 + x103 <= 1
C1451: + x117 + x284 <= 1
C1452: + x140 + x485 <= 1
C1453: + x4 + x471 <= 1
C1454: + x23 + x343 <= 1
C1455: + x24 + x93 <= 1
C1456: + x5 + x489 <= 1
C1457: + x37 + x101 <= 1
C1458: + x359 + x415 <= 1
C1459: + x98 + x115 <= 1
C1460: + x151 + x229 <= 1
C1461: + x2 + x42 <= 1
C1462: + x140 + x374 <= 1
C1463: + x171 + x254 <= 1
C1464: + x279 + x450 <= 1
C1465: + x10 + x186 <= 1
C1466: + x93 + x436 <= 1
C1467: + x29 + x185 <= 1
C1468: + x25 + x73 <= 1
C1469: + x133 + x157 <= 1
C1470: + x37 + x41 <= 1
C1471: + x37 + x486 <= 1
C1472: + x12 + x323 <= 1
C1473: + x13 + x333 <= 1
C1474: + x36 + x54 <= 1
C1475: + x111 + x141 <= 1
C1476: + x94 + x173 <= 1
C1477: + x227 + x272 <= 1
C1478: + x143 + x292 <= 1
C1479: + x68 + x188 <= 1
C1480: + x17 + x466 <= 1
C1481: + x27 + x313 <= 1
C1482: + x84 + x253 <= 1
C1483: + x277 + x409 <= 1
C1484: + x108 + x259 <= 1
C1485: + x9 + x225 <= 1
C1486: + x289 + x500 <= 1
C1487: + x11 + x205 <= 1
C1488: + x13 + x102 <= 1
C1489: + x4 + x9 <= 1
C1490: + x4 + x480 <= 1
C1491: + x116 + x323 <= 1
C1492: + x27 + x172 <= 1
C1493: + x1 + x427 <= 1
C1494: + x20 + x46 <= 1
C1495: + x50 + x142 <= 1
C1496: + x53 + x338 <= 1
C1497: + x1 + x189 <= 1
C1498: + x242 + x297 <= 1
C1499: + x312 + x351 <= 1
C1500: + x25 + x382 <= 1
C1501: + x289 + x464 <= 1
C1502: + x244 + x423 <= 1
C1503: + x10 + x163 <= 1
C1504: + x46 + x218 <= 1
C1505: + x11 + x305 <= 1
C1506: + x42 + x311 <= 1
C1507: + x25 + x80 <= 1
C1508: + x15 + x455 <= 1
C1509: + x10 + x286 <= 1
C1510: + x3 + x68 <= 1
C1511: + x127 + x421 <= 1
C1512: + x7 + x274 <= 1
C1513: + x10 + x52 <= 1
C1514: + x17 + x172 <= 1
C1515: + x403 + x496 <= 1
C1516: + x315 + x382 <= 1
C1517: + x4 + x211 <= 1
C1518: + x133 + x365 <= 1
C1519: + x431 + x482 <= 1
C1520: + x65 + x453 <= 1
C1521: + x1 + x5 <= 1
C1522: + x55 + x332 <= 1
C1523: + x114 + x209 <= 1
C1524: + x31 + x243 <= 1
C1525: + x42 + x372 <= 1
C1526: + x9 + x69 <= 1
C1527: + x131 + x244 <= 1
C1528: + x13 + x271 <= 1
C1529: + x6 + x12 <= 1
C1530: + x58 + x71 <= 1
C1531: + x143 + x482 <= 1
C1532: + x351 + x389 <= 1
C1533: + x50 + x115 <= 1
C1534: + x4 + x304 <= 1
C1535: + x35 + x263 <= 1
C1536: + x6 + x64 <= 1
C1537: + x19 + x26 <= 1
C1538: + x10 + x53 <= 1
C1539: + x99 + x341 <= 1
C1540: + x299 + x314 <= 1
C1541: + x16 + x107 <= 1
C1542: + x201 + x277 <= 1
C1543: + x87 + x329 <= 1
C1544: + x74 + x179 <= 1
C1545: + x92 + x329 <= 1
C1546: + x13 + x183 <= 1
C1547: + x82 + x262 <= 1
C1548: + x3 + x308 <= 1
C1549: + x294 + x454 <= 1
C1550: + x31 + x246 <= 1
C1551: + x13 + x417 <= 1
C1552: + x125 + x190 <= 1
C1553: + x80 + x383 <= 1
C1554: + x8 + x494 <= 1
C1555: + x147 + x444 <= 1
C1556: + x385 + x467 <= 1
C1557: + x85 + x108 <= 1
C1558: + x33 + x82 <= 1
C1559: + x124 + x401 <= 1
C1560: + x6 + x117 <= 1
C1561: + x156 + x255 <= 1
C1562: + x46 + x425 <= 1
C1563: + x95 + x244 <= 1
C1564: + x33 + x447 <= 1
C1565: + x61 + x424 <= 1
C1566: + x108 + x218 <= 1
C1567: + x142 + x459 <= 1
C1568: + x279 + x491 <= 1
C1569: + x99 + x284 <= 1
C1570: + x156 + x414 <= 1
C1571: + x94 + x263 <= 1
C1572: + x78 + x123 + x192 <= 1
C1573: + x42 + x252 <= 1
C1574: + x350 + x360 <= 1
C1575: + x333 + x482 <= 1
C1576: + x3 + x489 <= 1
C1577: + x5 + x68 <= 1
C1578: + x226 + x427 <= 1
C1579: + x213 + x220 <= 1
C1580: + x90 + x94 <= 1
C1581: + x27 + x278 <= 1
C1582: + x55 + x120 <= 1
C1583: + x2 + x439 <= 1
C1584: + x58 + x133 <= 1
C1585: + x212 + x327 <= 1
C1586: + x27 + x100 <= 1
C1587: + x70 + x80 <= 1
C1588: + x244 + x269 <= 1
C1589: + x80 + x328 <= 1
C1590: + x2 + x296 <= 1
C1591: + x333 + x394 <= 1
C1592: + x6 + x126 <= 1
C1593: + x26 + x426 <= 1
C1594: + x8 + x266 <= 1
C1595: + x176 + x249 <= 1
C1596: + x363 + x402 <= 1
C1597: + x133 + x391 <= 1
C1598: + x58 + x436 <= 1
C1599: + x4 + x44 <= 1
C1600: + x51 + x146 <= 1
C1601: + x397 + x486 <= 1
C1602: + x9 + x447 <= 1
C1603: + x56 + x161 <= 1
C1604: + x140 + x239 <= 1
C1605: + x126 + x474 <= 1
C1606: + x55 + x257 <= 1
C1607: + x3 + x242 <= 1
C1608: + x9 + x14 <= 1
C1609: + x105 + x471 <= 1
C1610: + x15 + x488 <= 1
C1611: + x44 + x189 <= 1
C1612: + x262 + x270 <= 1
C1613: + x99 + x460 <= 1
C1614: + x11 + x16 <= 1
C1615: + x3 + x97 <= 1
C1616: + x50 + x89 <= 1
C1617: + x4 + x101 <= 1
C1618: + x188 + x260 <= 1
C1619: + x18 + x83 <= 1
C1620: + x27 + x144 <= 1
C1621: + x66 + x121 <= 1
C1622: + x76 + x165 <= 1
C1623: + x209 + x298 <= 1
C1624: + x10 + x425 <= 1
C1625: + x144 + x159 <= 1
C1626: + x132 + x374 <= 1
C1627: + x19 + x244 <= 1
C1628: + x3 + x346 <= 1
C1629: + x21 + x41 <= 1
C1630: + x277 + x358 <= 1
C1631: + x50 + x376 <= 1
C1632: + x27 + x340 <= 1
C1633: + x46 + x97 <= 1
C1634: + x89 + x137 <= 1
C1635: + x25 + x457 <= 1
C1636: + x36 + x388 <= 1
C1637: + x46 + x335 <= 1
C1638: + x82 + x480 <= 1
C1639: + x326 + x404 <= 1
C1640: + x1 + x114 <= 1
C1641: + x144 + x445 <= 1
C1642: + x50 + x247 <= 1
C1643: + x5 + x292 <= 1
C1644: + x143 + x164 <= 1
C1645: + x129 + x265 <= 1
C1646: + x7 + x229 <= 1
C1647: + x140 + x319 <= 1
C1648: + x131 + x458 <= 1
C1649: + x5 + x102 <= 1
C1650: + x23 + x220 <= 1
C1651: + x3 + x5 + x7 + x9 <= 1
C1652: + x3 + x418 <= 1
C1653: + x29 + x100 <= 1
C1654: + x4 + x352 <= 1
C1655: + x34 + x105 <= 1
C1656: + x210 + x461 <= 1
C1657: + x164 + x167 <= 1
C1658: + x220 + x262 <= 1
C1659: + x52 + x290 <= 1
C1660: + x88 + x121 <= 1
C1661: + x108 + x205 <= 1
C1662: + x99 + x252 <= 1
C1663: + x1 + x61 <= 1
C1664: + x99 + x293 <= 1
C1665: + x140 + x491 <= 1
C1666: + x232 + x438 <= 1
C1667: + x81 + x320 <= 1
C1668: + x147 + x345 <= 1
C1669: + x88 + x234 <= 1
C1670: + x66 + x404 <= 1
C1671: + x14 + x90 + x273 <= 1
C1672: + x31 + x38 <= 1
C1673: + x6 + x258 <= 1
C1674: + x171 + x321 <= 1
C1675: + x8 + x30 <= 1
C1676: + x12 + x39 <= 1
C1677: + x6 + x421 <= 1
C1678: + x11 + x50 <= 1
C1679: + x3 + x115 <= 1
C1680: + x50 + x75 <= 1
C1681: + x5 + x208 <= 1
C1682: + x279 + x443 <= 1
C1683: + x163 + x213 <= 1
C1684: + x91 + x317 <= 1
C1685: + x273 + x440 <= 1
C1686: + x125 + x194 <= 1
C1687: + x173 + x401 <= 1
C1688: + x166 + x386 <= 1
C1689: + x131 + x175 <= 1
C1690: + x70 + x222 <= 1
C1691: + x32 + x480 <= 1
C1692: + x143 + x247 <= 1
C1693: + x382 + x434 <= 1
C1694: + x156 + x219 <= 1
C1695: + x258 + x439 <= 1
C1696: + x35 + x128 <= 1
C1697: + x9 + x247 <= 1
C1698: + x19 + x230 <= 1
C1699: + x40 + x314 <= 1
C1700: + x251 + x483 <= 1
C1701: + x32 + x365 <= 1
C1702: + x290 + x329 <= 1
C1703: + x129 + x134 <= 1
C1704: + x3 + x58 <= 1
C1705: + x94 + x121 <= 1
C1706: + x2 + x213 <= 1
C1707: + x4 + x176 <= 1
C1708: + x99 + x199 <= 1
C1709: + x108 + x242 <= 1
C1710: + x82 + x458 <= 1
C1711: + x291 + x426 <= 1
C1712: + x13 + x493 <= 1
C1713: + x6 + x430 <= 1
C1714: + x271 + x302 <= 1
C1715: + x102 + x122 <= 1
C1716: + x58 + x161 <= 1
C1717: + x234 + x255 <= 1
C1718: + x18 + x344 <= 1
C1719: + x71 + x476 <= 1
C1720: + x63 + x453 <= 1
C1721: + x273 + x431 <= 1
C1722: + x37 + x352 <= 1
C1723: + x76 + x90 <= 1
C1724: + x13 + x55 <= 1
C1725: + x52 + x447 <= 1
C1726: + x46 + x152 <= 1
C1727: + x50 + x221 <= 1
C1728: + x394 + x469 <= 1
C1729: + x10 + x452 <= 1
C1730: + x283 + x285 <= 1
C1731: + x2 + x18 <= 1
C1732: + x158 + x204 <= 1
C1733: + x96 + x188 <= 1
C1734: + x6 + x336 <= 1
C1735: + x71 + x125 + x391 <= 1
C1736: + x251 + x494 <= 1
C1737: + x84 + x88 + x139 <= 1
C1738: + x17 + x110 <= 1
C1739: + x299 + x381 <= 1
C1740: + x182 + x281 <= 1
C1741: + x76 + x369 <= 1
C1742: + x50 + x137 <= 1
C1743: + x42 + x124 <= 1
C1744: + x19 + x112 <= 1
C1745: + x65 + x378 <= 1
C1746: + x11 + x81 <= 1
C1747: + x103 + x226 <= 1
C1748: + x13 + x250 <= 1
C1749: + x19 + x145 <= 1
C1750: + x94 + x312 <= 1
C1751: + x5 + x281 <= 1
C1752: + x27 + x79 <= 1
C1753: + x9 + x185 <= 1
C1754: + x18 + x148 <= 1
C1755: + x2 + x250 <= 1
C1756: + x76 + x95 <= 1
C1757: + x5 + x432 <= 1
C1758: + x235 + x423 <= 1
C1759: + x470 + x472 <= 1
C1760: + x255 + x489 <= 1
C1761: + x9 + x22 <= 1
C1762: + x27 + x228 <= 1
C1763: + x8 + x456 <= 1
C1764: + x131 + x161 <= 1
C1765: + x259 + x366 <= 1
C1766: + x67 + x331 <= 1
C1767: + x46 + x52 <= 1
C1768: + x2 + x424 <= 1
C1769: + x21 + x368 <= 1
C1770: + x22 + x104 <= 1
C1771: + x48 + x78 <= 1
C1772: + x27 + x184 <= 1
C1773: + x152 + x413 <= 1
C1774: + x127 + x132 <= 1
C1775: + x157 + x413 <= 1
C1776: + x385 + x473 <= 1
C1777: + x68 + x236 <= 1
C1778: + x33 + x72 <= 1
C1779: + x15 + x92 <= 1
C1780: + x270 + x295 <= 1
C1781: + x4 + x158 <= 1
C1782: + x5 + x22 <= 1
C1783: + x380 + x425 <= 1
C1784: + x15 + x245 <= 1
C1785: + x27 + x39 <= 1
C1786: + x28 + x221 <= 1
C1787: + x29 + x180 <= 1
C1788: + x12 + x78 <= 1
C1789: + x3 + x370 <= 1
C1790: + x25 + x84 <= 1
C1791: + x111 + x390 <= 1
C1792: + x93 + x145 <= 1
C1793: + x165 + x468 <= 1
C1794: + x40 + x455 <= 1
C1795: + x16 + x203 <= 1
C1796: + x135 + x479 <= 1
C1797: + x144 + x258 <= 1
C1798: + x2 + x243 <= 1
C1799: + x44 + x47 <= 1
C1800: + x119 + x172 <= 1
C1801: + x165 + x291 <= 1
C1802: + x230 + x381 <= 1
C1803: + x50 + x207 <= 1
C1804: + x33 + x131 <= 1
C1805: + x315 + x378 <= 1
C1806: + x17 + x461 <= 1
C1807: + x11 + x454 <= 1
C1808: + x186 + x434 <= 1
C1809: + x5 + x233 <= 1
C1810: + x7 + x322 <= 1
C1811: + x13 + x25 <= 1
C1812: + x99 + x430 <= 1
C1813: + x143 + x379 <= 1
C1814: + x135 + x184 <= 1
C1815: + x3 + x474 <= 1
C1816: + x1 + x323 <= 1
C1817: + x40 + x111 <= 1
C1818: + x5 + x29 <= 1
C1819: + x98 + x228 <= 1
C1820: + x32 + x158 <= 1
C1821: + x13 + x410 <= 1
C1822: + x10 + x267 <= 1
C1823: + x66 + x166 <= 1
C1824: + x120 + x420 <= 1
C1825: + x58 + x188 <= 1
C1826: + x239 + x251 <= 1
C1827: + x6 + x60 <= 1
C1828: + x10 + x57 <= 1
C1829: + x28 + x67 <= 1
C1830: + x19 + x22 <= 1
C1831: + x158 + x294 <= 1
C1832: + x165 + x245 <= 1
C1833: + x90 + x318 <= 1
C1834: + x6 + x77 <= 1
C1835: + x80 + x214 <= 1
C1836: + x101 + x306 <= 1
C1837: + x9 + x481 <= 1
C1838: + x15 + x26 <= 1
C1839: + x284 + x366 <= 1
C1840: + x12 + x289 <= 1
C1841: + x36 + x477 <= 1
C1842: + x91 + x293 <= 1
C1843: + x45 + x63 <= 1
C1844: + x34 + x332 <= 1
C1845: + x151 + x289 <= 1
C1846: + x153 + x459 <= 1
C1847: + x17 + x83 <= 1
C1848: + x19 + x363 <= 1
C1849: + x50 + x180 <= 1
C1850: + x273 + x479 <= 1
C1851: + x93 + x248 <= 1
C1852: + x186 + x391 <= 1
C1853: + x5 + x28 <= 1
C1854: + x40 + x203 <= 1
C1855: + x51 + x147 <= 1
C1856: + x104 + x466 <= 1
C1857: + x160 + x324 <= 1
C1858: + x62 + x229 <= 1
C1859: + x29 + x39 <= 1
C1860: + x346 + x492 <= 1
C1861: + x10 + x34 <= 1
C1862: + x135 + x457 <= 1
C1863: + x192 + x266 <= 1
C1864: + x129 + x400 <= 1
C1865: + x32 + x207 <= 1
C1866: + x298 + x407 <= 1
C1867: + x18 + x34 <= 1
C1868: + x281 + x379 <= 1
C1869: + x416 + x451 <= 1
C1870: + x229 + x259 <= 1
C1871: + x361 + x454 <= 1
C1872: + x32 + x96 <= 1
C1873: + x17 + x360 <= 1
C1874: + x10 + x238 <= 1
C1875: + x58 + x492 <= 1
C1876: + x13 + x15 <= 1
C1877: + x9 + x119 <= 1
C1878: + x34 + x83 <= 1
C1879: + x1 + x134 <= 1
C1880: + x68 + x126 <= 1
C1881: + x14 + x234 <= 1
C1882: + x71 + x432 <= 1
C1883: + x1 + x35 <= 1
C1884: + x13 + x400 <= 1
C1885: + x97 + x412 <= 1
C1886: + x6 + x395 <= 1
C1887: + x220 + x246 <= 1
C1888: + x10 + x408 <= 1
C1889: + x8 + x133 <= 1
C1890: + x233 + x361 <= 1
C1891: + x24 + x162 <= 1
C1892: + x18 + x27 <= 1
C1893: + x9 + x50 <= 1
C1894: + x80 + x261 <= 1
C1895: + x3 + x367 <= 1
C1896: + x226 + x424 <= 1
C1897: + x10 + x481 <= 1
C1898: + x150 + x183 <= 1
C1899: + x17 + x29 + x106 <= 1
C1900: + x143 + x435 <= 1
C1901: + x273 + x446 <= 1
C1902: + x11 + x237 <= 1
C1903: + x32 + x311 <= 1
C1904: + x71 + x280 <= 1
C1905: + x231 + x237 <= 1
C1906: + x413 + x456 <= 1
C1907: + x16 + x432 <= 1
C1908: + x5 + x10 <= 1
C1909: + x14 + x227 <= 1
C1910: + x229 + x467 <= 1
C1911: + x194 + x209 <= 1
C1912: + x26 + x40 <= 1
C1913: + x94 + x99 <= 1
C1914: + x133 + x281 <= 1
C1915: + x88 + x237 <= 1
C1916: + x19 + x127 <= 1
C1917: + x25 + x223 <= 1
C1918: + x189 + x256 <= 1
C1919: + x159 + x362 <= 1
C1920: + x24 + x30 <= 1
C1921: + x15 + x499 <= 1
C1922: + x144 + x224 <= 1
C1923: + x57 + x240 <= 1
C1924: + x46 + x383 <= 1
C1925: + x12 + x179 <= 1
C1926: + x25 + x235 <= 1
C1927: + x134 + x260 <= 1
C1928: + x227 + x379 <= 1
C1929: + x303 + x395 <= 1
C1930: + x21 + x77 <= 1
C1931: + x89 + x328 <= 1
C1932: + x5 + x340 <= 1
C1933: + x135 + x386 <= 1
C1934: + x156 + x218 <= 1
C1935: + x3 + x140 <= 1
C1936: + x261 + x334 <= 1
C1937: + x288 + x461 <= 1
C1938: + x181 + x200 <= 1
C1939: + x46 + x307 <= 1
C1940: + x265 + x350 <= 1
C1941: + x229 + x474 <= 1
C1942: + x238 + x499 <= 1
C1943: + x3 + x301 <= 1
C1944: + x5 + x483 <= 1
C1945: + x263 + x336 <= 1
C1946: + x46 + x86 <= 1

binary
x1 x2 x3 x4 x5 x6 x7 x8 x9 x10 x11 x12 x13 x14 x15 x16 x17 x18 x19 x20 x21 x22 x23 x24 x25 x26 x27 x28 x29 x30 x31 x32 x33 x34 x35 x36 x37 x38 x39 x40 x41 x42 x43 x44 x45 x46 x47 x48 x49 x50 x51 x52 x53 x54 x55 x56 x57 x58 x59 x60 x61 x62 x63 x64 x65 x66 x67 x68 x69 x70 x71 x72 x73 x74 x75 x76 x77 x78 x79 x80 x81 x82 x83 x84 x85 x86 x87 x88 x89 x90 x91 x92 x93 x94 x95 x96 x97 x98 x99 x100 x101 x102 x103 x104 x105 x106 x107 x108 x109 x110 x111 x112 x113 x114 x115 x116 x117 x118 x119 x120 x121 x122 x123 x124 x125 x126 x127 x128 x129 x130 x131 x132 x133 x134 x135 x136 x137 x138 x139 x140 x141 x142 x143 x144 x145 x146 x147 x148 x149 x150 x151 x152 x153 x154 x155 x156 x157 x158 x159 x160 x161 x162 x163 x164 x165 x166 x167 x168 x169 x170 x171 x172 x173 x174 x175 x176 x177 x178 x179 x180 x181 x182 x183 x184 x185 x186 x187 x188 x189 x190 x191 x192 x193 x194 x195 x196 x197 x198 x199 x200 x201 x202 x203 x204 x205 x206 x207 x208 x209 x210 x211 x212 x213 x214 x215 x216 x217 x218 x219 x220 x221 x222 x223 x224 x225 x226 x227 x228 x229 x230 x231 x232 x233 x234 x235 x236 x237 x238 x239 x240 x241 x242 x243 x244 x245 x246 x247 x248 x249 x250 x251 x252 x253 x254 x255 x256 x257 x258 x259 x260 x261 x262 x263 x264 x265 x266 x267 x268 x269 x270 x271 x272 x273 x274 x275 x276 x277 x278 x279 x280 x281 x282 x283 x284 x285 x286 x287 x288 x289 x290 x291 x292 x293 x294 x295 x296 x297 x298 x299 x300 x301 x302 x303 x304 x305 x306 x307 x308 x309 x310 x311 x312 x313 x314 x315 x316 x317 x318 x319 x320 x321 x322 x323 x324 x325 x326 x327 x328 x329 x330 x331 x332 x333 x334 x335 x336 x337 x338 x339 x340 x341 x342 x343 x344 x345 x346 x347 x348 x349 x350 x351 x352 x353 x354 x355 x356 x357 x358 x359 x360 x361 x362 x363 x364 x365 x366 x367 x368 x369 x370 x371 x372 x373 x374 x375 x376 x377 x378 x379 x380 x381 x382 x383 x384 x385 x386 x387 x388 x389 x390 x391 x392 x393 x394 x395 x396 x397 x398 x399 x400 x401 x402 x403 x404 x405 x406 x407 x408 x409 x410 x411 x412 x413 x414 x415 x416 x417 x418 x419 x420 x421 x422 x423 x424 x425 x426 x427 x428 x429 x430 x431 x432 x433 x434 x435 x436 x437 x438 x439 x440 x441 x442 x443 x444 x445 x446 x447 x448 x449 x450 x451 x452 x453 x454 x455 x456 x457 x458 x459 x460 x461 x462 x463 x464 x465 x466 x467 x468 x469 x470 x471 x472 x473 x474 x475 x476 x477 x478 x479 x480 x481 x482 x483 x484 x485 x486 x487 x488 x489 x490 x491 x492 x493 x494 x495 x496 x497 x498 x499 x500
