maximize
OBJ: + 1 x1 + 1 x2 + 1 x3 + 1 x4 + 1 x5 + 1 x6 + 1 x7 + 1 x8 + 1 x9 + 1 x10 + 1 x11 + 1 x12 + 1 x13 + 1 x14 + 1 x15 + 1 x16 + 1 x17 + 1 x18 + 1 x19 + 1 x20 + 1 x21 + 1 x22 + 1 x23 + 1 x24 + 1 x25 + 1 x26 + 1 x27 + 1 x28 + 1 x29 + 1 x30 + 1 x31 + 1 x32 + 1 x33 + 1 x34 + 1 x35 + 1 x36 + 1 x37 + 1 x38 + 1 x39 + 1 x40 + 1 x41 + 1 x42 + 1 x43 + 1 x44 + 1 x45 + 1 x46 + 1 x47 + 1 x48 + 1 x49 + 1 x50 + 1 x51 + 1 x52 + 1 x53 + 1 x54 + 1 x55 + 1 x56 + 1 x57 + 1 x58 + 1 x59 + 1 x60 + 1 x61 + 1 x62 + 1 x63 + 1 x64 + 1 x65 + 1 x66 + 1 x67 + 1 x68 + 1 x69 + 1 x70 + 1 x71 + 1 x72 + 1 x73 + 1 x74 + 1 x75 + 1 x76 + 1 x77 + 1 x78 + 1 x79 + 1 x80 + 1 x81 + 1 x82 + 1 x83 + 1 x84 + 1 x85 + 1 x86 + 1 x87 + 1 x88 + 1 x89 + 1 x90 + 1 x91 + 1 x92 + 1 x93 + 1 x94 + 1 x95 + 1 x96 + 1 x97 + 1 x98 + 1 x99 + 1 x100 + 1 x101 + 1 x102 + 1 x103 + 1 x104 + 1 x105 + 1 x106 + 1 x107 + 1 x108 + 1 x109 + 1 x110 + 1 x111 + 1 x112 + 1 x113 + 1 x114 + 1 x115 + 1 x116 + 1 x117 + 1 x118 + 1 x119 + 1 x120 + 1 x121 + 1 x122 + 1 x123 + 1 x124 + 1 x125 + 1 x126 + 1 x127 + 1 x128 + 1 x129 + 1 x130 + 1 x131 + 1 x132 + 1 x133 + 1 x134 + 1 x135 + 1 x136 + 1 x137 + 1 x138 + 1 x139 + 1 x140 + 1 x141 + 1 x142 + 1 x143 + 1 x144 + 1 x145 + 1 x146 + 1 x147 + 1 x148 + 1 x149 + 1 x150 + 1 x151 + 1 x152 + 1 x153 + 1 x154 + 1 x155 + 1 x156 + 1 x157 + 1 x158 + 1 x159 + 1 x160 + 1 x161 + 1 x162 + 1 x163 + 1 x164 + 1 x165 + 1 x166 + 1 x167 + 1 x168 + 1 x169 + 1 x170 + 1 x171 + 1 x172 + 1 x173 + 1 x174 + 1 x175 + 1 x176 + 1 x177 + 1 x178 + 1 x179 + 1 x180 + 1 x181 + 1 x182 + 1 x183 + 1 x184 + 1 x185 + 1 x186 + 1 x187 + 1 x188 + 1 x189 + 1 x190 + 1 x191 + 1 x192 + 1 x193 + 1 x194 + 1 x195 + 1 x196 + 1 x197 + 1 x198 + 1 x199 + 1 x200 + 1 x201 + 1 x202 + 1 x203 + 1 x204 + 1 x205 + 1 x206 + 1 x207 + 1 x208 + 1 x209 + 1 x210 + 1 x211 + 1 x212 + 1 x213 + 1 x214 + 1 x215 + 1 x216 + 1 x217 + 1 x218 + 1 x219 + 1 x220 + 1 x221 + 1 x222 + 1 x223 + 1 x224 + 1 x225 + 1 x226 + 1 x227 + 1 x228 + 1 x229 + 1 x230 + 1 x231 + 1 x232 + 1 x233 + 1 x234 + 1 x235 + 1 x236 + 1 x237 + 1 x238 + 1 x239 + 1 x240 + 1 x241 + 1 x242 + 1 x243 + 1 x244 + 1 x245 + 1 x246 + 1 x247 + 1 x248 + 1 x249 + 1 x250 + 1 x251 + 1 x252 + 1 x253 + 1 x254 + 1 x255 + 1 x256 + 1 x257 + 1 x258 + 1 x259 + 1 x260 + 1 x261 + 1 x262 + 1 x263 + 1 x264 + 1 x265 + 1 x266 + 1 x267 + 1 x268 + 1 x269 + 1 x270 + 1 x271 + 1 x272 + 1 x273 + 1 x274 + 1 x275 + 1 x276 + 1 x277 + 1 x278 + 1 x279 + 1 x280 + 1 x281 + 1 x282 + 1 x283 + 1 x284 + 1 x285 + 1 x286 + 1 x287 + 1 x288 + 1 x289 + 1 x290 + 1 x291 + 1 x292 + 1 x293 + 1 x294 + 1 x295 + 1 x296 + 1 x297 + 1 x298 + 1 x299 + 1 x300 + 1 x301 + 1 x302 + 1 x303 + 1 x304 + 1 x305 + 1 x306 + 1 x307 + 1 x308 + 1 x309 + 1 x310 + 1 x311 + 1 x312 + 1 x313 + 1 x314 + 1 x315 + 1 x316 + 1 x317 + 1 x318 + 1 x319 + 1 x320 + 1 x321 + 1 x322 + 1 x323 + 1 x324 + 1 x325 + 1 x326 + 1 x327 + 1 x328 + 1 x329 + 1 x330 + 1 x331 + 1 x332 + 1 x333 + 1 x334 + 1 x335 + 1 x336 + 1 x337 + 1 x338 + 1 x339 + 1 x340 + 1 x341 + 1 x342 + 1 x343 + 1 x344 + 1 x345 + 1 x346 + 1 x347 + 1 x348 + 1 x349 + 1 x350 + 1 x351 + 1 x352 + 1 x353 + 1 x354 + 1 x355 + 1 x356 + 1 x357 + 1 x358 + 1 x359 + 1 x360 + 1 x361 + 1 x362 + 1 x363 + 1 x364 + 1 x365 + 1 x366 + 1 x367 + 1 x368 + 1 x369 + 1 x370 + 1 x371 + 1 x372 + 1 x373 + 1 x374 + 1 x375 + 1 x376 + 1 x377 + 1 x378 + 1 x379 + 1 x380 + 1 x381 + 1 x382 + 1 x383 + 1 x384 + 1 x385 + 1 x386 + 1 x387 + 1 x388 + 1 x389 + 1 x390 + 1 x391 + 1 x392 + 1 x393 + 1 x394 + 1 x395 + 1 x396 + 1 x397 + 1 x398 + 1 x399 + 1 x400 + 1 x401 + 1 x402 + 1 x403 + 1 x404 + 1 x405 + 1 x406 + 1 x407 + 1 x408 + 1 x409 + 1 x410 + 1 x411 + 1 x412 + 1 x413 + 1 x414 + 1 x415 + 1 x416 + 1 x417 + 1 x418 + 1 x419 + 1 x420 + 1 x421 + 1 x422 + 1 x423 + 1 x424 + 1 x425 + 1 x426 + 1 x427 + 1 x428 + 1 x429 + 1 x430 + 1 x431 + 1 x432 + 1 x433 + 1 x434 + 1 x435 + 1 x436 + 1 x437 + 1 x438 + 1 x439 + 1 x440 + 1 x441 + 1 x442 + 1 x443 + 1 x444 + 1 x445 + 1 x446 + 1 x447 + 1 x448 + 1 x449 + 1 x450 + 1 x451 + 1 x452 + 1 x453 + 1 x454 + 1 x455 + 1 x456 + 1 x457 + 1 x458 + 1 x459 + 1 x460 + 1 x461 + 1 x462 + 1 x463 + 1 x464 + 1 x465 + 1 x466 + 1 x467 + 1 x468 + 1 x469 + 1 x470 + 1 x471 + 1 x472 + 1 x473 + 1 x474 + 1 x475 + 1 x476 + 1 x477 + 1 x478 + 1 x479 + 1 x480 + 1 x481 + 1 x482 + 1 x483 + 1 x484 + 1 x485 + 1 x486 + 1 x487 + 1 x488 + 1 x489 + 1 x490 + 1 x491 + 1 x492 + 1 x493 + 1 x494 + 1 x495 + 1 x496 + 1 x497 + 1 x498 + 1 x499 + 1 x500

subject to
C1: + x7 + x168 <= 1
C2: + x34 + x284 <= 1
C3: + x17 + x131 <= 1
C4: + x126 + x246 <= 1
C5: + x8 + x26 <= 1
C6: + x13 + x498 <= 1
C7: + x107 + x469 <= 1
C8: + x24 + x27 <= 1
C9: + x27 + x363 <= 1
C10: + x138 + x294 <= 1
C11: + x39 + x464 <= 1
C12: + x69 + x191 <= 1
C13: + x92 + x187 <= 1
C14: + x48 + x120 <= 1
C15: + x77 + x303 <= 1
C16: + x278 + x412 <= 1
C17: + x44 + x64 <= 1
C18: + x91 + x478 <= 1
C19: + x30 + x97 <= 1
C20: + x161 + x423 <= 1
C21: + x7 + x99 <= 1
C22: + x122 + x304 <= 1
C23: + x14 + x21 <= 1
C24: + x17 + x377 <= 1
C25: + x36 + x124 <= 1
C26: + x72 + x291 <= 1
C27: + x311 + x420 <= 1
C28: + x294 + x298 <= 1
C29: + x48 + x188 <= 1
C30: + x42 + x220 <= 1
C31: + x51 + x183 <= 1
C32: + x142 + x334 <= 1
C33: + x9 + x88 <= 1
C34: + x74 + x112 <= 1
C35: + x293 + x307 <= 1
C36: + x67 + x246 <= 1
C37: + x3 + x54 <= 1
C38: + x13 + x282 <= 1
C39: + x39 + x267 <= 1
C40: + x15 + x78 <= 1
C41: + x6 + x25 <= 1
C42: + x114 + x183 <= 1
C43: + x40 + x128 <= 1
C44: + x133 + x420 <= 1
C45: + x26 + x368 <= 1
C46: + x99 + x272 <= 1
C47: + x107 + x226 <= 1
C48: + x15 + x239 <= 1
C49: + x20 + x149 <= 1
C50: + x123 + x205 <= 1
C51: + x68 + x143 <= 1
C52: + x39 + x209 <= 1
C53: + x96 + x349 <= 1
C54: + x7 + x42 <= 1
C55: + x182 + x304 <= 1
C56: + x83 + x119 <= 1
C57: + x3 + x74 <= 1
C58: + x344 + x382 <= 1
C59: + x1 + x243 <= 1
C60: + x131 + x472 <= 1
C61: + x162 + x327 <= 1
C62: + x9 + x19 <= 1
C63: + x165 + x313 <= 1
C64: + x29 + x78 <= 1
C65: + x7 + x102 <= 1
C66: + x84 + x329 <= 1
C67: + x3 + x158 <= 1
C68: + x209 + x448 <= 1
C69: + x4 + x12 <= 1
C70: + x13 + x103 <= 1
C71: + x66 + x148 <= 1
C72: + x41 + x360 <= 1
C73: + x25 + x34 <= 1
C74: + x23 + x460 <= 1
C75: + x36 + x443 <= 1
C76: + x8 + x286 <= 1
C77: + x72 + x425 <= 1
C78: + x283 + x301 <= 1
C79: + x21 + x177 <= 1
C80: + x5 + x43 <= 1
C81: + x6 + x165 <= 1
C82: + x213 + x497 <= 1
C83: + x148 + x286 <= 1
C84: + x21 + x22 <= 1
C85: + x64 + x210 <= 1
C86: + x57 + x314 <= 1
C87: + x138 + x235 <= 1
C88: + x95 + x146 <= 1
C89: + x122 + x494 <= 1
C90: + x5 + x186 <= 1
C91: + x7 + x279 <= 1
C92: + x8 + x157 <= 1
C93: + x134 + x476 <= 1
C94: + x5 + x95 <= 1
C95: + x17 + x173 <= 1
C96: + x298 + x424 <= 1
C97: + x3 + x391 <= 1
C98: + x51 + x218 <= 1
C99: + x25 + x29 <= 1
C100: + x147 + x252 <= 1
C101: + x49 + x419 <= 1
C102: + x30 + x321 <= 1
C103: + x234 + x280 <= 1
C104: + x51 + x443 <= 1
C105: + x20 + x380 <= 1
C106: + x114 + x373 <= 1
C107: + x439 + x454 <= 1
C108: + x309 + x394 <= 1
C109: + x23 + x84 <= 1
C110: + x311 + x446 <= 1
C111: + x5 + x238 <= 1
C112: + x352 + x380 <= 1
C113: + x9 + x233 <= 1
C114: + x5 + x480 <= 1
C115: + x17 + x89 <= 1
C116: + x9 + x70 <= 1
C117: + x56 + x325 <= 1
C118: + x33 + x92 <= 1
C119: + x73 + x227 <= 1
C120: + x121 + x402 <= 1
C121: + x112 + x255 <= 1
C122: + x42 + x388 <= 1
C123: + x5 + x18 <= 1
C124: + x7 + x383 <= 1
C125: + x10 + x171 <= 1
C126: + x49 + x124 <= 1
C127: + x30 + x56 <= 1
C128: + x77 + x453 <= 1
C129: + x249 + x460 <= 1
C130: + x97 + x344 <= 1
C131: + x5 + x161 <= 1
C132: + x7 + x197 <= 1
C133: + x192 + x264 <= 1
C134: + x194 + x378 <= 1
C135: + x77 + x348 <= 1
C136: + x5 + x70 <= 1
C137: + x5 + x403 <= 1
C138: + x18 + x44 <= 1
C139: + x174 + x262 <= 1
C140: + x11 + x365 <= 1
C141: + x276 + x294 <= 1
C142: + x303 + x423 <= 1
C143: + x40 + x340 <= 1
C144: + x57 + x269 <= 1
C145: + x59 + x113 <= 1
C146: + x31 + x90 <= 1
C147: + x42 + x473 <= 1
C148: + x23 + x107 <= 1
C149: + x18 + x370 <= 1
C150: + x109 + x132 <= 1
C151: + x1 + x29 <= 1
C152: + x81 + x288 <= 1
C153: + x34 + x69 <= 1
C154: + x74 + x254 <= 1
C155: + x8 + x223 <= 1
C156: + x84 + x218 <= 1
C157: + x295 + x302 <= 1
C158: + x161 + x229 <= 1
C159: + x11 + x292 <= 1
C160: + x122 + x234 <= 1
C161: + x12 + x71 <= 1
C162: + x183 + x288 <= 1
C163: + x20 + x172 <= 1
C164: + x87 + x373 <= 1
C165: + x32 + x396 <= 1
C166: + x165 + x354 <= 1
C167: + x119 + x312 <= 1
C168: + x402 + x426 <= 1
C169: + x203 + x299 <= 1
C170: + x32 + x47 <= 1
C171: + x16 + x224 <= 1
C172: + x8 + x147 <= 1
C173: + x1 + x200 <= 1
C174: + x220 + x462 <= 1
C175: + x23 + x46 + x67 <= 1
C176: + x27 + x275 <= 1
C177: + x1 + x258 <= 1
C178: + x211 + x430 <= 1
C179: + x30 + x339 <= 1
C180: + x18 + x363 <= 1
C181: + x46 + x272 <= 1
C182: + x130 + x463 <= 1
C183: + x5 + x113 <= 1
C184: + x14 + x156 <= 1
C185: + x153 + x463 <= 1
C186: + x197 + x305 <= 1
C187: + x135 + x401 <= 1
C188: + x42 + x398 <= 1
C189: + x170 + x193 <= 1
C190: + x44 + x101 <= 1
C191: + x98 + x249 <= 1
C192: + x6 + x363 <= 1
C193: + x29 + x158 <= 1
C194: + x3 + x352 <= 1
C195: + x70 + x115 <= 1
C196: + x34 + x207 <= 1
C197: + x36 + x319 <= 1
C198: + x5 + x151 <= 1
C199: + x224 + x344 <= 1
C200: + x24 + x411 <= 1
C201: + x33 + x387 <= 1
C202: + x297 + x379 <= 1
C203: + x17 + x146 <= 1
C204: + x31 + x57 <= 1
C205: + x5 + x385 <= 1
C206: + x37 + x221 <= 1
C207: + x28 + x251 <= 1
C208: + x77 + x431 <= 1
C209: + x50 + x253 <= 1
C210: + x14 + x50 <= 1
C211: + x27 + x447 <= 1
C212: + x49 + x98 + x181 <= 1
C213: + x130 + x456 <= 1
C214: + x12 + x185 <= 1
C215: + x5 + x128 <= 1
C216: + x7 + x465 <= 1
C217: + x10 + x333 <= 1
C218: + x3 + x17 <= 1
C219: + x186 + x305 <= 1
C220: + x112 + x439 <= 1
C221: + x5 + x362 <= 1
C222: + x7 + x126 <= 1
C223: + x8 + x258 <= 1
C224: + x64 + x308 <= 1
C225: + x22 + x67 <= 1
C226: + x1 + x39 <= 1
C227: + x93 + x112 <= 1
C228: + x213 + x362 <= 1
C229: + x87 + x391 <= 1
C230: + x15 + x420 <= 1
C231: + x108 + x441 <= 1
C232: + x150 + x396 <= 1
C233: + x7 + x13 <= 1
C234: + x118 + x309 <= 1
C235: + x173 + x194 <= 1
C236: + x264 + x283 <= 1
C237: + x13 + x206 <= 1
C238: + x34 + x177 <= 1
C239: + x16 + x65 <= 1
C240: + x300 + x420 <= 1
C241: + x20 + x134 <= 1
C242: + x22 + x293 <= 1
C243: + x366 + x490 <= 1
C244: + x18 + x176 <= 1
C245: + x27 + x115 <= 1
C246: + x9 + x133 <= 1
C247: + x3 + x286 <= 1
C248: + x31 + x240 <= 1
C249: + x15 + x415 <= 1
C250: + x90 + x480 <= 1
C251: + x20 + x82 <= 1
C252: + x50 + x287 <= 1
C253: + x30 + x470 <= 1
C254: + x3 + x447 <= 1
C255: + x14 + x444 <= 1
C256: + x15 + x60 <= 1
C257: + x47 + x481 <= 1
C258: + x225 + x261 <= 1
C259: + x297 + x317 <= 1
C260: + x60 + x326 <= 1
C261: + x26 + x137 <= 1
C262: + x295 + x343 <= 1
C263: + x13 + x145 <= 1
C264: + x14 + x31 <= 1
C265: + x60 + x88 <= 1
C266: + x64 + x243 <= 1
C267: + x20 + x30 <= 1
C268: + x264 + x493 <= 1
C269: + x33 + x52 <= 1
C270: + x23 + x59 <= 1
C271: + x7 + x161 <= 1
C272: + x101 + x145 <= 1
C273: + x2 + x211 <= 1
C274: + x14 + x211 <= 1
C275: + x5 + x58 <= 1
C276: + x153 + x163 <= 1
C277: + x117 + x148 <= 1
C278: + x153 + x280 <= 1
C279: + x101 + x118 <= 1
C280: + x65 + x394 <= 1
C281: + x12 + x90 <= 1
C282: + x8 + x324 <= 1
C283: + x11 + x63 <= 1
C284: + x69 + x180 <= 1
C285: + x6 + x199 <= 1
C286: + x82 + x353 <= 1
C287: + x14 + x135 <= 1
C288: + x5 + x443 <= 1
C289: + x244 + x483 <= 1
C290: + x58 + x341 <= 1
C291: + x30 + x100 <= 1
C292: + x50 + x219 <= 1
C293: + x39 + x151 <= 1
C294: + x41 + x306 <= 1
C295: + x130 + x381 <= 1
C296: + x207 + x323 <= 1
C297: + x119 + x481 <= 1
C298: + x241 + x242 <= 1
C299: + x22 + x85 <= 1
C300: + x92 + x118 <= 1
C301: + x292 + x449 <= 1
C302: + x57 + x466 <= 1
C303: + x36 + x214 <= 1
C304: + x473 + x485 <= 1
C305: + x9 + x85 <= 1
C306: + x191 + x364 <= 1
C307: + x106 + x306 <= 1
C308: + x8 + x300 <= 1
C309: + x63 + x410 <= 1
C310: + x6 + x18 + x66 <= 1
C311: + x24 + x261 <= 1
C312: + x15 + x349 <= 1
C313: + x73 + x484 <= 1
C314: + x9 + x36 <= 1
C315: + x50 + x349 <= 1
C316: + x63 + x216 <= 1
C317: + x92 + x429 <= 1
C318: + x104 + x276 <= 1
C319: + x107 + x118 <= 1
C320: + x126 + x312 <= 1
C321: + x4 + x320 <= 1
C322: + x73 + x371 <= 1
C323: + x8 + x171 <= 1
C324: + x75 + x91 <= 1
C325: + x5 + x418 <= 1
C326: + x11 + x384 <= 1
C327: + x2 + x259 <= 1
C328: + x48 + x215 <= 1
C329: + x42 + x79 <= 1
C330: + x55 + x109 <= 1
C331: + x75 + x273 <= 1
C332: + x79 + x476 <= 1
C333: + x18 + x214 <= 1
C334: + x135 + x282 <= 1
C335: + x300 + x475 <= 1
C336: + x66 + x500 <= 1
C337: + x73 + x319 <= 1
C338: + x5 + x470 <= 1
C339: + x24 + x92 <= 1
C340: + x16 + x47 <= 1
C341: + x173 + x445 <= 1
C342: + x37 + x98 <= 1
C343: + x57 + x182 <= 1
C344: + x47 + x169 <= 1
C345: + x50 + x491 <= 1
C346: + x32 + x175 <= 1
C347: + x434 + x449 <= 1
C348: + x5 + x48 <= 1
C349: + x219 + x330 <= 1
C350: + x33 + x177 <= 1
C351: + x31 + x267 <= 1
C352: + x46 + x127 <= 1
C353: + x249 + x450 <= 1
C354: + x122 + x489 <= 1
C355: + x3 + x70 <= 1
C356: + x58 + x169 <= 1
C357: + x279 + x438 <= 1
C358: + x91 + x211 <= 1
C359: + x11 + x134 <= 1
C360: + x39 + x40 <= 1
C361: + x13 + x47 <= 1
C362: + x8 + x455 <= 1
C363: + x168 + x357 <= 1
C364: + x225 + x298 <= 1
C365: + x36 + x466 <= 1
C366: + x13 + x432 <= 1
C367: + x160 + x297 <= 1
C368: + x16 + x56 <= 1
C369: + x18 + x106 <= 1
C370: + x143 + x369 <= 1
C371: + x3 + x9 <= 1
C372: + x48 + x351 <= 1
C373: + x31 + x483 <= 1
C374: + x34 + x79 <= 1
C375: + x7 + x150 <= 1
C376: + x8 + x282 <= 1
C377: + x137 + x266 <= 1
C378: + x92 + x241 <= 1
C379: + x30 + x152 <= 1
C380: + x87 + x105 <= 1
C381: + x107 + x213 <= 1
C382: + x6 + x161 <= 1
C383: + x30 + x59 <= 1
C384: + x12 + x77 <= 1
C385: + x5 + x257 <= 1
C386: + x162 + x483 <= 1
C387: + x7 + x37 <= 1
C388: + x264 + x400 <= 1
C389: + x350 + x436 <= 1
C390: + x7 + x194 <= 1
C391: + x76 + x87 <= 1
C392: + x21 + x129 <= 1
C393: + x225 + x434 <= 1
C394: + x30 + x172 <= 1
C395: + x28 + x236 <= 1
C396: + x294 + x375 <= 1
C397: + x42 + x185 <= 1
C398: + x84 + x342 <= 1
C399: + x41 + x452 <= 1
C400: + x132 + x346 <= 1
C401: + x5 + x234 <= 1
C402: + x163 + x266 <= 1
C403: + x118 + x220 <= 1
C404: + x8 + x77 <= 1
C405: + x111 + x229 <= 1
C406: + x112 + x150 <= 1
C407: + x13 + x26 <= 1
C408: + x176 + x448 <= 1
C409: + x108 + x414 <= 1
C410: + x16 + x61 <= 1
C411: + x18 + x99 <= 1
C412: + x93 + x496 <= 1
C413: + x81 + x285 <= 1
C414: + x25 + x45 <= 1
C415: + x66 + x383 <= 1
C416: + x30 + x145 <= 1
C417: + x5 + x30 <= 1
C418: + x162 + x281 <= 1
C419: + x45 + x117 <= 1
C420: + x74 + x495 <= 1
C421: + x293 + x436 <= 1
C422: + x194 + x205 <= 1
C423: + x132 + x417 <= 1
C424: + x25 + x92 <= 1
C425: + x5 + x272 <= 1
C426: + x36 + x309 <= 1
C427: + x46 + x113 <= 1
C428: + x49 + x221 <= 1
C429: + x33 + x44 <= 1
C430: + x341 + x424 <= 1
C431: + x8 + x53 <= 1
C432: + x93 + x467 <= 1
C433: + x48 + x281 <= 1
C434: + x331 + x460 <= 1
C435: + x7 + x76 <= 1
C436: + x49 + x350 <= 1
C437: + x41 + x459 <= 1
C438: + x433 + x440 <= 1
C439: + x46 + x275 <= 1
C440: + x34 + x331 <= 1
C441: + x5 + x118 <= 1
C442: + x63 + x136 <= 1
C443: + x221 + x281 <= 1
C444: + x31 + x493 <= 1
C445: + x418 + x439 <= 1
C446: + x66 + x376 <= 1
C447: + x13 + x232 <= 1
C448: + x14 + x240 <= 1
C449: + x125 + x381 <= 1
C450: + x160 + x432 <= 1
C451: + x16 + x171 <= 1
C452: + x92 + x110 <= 1
C453: + x219 + x291 <= 1
C454: + x131 + x270 <= 1
C455: + x4 + x42 <= 1
C456: + x31 + x384 <= 1
C457: + x85 + x400 <= 1
C458: + x206 + x385 <= 1
C459: + x6 + x36 <= 1
C460: + x11 + x191 <= 1
C461: + x286 + x489 <= 1
C462: + x98 + x184 <= 1
C463: + x32 + x202 <= 1
C464: + x151 + x493 <= 1
C465: + x4 + x20 + x25 <= 1
C466: + x17 + x60 <= 1
C467: + x3 + x99 <= 1
C468: + x168 + x247 <= 1
C469: + x14 + x53 <= 1
C470: + x11 + x227 <= 1
C471: + x50 + x390 <= 1
C472: + x5 + x125 <= 1
C473: + x55 + x252 <= 1
C474: + x66 + x123 <= 1
C475: + x101 + x366 <= 1
C476: + x8 + x212 <= 1
C477: + x1 + x338 <= 1
C478: + x87 + x126 <= 1
C479: + x2 + x172 <= 1
C480: + x58 + x439 <= 1
C481: + x21 + x47 <= 1
C482: + x6 + x394 <= 1
C483: + x49 + x288 <= 1
C484: + x20 + x455 <= 1
C485: + x204 + x422 <= 1
C486: + x14 + x122 <= 1
C487: + x197 + x467 <= 1
C488: + x71 + x107 <= 1
C489: + x100 + x322 <= 1
C490: + x137 + x214 <= 1
C491: + x246 + x350 <= 1
C492: + x117 + x138 <= 1
C493: + x45 + x159 <= 1
C494: + x73 + x499 <= 1
C495: + x165 + x345 <= 1
C496: + x302 + x447 <= 1
C497: + x176 + x486 <= 1
C498: + x109 + x388 <= 1
C499: + x346 + x448 <= 1
C500: + x8 + x188 <= 1
C501: + x382 + x458 <= 1
C502: + x183 + x210 <= 1
C503: + x55 + x338 <= 1
C504: + x286 + x310 <= 1
C505: + x197 + x316 <= 1
C506: + x40 + x136 <= 1
C507: + x139 + x284 <= 1
C508: + x88 + x156 <= 1
C509: + x3 + x178 <= 1
C510: + x114 + x336 <= 1
C511: + x43 + x265 <= 1
C512: + x109 + x162 <= 1
C513: + x148 + x318 <= 1
C514: + x4 + x24 <= 1
C515: + x36 + x300 <= 1
C516: + x66 + x144 <= 1
C517: + x49 + x194 <= 1
C518: + x38 + x79 <= 1
C519: + x13 + x357 <= 1
C520: + x197 + x474 <= 1
C521: + x133 + x282 <= 1
C522: + x91 + x178 <= 1
C523: + x5 + x154 <= 1
C524: + x82 + x237 <= 1
C525: + x28 + x41 <= 1
C526: + x5 + x396 <= 1
C527: + x153 + x277 <= 1
C528: + x7 + x404 <= 1
C529: + x126 + x252 <= 1
C530: + x46 + x237 <= 1
C531: + x20 + x138 <= 1
C532: + x12 + x37 <= 1
C533: + x177 + x427 <= 1
C534: + x5 + x297 <= 1
C535: + x200 + x391 <= 1
C536: + x82 + x153 <= 1
C537: + x18 + x164 <= 1
C538: + x320 + x355 <= 1
C539: + x168 + x407 <= 1
C540: + x16 + x17 <= 1
C541: + x139 + x259 <= 1
C542: + x41 + x250 <= 1
C543: + x42 + x65 <= 1
C544: + x104 + x367 <= 1
C545: + x288 + x297 <= 1
C546: + x3 + x137 <= 1
C547: + x133 + x370 <= 1
C548: + x153 + x155 <= 1
C549: + x99 + x290 <= 1
C550: + x25 + x422 <= 1
C551: + x1 + x50 <= 1
C552: + x9 + x82 <= 1
C553: + x3 + x60 <= 1
C554: + x359 + x486 <= 1
C555: + x260 + x353 <= 1
C556: + x9 + x33 <= 1
C557: + x68 + x137 <= 1
C558: + x140 + x159 + x197 <= 1
C559: + x7 + x56 <= 1
C560: + x9 + x414 <= 1
C561: + x136 + x139 <= 1
C562: + x284 + x329 <= 1
C563: + x207 + x472 <= 1
C564: + x18 + x165 <= 1
C565: + x75 + x96 <= 1
C566: + x89 + x435 <= 1
C567: + x17 + x192 <= 1
C568: + x43 + x165 <= 1
C569: + x10 + x355 <= 1
C570: + x24 + x490 <= 1
C571: + x91 + x128 <= 1
C572: + x143 + x252 <= 1
C573: + x75 + x278 <= 1
C574: + x75 + x175 <= 1
C575: + x257 + x262 <= 1
C576: + x36 + x329 <= 1
C577: + x5 + x249 <= 1
C578: + x15 + x277 <= 1
C579: + x16 + x143 <= 1
C580: + x54 + x328 <= 1
C581: + x4 + x6 <= 1
C582: + x42 + x219 <= 1
C583: + x25 + x191 <= 1
C584: + x23 + x341 <= 1
C585: + x33 + x317 <= 1
C586: + x53 + x184 <= 1
C587: + x18 + x116 <= 1
C588: + x57 + x179 <= 1
C589: + x284 + x310 <= 1
C590: + x153 + x201 + x468 <= 1
C591: + x85 + x190 <= 1
C592: + x68 + x416 <= 1
C593: + x5 + x45 <= 1
C594: + x254 + x441 <= 1
C595: + x20 + x152 <= 1
C596: + x30 + x37 <= 1
C597: + x22 + x136 <= 1
C598: + x5 + x287 <= 1
C599: + x24 + x39 + x111 <= 1
C600: + x215 + x334 <= 1
C601: + x198 + x268 <= 1
C602: + x7 + x285 <= 1
C603: + x8 + x167 <= 1
C604: + x140 + x292 <= 1
C605: + x16 + x103 <= 1
C606: + x294 + x321 <= 1
C607: + x77 + x81 <= 1
C608: + x18 + x476 <= 1
C609: + x8 + x361 <= 1
C610: + x155 + x372 <= 1
C611: + x50 + x51 <= 1
C612: + x117 + x365 <= 1
C613: + x44 + x498 <= 1
C614: + x8 + x91 <= 1
C615: + x166 + x263 <= 1
C616: + x48 + x68 <= 1
C617: + x115 + x166 <= 1
C618: + x25 + x134 <= 1
C619: + x16 + x43 <= 1
C620: + x3 + x14 <= 1
C621: + x132 + x253 <= 1
C622: + x57 + x332 <= 1
C623: + x6 + x164 <= 1
C624: + x30 + x62 <= 1
C625: + x5 + x262 <= 1
C626: + x168 + x301 <= 1
C627: + x7 + x34 <= 1
C628: + x10 + x260 <= 1
C629: + x75 + x340 <= 1
C630: + x13 + x326 <= 1
C631: + x7 + x195 <= 1
C632: + x8 + x160 <= 1
C633: + x165 + x196 <= 1
C634: + x276 + x449 <= 1
C635: + x215 + x418 <= 1
C636: + x38 + x63 <= 1
C637: + x4 + x442 <= 1
C638: + x28 + x438 <= 1
C639: + x11 + x17 <= 1
C640: + x192 + x367 <= 1
C641: + x18 + x195 <= 1
C642: + x1 + x7 <= 1
C643: + x381 + x438 <= 1
C644: + x30 + x227 <= 1
C645: + x323 + x474 <= 1
C646: + x9 + x71 <= 1
C647: + x25 + x42 <= 1
C648: + x6 + x10 <= 1
C649: + x7 + x138 <= 1
C650: + x5 + x382 <= 1
C651: + x92 + x245 <= 1
C652: + x228 + x333 <= 1
C653: + x11 + x69 <= 1
C654: + x265 + x451 <= 1
C655: + x45 + x122 <= 1
C656: + x115 + x145 <= 1
C657: + x24 + x33 <= 1
C658: + x219 + x242 <= 1
C659: + x5 + x162 <= 1
C660: + x14 + x75 <= 1
C661: + x80 + x402 <= 1
C662: + x28 + x65 <= 1
C663: + x36 + x38 <= 1
C664: + x206 + x366 <= 1
C665: + x117 + x185 <= 1
C666: + x27 + x248 <= 1
C667: + x249 + x316 <= 1
C668: + x35 + x376 <= 1
C669: + x1 + x268 <= 1
C670: + x57 + x217 <= 1
C671: + x46 + x499 <= 1
C672: + x2 + x103 <= 1
C673: + x3 + x109 <= 1
C674: + x31 + x95 <= 1
C675: + x163 + x207 <= 1
C676: + x135 + x272 <= 1
C677: + x46 + x278 <= 1
C678: + x268 + x337 <= 1
C679: + x153 + x457 <= 1
C680: + x84 + x455 <= 1
C681: + x33 + x84 <= 1
C682: + x25 + x49 <= 1
C683: + x18 + x258 <= 1
C684: + x7 + x129 <= 1
C685: + x262 + x462 <= 1
C686: + x137 + x309 <= 1
C687: + x140 + x155 <= 1
C688: + x105 + x308 <= 1
C689: + x358 + x405 <= 1
C690: + x216 + x496 <= 1
C691: + x226 + x477 <= 1
C692: + x27 + x43 <= 1
C693: + x67 + x390 <= 1
C694: + x313 + x364 <= 1
C695: + x31 + x168 <= 1
C696: + x209 + x362 <= 1
C697: + x88 + x221 <= 1
C698: + x211 + x284 <= 1
C699: + x75 + x116 <= 1
C700: + x129 + x398 <= 1
C701: + x31 + x55 <= 1
C702: + x13 + x217 <= 1
C703: + x1 + x102 <= 1
C704: + x165 + x343 <= 1
C705: + x8 + x49 <= 1
C706: + x39 + x380 <= 1
C707: + x327 + x337 <= 1
C708: + x374 + x436 <= 1
C709: + x67 + x168 <= 1
C710: + x75 + x195 <= 1
C711: + x5 + x221 <= 1
C712: + x1 + x21 <= 1
C713: + x20 + x232 <= 1
C714: + x48 + x95 <= 1
C715: + x40 + x142 <= 1
C716: + x5 + x114 <= 1
C717: + x22 + x216 <= 1
C718: + x170 + x266 <= 1
C719: + x134 + x276 <= 1
C720: + x7 + x479 <= 1
C721: + x33 + x345 <= 1
C722: + x248 + x303 <= 1
C723: + x70 + x78 <= 1
C724: + x254 + x492 <= 1
C725: + x132 + x212 <= 1
C726: + x10 + x422 <= 1
C727: + x37 + x437 <= 1
C728: + x3 + x188 <= 1
C729: + x51 + x323 <= 1
C730: + x4 + x481 <= 1
C731: + x15 + x474 <= 1
C732: + x37 + x79 <= 1
C733: + x111 + x409 <= 1
C734: + x133 + x280 <= 1
C735: + x71 + x120 <= 1
C736: + x137 + x360 <= 1
C737: + x110 + x201 <= 1
C738: + x39 + x77 <= 1
C739: + x97 + x196 <= 1
C740: + x23 + x320 <= 1
C741: + x5 + x386 <= 1
C742: + x5 + x295 <= 1
C743: + x8 + x333 <= 1
C744: + x37 + x51 <= 1
C745: + x111 + x485 <= 1
C746: + x15 + x135 <= 1
C747: + x201 + x404 <= 1
C748: + x10 + x17 <= 1
C749: + x39 + x57 <= 1
C750: + x114 + x250 <= 1
C751: + x23 + x199 <= 1
C752: + x25 + x226 <= 1
C753: + x33 + x352 <= 1
C754: + x58 + x330 <= 1
C755: + x331 + x419 <= 1
C756: + x107 + x425 <= 1
C757: + x26 + x433 <= 1
C758: + x127 + x283 <= 1
C759: + x92 + x277 <= 1
C760: + x75 + x178 <= 1
C761: + x57 + x360 <= 1
C762: + x60 + x336 <= 1
C763: + x5 + x16 <= 1
C764: + x46 + x316 <= 1
C765: + x21 + x43 <= 1
C766: + x13 + x389 <= 1
C767: + x26 + x34 <= 1
C768: + x7 + x14 <= 1
C769: + x263 + x343 <= 1
C770: + x247 + x332 <= 1
C771: + x31 + x392 <= 1
C772: + x5 + x159 <= 1
C773: + x151 + x214 <= 1
C774: + x9 + x261 <= 1
C775: + x133 + x287 <= 1
C776: + x148 + x170 <= 1
C777: + x5 + x52 <= 1
C778: + x9 + x55 <= 1
C779: + x49 + x94 <= 1
C780: + x59 + x381 <= 1
C781: + x30 + x86 <= 1
C782: + x35 + x129 <= 1
C783: + x75 + x245 <= 1
C784: + x430 + x500 <= 1
C785: + x51 + x96 <= 1
C786: + x42 + x51 <= 1
C787: + x73 + x177 <= 1
C788: + x18 + x348 <= 1
C789: + x453 + x482 <= 1
C790: + x148 + x374 <= 1
C791: + x78 + x386 <= 1
C792: + x5 + x104 <= 1
C793: + x5 + x445 <= 1
C794: + x60 + x472 <= 1
C795: + x138 + x400 <= 1
C796: + x183 + x375 <= 1
C797: + x242 + x478 <= 1
C798: + x195 + x278 <= 1
C799: + x143 + x238 <= 1
C800: + x2 + x6 <= 1
C801: + x148 + x227 <= 1
C802: + x138 + x190 <= 1
C803: + x1 + x63 <= 1
C804: + x77 + x490 <= 1
C805: + x13 + x119 <= 1
C806: + x4 + x28 <= 1
C807: + x34 + x224 <= 1
C808: + x25 + x181 <= 1
C809: + x2 + x452 <= 1
C810: + x221 + x242 <= 1
C811: + x50 + x157 <= 1
C812: + x51 + x99 <= 1
C813: + x279 + x365 <= 1
C814: + x54 + x56 <= 1
C815: + x144 + x353 <= 1
C816: + x75 + x109 <= 1
C817: + x177 + x189 <= 1
C818: + x31 + x44 <= 1
C819: + x105 + x213 <= 1
C820: + x149 + x289 <= 1
C821: + x17 + x129 <= 1
C822: + x18 + x23 <= 1
C823: + x16 + x73 <= 1
C824: + x9 + x62 <= 1
C825: + x8 + x32 <= 1
C826: + x12 + x89 <= 1
C827: + x213 + x326 <= 1
C828: + x244 + x373 <= 1
C829: + x137 + x176 <= 1
C830: + x138 + x251 <= 1
C831: + x220 + x321 <= 1
C832: + x28 + x121 <= 1
C833: + x55 + x301 <= 1
C834: + x47 + x122 <= 1
C835: + x51 + x316 <= 1
C836: + x9 + x106 <= 1
C837: + x201 + x255 <= 1
C838: + x330 + x369 <= 1
C839: + x77 + x402 <= 1
C840: + x30 + x430 <= 1
C841: + x396 + x438 <= 1
C842: + x5 + x345 <= 1
C843: + x71 + x173 <= 1
C844: + x6 + x87 <= 1
C845: + x57 + x193 <= 1
C846: + x111 + x120 <= 1
C847: + x185 + x299 <= 1
C848: + x149 + x220 <= 1
C849: + x60 + x441 <= 1
C850: + x142 + x336 <= 1
C851: + x16 + x33 <= 1
C852: + x82 + x447 <= 1
C853: + x50 + x150 <= 1
C854: + x17 + x406 <= 1
C855: + x146 + x237 <= 1
C856: + x382 + x388 <= 1
C857: + x94 + x154 <= 1
C858: + x177 + x180 <= 1
C859: + x4 + x146 <= 1
C860: + x5 + x34 <= 1
C861: + x23 + x160 <= 1
C862: + x93 + x435 <= 1
C863: + x131 + x295 <= 1
C864: + x149 + x397 <= 1
C865: + x183 + x466 <= 1
C866: + x57 + x305 <= 1
C867: + x41 + x427 <= 1
C868: + x92 + x178 <= 1
C869: + x3 + x237 <= 1
C870: + x41 + x72 <= 1
C871: + x32 + x213 <= 1
C872: + x190 + x208 <= 1
C873: + x127 + x211 <= 1
C874: + x46 + x150 <= 1
C875: + x39 + x143 <= 1
C876: + x196 + x400 <= 1
C877: + x243 + x302 <= 1
C878: + x8 + x368 <= 1
C879: + x138 + x277 <= 1
C880: + x66 + x344 <= 1
C881: + x168 + x206 <= 1
C882: + x99 + x140 <= 1
C883: + x6 + x243 <= 1
C884: + x45 + x84 <= 1
C885: + x88 + x440 <= 1
C886: + x11 + x208 <= 1
C887: + x1 + x13 <= 1
C888: + x12 + x155 <= 1
C889: + x292 + x457 <= 1
C890: + x114 + x217 <= 1
C891: + x40 + x230 <= 1
C892: + x170 + x274 <= 1
C893: + x23 + x361 <= 1
C894: + x154 + x496 <= 1
C895: + x58 + x297 <= 1
C896: + x3 + x15 <= 1
C897: + x98 + x117 <= 1
C898: + x101 + x136 <= 1
C899: + x5 + x41 <= 1
C900: + x24 + x204 <= 1
C901: + x7 + x386 <= 1
C902: + x459 + x474 <= 1
C903: + x460 + x478 <= 1
C904: + x109 + x485 <= 1
C905: + x93 + x156 <= 1
C906: + x195 + x464 <= 1
C907: + x31 + x421 <= 1
C908: + x35 + x271 <= 1
C909: + x5 + x192 <= 1
C910: + x79 + x163 <= 1
C911: + x7 + x273 <= 1
C912: + x76 + x81 <= 1
C913: + x242 + x358 <= 1
C914: + x13 + x48 <= 1
C915: + x5 + x93 <= 1
C916: + x61 + x485 <= 1
C917: + x226 + x410 <= 1
C918: + x10 + x368 <= 1
C919: + x336 + x410 <= 1
C920: + x148 + x488 <= 1
C921: + x4 + x437 <= 1
C922: + x129 + x231 <= 1
C923: + x11 + x22 <= 1
C924: + x105 + x286 <= 1
C925: + x115 + x125 <= 1
C926: + x79 + x111 <= 1
C927: + x355 + x464 <= 1
C928: + x211 + x351 <= 1
C929: + x148 + x341 <= 1
C930: + x12 + x148 <= 1
C931: + x135 + x179 <= 1
C932: + x11 + x428 <= 1
C933: + x485 + x487 <= 1
C934: + x117 + x416 <= 1
C935: + x182 + x387 <= 1
C936: + x200 + x473 <= 1
C937: + x4 + x160 <= 1
C938: + x35 + x407 <= 1
C939: + x144 + x403 <= 1
C940: + x8 + x11 <= 1
C941: + x231 + x269 <= 1
C942: + x233 + x487 <= 1
C943: + x81 + x339 <= 1
C944: + x82 + x101 <= 1
C945: + x45 + x292 <= 1
C946: + x46 + x119 <= 1
C947: + x6 + x414 <= 1
C948: + x492 + x494 <= 1
C949: + x207 + x294 <= 1
C950: + x5 + x92 <= 1
C951: + x43 + x147 <= 1
C952: + x135 + x378 <= 1
C953: + x49 + x182 <= 1
C954: + x39 + x185 <= 1
C955: + x50 + x205 <= 1
C956: + x13 + x465 <= 1
C957: + x40 + x338 <= 1
C958: + x77 + x169 <= 1
C959: + x12 + x302 <= 1
C960: + x340 + x374 <= 1
C961: + x16 + x302 <= 1
C962: + x17 + x94 <= 1
C963: + x79 + x328 <= 1
C964: + x85 + x446 <= 1
C965: + x122 + x430 <= 1
C966: + x39 + x314 <= 1
C967: + x21 + x488 <= 1
C968: + x405 + x458 <= 1
C969: + x8 + x274 <= 1
C970: + x63 + x127 <= 1
C971: + x114 + x348 <= 1
C972: + x60 + x317 <= 1
C973: + x5 + x31 <= 1
C974: + x24 + x218 <= 1
C975: + x280 + x308 <= 1
C976: + x3 + x327 <= 1
C977: + x30 + x51 <= 1
C978: + x115 + x141 <= 1
C979: + x7 + x29 <= 1
C980: + x67 + x300 <= 1
C981: + x30 + x257 <= 1
C982: + x5 + x174 <= 1
C983: + x2 + x202 <= 1
C984: + x3 + x250 <= 1
C985: + x6 + x75 <= 1
C986: + x109 + x399 <= 1
C987: + x354 + x375 <= 1
C988: + x11 + x459 <= 1
C989: + x14 + x59 <= 1
C990: + x163 + x258 <= 1
C991: + x9 + x149 <= 1
C992: + x41 + x105 <= 1
C993: + x13 + x18 <= 1
C994: + x23 + x201 <= 1
C995: + x17 + x85 <= 1
C996: + x9 + x114 <= 1
C997: + x8 + x492 <= 1
C998: + x58 + x247 <= 1
C999: + x132 + x239 <= 1
C1000: + x110 + x333 <= 1
C1001: + x13 + x225 <= 1
C1002: + x5 + x6 <= 1
C1003: + x46 + x198 <= 1
C1004: + x10 + x50 + x54 <= 1
C1005: + x39 + x255 <= 1
C1006: + x42 + x299 <= 1
C1007: + x78 + x455 <= 1
C1008: + x44 + x130 <= 1
C1009: + x8 + x416 <= 1
C1010: + x46 + x105 <= 1
C1011: + x430 + x458 <= 1
C1012: + x73 + x219 <= 1
C1013: + x335 + x361 <= 1
C1014: + x92 + x158 <= 1
C1015: + x8 + x138 <= 1
C1016: + x3 + x241 <= 1
C1017: + x112 + x215 <= 1
C1018: + x4 + x186 <= 1
C1019: + x50 + x457 <= 1
C1020: + x8 + x45 <= 1
C1021: + x137 + x450 <= 1
C1022: + x29 + x88 <= 1
C1023: + x33 + x147 <= 1
C1024: + x35 + x139 <= 1
C1025: + x26 + x104 <= 1
C1026: + x138 + x204 <= 1
C1027: + x27 + x433 <= 1
C1028: + x18 + x366 <= 1
C1029: + x14 + x290 <= 1
C1030: + x171 + x390 <= 1
C1031: + x82 + x404 <= 1
C1032: + x327 + x488 <= 1
C1033: + x29 + x108 <= 1
C1034: + x3 + x19 <= 1
C1035: + x85 + x121 <= 1
C1036: + x168 + x327 <= 1
C1037: + x68 + x128 <= 1
C1038: + x14 + x232 <= 1
C1039: + x5 + x13 <= 1
C1040: + x299 + x482 <= 1
C1041: + x92 + x102 <= 1
C1042: + x274 + x379 <= 1
C1043: + x8 + x114 <= 1
C1044: + x40 + x265 <= 1
C1045: + x6 + x393 <= 1
C1046: + x7 + x15 <= 1
C1047: + x86 + x187 <= 1
C1048: + x1 + x367 <= 1
C1049: + x136 + x462 <= 1
C1050: + x77 + x327 <= 1
C1051: + x41 + x42 + x233 <= 1
C1052: + x8 + x38 <= 1
C1053: + x10 + x140 <= 1
C1054: + x93 + x418 <= 1
C1055: + x5 + x291 <= 1
C1056: + x209 + x244 <= 1
C1057: + x9 + x401 <= 1
C1058: + x138 + x314 <= 1
C1059: + x93 + x180 <= 1
C1060: + x264 + x426 <= 1
C1061: + x114 + x275 <= 1
C1062: + x30 + x295 <= 1
C1063: + x163 + x276 <= 1
C1064: + x9 + x131 <= 1
C1065: + x65 + x304 <= 1
C1066: + x122 + x179 <= 1
C1067: + x51 + x262 <= 1
C1068: + x5 + x101 <= 1
C1069: + x12 + x27 <= 1
C1070: + x68 + x371 <= 1
C1071: + x251 + x364 <= 1
C1072: + x5 + x343 <= 1
C1073: + x23 + x489 <= 1
C1074: + x264 + x350 <= 1
C1075: + x161 + x248 <= 1
C1076: + x17 + x269 <= 1
C1077: + x9 + x207 <= 1
C1078: + x20 + x189 <= 1
C1079: + x12 + x108 <= 1
C1080: + x44 + x256 <= 1
C1081: + x48 + x322 <= 1
C1082: + x5 + x155 <= 1
C1083: + x6 + x21 <= 1
C1084: + x18 + x292 <= 1
C1085: + x10 + x415 <= 1
C1086: + x19 + x125 <= 1
C1087: + x165 + x228 <= 1
C1088: + x137 + x275 <= 1
C1089: + x297 + x359 <= 1
C1090: + x51 + x457 <= 1
C1091: + x190 + x230 <= 1
C1092: + x166 + x351 <= 1
C1093: + x130 + x419 <= 1
C1094: + x331 + x486 <= 1
C1095: + x85 + x108 + x399 <= 1
C1096: + x24 + x32 <= 1
C1097: + x9 + x408 <= 1
C1098: + x421 + x453 <= 1
C1099: + x187 + x452 <= 1
C1100: + x181 + x190 <= 1
C1101: + x165 + x216 <= 1
C1102: + x3 + x279 <= 1
C1103: + x5 + x100 <= 1
C1104: + x98 + x328 <= 1
C1105: + x9 + x103 <= 1
C1106: + x313 + x406 <= 1
C1107: + x49 + x142 <= 1
C1108: + x123 + x141 <= 1
C1109: + x412 + x471 <= 1
C1110: + x5 + x350 <= 1
C1111: + x18 + x489 <= 1
C1112: + x8 + x193 <= 1
C1113: + x64 + x296 <= 1
C1114: + x122 + x293 <= 1
C1115: + x23 + x77 <= 1
C1116: + x4 + x32 <= 1
C1117: + x71 + x313 <= 1
C1118: + x64 + x250 <= 1
C1119: + x93 + x257 <= 1
C1120: + x311 + x332 <= 1
C1121: + x33 + x73 <= 1
C1122: + x42 + x116 <= 1
C1123: + x71 + x102 <= 1
C1124: + x18 + x293 <= 1
C1125: + x146 + x307 <= 1
C1126: + x7 + x166 <= 1
C1127: + x208 + x443 <= 1
C1128: + x33 + x406 <= 1
C1129: + x126 + x329 <= 1
C1130: + x45 + x142 <= 1
C1131: + x70 + x148 <= 1
C1132: + x71 + x245 <= 1
C1133: + x156 + x338 <= 1
C1134: + x138 + x255 <= 1
C1135: + x136 + x337 <= 1
C1136: + x265 + x446 <= 1
C1137: + x11 + x495 <= 1
C1138: + x17 + x335 <= 1
C1139: + x9 + x380 <= 1
C1140: + x7 + x456 <= 1
C1141: + x5 + x325 <= 1
C1142: + x7 + x97 <= 1
C1143: + x1 + x296 <= 1
C1144: + x55 + x111 <= 1
C1145: + x264 + x340 <= 1
C1146: + x68 + x83 <= 1
C1147: + x185 + x303 <= 1
C1148: + x21 + x360 <= 1
C1149: + x1 + x10 <= 1
C1150: + x12 + x154 <= 1
C1151: + x4 + x5 <= 1
C1152: + x42 + x263 <= 1
C1153: + x22 + x366 <= 1
C1154: + x24 + x90 <= 1
C1155: + x96 + x427 <= 1
C1156: + x297 + x454 <= 1
C1157: + x17 + x109 <= 1
C1158: + x75 + x358 <= 1
C1159: + x33 + x80 <= 1
C1160: + x87 + x247 <= 1
C1161: + x6 + x7 <= 1
C1162: + x82 + x222 <= 1
C1163: + x209 + x330 <= 1
C1164: + x263 + x482 <= 1
C1165: + x5 + x46 <= 1
C1166: + x6 + x186 <= 1
C1167: + x108 + x248 <= 1
C1168: + x30 + x36 <= 1
C1169: + x33 + x266 <= 1
C1170: + x253 + x429 <= 1
C1171: + x24 + x46 <= 1
C1172: + x119 + x289 <= 1
C1173: + x266 + x315 <= 1
C1174: + x77 + x195 <= 1
C1175: + x362 + x444 <= 1
C1176: + x155 + x187 <= 1
C1177: + x110 + x228 <= 1
C1178: + x95 + x330 <= 1
C1179: + x117 + x172 <= 1
C1180: + x54 + x223 <= 1
C1181: + x249 + x303 <= 1
C1182: + x16 + x389 <= 1
C1183: + x51 + x73 + x133 <= 1
C1184: + x46 + x53 <= 1
C1185: + x11 + x23 <= 1
C1186: + x136 + x183 <= 1
C1187: + x105 + x283 <= 1
C1188: + x238 + x320 <= 1
C1189: + x21 + x367 <= 1
C1190: + x71 + x394 <= 1
C1191: + x8 + x86 <= 1
C1192: + x28 + x130 <= 1
C1193: + x5 + x467 <= 1
C1194: + x125 + x171 <= 1
C1195: + x299 + x359 <= 1
C1196: + x221 + x265 <= 1
C1197: + x185 + x421 <= 1
C1198: + x60 + x200 <= 1
C1199: + x25 + x36 <= 1
C1200: + x6 + x16 <= 1
C1201: + x364 + x405 <= 1
C1202: + x10 + x434 <= 1
C1203: + x113 + x346 <= 1
C1204: + x12 + x240 <= 1
C1205: + x176 + x239 <= 1
C1206: + x8 + x10 <= 1
C1207: + x58 + x414 <= 1
C1208: + x141 + x469 <= 1
C1209: + x125 + x127 <= 1
C1210: + x253 + x428 <= 1
C1211: + x6 + x401 <= 1
C1212: + x7 + x39 <= 1
C1213: + x331 + x372 <= 1
C1214: + x418 + x499 <= 1
C1215: + x280 + x431 <= 1
C1216: + x38 + x347 <= 1
C1217: + x23 + x231 <= 1
C1218: + x153 + x311 <= 1
C1219: + x330 + x359 <= 1
C1220: + x147 + x396 <= 1
C1221: + x30 + x444 <= 1
C1222: + x13 + x470 <= 1
C1223: + x5 + x331 <= 1
C1224: + x7 + x83 <= 1
C1225: + x54 + x123 <= 1
C1226: + x74 + x143 <= 1
C1227: + x1 + x8 <= 1
C1228: + x249 + x280 + x382 <= 1
C1229: + x21 + x203 <= 1
C1230: + x24 + x112 <= 1
C1231: + x3 + x6 <= 1
C1232: + x231 + x251 <= 1
C1233: + x12 + x442 <= 1
C1234: + x258 + x268 <= 1
C1235: + x39 + x315 <= 1
C1236: + x5 + x383 <= 1
C1237: + x1 + x322 <= 1
C1238: + x100 + x358 <= 1
C1239: + x135 + x421 <= 1
C1240: + x348 + x354 <= 1
C1241: + x39 + x104 <= 1
C1242: + x21 + x186 <= 1
C1243: + x5 + x20 <= 1
C1244: + x64 + x263 <= 1
C1245: + x90 + x192 <= 1
C1246: + x71 + x445 <= 1
C1247: + x58 + x423 <= 1
C1248: + x12 + x68 <= 1
C1249: + x286 + x353 <= 1
C1250: + x395 + x403 <= 1
C1251: + x42 + x317 <= 1
C1252: + x460 + x471 <= 1
C1253: + x7 + x26 <= 1
C1254: + x1 + x497 <= 1
C1255: + x4 + x273 <= 1
C1256: + x20 + x278 <= 1
C1257: + x12 + x209 <= 1
C1258: + x86 + x271 <= 1
C1259: + x77 + x342 <= 1
C1260: + x5 + x72 <= 1
C1261: + x98 + x356 <= 1
C1262: + x308 + x500 <= 1
C1263: + x5 + x413 <= 1
C1264: + x137 + x472 <= 1
C1265: + x39 + x189 <= 1
C1266: + x186 + x345 <= 1
C1267: + x42 + x164 <= 1
C1268: + x5 + x306 <= 1
C1269: + x12 + x451 <= 1
C1270: + x330 + x459 <= 1
C1271: + x3 + x110 <= 1
C1272: + x12 + x290 <= 1
C1273: + x104 + x241 <= 1
C1274: + x77 + x165 <= 1
C1275: + x112 + x318 <= 1
C1276: + x82 + x184 <= 1
C1277: + x383 + x442 <= 1
C1278: + x114 + x207 <= 1
C1279: + x22 + x377 <= 1
C1280: + x25 + x149 <= 1
C1281: + x81 + x274 <= 1
C1282: + x4 + x463 <= 1
C1283: + x106 + x397 <= 1
C1284: + x212 + x253 <= 1
C1285: + x122 + x434 <= 1
C1286: + x241 + x422 <= 1
C1287: + x59 + x226 <= 1
C1288: + x91 + x158 <= 1
C1289: + x155 + x279 <= 1
C1290: + x5 + x27 <= 1
C1291: + x9 + x222 <= 1
C1292: + x36 + x93 <= 1
C1293: + x222 + x335 <= 1
C1294: + x33 + x196 <= 1
C1295: + x32 + x374 <= 1
C1296: + x182 + x313 <= 1
C1297: + x139 + x233 <= 1
C1298: + x262 + x497 <= 1
C1299: + x27 + x91 <= 1
C1300: + x10 + x35 <= 1
C1301: + x9 + x173 <= 1
C1302: + x237 + x270 <= 1
C1303: + x75 + x113 <= 1
C1304: + x54 + x407 <= 1
C1305: + x72 + x461 <= 1
C1306: + x368 + x385 <= 1
C1307: + x5 + x412 <= 1
C1308: + x45 + x166 <= 1
C1309: + x223 + x230 <= 1
C1310: + x307 + x352 <= 1
C1311: + x182 + x461 <= 1
C1312: + x5 + x222 <= 1
C1313: + x18 + x180 <= 1
C1314: + x1 + x22 <= 1
C1315: + x16 + x238 <= 1
C1316: + x9 + x153 <= 1
C1317: + x8 + x65 <= 1
C1318: + x46 + x270 <= 1
C1319: + x5 + x464 <= 1
C1320: + x3 + x24 <= 1
C1321: + x5 + x365 <= 1
C1322: + x2 + x11 <= 1
C1323: + x214 + x392 <= 1
C1324: + x21 + x45 <= 1
C1325: + x51 + x324 <= 1
C1326: + x24 + x50 <= 1
C1327: + x7 + x12 <= 1
C1328: + x310 + x381 <= 1
C1329: + x330 + x393 <= 1
C1330: + x50 + x98 <= 1
C1331: + x278 + x356 <= 1
C1332: + x87 + x239 <= 1
C1333: + x271 + x429 <= 1
C1334: + x410 + x481 <= 1
C1335: + x63 + x491 <= 1
C1336: + x110 + x200 <= 1
C1337: + x75 + x124 <= 1
C1338: + x40 + x82 <= 1
C1339: + x9 + x49 <= 1
C1340: + x114 + x435 <= 1
C1341: + x50 + x94 <= 1
C1342: + x91 + x253 <= 1
C1343: + x9 + x331 <= 1
C1344: + x9 + x160 <= 1
C1345: + x45 + x487 <= 1
C1346: + x39 + x58 <= 1
C1347: + x112 + x167 <= 1
C1348: + x147 + x425 <= 1
C1349: + x21 + x498 <= 1
C1350: + x13 + x311 <= 1
C1351: + x134 + x191 <= 1
C1352: + x110 + x322 <= 1
C1353: + x5 + x9 <= 1
C1354: + x35 + x105 <= 1
C1355: + x381 + x408 <= 1
C1356: + x69 + x110 <= 1
C1357: + x8 + x401 <= 1
C1358: + x275 + x371 <= 1
C1359: + x40 + x492 <= 1
C1360: + x7 + x176 <= 1
C1361: + x100 + x325 <= 1
C1362: + x8 + x131 <= 1
C1363: + x11 + x163 <= 1
C1364: + x71 + x112 <= 1
C1365: + x73 + x198 <= 1
C1366: + x165 + x225 <= 1
C1367: + x39 + x69 <= 1
C1368: + x5 + x61 <= 1
C1369: + x24 + x192 <= 1
C1370: + x63 + x335 <= 1
C1371: + x131 + x342 <= 1
C1372: + x41 + x257 <= 1
C1373: + x30 + x85 <= 1
C1374: + x50 + x289 <= 1
C1375: + x7 + x63 <= 1
C1376: + x75 + x313 <= 1
C1377: + x46 + x477 <= 1
C1378: + x202 + x433 <= 1
C1379: + x7 + x220 <= 1
C1380: + x10 + x25 <= 1
C1381: + x75 + x87 <= 1
C1382: + x77 + x311 <= 1
C1383: + x5 + x97 <= 1
C1384: + x171 + x393 <= 1
C1385: + x82 + x393 <= 1
C1386: + x142 + x354 <= 1
C1387: + x48 + x378 <= 1
C1388: + x30 + x468 <= 1
C1389: + x2 + x5 <= 1
C1390: + x66 + x325 <= 1
C1391: + x53 + x477 <= 1
C1392: + x6 + x347 <= 1
C1393: + x8 + x107 <= 1
C1394: + x93 + x97 <= 1
C1395: + x115 + x182 <= 1
C1396: + x60 + x106 <= 1
C1397: + x49 + x199 <= 1
C1398: + x3 + x62 <= 1
C1399: + x41 + x377 <= 1
C1400: + x167 + x296 <= 1
C1401: + x5 + x135 <= 1
C1402: + x331 + x415 <= 1
C1403: + x17 + x416 <= 1
C1404: + x1 + x175 <= 1
C1405: + x30 + x139 <= 1
C1406: + x305 + x318 <= 1
C1407: + x162 + x208 <= 1
C1408: + x54 + x261 <= 1
C1409: + x349 + x412 <= 1
C1410: + x24 + x28 <= 1
C1411: + x45 + x312 <= 1
C1412: + x11 + x61 <= 1
C1413: + x140 + x206 <= 1
C1414: + x12 + x334 <= 1
C1415: + x87 + x181 <= 1
C1416: + x215 + x309 <= 1
C1417: + x259 + x488 <= 1
C1418: + x5 + x203 <= 1
C1419: + x117 + x344 <= 1
C1420: + x85 + x377 <= 1
C1421: + x39 + x44 <= 1
C1422: + x4 + x88 <= 1
C1423: + x21 + x246 <= 1
C1424: + x105 + x130 <= 1
C1425: + x6 + x307 <= 1
C1426: + x16 + x32 <= 1
C1427: + x12 + x24 <= 1
C1428: + x30 + x98 <= 1
C1429: + x259 + x407 <= 1
C1430: + x405 + x490 <= 1
C1431: + x91 + x114 <= 1
C1432: + x155 + x363 <= 1
C1433: + x41 + x465 <= 1
C1434: + x270 + x417 <= 1
C1435: + x16 + x141 <= 1
C1436: + x201 + x335 <= 1
C1437: + x326 + x351 <= 1
C1438: + x74 + x398 <= 1
C1439: + x27 + x132 + x357 <= 1
C1440: + x236 + x384 <= 1
C1441: + x54 + x157 <= 1
C1442: + x46 + x80 <= 1
C1443: + x3 + x53 <= 1
C1444: + x50 + x149 <= 1
C1445: + x26 + x462 <= 1
C1446: + x261 + x475 <= 1
C1447: + x92 + x229 <= 1
C1448: + x5 + x35 <= 1
C1449: + x133 + x419 <= 1
C1450: + x6 + x376 <= 1
C1451: + x9 + x38 <= 1
C1452: + x134 + x323 <= 1
C1453: + x41 + x271 <= 1
C1454: + x13 + x496 <= 1
C1455: + x5 + x285 <= 1
C1456: + x26 + x127 <= 1
C1457: + x243 + x375 <= 1
C1458: + x396 + x498 <= 1
C1459: + x162 + x471 <= 1
C1460: + x20 + x424 <= 1
C1461: + x267 + x398 <= 1
C1462: + x91 + x202 <= 1
C1463: + x36 + x54 <= 1
C1464: + x71 + x479 <= 1
C1465: + x11 + x153 <= 1
C1466: + x25 + x259 <= 1
C1467: + x34 + x362 <= 1
C1468: + x41 + x315 <= 1
C1469: + x2 + x23 <= 1
C1470: + x49 + x427 <= 1
C1471: + x223 + x431 <= 1
C1472: + x5 + x230 <= 1
C1473: + x246 + x387 <= 1
C1474: + x230 + x473 <= 1
C1475: + x41 + x117 <= 1
C1476: + x4 + x9 <= 1
C1477: + x33 + x231 <= 1
C1478: + x60 + x104 <= 1
C1479: + x24 + x86 <= 1
C1480: + x71 + x312 <= 1
C1481: + x3 + x16 <= 1
C1482: + x132 + x251 <= 1
C1483: + x52 + x162 <= 1
C1484: + x8 + x234 <= 1
C1485: + x84 + x201 <= 1
C1486: + x66 + x355 <= 1
C1487: + x39 + x106 <= 1
C1488: + x361 + x409 <= 1
C1489: + x6 + x369 <= 1
C1490: + x30 + x64 <= 1
C1491: + x51 + x348 <= 1
C1492: + x69 + x434 <= 1
C1493: + x1 + x487 <= 1
C1494: + x220 + x235 <= 1
C1495: + x36 + x59 <= 1
C1496: + x26 + x241 <= 1
C1497: + x66 + x90 <= 1
C1498: + x37 + x167 <= 1
C1499: + x50 + x264 <= 1
C1500: + x233 + x429 <= 1
C1501: + x142 + x240 <= 1
C1502: + x183 + x486 <= 1
C1503: + x166 + x175 <= 1
C1504: + x7 + x249 <= 1
C1505: + x7 + x334 <= 1
C1506: + x109 + x140 <= 1
C1507: + x1 + x5 <= 1
C1508: + x219 + x267 <= 1
C1509: + x242 + x337 <= 1
C1510: + x2 + x470 <= 1
C1511: + x37 + x107 <= 1
C1512: + x216 + x370 <= 1
C1513: + x71 + x76 <= 1
C1514: + x110 + x346 <= 1
C1515: + x104 + x179 <= 1
C1516: + x32 + x146 <= 1
C1517: + x22 + x41 <= 1
C1518: + x1 + x81 <= 1
C1519: + x74 + x492 <= 1
C1520: + x20 + x164 <= 1
C1521: + x210 + x260 <= 1
C1522: + x157 + x271 <= 1
C1523: + x51 + x339 <= 1
C1524: + x187 + x203 <= 1
C1525: + x52 + x216 <= 1
C1526: + x15 + x458 <= 1
C1527: + x23 + x26 <= 1
C1528: + x6 + x64 <= 1
C1529: + x39 + x93 <= 1
C1530: + x30 + x170 <= 1
C1531: + x13 + x40 <= 1
C1532: + x14 + x379 <= 1
C1533: + x24 + x152 <= 1
C1534: + x8 + x58 <= 1
C1535: + x137 + x469 <= 1
C1536: + x77 + x448 <= 1
C1537: + x223 + x256 <= 1
C1538: + x191 + x436 <= 1
C1539: + x5 + x236 <= 1
C1540: + x6 + x228 <= 1
C1541: + x108 + x174 <= 1
C1542: + x73 + x154 <= 1
C1543: + x110 + x432 <= 1
C1544: + x101 + x389 <= 1
C1545: + x39 + x319 <= 1
C1546: + x78 + x135 <= 1
C1547: + x7 + x131 <= 1
C1548: + x82 + x196 <= 1
C1549: + x364 + x386 <= 1
C1550: + x136 + x299 <= 1
C1551: + x219 + x389 <= 1
C1552: + x81 + x89 <= 1
C1553: + x253 + x346 <= 1
C1554: + x171 + x215 <= 1
C1555: + x60 + x411 <= 1
C1556: + x13 + x80 <= 1
C1557: + x51 + x151 <= 1
C1558: + x171 + x453 <= 1
C1559: + x39 + x491 <= 1
C1560: + x31 + x408 <= 1
C1561: + x353 + x403 <= 1
C1562: + x36 + x41 <= 1
C1563: + x28 + x72 <= 1
C1564: + x225 + x331 <= 1
C1565: + x5 + x68 <= 1
C1566: + x268 + x412 <= 1
C1567: + x1 + x100 <= 1
C1568: + x74 + x473 <= 1
C1569: + x30 + x70 <= 1
C1570: + x87 + x324 <= 1
C1571: + x75 + x268 <= 1
C1572: + x185 + x456 <= 1
C1573: + x42 + x451 <= 1
C1574: + x7 + x235 <= 1
C1575: + x46 + x273 <= 1
C1576: + x13 + x19 <= 1
C1577: + x296 + x479 <= 1
C1578: + x82 + x410 <= 1
C1579: + x128 + x259 <= 1
C1580: + x76 + x281 <= 1
C1581: + x58 + x246 <= 1
C1582: + x342 + x467 <= 1
C1583: + x6 + x126 <= 1
C1584: + x10 + x123 <= 1
C1585: + x24 + x210 <= 1
C1586: + x259 + x290 <= 1
C1587: + x7 + x21 <= 1
C1588: + x49 + x283 <= 1
C1589: + x10 + x39 <= 1
C1590: + x112 + x210 <= 1
C1591: + x5 + x392 <= 1
C1592: + x189 + x229 <= 1
C1593: + x9 + x14 <= 1
C1594: + x52 + x83 <= 1
C1595: + x55 + x174 <= 1
C1596: + x93 + x428 <= 1
C1597: + x30 + x95 <= 1
C1598: + x70 + x168 <= 1
C1599: + x1 + x234 <= 1
C1600: + x20 + x74 <= 1
C1601: + x8 + x206 <= 1
C1602: + x274 + x479 <= 1
C1603: + x5 + x14 <= 1
C1604: + x44 + x91 <= 1
C1605: + x11 + x213 <= 1
C1606: + x242 + x440 <= 1
C1607: + x13 + x395 <= 1
C1608: + x7 + x16 <= 1
C1609: + x47 + x151 <= 1
C1610: + x122 + x395 <= 1
C1611: + x366 + x439 <= 1
C1612: + x41 + x399 <= 1
C1613: + x40 + x495 <= 1
C1614: + x10 + x48 <= 1
C1615: + x22 + x24 <= 1
C1616: + x107 + x244 <= 1
C1617: + x24 + x163 <= 1
C1618: + x298 + x413 <= 1
C1619: + x82 + x480 <= 1
C1620: + x147 + x497 <= 1
C1621: + x159 + x358 <= 1
C1622: + x90 + x432 <= 1
C1623: + x96 + x355 <= 1
C1624: + x44 + x182 <= 1
C1625: + x138 + x244 <= 1
C1626: + x50 + x82 <= 1
C1627: + x5 + x193 <= 1
C1628: + x82 + x361 <= 1
C1629: + x142 + x341 <= 1
C1630: + x16 + x247 <= 1
C1631: + x148 + x372 <= 1
C1632: + x233 + x437 <= 1
C1633: + x189 + x405 <= 1
C1634: + x110 + x137 <= 1
C1635: + x3 + x144 <= 1
C1636: + x31 + x122 <= 1
C1637: + x13 + x152 <= 1
C1638: + x23 + x75 <= 1
C1639: + x44 + x84 <= 1
C1640: + x41 + x132 <= 1
C1641: + x160 + x307 <= 1
C1642: + x92 + x409 <= 1
C1643: + x130 + x305 <= 1
C1644: + x20 + x466 <= 1
C1645: + x30 + x491 <= 1
C1646: + x131 + x236 <= 1
C1647: + x112 + x385 <= 1
C1648: + x17 + x413 <= 1
C1649: + x98 + x101 <= 1
C1650: + x6 + x20 <= 1
C1651: + x5 + x156 <= 1
C1652: + x24 + x426 <= 1
C1653: + x21 + x167 <= 1
C1654: + x30 + x142 <= 1
C1655: + x5 + x57 <= 1
C1656: + x9 + x60 <= 1
C1657: + x1 + x73 <= 1
C1658: + x41 + x208 <= 1
C1659: + x24 + x31 <= 1
C1660: + x57 + x296 <= 1
C1661: + x3 + x115 <= 1
C1662: + x7 + x224 <= 1
C1663: + x17 + x187 <= 1
C1664: + x16 + x19 <= 1
C1665: + x82 + x397 <= 1
C1666: + x165 + x310 <= 1
C1667: + x263 + x279 <= 1
C1668: + x350 + x475 <= 1
C1669: + x28 + x417 <= 1
C1670: + x200 + x437 <= 1
C1671: + x57 + x372 <= 1
C1672: + x30 + x371 <= 1
C1673: + x142 + x495 <= 1
C1674: + x7 + x349 <= 1
C1675: + x5 + x494 <= 1
C1676: + x9 + x12 + x30 <= 1
C1677: + x46 + x83 <= 1
C1678: + x138 + x383 <= 1
C1679: + x3 + x58 <= 1
C1680: + x12 + x406 <= 1
C1681: + x42 + x115 <= 1
C1682: + x24 + x71 <= 1
C1683: + x108 + x242 <= 1
C1684: + x8 + x27 <= 1
C1685: + x49 + x74 <= 1
C1686: + x92 + x430 <= 1
C1687: + x37 + x46 <= 1
C1688: + x272 + x460 <= 1
C1689: + x113 + x444 <= 1
C1690: + x5 + x183 <= 1
C1691: + x39 + x48 <= 1
C1692: + x451 + x453 <= 1
C1693: + x32 + x235 <= 1
C1694: + x222 + x411 <= 1
C1695: + x5 + x108 <= 1
C1696: + x16 + x28 <= 1
C1697: + x110 + x397 <= 1
C1698: + x100 + x395 <= 1
C1699: + x318 + x352 <= 1
C1700: + x249 + x390 <= 1
C1701: + x136 + x264 <= 1
C1702: + x64 + x304 <= 1
C1703: + x95 + x215 <= 1
C1704: + x169 + x170 <= 1
C1705: + x14 + x18 <= 1
C1706: + x41 + x469 <= 1
C1707: + x44 + x66 <= 1
C1708: + x1 + x11 <= 1
C1709: + x8 + x96 <= 1
C1710: + x28 + x140 <= 1
C1711: + x242 + x347 <= 1
C1712: + x115 + x169 <= 1
C1713: + x4 + x475 <= 1
C1714: + x11 + x194 <= 1
C1715: + x131 + x254 <= 1
C1716: + x18 + x285 <= 1
C1717: + x280 + x477 <= 1
C1718: + x11 + x81 <= 1
C1719: + x84 + x200 <= 1
C1720: + x301 + x379 <= 1
C1721: + x8 + x20 <= 1
C1722: + x1 + x71 <= 1
C1723: + x30 + x35 <= 1
C1724: + x34 + x40 <= 1
C1725: + x168 + x306 <= 1
C1726: + x75 + x228 <= 1
C1727: + x177 + x264 <= 1
C1728: + x79 + x93 <= 1
C1729: + x7 + x202 <= 1
C1730: + x15 + x157 <= 1
C1731: + x10 + x15 <= 1
C1732: + x39 + x132 <= 1
C1733: + x412 + x424 <= 1
C1734: + x13 + x480 <= 1
C1735: + x499 + x500 <= 1
C1736: + x7 + x89 <= 1
C1737: + x208 + x328 <= 1
C1738: + x46 + x52 <= 1
C1739: + x155 + x370 <= 1
C1740: + x13 + x189 <= 1
C1741: + x23 + x96 <= 1
C1742: + x6 + x254 <= 1
C1743: + x59 + x463 <= 1
C1744: + x4 + x13 <= 1
C1745: + x169 + x387 <= 1
C1746: + x5 + x468 <= 1
C1747: + x30 + x232 <= 1
C1748: + x141 + x482 <= 1
C1749: + x72 + x188 <= 1
C1750: + x2 + x465 <= 1
C1751: + x67 + x204 <= 1
C1752: + x68 + x236 <= 1
C1753: + x3 + x12 <= 1
C1754: + x6 + x15 <= 1
C1755: + x137 + x265 <= 1
C1756: + x46 + x435 <= 1
C1757: + x58 + x66 <= 1
C1758: + x39 + x110 <= 1
C1759: + x194 + x298 <= 1
C1760: + x5 + x22 <= 1
C1761: + x264 + x384 <= 1
C1762: + x171 + x318 <= 1
C1763: + x135 + x336 <= 1
C1764: + x232 + x405 <= 1
C1765: + x251 + x441 <= 1
C1766: + x7 + x40 <= 1
C1767: + x46 + x121 <= 1
C1768: + x364 + x452 <= 1
C1769: + x109 + x212 <= 1
C1770: + x218 + x461 <= 1
C1771: + x64 + x461 <= 1
C1772: + x13 + x37 <= 1
C1773: + x115 + x231 <= 1
C1774: + x34 + x170 <= 1
C1775: + x22 + x256 <= 1
C1776: + x13 + x471 <= 1
C1777: + x81 + x141 <= 1
C1778: + x271 + x332 <= 1
C1779: + x75 + x223 <= 1
C1780: + x197 + x425 <= 1
C1781: + x216 + x413 <= 1
C1782: + x8 + x78 <= 1
C1783: + x136 + x409 <= 1
C1784: + x201 + x222 <= 1
C1785: + x15 + x35 <= 1
C1786: + x90 + x100 <= 1
C1787: + x216 + x270 <= 1
C1788: + x28 + x55 <= 1
C1789: + x229 + x321 <= 1
C1790: + x264 + x373 <= 1
C1791: + x5 + x29 <= 1
C1792: + x108 + x300 <= 1
C1793: + x247 + x476 <= 1
C1794: + x3 + x5 + x7 + x8 <= 1
C1795: + x124 + x269 <= 1
C1796: + x388 + x415 <= 1
C1797: + x7 + x31 <= 1
C1798: + x10 + x267 <= 1
C1799: + x28 + x369 <= 1
C1800: + x85 + x392 <= 1
C1801: + x78 + x254 <= 1
C1802: + x9 + x274 <= 1
C1803: + x16 + x212 <= 1
C1804: + x384 + x449 <= 1
C1805: + x43 + x323 <= 1
C1806: + x87 + x484 <= 1
C1807: + x188 + x225 <= 1
C1808: + x66 + x87 <= 1
C1809: + x43 + x49 <= 1
C1810: + x190 + x320 <= 1
C1811: + x40 + x52 <= 1
C1812: + x215 + x298 <= 1
C1813: + x8 + x75 <= 1
C1814: + x66 + x456 <= 1
C1815: + x222 + x442 <= 1
C1816: + x12 + x144 <= 1
C1817: + x116 + x226 <= 1
C1818: + x5 + x450 <= 1
C1819: + x151 + x289 <= 1
C1820: + x6 + x478 <= 1
C1821: + x286 + x293 <= 1
C1822: + x20 + x499 <= 1
C1823: + x164 + x184 <= 1
C1824: + x84 + x219 <= 1
C1825: + x5 + x28 <= 1
C1826: + x198 + x340 <= 1
C1827: + x82 + x310 <= 1
C1828: + x10 + x209 <= 1
C1829: + x20 + x173 <= 1
C1830: + x195 + x205 <= 1
C1831: + x13 + x76 <= 1
C1832: + x33 + x288 <= 1
C1833: + x40 + x203 <= 1
C1834: + x73 + x124 <= 1
C1835: + x93 + x314 <= 1
C1836: + x11 + x388 <= 1
C1837: + x30 + x284 <= 1
C1838: + x60 + x161 <= 1
C1839: + x51 + x120 <= 1
C1840: + x18 + x308 <= 1
C1841: + x165 + x244 <= 1
C1842: + x194 + x376 <= 1
C1843: + x166 + x204 <= 1
C1844: + x9 + x11 <= 1
C1845: + x111 + x263 <= 1
C1846: + x294 + x378 <= 1
C1847: + x59 + x166 <= 1
C1848: + x41 + x276 <= 1
C1849: + x61 + x130 <= 1
C1850: + x50 + x249 <= 1
C1851: + x37 + x451 <= 1
C1852: + x112 + x326 <= 1
C1853: + x15 + x190 <= 1
C1854: + x36 + x454 <= 1
C1855: + x24 + x339 <= 1
C1856: + x8 + x68 <= 1
C1857: + x21 + x218 <= 1
C1858: + x42 + x354 <= 1
C1859: + x5 + x116 <= 1
C1860: + x70 + x76 <= 1
C1861: + x200 + x295 <= 1
C1862: + x328 + x494 <= 1
C1863: + x3 + x428 <= 1
C1864: + x16 + x423 <= 1
C1865: + x30 + x356 <= 1
C1866: + x370 + x411 <= 1
C1867: + x24 + x238 <= 1
C1868: + x7 + x368 <= 1
C1869: + x17 + x217 <= 1
C1870: + x309 + x431 <= 1
C1871: + x47 + x55 <= 1
C1872: + x29 + x153 <= 1
C1873: + x93 + x404 <= 1
C1874: + x106 + x417 <= 1
C1875: + x3 + x347 <= 1
C1876: + x98 + x260 <= 1
C1877: + x7 + x9 <= 1
C1878: + x100 + x484 <= 1
C1879: + x49 + x287 <= 1
C1880: + x22 + x440 <= 1
C1881: + x15 + x121 <= 1
C1882: + x76 + x123 <= 1
C1883: + x89 + x408 <= 1
C1884: + x37 + x224 <= 1
C1885: + x41 + x198 <= 1
C1886: + x131 + x133 <= 1
C1887: + x25 + x117 <= 1
C1888: + x32 + x418 <= 1
C1889: + x7 + x69 <= 1
C1890: + x55 + x67 <= 1
C1891: + x75 + x319 <= 1
C1892: + x21 + x260 <= 1
C1893: + x5 + x198 <= 1
C1894: + x82 + x364 <= 1
C1895: + x10 + x23 <= 1
C1896: + x112 + x162 <= 1
C1897: + x21 + x225 <= 1
C1898: + x114 + x256 <= 1
C1899: + x225 + x402 <= 1
C1900: + x197 + x315 <= 1
C1901: + x32 + x311 <= 1
C1902: + x66 + x125 <= 1
C1903: + x90 + x119 <= 1
C1904: + x81 + x174 <= 1
C1905: + x263 + x454 <= 1
C1906: + x157 + x243 <= 1
C1907: + x77 + x144 <= 1
C1908: + x22 + x80 <= 1
C1909: + x5 + x10 <= 1
C1910: + x6 + x134 <= 1
C1911: + x3 + x342 <= 1
C1912: + x77 + x493 <= 1
C1913: + x195 + x223 <= 1
C1914: + x13 + x391 <= 1
C1915: + x24 + x74 <= 1
C1916: + x9 + x426 <= 1
C1917: + x215 + x359 <= 1
C1918: + x338 + x433 <= 1
C1919: + x92 + x291 <= 1
C1920: + x1 + x356 <= 1
C1921: + x3 + x197 <= 1
C1922: + x203 + x445 <= 1
C1923: + x51 + x459 <= 1
C1924: + x5 + x62 <= 1
C1925: + x5 + x395 <= 1
C1926: + x9 + x57 <= 1
C1927: + x8 + x33 <= 1
C1928: + x300 + x421 <= 1
C1929: + x38 + x209 <= 1
C1930: + x12 + x38 <= 1
C1931: + x35 + x159 <= 1
C1932: + x7 + x64 <= 1
C1933: + x338 + x450 <= 1
C1934: + x73 + x86 <= 1
C1935: + x138 + x248 <= 1
C1936: + x53 + x245 <= 1
C1937: + x51 + x94 <= 1
C1938: + x13 + x61 <= 1
C1939: + x104 + x126 <= 1
C1940: + x14 + x139 <= 1
C1941: + x17 + x72 <= 1
C1942: + x328 + x484 <= 1
C1943: + x8 + x199 <= 1
C1944: + x162 + x294 <= 1
C1945: + x3 + x301 <= 1
C1946: + x148 + x324 <= 1
C1947: + x13 + x446 <= 1
C1948: + x5 + x483 <= 1
C1949: + x53 + x176 <= 1
C1950: + x54 + x147 <= 1
C1951: + x311 + x374 <= 1

binary
x1 x2 x3 x4 x5 x6 x7 x8 x9 x10 x11 x12 x13 x14 x15 x16 x17 x18 x19 x20 x21 x22 x23 x24 x25 x26 x27 x28 x29 x30 x31 x32 x33 x34 x35 x36 x37 x38 x39 x40 x41 x42 x43 x44 x45 x46 x47 x48 x49 x50 x51 x52 x53 x54 x55 x56 x57 x58 x59 x60 x61 x62 x63 x64 x65 x66 x67 x68 x69 x70 x71 x72 x73 x74 x75 x76 x77 x78 x79 x80 x81 x82 x83 x84 x85 x86 x87 x88 x89 x90 x91 x92 x93 x94 x95 x96 x97 x98 x99 x100 x101 x102 x103 x104 x105 x106 x107 x108 x109 x110 x111 x112 x113 x114 x115 x116 x117 x118 x119 x120 x121 x122 x123 x124 x125 x126 x127 x128 x129 x130 x131 x132 x133 x134 x135 x136 x137 x138 x139 x140 x141 x142 x143 x144 x145 x146 x147 x148 x149 x150 x151 x152 x153 x154 x155 x156 x157 x158 x159 x160 x161 x162 x163 x164 x165 x166 x167 x168 x169 x170 x171 x172 x173 x174 x175 x176 x177 x178 x179 x180 x181 x182 x183 x184 x185 x186 x187 x188 x189 x190 x191 x192 x193 x194 x195 x196 x197 x198 x199 x200 x201 x202 x203 x204 x205 x206 x207 x208 x209 x210 x211 x212 x213 x214 x215 x216 x217 x218 x219 x220 x221 x222 x223 x224 x225 x226 x227 x228 x229 x230 x231 x232 x233 x234 x235 x236 x237 x238 x239 x240 x241 x242 x243 x244 x245 x246 x247 x248 x249 x250 x251 x252 x253 x254 x255 x256 x257 x258 x259 x260 x261 x262 x263 x264 x265 x266 x267 x268 x269 x270 x271 x272 x273 x274 x275 x276 x277 x278 x279 x280 x281 x282 x283 x284 x285 x286 x287 x288 x289 x290 x291 x292 x293 x294 x295 x296 x297 x298 x299 x300 x301 x302 x303 x304 x305 x306 x307 x308 x309 x310 x311 x312 x313 x314 x315 x316 x317 x318 x319 x320 x321 x322 x323 x324 x325 x326 x327 x328 x329 x330 x331 x332 x333 x334 x335 x336 x337 x338 x339 x340 x341 x342 x343 x344 x345 x346 x347 x348 x349 x350 x351 x352 x353 x354 x355 x356 x357 x358 x359 x360 x361 x362 x363 x364 x365 x366 x367 x368 x369 x370 x371 x372 x373 x374 x375 x376 x377 x378 x379 x380 x381 x382 x383 x384 x385 x386 x387 x388 x389 x390 x391 x392 x393 x394 x395 x396 x397 x398 x399 x400 x401 x402 x403 x404 x405 x406 x407 x408 x409 x410 x411 x412 x413 x414 x415 x416 x417 x418 x419 x420 x421 x422 x423 x424 x425 x426 x427 x428 x429 x430 x431 x432 x433 x434 x435 x436 x437 x438 x439 x440 x441 x442 x443 x444 x445 x446 x447 x448 x449 x450 x451 x452 x453 x454 x455 x456 x457 x458 x459 x460 x461 x462 x463 x464 x465 x466 x467 x468 x469 x470 x471 x472 x473 x474 x475 x476 x477 x478 x479 x480 x481 x482 x483 x484 x485 x486 x487 x488 x489 x490 x491 x492 x493 x494 x495 x496 x497 x498 x499 x500
