maximize
OBJ: + 1 x1 + 1 x2 + 1 x3 + 1 x4 + 1 x5 + 1 x6 + 1 x7 + 1 x8 + 1 x9 + 1 x10 + 1 x11 + 1 x12 + 1 x13 + 1 x14 + 1 x15 + 1 x16 + 1 x17 + 1 x18 + 1 x19 + 1 x20 + 1 x21 + 1 x22 + 1 x23 + 1 x24 + 1 x25 + 1 x26 + 1 x27 + 1 x28 + 1 x29 + 1 x30 + 1 x31 + 1 x32 + 1 x33 + 1 x34 + 1 x35 + 1 x36 + 1 x37 + 1 x38 + 1 x39 + 1 x40 + 1 x41 + 1 x42 + 1 x43 + 1 x44 + 1 x45 + 1 x46 + 1 x47 + 1 x48 + 1 x49 + 1 x50 + 1 x51 + 1 x52 + 1 x53 + 1 x54 + 1 x55 + 1 x56 + 1 x57 + 1 x58 + 1 x59 + 1 x60 + 1 x61 + 1 x62 + 1 x63 + 1 x64 + 1 x65 + 1 x66 + 1 x67 + 1 x68 + 1 x69 + 1 x70 + 1 x71 + 1 x72 + 1 x73 + 1 x74 + 1 x75 + 1 x76 + 1 x77 + 1 x78 + 1 x79 + 1 x80 + 1 x81 + 1 x82 + 1 x83 + 1 x84 + 1 x85 + 1 x86 + 1 x87 + 1 x88 + 1 x89 + 1 x90 + 1 x91 + 1 x92 + 1 x93 + 1 x94 + 1 x95 + 1 x96 + 1 x97 + 1 x98 + 1 x99 + 1 x100 + 1 x101 + 1 x102 + 1 x103 + 1 x104 + 1 x105 + 1 x106 + 1 x107 + 1 x108 + 1 x109 + 1 x110 + 1 x111 + 1 x112 + 1 x113 + 1 x114 + 1 x115 + 1 x116 + 1 x117 + 1 x118 + 1 x119 + 1 x120 + 1 x121 + 1 x122 + 1 x123 + 1 x124 + 1 x125 + 1 x126 + 1 x127 + 1 x128 + 1 x129 + 1 x130 + 1 x131 + 1 x132 + 1 x133 + 1 x134 + 1 x135 + 1 x136 + 1 x137 + 1 x138 + 1 x139 + 1 x140 + 1 x141 + 1 x142 + 1 x143 + 1 x144 + 1 x145 + 1 x146 + 1 x147 + 1 x148 + 1 x149 + 1 x150 + 1 x151 + 1 x152 + 1 x153 + 1 x154 + 1 x155 + 1 x156 + 1 x157 + 1 x158 + 1 x159 + 1 x160 + 1 x161 + 1 x162 + 1 x163 + 1 x164 + 1 x165 + 1 x166 + 1 x167 + 1 x168 + 1 x169 + 1 x170 + 1 x171 + 1 x172 + 1 x173 + 1 x174 + 1 x175 + 1 x176 + 1 x177 + 1 x178 + 1 x179 + 1 x180 + 1 x181 + 1 x182 + 1 x183 + 1 x184 + 1 x185 + 1 x186 + 1 x187 + 1 x188 + 1 x189 + 1 x190 + 1 x191 + 1 x192 + 1 x193 + 1 x194 + 1 x195 + 1 x196 + 1 x197 + 1 x198 + 1 x199 + 1 x200 + 1 x201 + 1 x202 + 1 x203 + 1 x204 + 1 x205 + 1 x206 + 1 x207 + 1 x208 + 1 x209 + 1 x210 + 1 x211 + 1 x212 + 1 x213 + 1 x214 + 1 x215 + 1 x216 + 1 x217 + 1 x218 + 1 x219 + 1 x220 + 1 x221 + 1 x222 + 1 x223 + 1 x224 + 1 x225 + 1 x226 + 1 x227 + 1 x228 + 1 x229 + 1 x230 + 1 x231 + 1 x232 + 1 x233 + 1 x234 + 1 x235 + 1 x236 + 1 x237 + 1 x238 + 1 x239 + 1 x240 + 1 x241 + 1 x242 + 1 x243 + 1 x244 + 1 x245 + 1 x246 + 1 x247 + 1 x248 + 1 x249 + 1 x250 + 1 x251 + 1 x252 + 1 x253 + 1 x254 + 1 x255 + 1 x256 + 1 x257 + 1 x258 + 1 x259 + 1 x260 + 1 x261 + 1 x262 + 1 x263 + 1 x264 + 1 x265 + 1 x266 + 1 x267 + 1 x268 + 1 x269 + 1 x270 + 1 x271 + 1 x272 + 1 x273 + 1 x274 + 1 x275 + 1 x276 + 1 x277 + 1 x278 + 1 x279 + 1 x280 + 1 x281 + 1 x282 + 1 x283 + 1 x284 + 1 x285 + 1 x286 + 1 x287 + 1 x288 + 1 x289 + 1 x290 + 1 x291 + 1 x292 + 1 x293 + 1 x294 + 1 x295 + 1 x296 + 1 x297 + 1 x298 + 1 x299 + 1 x300 + 1 x301 + 1 x302 + 1 x303 + 1 x304 + 1 x305 + 1 x306 + 1 x307 + 1 x308 + 1 x309 + 1 x310 + 1 x311 + 1 x312 + 1 x313 + 1 x314 + 1 x315 + 1 x316 + 1 x317 + 1 x318 + 1 x319 + 1 x320 + 1 x321 + 1 x322 + 1 x323 + 1 x324 + 1 x325 + 1 x326 + 1 x327 + 1 x328 + 1 x329 + 1 x330 + 1 x331 + 1 x332 + 1 x333 + 1 x334 + 1 x335 + 1 x336 + 1 x337 + 1 x338 + 1 x339 + 1 x340 + 1 x341 + 1 x342 + 1 x343 + 1 x344 + 1 x345 + 1 x346 + 1 x347 + 1 x348 + 1 x349 + 1 x350 + 1 x351 + 1 x352 + 1 x353 + 1 x354 + 1 x355 + 1 x356 + 1 x357 + 1 x358 + 1 x359 + 1 x360 + 1 x361 + 1 x362 + 1 x363 + 1 x364 + 1 x365 + 1 x366 + 1 x367 + 1 x368 + 1 x369 + 1 x370 + 1 x371 + 1 x372 + 1 x373 + 1 x374 + 1 x375 + 1 x376 + 1 x377 + 1 x378 + 1 x379 + 1 x380 + 1 x381 + 1 x382 + 1 x383 + 1 x384 + 1 x385 + 1 x386 + 1 x387 + 1 x388 + 1 x389 + 1 x390 + 1 x391 + 1 x392 + 1 x393 + 1 x394 + 1 x395 + 1 x396 + 1 x397 + 1 x398 + 1 x399 + 1 x400 + 1 x401 + 1 x402 + 1 x403 + 1 x404 + 1 x405 + 1 x406 + 1 x407 + 1 x408 + 1 x409 + 1 x410 + 1 x411 + 1 x412 + 1 x413 + 1 x414 + 1 x415 + 1 x416 + 1 x417 + 1 x418 + 1 x419 + 1 x420 + 1 x421 + 1 x422 + 1 x423 + 1 x424 + 1 x425 + 1 x426 + 1 x427 + 1 x428 + 1 x429 + 1 x430 + 1 x431 + 1 x432 + 1 x433 + 1 x434 + 1 x435 + 1 x436 + 1 x437 + 1 x438 + 1 x439 + 1 x440 + 1 x441 + 1 x442 + 1 x443 + 1 x444 + 1 x445 + 1 x446 + 1 x447 + 1 x448 + 1 x449 + 1 x450 + 1 x451 + 1 x452 + 1 x453 + 1 x454 + 1 x455 + 1 x456 + 1 x457 + 1 x458 + 1 x459 + 1 x460 + 1 x461 + 1 x462 + 1 x463 + 1 x464 + 1 x465 + 1 x466 + 1 x467 + 1 x468 + 1 x469 + 1 x470 + 1 x471 + 1 x472 + 1 x473 + 1 x474 + 1 x475 + 1 x476 + 1 x477 + 1 x478 + 1 x479 + 1 x480 + 1 x481 + 1 x482 + 1 x483 + 1 x484 + 1 x485 + 1 x486 + 1 x487 + 1 x488 + 1 x489 + 1 x490 + 1 x491 + 1 x492 + 1 x493 + 1 x494 + 1 x495 + 1 x496 + 1 x497 + 1 x498 + 1 x499 + 1 x500

subject to
C1: + x114 + x467 <= 1
C2: + x70 + x261 <= 1
C3: + x12 + x256 <= 1
C4: + x31 + x42 <= 1
C5: + x15 + x232 <= 1
C6: + x6 + x270 <= 1
C7: + x134 + x345 <= 1
C8: + x8 + x26 <= 1
C9: + x1 + x77 <= 1
C10: + x3 + x353 <= 1
C11: + x30 + x45 <= 1
C12: + x104 + x433 <= 1
C13: + x52 + x196 <= 1
C14: + x17 + x48 <= 1
C15: + x116 + x388 <= 1
C16: + x74 + x83 <= 1
C17: + x7 + x55 <= 1
C18: + x10 + x275 <= 1
C19: + x101 + x470 <= 1
C20: + x11 + x481 <= 1
C21: + x5 + x204 <= 1
C22: + x53 + x401 <= 1
C23: + x7 + x293 <= 1
C24: + x10 + x356 <= 1
C25: + x130 + x370 <= 1
C26: + x396 + x440 <= 1
C27: + x14 + x53 + x84 <= 1
C28: + x7 + x99 <= 1
C29: + x195 + x400 <= 1
C30: + x48 + x485 <= 1
C31: + x23 + x66 <= 1
C32: + x18 + x210 <= 1
C33: + x7 + x337 <= 1
C34: + x308 + x423 <= 1
C35: + x11 + x424 <= 1
C36: + x47 + x165 <= 1
C37: + x485 + x499 <= 1
C38: + x4 + x373 <= 1
C39: + x5 + x143 <= 1
C40: + x103 + x227 <= 1
C41: + x131 + x388 <= 1
C42: + x86 + x299 <= 1
C43: + x6 + x188 <= 1
C44: + x44 + x121 <= 1
C45: + x227 + x313 <= 1
C46: + x1 + x68 <= 1
C47: + x64 + x118 <= 1
C48: + x30 + x38 <= 1
C49: + x196 + x326 <= 1
C50: + x22 + x308 <= 1
C51: + x44 + x168 <= 1
C52: + x334 + x450 <= 1
C53: + x11 + x492 <= 1
C54: + x55 + x409 <= 1
C55: + x11 + x37 <= 1
C56: + x103 + x126 <= 1
C57: + x5 + x179 <= 1
C58: + x14 + x90 <= 1
C59: + x154 + x212 <= 1
C60: + x15 + x154 <= 1
C61: + x159 + x245 <= 1
C62: + x48 + x125 <= 1
C63: + x125 + x304 <= 1
C64: + x324 + x426 <= 1
C65: + x19 + x330 <= 1
C66: + x46 + x148 <= 1
C67: + x204 + x208 <= 1
C68: + x21 + x400 <= 1
C69: + x103 + x444 <= 1
C70: + x12 + x16 <= 1
C71: + x1 + x317 <= 1
C72: + x400 + x429 <= 1
C73: + x5 + x231 <= 1
C74: + x11 + x206 <= 1
C75: + x48 + x65 <= 1
C76: + x116 + x326 <= 1
C77: + x5 + x465 <= 1
C78: + x210 + x249 <= 1
C79: + x247 + x339 <= 1
C80: + x20 + x45 <= 1
C81: + x3 + x13 <= 1
C82: + x33 + x69 <= 1
C83: + x181 + x272 <= 1
C84: + x250 + x253 <= 1
C85: + x25 + x383 <= 1
C86: + x308 + x477 <= 1
C87: + x1 + x91 <= 1
C88: + x12 + x73 <= 1
C89: + x124 + x208 <= 1
C90: + x285 + x382 <= 1
C91: + x159 + x323 <= 1
C92: + x25 + x81 <= 1
C93: + x44 + x157 <= 1
C94: + x74 + x93 <= 1
C95: + x399 + x494 <= 1
C96: + x7 + x33 <= 1
C97: + x20 + x432 <= 1
C98: + x150 + x376 <= 1
C99: + x46 + x455 <= 1
C100: + x35 + x269 <= 1
C101: + x7 + x206 <= 1
C102: + x62 + x484 <= 1
C103: + x8 + x157 <= 1
C104: + x233 + x369 <= 1
C105: + x13 + x42 <= 1
C106: + x4 + x69 <= 1
C107: + x17 + x173 <= 1
C108: + x81 + x493 <= 1
C109: + x1 + x407 <= 1
C110: + x3 + x391 <= 1
C111: + x39 + x136 <= 1
C112: + x41 + x291 <= 1
C113: + x42 + x181 <= 1
C114: + x5 + x329 <= 1
C115: + x79 + x212 <= 1
C116: + x4 + x439 <= 1
C117: + x49 + x177 <= 1
C118: + x107 + x395 <= 1
C119: + x127 + x309 <= 1
C120: + x31 + x87 <= 1
C121: + x32 + x109 <= 1
C122: + x1 + x6 <= 1
C123: + x383 + x433 <= 1
C124: + x11 + x426 <= 1
C125: + x58 + x235 <= 1
C126: + x275 + x344 <= 1
C127: + x124 + x411 <= 1
C128: + x342 + x464 <= 1
C129: + x20 + x489 <= 1
C130: + x5 + x381 <= 1
C131: + x7 + x137 <= 1
C132: + x92 + x246 <= 1
C133: + x11 + x72 <= 1
C134: + x39 + x98 <= 1
C135: + x5 + x260 <= 1
C136: + x35 + x163 <= 1
C137: + x134 + x215 <= 1
C138: + x57 + x140 <= 1
C139: + x13 + x324 <= 1
C140: + x6 + x63 <= 1
C141: + x18 + x137 <= 1
C142: + x55 + x312 <= 1
C143: + x39 + x94 <= 1
C144: + x214 + x316 <= 1
C145: + x20 + x111 <= 1
C146: + x148 + x495 <= 1
C147: + x179 + x414 <= 1
C148: + x32 + x439 <= 1
C149: + x84 + x142 <= 1
C150: + x78 + x309 <= 1
C151: + x23 + x107 <= 1
C152: + x94 + x370 <= 1
C153: + x41 + x100 <= 1
C154: + x192 + x204 <= 1
C155: + x73 + x397 <= 1
C156: + x320 + x431 <= 1
C157: + x20 + x498 <= 1
C158: + x196 + x428 <= 1
C159: + x89 + x368 <= 1
C160: + x23 + x454 <= 1
C161: + x11 + x79 <= 1
C162: + x20 + x333 <= 1
C163: + x69 + x260 <= 1
C164: + x171 + x216 <= 1
C165: + x62 + x389 <= 1
C166: + x73 + x284 <= 1
C167: + x102 + x355 <= 1
C168: + x1 + x41 <= 1
C169: + x30 + x49 <= 1
C170: + x123 + x218 <= 1
C171: + x89 + x287 <= 1
C172: + x24 + x63 <= 1
C173: + x30 + x287 <= 1
C174: + x53 + x373 <= 1
C175: + x7 + x192 <= 1
C176: + x225 + x332 <= 1
C177: + x93 + x430 <= 1
C178: + x5 + x319 <= 1
C179: + x420 + x474 <= 1
C180: + x86 + x350 <= 1
C181: + x10 + x332 <= 1
C182: + x8 + x486 <= 1
C183: + x110 + x424 <= 1
C184: + x55 + x232 <= 1
C185: + x30 + x452 <= 1
C186: + x69 + x214 <= 1
C187: + x275 + x330 <= 1
C188: + x56 + x347 <= 1
C189: + x79 + x234 <= 1
C190: + x10 + x122 <= 1
C191: + x8 + x216 <= 1
C192: + x85 + x209 <= 1
C193: + x46 + x417 <= 1
C194: + x58 + x88 <= 1
C195: + x266 + x456 <= 1
C196: + x28 + x175 <= 1
C197: + x74 + x405 <= 1
C198: + x94 + x287 <= 1
C199: + x214 + x349 <= 1
C200: + x6 + x33 <= 1
C201: + x137 + x359 <= 1
C202: + x312 + x377 <= 1
C203: + x14 + x364 <= 1
C204: + x5 + x385 <= 1
C205: + x8 + x47 <= 1
C206: + x20 + x125 <= 1
C207: + x41 + x280 <= 1
C208: + x177 + x448 <= 1
C209: + x98 + x475 <= 1
C210: + x13 + x449 <= 1
C211: + x74 + x164 <= 1
C212: + x23 + x101 <= 1
C213: + x6 + x213 <= 1
C214: + x28 + x108 <= 1
C215: + x41 + x82 <= 1
C216: + x25 + x225 <= 1
C217: + x6 + x451 <= 1
C218: + x27 + x141 <= 1
C219: + x84 + x470 <= 1
C220: + x47 + x381 <= 1
C221: + x56 + x340 <= 1
C222: + x415 + x481 <= 1
C223: + x137 + x237 <= 1
C224: + x229 + x371 <= 1
C225: + x5 + x15 <= 1
C226: + x6 + x153 <= 1
C227: + x116 + x156 <= 1
C228: + x287 + x457 <= 1
C229: + x83 + x433 <= 1
C230: + x108 + x215 <= 1
C231: + x201 + x351 <= 1
C232: + x23 + x36 <= 1
C233: + x14 + x119 <= 1
C234: + x355 + x414 <= 1
C235: + x208 + x439 <= 1
C236: + x173 + x194 <= 1
C237: + x101 + x234 <= 1
C238: + x269 + x438 <= 1
C239: + x5 + x51 <= 1
C240: + x16 + x65 <= 1
C241: + x21 + x126 <= 1
C242: + x12 + x33 <= 1
C243: + x5 + x301 <= 1
C244: + x45 + x319 <= 1
C245: + x23 + x128 <= 1
C246: + x5 + x194 <= 1
C247: + x192 + x231 <= 1
C248: + x5 + x103 <= 1
C249: + x71 + x268 <= 1
C250: + x164 + x440 <= 1
C251: + x88 + x149 <= 1
C252: + x11 + x124 <= 1
C253: + x29 + x335 <= 1
C254: + x39 + x103 + x422 <= 1
C255: + x6 + x130 <= 1
C256: + x7 + x347 <= 1
C257: + x8 + x105 <= 1
C258: + x28 + x189 <= 1
C259: + x72 + x297 <= 1
C260: + x93 + x103 <= 1
C261: + x74 + x391 <= 1
C262: + x107 + x294 <= 1
C263: + x127 + x368 <= 1
C264: + x84 + x295 <= 1
C265: + x58 + x288 <= 1
C266: + x122 + x403 <= 1
C267: + x6 + x19 <= 1
C268: + x79 + x136 <= 1
C269: + x28 + x487 <= 1
C270: + x164 + x351 <= 1
C271: + x19 + x434 <= 1
C272: + x20 + x304 <= 1
C273: + x185 + x367 <= 1
C274: + x5 + x58 <= 1
C275: + x81 + x123 <= 1
C276: + x188 + x325 <= 1
C277: + x11 + x257 <= 1
C278: + x105 + x113 <= 1
C279: + x41 + x262 <= 1
C280: + x105 + x454 <= 1
C281: + x247 + x282 <= 1
C282: + x11 + x486 <= 1
C283: + x216 + x445 <= 1
C284: + x8 + x174 <= 1
C285: + x148 + x380 <= 1
C286: + x4 + x86 <= 1
C287: + x75 + x437 <= 1
C288: + x166 + x385 <= 1
C289: + x12 + x22 <= 1
C290: + x172 + x429 <= 1
C291: + x10 + x109 <= 1
C292: + x23 + x67 <= 1
C293: + x209 + x454 <= 1
C294: + x280 + x338 <= 1
C295: + x55 + x380 <= 1
C296: + x22 + x184 <= 1
C297: + x5 + x495 <= 1
C298: + x204 + x341 <= 1
C299: + x21 + x458 <= 1
C300: + x6 + x28 <= 1
C301: + x110 + x362 <= 1
C302: + x158 + x262 <= 1
C303: + x184 + x200 <= 1
C304: + x6 + x191 <= 1
C305: + x113 + x139 <= 1
C306: + x153 + x444 <= 1
C307: + x93 + x343 <= 1
C308: + x55 + x390 <= 1
C309: + x12 + x321 <= 1
C310: + x82 + x151 <= 1
C311: + x43 + x164 <= 1
C312: + x5 + x327 <= 1
C313: + x113 + x361 <= 1
C314: + x52 + x303 <= 1
C315: + x326 + x346 <= 1
C316: + x28 + x139 <= 1
C317: + x182 + x197 <= 1
C318: + x379 + x434 <= 1
C319: + x4 + x7 <= 1
C320: + x32 + x341 <= 1
C321: + x61 + x110 <= 1
C322: + x36 + x219 <= 1
C323: + x71 + x306 <= 1
C324: + x37 + x98 <= 1
C325: + x5 + x470 <= 1
C326: + x7 + x498 <= 1
C327: + x204 + x334 <= 1
C328: + x23 + x53 <= 1
C329: + x5 + x139 <= 1
C330: + x8 + x289 <= 1
C331: + x64 + x275 <= 1
C332: + x29 + x273 <= 1
C333: + x5 + x48 <= 1
C334: + x17 + x297 <= 1
C335: + x189 + x349 <= 1
C336: + x8 + x19 <= 1
C337: + x38 + x207 <= 1
C338: + x96 + x345 <= 1
C339: + x7 + x46 <= 1
C340: + x21 + x293 <= 1
C341: + x36 + x57 <= 1
C342: + x8 + x164 <= 1
C343: + x29 + x293 <= 1
C344: + x30 + x211 <= 1
C345: + x51 + x301 <= 1
C346: + x24 + x157 <= 1
C347: + x65 + x84 <= 1
C348: + x216 + x292 <= 1
C349: + x11 + x476 <= 1
C350: + x195 + x387 <= 1
C351: + x4 + x209 <= 1
C352: + x6 + x253 <= 1
C353: + x17 + x372 <= 1
C354: + x48 + x77 <= 1
C355: + x329 + x344 <= 1
C356: + x11 + x427 <= 1
C357: + x137 + x245 <= 1
C358: + x48 + x62 <= 1
C359: + x12 + x226 <= 1
C360: + x169 + x222 <= 1
C361: + x296 + x448 <= 1
C362: + x11 + x318 <= 1
C363: + x20 + x162 <= 1
C364: + x239 + x483 <= 1
C365: + x73 + x79 <= 1
C366: + x10 + x257 <= 1
C367: + x344 + x375 <= 1
C368: + x284 + x487 <= 1
C369: + x8 + x64 <= 1
C370: + x94 + x452 <= 1
C371: + x42 + x185 <= 1
C372: + x114 + x361 <= 1
C373: + x123 + x438 <= 1
C374: + x7 + x254 <= 1
C375: + x71 + x391 <= 1
C376: + x8 + x77 <= 1
C377: + x20 + x219 <= 1
C378: + x4 + x117 <= 1
C379: + x6 + x468 <= 1
C380: + x135 + x181 <= 1
C381: + x239 + x379 <= 1
C382: + x30 + x462 <= 1
C383: + x396 + x406 <= 1
C384: + x274 + x495 <= 1
C385: + x38 + x286 <= 1
C386: + x214 + x500 <= 1
C387: + x183 + x281 <= 1
C388: + x221 + x233 <= 1
C389: + x166 + x468 <= 1
C390: + x14 + x374 <= 1
C391: + x93 + x467 <= 1
C392: + x12 + x50 <= 1
C393: + x21 + x109 <= 1
C394: + x294 + x384 <= 1
C395: + x191 + x437 <= 1
C396: + x12 + x292 <= 1
C397: + x82 + x182 <= 1
C398: + x57 + x494 <= 1
C399: + x21 + x212 <= 1
C400: + x14 + x159 <= 1
C401: + x278 + x391 <= 1
C402: + x485 + x492 <= 1
C403: + x221 + x281 <= 1
C404: + x185 + x437 <= 1
C405: + x5 + x360 <= 1
C406: + x67 + x128 <= 1
C407: + x212 + x401 <= 1
C408: + x70 + x392 <= 1
C409: + x35 + x85 <= 1
C410: + x7 + x374 <= 1
C411: + x8 + x122 <= 1
C412: + x174 + x327 <= 1
C413: + x239 + x493 <= 1
C414: + x12 + x123 <= 1
C415: + x21 + x306 <= 1
C416: + x7 + x261 <= 1
C417: + x5 + x73 <= 1
C418: + x23 + x316 <= 1
C419: + x125 + x254 <= 1
C420: + x88 + x492 <= 1
C421: + x8 + x46 <= 1
C422: + x291 + x415 <= 1
C423: + x28 + x29 + x406 <= 1
C424: + x3 + x99 <= 1
C425: + x7 + x240 <= 1
C426: + x100 + x220 <= 1
C427: + x109 + x298 <= 1
C428: + x84 + x118 <= 1
C429: + x290 + x386 <= 1
C430: + x48 + x92 <= 1
C431: + x33 + x348 <= 1
C432: + x1 + x24 <= 1
C433: + x70 + x75 <= 1
C434: + x23 + x376 <= 1
C435: + x5 + x458 <= 1
C436: + x7 + x478 <= 1
C437: + x3 + x22 <= 1
C438: + x68 + x194 <= 1
C439: + x5 + x367 <= 1
C440: + x15 + x46 <= 1
C441: + x39 + x408 <= 1
C442: + x13 + x159 <= 1
C443: + x25 + x344 <= 1
C444: + x6 + x343 <= 1
C445: + x27 + x49 <= 1
C446: + x1 + x36 <= 1
C447: + x8 + x119 <= 1
C448: + x113 + x174 <= 1
C449: + x20 + x181 <= 1
C450: + x246 + x429 <= 1
C451: + x79 + x452 <= 1
C452: + x12 + x116 <= 1
C453: + x24 + x52 <= 1
C454: + x6 + x394 <= 1
C455: + x83 + x87 <= 1
C456: + x13 + x68 <= 1
C457: + x33 + x280 <= 1
C458: + x139 + x146 <= 1
C459: + x140 + x230 <= 1
C460: + x5 + x147 <= 1
C461: + x71 + x107 <= 1
C462: + x164 + x236 <= 1
C463: + x233 + x362 <= 1
C464: + x268 + x408 <= 1
C465: + x5 + x56 <= 1
C466: + x116 + x163 <= 1
C467: + x24 + x161 <= 1
C468: + x116 + x282 <= 1
C469: + x7 + x409 <= 1
C470: + x102 + x348 <= 1
C471: + x139 + x472 <= 1
C472: + x14 + x221 <= 1
C473: + x89 + x409 <= 1
C474: + x4 + x402 <= 1
C475: + x5 + x290 <= 1
C476: + x84 + x160 <= 1
C477: + x20 + x403 <= 1
C478: + x28 + x112 <= 1
C479: + x74 + x342 <= 1
C480: + x213 + x418 <= 1
C481: + x89 + x112 <= 1
C482: + x5 + x124 <= 1
C483: + x30 + x110 <= 1
C484: + x70 + x215 <= 1
C485: + x15 + x53 <= 1
C486: + x8 + x201 <= 1
C487: + x1 + x158 <= 1
C488: + x186 + x408 <= 1
C489: + x5 + x11 <= 1
C490: + x17 + x268 <= 1
C491: + x11 + x210 <= 1
C492: + x186 + x243 <= 1
C493: + x40 + x252 <= 1
C494: + x30 + x31 <= 1
C495: + x178 + x190 <= 1
C496: + x26 + x39 <= 1
C497: + x8 + x403 <= 1
C498: + x139 + x153 <= 1
C499: + x23 + x40 <= 1
C500: + x8 + x253 <= 1
C501: + x39 + x123 <= 1
C502: + x234 + x359 <= 1
C503: + x5 + x63 <= 1
C504: + x35 + x59 <= 1
C505: + x111 + x274 <= 1
C506: + x105 + x451 <= 1
C507: + x116 + x446 <= 1
C508: + x143 + x165 <= 1
C509: + x11 + x52 <= 1
C510: + x158 + x161 <= 1
C511: + x109 + x229 <= 1
C512: + x31 + x212 <= 1
C513: + x188 + x288 <= 1
C514: + x34 + x129 <= 1
C515: + x188 + x195 <= 1
C516: + x150 + x461 <= 1
C517: + x7 + x464 <= 1
C518: + x48 + x205 <= 1
C519: + x11 + x104 <= 1
C520: + x84 + x241 <= 1
C521: + x30 + x373 <= 1
C522: + x114 + x321 <= 1
C523: + x205 + x461 <= 1
C524: + x5 + x242 <= 1
C525: + x44 + x87 <= 1
C526: + x42 + x287 <= 1
C527: + x53 + x169 <= 1
C528: + x20 + x34 <= 1
C529: + x204 + x340 <= 1
C530: + x112 + x400 <= 1
C531: + x6 + x31 <= 1
C532: + x3 + x221 <= 1
C533: + x232 + x258 <= 1
C534: + x5 + x38 <= 1
C535: + x269 + x270 <= 1
C536: + x53 + x96 <= 1
C537: + x8 + x25 <= 1
C538: + x30 + x44 <= 1
C539: + x48 + x317 <= 1
C540: + x177 + x418 <= 1
C541: + x5 + x280 <= 1
C542: + x235 + x303 <= 1
C543: + x6 + x432 <= 1
C544: + x7 + x56 <= 1
C545: + x328 + x331 <= 1
C546: + x62 + x195 <= 1
C547: + x150 + x200 <= 1
C548: + x70 + x312 <= 1
C549: + x7 + x294 <= 1
C550: + x283 + x496 <= 1
C551: + x3 + x273 <= 1
C552: + x33 + x115 <= 1
C553: + x5 + x348 <= 1
C554: + x27 + x320 <= 1
C555: + x156 + x210 <= 1
C556: + x198 + x311 <= 1
C557: + x71 + x402 <= 1
C558: + x1 + x9 <= 1
C559: + x37 + x258 <= 1
C560: + x7 + x338 <= 1
C561: + x4 + x6 <= 1
C562: + x134 + x320 <= 1
C563: + x75 + x357 <= 1
C564: + x20 + x39 <= 1
C565: + x7 + x160 <= 1
C566: + x19 + x114 <= 1
C567: + x64 + x274 <= 1
C568: + x39 + x117 <= 1
C569: + x112 + x236 <= 1
C570: + x176 + x231 <= 1
C571: + x7 + x398 <= 1
C572: + x231 + x274 <= 1
C573: + x186 + x201 <= 1
C574: + x96 + x352 <= 1
C575: + x7 + x47 <= 1
C576: + x62 + x220 <= 1
C577: + x12 + x325 <= 1
C578: + x14 + x89 <= 1
C579: + x17 + x325 <= 1
C580: + x16 + x277 <= 1
C581: + x254 + x298 <= 1
C582: + x8 + x167 <= 1
C583: + x36 + x481 <= 1
C584: + x203 + x404 <= 1
C585: + x108 + x376 <= 1
C586: + x93 + x450 <= 1
C587: + x20 + x100 <= 1
C588: + x50 + x269 <= 1
C589: + x48 + x266 <= 1
C590: + x5 + x323 <= 1
C591: + x55 + x97 <= 1
C592: + x103 + x175 <= 1
C593: + x36 + x100 <= 1
C594: + x1 + x16 <= 1
C595: + x9 + x227 <= 1
C596: + x11 + x203 <= 1
C597: + x131 + x489 <= 1
C598: + x24 + x88 <= 1
C599: + x80 + x363 <= 1
C600: + x35 + x213 <= 1
C601: + x20 + x483 <= 1
C602: + x5 + x375 <= 1
C603: + x8 + x285 <= 1
C604: + x155 + x241 <= 1
C605: + x11 + x94 <= 1
C606: + x137 + x263 <= 1
C607: + x194 + x300 <= 1
C608: + x277 + x495 <= 1
C609: + x10 + x161 <= 1
C610: + x52 + x209 <= 1
C611: + x28 + x378 <= 1
C612: + x11 + x45 <= 1
C613: + x169 + x362 <= 1
C614: + x61 + x259 <= 1
C615: + x10 + x50 <= 1
C616: + x387 + x399 <= 1
C617: + x18 + x50 <= 1
C618: + x71 + x369 <= 1
C619: + x37 + x161 <= 1
C620: + x168 + x353 <= 1
C621: + x6 + x70 <= 1
C622: + x7 + x94 <= 1
C623: + x11 + x17 <= 1
C624: + x84 + x136 <= 1
C625: + x159 + x169 <= 1
C626: + x199 + x447 <= 1
C627: + x91 + x352 <= 1
C628: + x1 + x7 <= 1
C629: + x159 + x415 <= 1
C630: + x151 + x300 <= 1
C631: + x134 + x290 <= 1
C632: + x211 + x255 <= 1
C633: + x47 + x184 <= 1
C634: + x85 + x111 <= 1
C635: + x67 + x197 <= 1
C636: + x3 + x476 <= 1
C637: + x87 + x260 <= 1
C638: + x3 + x5 <= 1
C639: + x39 + x262 <= 1
C640: + x259 + x443 <= 1
C641: + x6 + x10 <= 1
C642: + x79 + x157 <= 1
C643: + x67 + x106 <= 1
C644: + x6 + x173 <= 1
C645: + x209 + x484 <= 1
C646: + x270 + x389 <= 1
C647: + x119 + x145 <= 1
C648: + x108 + x298 <= 1
C649: + x29 + x137 <= 1
C650: + x180 + x242 <= 1
C651: + x41 + x170 <= 1
C652: + x190 + x366 <= 1
C653: + x119 + x318 <= 1
C654: + x75 + x347 <= 1
C655: + x23 + x32 <= 1
C656: + x209 + x371 <= 1
C657: + x7 + x198 <= 1
C658: + x100 + x303 <= 1
C659: + x136 + x484 <= 1
C660: + x5 + x71 <= 1
C661: + x470 + x476 <= 1
C662: + x81 + x485 <= 1
C663: + x11 + x366 <= 1
C664: + x21 + x98 <= 1
C665: + x86 + x483 <= 1
C666: + x40 + x339 <= 1
C667: + x25 + x101 <= 1
C668: + x6 + x79 <= 1
C669: + x48 + x288 <= 1
C670: + x2 + x436 <= 1
C671: + x11 + x28 <= 1
C672: + x330 + x460 <= 1
C673: + x188 + x425 <= 1
C674: + x108 + x176 <= 1
C675: + x29 + x244 <= 1
C676: + x7 + x488 <= 1
C677: + x127 + x144 <= 1
C678: + x11 + x338 <= 1
C679: + x47 + x191 <= 1
C680: + x139 + x168 <= 1
C681: + x49 + x229 <= 1
C682: + x12 + x448 <= 1
C683: + x31 + x490 <= 1
C684: + x308 + x445 <= 1
C685: + x36 + x428 <= 1
C686: + x184 + x396 <= 1
C687: + x7 + x129 <= 1
C688: + x11 + x80 <= 1
C689: + x5 + x26 <= 1
C690: + x88 + x112 <= 1
C691: + x28 + x169 <= 1
C692: + x20 + x171 <= 1
C693: + x168 + x291 <= 1
C694: + x55 + x58 <= 1
C695: + x29 + x402 <= 1
C696: + x270 + x271 <= 1
C697: + x70 + x463 <= 1
C698: + x35 + x46 <= 1
C699: + x199 + x227 <= 1
C700: + x10 + x159 <= 1
C701: + x55 + x169 <= 1
C702: + x7 + x80 <= 1
C703: + x37 + x449 <= 1
C704: + x73 + x131 <= 1
C705: + x31 + x227 <= 1
C706: + x79 + x334 <= 1
C707: + x201 + x202 <= 1
C708: + x66 + x102 <= 1
C709: + x256 + x476 <= 1
C710: + x21 + x490 <= 1
C711: + x164 + x187 <= 1
C712: + x2 + x12 <= 1
C713: + x268 + x423 <= 1
C714: + x108 + x296 <= 1
C715: + x27 + x54 <= 1
C716: + x281 + x436 <= 1
C717: + x36 + x67 <= 1
C718: + x328 + x385 <= 1
C719: + x40 + x194 <= 1
C720: + x7 + x11 <= 1
C721: + x10 + x311 <= 1
C722: + x11 + x397 <= 1
C723: + x10 + x37 <= 1
C724: + x28 + x95 <= 1
C725: + x211 + x275 <= 1
C726: + x75 + x123 <= 1
C727: + x202 + x320 <= 1
C728: + x5 + x53 <= 1
C729: + x7 + x422 <= 1
C730: + x38 + x42 <= 1
C731: + x21 + x120 <= 1
C732: + x50 + x244 <= 1
C733: + x298 + x309 <= 1
C734: + x164 + x289 <= 1
C735: + x66 + x206 <= 1
C736: + x11 + x14 <= 1
C737: + x37 + x51 <= 1
C738: + x32 + x91 <= 1
C739: + x5 + x220 <= 1
C740: + x117 + x321 <= 1
C741: + x32 + x309 <= 1
C742: + x44 + x208 <= 1
C743: + x128 + x310 <= 1
C744: + x157 + x487 <= 1
C745: + x239 + x265 <= 1
C746: + x5 + x363 <= 1
C747: + x19 + x388 <= 1
C748: + x266 + x464 <= 1
C749: + x35 + x447 <= 1
C750: + x27 + x61 <= 1
C751: + x290 + x466 <= 1
C752: + x107 + x316 <= 1
C753: + x61 + x66 <= 1
C754: + x24 + x80 <= 1
C755: + x7 + x14 <= 1
C756: + x151 + x265 <= 1
C757: + x23 + x328 <= 1
C758: + x332 + x365 <= 1
C759: + x343 + x406 <= 1
C760: + x62 + x92 <= 1
C761: + x28 + x88 <= 1
C762: + x101 + x235 <= 1
C763: + x92 + x152 <= 1
C764: + x32 + x179 <= 1
C765: + x14 + x217 <= 1
C766: + x71 + x349 <= 1
C767: + x7 + x413 <= 1
C768: + x156 + x442 <= 1
C769: + x20 + x133 <= 1
C770: + x12 + x36 <= 1
C771: + x176 + x482 <= 1
C772: + x83 + x135 <= 1
C773: + x54 + x96 <= 1
C774: + x46 + x478 <= 1
C775: + x164 + x298 <= 1
C776: + x196 + x497 <= 1
C777: + x117 + x336 <= 1
C778: + x91 + x199 <= 1
C779: + x277 + x283 <= 1
C780: + x5 + x104 <= 1
C781: + x23 + x259 <= 1
C782: + x36 + x228 <= 1
C783: + x37 + x137 <= 1
C784: + x49 + x138 <= 1
C785: + x93 + x497 <= 1
C786: + x131 + x214 <= 1
C787: + x124 + x442 <= 1
C788: + x81 + x163 <= 1
C789: + x16 + x427 <= 1
C790: + x74 + x299 <= 1
C791: + x2 + x6 <= 1
C792: + x5 + x247 <= 1
C793: + x16 + x133 <= 1
C794: + x145 + x282 <= 1
C795: + x116 + x374 <= 1
C796: + x17 + x114 <= 1
C797: + x336 + x471 <= 1
C798: + x20 + x29 <= 1
C799: + x239 + x352 <= 1
C800: + x44 + x288 <= 1
C801: + x182 + x440 <= 1
C802: + x74 + x279 <= 1
C803: + x5 + x59 <= 1
C804: + x1 + x75 <= 1
C805: + x8 + x32 <= 1
C806: + x20 + x142 <= 1
C807: + x24 + x25 <= 1
C808: + x7 + x49 <= 1
C809: + x142 + x267 <= 1
C810: + x35 + x156 <= 1
C811: + x46 + x471 <= 1
C812: + x130 + x182 <= 1
C813: + x60 + x130 <= 1
C814: + x16 + x250 <= 1
C815: + x92 + x185 <= 1
C816: + x378 + x500 <= 1
C817: + x5 + x111 <= 1
C818: + x478 + x481 <= 1
C819: + x73 + x426 <= 1
C820: + x8 + x468 <= 1
C821: + x20 + x90 <= 1
C822: + x57 + x100 <= 1
C823: + x324 + x350 <= 1
C824: + x134 + x162 <= 1
C825: + x27 + x305 <= 1
C826: + x93 + x218 <= 1
C827: + x42 + x488 <= 1
C828: + x70 + x383 <= 1
C829: + x79 + x466 <= 1
C830: + x228 + x461 <= 1
C831: + x33 + x239 <= 1
C832: + x20 + x38 <= 1
C833: + x33 + x76 <= 1
C834: + x269 + x421 <= 1
C835: + x6 + x27 <= 1
C836: + x149 + x304 <= 1
C837: + x5 + x34 <= 1
C838: + x61 + x410 <= 1
C839: + x71 + x335 <= 1
C840: + x309 + x462 <= 1
C841: + x191 + x252 <= 1
C842: + x3 + x382 <= 1
C843: + x228 + x441 <= 1
C844: + x64 + x358 <= 1
C845: + x12 + x324 <= 1
C846: + x22 + x393 <= 1
C847: + x125 + x457 <= 1
C848: + x79 + x92 <= 1
C849: + x11 + x156 <= 1
C850: + x48 + x115 <= 1
C851: + x116 + x193 <= 1
C852: + x5 + x419 <= 1
C853: + x298 + x441 <= 1
C854: + x18 + x60 <= 1
C855: + x202 + x250 <= 1
C856: + x61 + x256 <= 1
C857: + x5 + x328 <= 1
C858: + x261 + x413 <= 1
C859: + x98 + x441 <= 1
C860: + x238 + x249 <= 1
C861: + x221 + x414 <= 1
C862: + x103 + x172 <= 1
C863: + x104 + x199 <= 1
C864: + x53 + x418 <= 1
C865: + x227 + x482 <= 1
C866: + x109 + x148 <= 1
C867: + x1 + x13 <= 1
C868: + x196 + x202 <= 1
C869: + x4 + x10 <= 1
C870: + x162 + x413 <= 1
C871: + x148 + x427 <= 1
C872: + x47 + x170 <= 1
C873: + x5 + x140 <= 1
C874: + x36 + x441 <= 1
C875: + x382 + x413 <= 1
C876: + x11 + x95 <= 1
C877: + x136 + x310 <= 1
C878: + x2 + x36 <= 1
C879: + x369 + x491 <= 1
C880: + x35 + x416 <= 1
C881: + x6 + x167 <= 1
C882: + x27 + x222 <= 1
C883: + x8 + x14 <= 1
C884: + x46 + x219 <= 1
C885: + x41 + x192 <= 1
C886: + x214 + x324 <= 1
C887: + x214 + x255 <= 1
C888: + x323 + x408 <= 1
C889: + x139 + x251 <= 1
C890: + x47 + x303 <= 1
C891: + x3 + x67 <= 1
C892: + x4 + x296 <= 1
C893: + x81 + x249 <= 1
C894: + x271 + x472 <= 1
C895: + x73 + x379 <= 1
C896: + x122 + x331 <= 1
C897: + x28 + x278 <= 1
C898: + x328 + x461 <= 1
C899: + x48 + x223 <= 1
C900: + x68 + x162 <= 1
C901: + x42 + x183 <= 1
C902: + x226 + x229 <= 1
C903: + x3 + x151 <= 1
C904: + x186 + x431 <= 1
C905: + x6 + x252 <= 1
C906: + x300 + x467 <= 1
C907: + x23 + x356 <= 1
C908: + x18 + x105 <= 1
C909: + x41 + x365 <= 1
C910: + x6 + x13 <= 1
C911: + x216 + x375 <= 1
C912: + x74 + x266 <= 1
C913: + x365 + x436 <= 1
C914: + x23 + x170 <= 1
C915: + x207 + x443 <= 1
C916: + x307 + x404 <= 1
C917: + x1 + x96 <= 1
C918: + x65 + x416 <= 1
C919: + x11 + x315 <= 1
C920: + x22 + x141 <= 1
C921: + x69 + x117 <= 1
C922: + x83 + x107 <= 1
C923: + x64 + x221 <= 1
C924: + x11 + x41 <= 1
C925: + x84 + x265 <= 1
C926: + x12 + x370 <= 1
C927: + x130 + x153 <= 1
C928: + x43 + x421 <= 1
C929: + x236 + x393 <= 1
C930: + x453 + x454 <= 1
C931: + x383 + x458 <= 1
C932: + x11 + x142 <= 1
C933: + x29 + x317 <= 1
C934: + x57 + x121 <= 1
C935: + x29 + x66 <= 1
C936: + x12 + x60 <= 1
C937: + x75 + x431 <= 1
C938: + x6 + x66 <= 1
C939: + x71 + x146 <= 1
C940: + x27 + x270 <= 1
C941: + x7 + x82 <= 1
C942: + x55 + x417 <= 1
C943: + x113 + x360 <= 1
C944: + x79 + x213 <= 1
C945: + x5 + x235 <= 1
C946: + x354 + x473 <= 1
C947: + x103 + x166 <= 1
C948: + x31 + x92 <= 1
C949: + x8 + x80 <= 1
C950: + x10 + x226 <= 1
C951: + x11 + x242 <= 1
C952: + x89 + x255 <= 1
C953: + x15 + x178 <= 1
C954: + x1 + x27 <= 1
C955: + x32 + x326 <= 1
C956: + x60 + x115 <= 1
C957: + x16 + x64 <= 1
C958: + x18 + x98 <= 1
C959: + x176 + x286 <= 1
C960: + x6 + x118 <= 1
C961: + x1 + x138 <= 1
C962: + x75 + x129 <= 1
C963: + x3 + x166 <= 1
C964: + x179 + x181 <= 1
C965: + x17 + x296 <= 1
C966: + x5 + x31 <= 1
C967: + x29 + x133 <= 1
C968: + x55 + x59 <= 1
C969: + x38 + x83 <= 1
C970: + x57 + x145 <= 1
C971: + x112 + x363 <= 1
C972: + x8 + x145 <= 1
C973: + x202 + x306 <= 1
C974: + x114 + x152 <= 1
C975: + x15 + x323 <= 1
C976: + x27 + x244 <= 1
C977: + x10 + x154 <= 1
C978: + x471 + x480 <= 1
C979: + x48 + x237 <= 1
C980: + x41 + x218 <= 1
C981: + x131 + x328 <= 1
C982: + x252 + x258 <= 1
C983: + x7 + x73 <= 1
C984: + x27 + x277 <= 1
C985: + x3 + x105 <= 1
C986: + x76 + x224 <= 1
C987: + x139 + x209 <= 1
C988: + x6 + x238 <= 1
C989: + x7 + x246 <= 1
C990: + x82 + x384 <= 1
C991: + x8 + x69 <= 1
C992: + x2 + x134 <= 1
C993: + x21 + x221 <= 1
C994: + x102 + x285 <= 1
C995: + x84 + x459 <= 1
C996: + x5 + x353 <= 1
C997: + x23 + x188 <= 1
C998: + x7 + x363 <= 1
C999: + x322 + x325 <= 1
C1000: + x1 + x459 <= 1
C1001: + x5 + x149 <= 1
C1002: + x6 + x35 <= 1
C1003: + x25 + x449 <= 1
C1004: + x27 + x90 <= 1
C1005: + x57 + x426 <= 1
C1006: + x24 + x171 <= 1
C1007: + x139 + x302 <= 1
C1008: + x94 + x469 <= 1
C1009: + x184 + x457 <= 1
C1010: + x176 + x480 <= 1
C1011: + x7 + x68 <= 1
C1012: + x200 + x404 <= 1
C1013: + x37 + x56 <= 1
C1014: + x328 + x351 <= 1
C1015: + x8 + x340 <= 1
C1016: + x318 + x354 <= 1
C1017: + x11 + x15 <= 1
C1018: + x5 + x217 <= 1
C1019: + x158 + x174 <= 1
C1020: + x100 + x264 <= 1
C1021: + x68 + x193 <= 1
C1022: + x160 + x166 <= 1
C1023: + x2 + x16 <= 1
C1024: + x14 + x232 <= 1
C1025: + x5 + x13 <= 1
C1026: + x25 + x345 <= 1
C1027: + x45 + x108 <= 1
C1028: + x1 + x37 <= 1
C1029: + x10 + x224 <= 1
C1030: + x13 + x394 <= 1
C1031: + x87 + x385 <= 1
C1032: + x7 + x15 <= 1
C1033: + x41 + x398 <= 1
C1034: + x204 + x421 <= 1
C1035: + x7 + x172 <= 1
C1036: + x137 + x364 <= 1
C1037: + x120 + x158 <= 1
C1038: + x46 + x336 <= 1
C1039: + x105 + x235 <= 1
C1040: + x40 + x83 <= 1
C1041: + x60 + x263 <= 1
C1042: + x61 + x393 <= 1
C1043: + x16 + x71 <= 1
C1044: + x12 + x47 <= 1
C1045: + x104 + x445 <= 1
C1046: + x32 + x420 <= 1
C1047: + x5 + x291 <= 1
C1048: + x151 + x322 <= 1
C1049: + x35 + x487 <= 1
C1050: + x308 + x372 <= 1
C1051: + x10 + x21 <= 1
C1052: + x116 + x242 <= 1
C1053: + x160 + x272 <= 1
C1054: + x330 + x331 <= 1
C1055: + x11 + x336 <= 1
C1056: + x160 + x163 <= 1
C1057: + x38 + x55 + x114 <= 1
C1058: + x157 + x205 <= 1
C1059: + x5 + x12 <= 1
C1060: + x6 + x132 <= 1
C1061: + x27 + x57 <= 1
C1062: + x12 + x108 <= 1
C1063: + x5 + x486 <= 1
C1064: + x24 + x76 <= 1
C1065: + x8 + x398 <= 1
C1066: + x38 + x78 <= 1
C1067: + x5 + x155 <= 1
C1068: + x100 + x124 <= 1
C1069: + x12 + x40 <= 1
C1070: + x41 + x260 <= 1
C1071: + x7 + x62 <= 1
C1072: + x421 + x453 <= 1
C1073: + x350 + x427 <= 1
C1074: + x5 + x207 <= 1
C1075: + x186 + x468 <= 1
C1076: + x7 + x223 <= 1
C1077: + x7 + x292 <= 1
C1078: + x50 + x76 <= 1
C1079: + x11 + x150 <= 1
C1080: + x29 + x213 <= 1
C1081: + x178 + x415 <= 1
C1082: + x180 + x335 <= 1
C1083: + x38 + x176 <= 1
C1084: + x39 + x56 <= 1
C1085: + x27 + x145 <= 1
C1086: + x10 + x377 <= 1
C1087: + x30 + x102 <= 1
C1088: + x42 + x72 <= 1
C1089: + x5 + x350 <= 1
C1090: + x6 + x106 <= 1
C1091: + x7 + x106 <= 1
C1092: + x405 + x494 <= 1
C1093: + x306 + x307 <= 1
C1094: + x11 + x101 <= 1
C1095: + x193 + x411 <= 1
C1096: + x202 + x482 <= 1
C1097: + x354 + x433 <= 1
C1098: + x72 + x296 <= 1
C1099: + x174 + x177 <= 1
C1100: + x39 + x228 <= 1
C1101: + x5 + x493 <= 1
C1102: + x70 + x112 <= 1
C1103: + x227 + x333 <= 1
C1104: + x23 + x64 <= 1
C1105: + x15 + x73 <= 1
C1106: + x6 + x30 <= 1
C1107: + x44 + x276 <= 1
C1108: + x210 + x499 <= 1
C1109: + x2 + x214 <= 1
C1110: + x103 + x234 <= 1
C1111: + x95 + x283 <= 1
C1112: + x5 + x39 <= 1
C1113: + x96 + x104 <= 1
C1114: + x99 + x202 <= 1
C1115: + x6 + x268 <= 1
C1116: + x7 + x396 <= 1
C1117: + x90 + x165 <= 1
C1118: + x128 + x244 <= 1
C1119: + x313 + x337 <= 1
C1120: + x177 + x419 <= 1
C1121: + x41 + x182 <= 1
C1122: + x21 + x447 <= 1
C1123: + x490 + x491 <= 1
C1124: + x120 + x470 <= 1
C1125: + x87 + x204 <= 1
C1126: + x19 + x44 <= 1
C1127: + x55 + x289 <= 1
C1128: + x7 + x456 <= 1
C1129: + x1 + x411 <= 1
C1130: + x39 + x140 <= 1
C1131: + x7 + x97 <= 1
C1132: + x8 + x371 <= 1
C1133: + x38 + x314 <= 1
C1134: + x104 + x198 <= 1
C1135: + x45 + x81 <= 1
C1136: + x10 + x243 <= 1
C1137: + x4 + x5 <= 1
C1138: + x176 + x432 <= 1
C1139: + x154 + x491 <= 1
C1140: + x74 + x110 <= 1
C1141: + x404 + x455 <= 1
C1142: + x96 + x202 <= 1
C1143: + x10 + x393 <= 1
C1144: + x23 + x148 <= 1
C1145: + x98 + x211 <= 1
C1146: + x171 + x310 <= 1
C1147: + x27 + x223 <= 1
C1148: + x86 + x430 <= 1
C1149: + x72 + x337 <= 1
C1150: + x52 + x203 <= 1
C1151: + x116 + x395 <= 1
C1152: + x170 + x473 <= 1
C1153: + x7 + x48 <= 1
C1154: + x28 + x356 <= 1
C1155: + x11 + x490 <= 1
C1156: + x58 + x171 <= 1
C1157: + x41 + x431 <= 1
C1158: + x60 + x64 <= 1
C1159: + x150 + x208 <= 1
C1160: + x6 + x203 <= 1
C1161: + x109 + x271 <= 1
C1162: + x173 + x225 <= 1
C1163: + x85 + x131 <= 1
C1164: + x19 + x25 + x43 <= 1
C1165: + x5 + x82 <= 1
C1166: + x9 + x21 <= 1
C1167: + x11 + x377 <= 1
C1168: + x3 + x398 <= 1
C1169: + x47 + x226 <= 1
C1170: + x48 + x265 <= 1
C1171: + x42 + x178 <= 1
C1172: + x13 + x479 <= 1
C1173: + x18 + x475 <= 1
C1174: + x105 + x283 <= 1
C1175: + x4 + x239 <= 1
C1176: + x287 + x295 <= 1
C1177: + x225 + x280 <= 1
C1178: + x61 + x345 <= 1
C1179: + x6 + x330 <= 1
C1180: + x146 + x404 <= 1
C1181: + x10 + x343 <= 1
C1182: + x139 + x179 <= 1
C1183: + x50 + x131 <= 1
C1184: + x20 + x486 <= 1
C1185: + x6 + x16 <= 1
C1186: + x85 + x198 <= 1
C1187: + x5 + x21 <= 1
C1188: + x24 + x200 <= 1
C1189: + x16 + x91 <= 1
C1190: + x37 + x254 <= 1
C1191: + x21 + x24 <= 1
C1192: + x34 + x58 <= 1
C1193: + x61 + x191 <= 1
C1194: + x24 + x43 <= 1
C1195: + x75 + x238 <= 1
C1196: + x21 + x290 <= 1
C1197: + x6 + x52 <= 1
C1198: + x134 + x474 <= 1
C1199: + x56 + x417 <= 1
C1200: + x277 + x308 <= 1
C1201: + x5 + x89 <= 1
C1202: + x8 + x62 <= 1
C1203: + x38 + x62 <= 1
C1204: + x112 + x466 <= 1
C1205: + x318 + x339 <= 1
C1206: + x11 + x453 <= 1
C1207: + x146 + x167 <= 1
C1208: + x221 + x401 <= 1
C1209: + x180 + x370 <= 1
C1210: + x6 + x232 <= 1
C1211: + x261 + x293 <= 1
C1212: + x136 + x410 <= 1
C1213: + x74 + x251 <= 1
C1214: + x39 + x104 <= 1
C1215: + x4 + x132 <= 1
C1216: + x5 + x20 <= 1
C1217: + x21 + x186 <= 1
C1218: + x126 + x340 <= 1
C1219: + x214 + x329 <= 1
C1220: + x460 + x471 <= 1
C1221: + x76 + x348 <= 1
C1222: + x114 + x312 <= 1
C1223: + x69 + x150 <= 1
C1224: + x44 + x307 <= 1
C1225: + x216 + x327 <= 1
C1226: + x36 + x37 <= 1
C1227: + x8 + x152 <= 1
C1228: + x13 + x35 <= 1
C1229: + x7 + x425 <= 1
C1230: + x248 + x285 <= 1
C1231: + x21 + x99 <= 1
C1232: + x331 + x462 <= 1
C1233: + x233 + x407 <= 1
C1234: + x68 + x171 <= 1
C1235: + x6 + x78 <= 1
C1236: + x174 + x423 <= 1
C1237: + x40 + x49 <= 1
C1238: + x150 + x166 <= 1
C1239: + x13 + x23 <= 1
C1240: + x14 + x300 <= 1
C1241: + x10 + x119 <= 1
C1242: + x84 + x220 <= 1
C1243: + x86 + x196 <= 1
C1244: + x268 + x417 <= 1
C1245: + x5 + x27 <= 1
C1246: + x23 + x165 <= 1
C1247: + x55 + x158 <= 1
C1248: + x311 + x455 <= 1
C1249: + x22 + x333 <= 1
C1250: + x7 + x17 <= 1
C1251: + x60 + x162 <= 1
C1252: + x7 + x190 <= 1
C1253: + x105 + x225 <= 1
C1254: + x158 + x320 <= 1
C1255: + x233 + x353 <= 1
C1256: + x134 + x367 <= 1
C1257: + x19 + x177 <= 1
C1258: + x300 + x440 <= 1
C1259: + x3 + x407 <= 1
C1260: + x103 + x419 <= 1
C1261: + x150 + x332 <= 1
C1262: + x26 + x99 <= 1
C1263: + x81 + x378 <= 1
C1264: + x28 + x387 <= 1
C1265: + x71 + x141 <= 1
C1266: + x7 + x307 <= 1
C1267: + x8 + x65 <= 1
C1268: + x5 + x115 <= 1
C1269: + x127 + x184 <= 1
C1270: + x66 + x101 <= 1
C1271: + x55 + x230 <= 1
C1272: + x239 + x263 <= 1
C1273: + x2 + x11 <= 1
C1274: + x11 + x120 <= 1
C1275: + x140 + x147 <= 1
C1276: + x86 + x205 <= 1
C1277: + x23 + x192 <= 1
C1278: + x6 + x158 <= 1
C1279: + x6 + x361 <= 1
C1280: + x126 + x358 <= 1
C1281: + x73 + x261 <= 1
C1282: + x33 + x278 <= 1
C1283: + x32 + x371 <= 1
C1284: + x28 + x336 <= 1
C1285: + x185 + x390 <= 1
C1286: + x61 + x297 <= 1
C1287: + x8 + x319 <= 1
C1288: + x8 + x134 <= 1
C1289: + x11 + x188 <= 1
C1290: + x4 + x190 <= 1
C1291: + x16 + x70 <= 1
C1292: + x143 + x259 <= 1
C1293: + x7 + x411 <= 1
C1294: + x222 + x365 <= 1
C1295: + x29 + x84 <= 1
C1296: + x21 + x430 <= 1
C1297: + x322 + x405 <= 1
C1298: + x203 + x234 <= 1
C1299: + x50 + x243 <= 1
C1300: + x7 + x72 <= 1
C1301: + x1 + x283 <= 1
C1302: + x55 + x78 <= 1
C1303: + x32 + x70 <= 1
C1304: + x6 + x211 <= 1
C1305: + x38 + x186 <= 1
C1306: + x241 + x375 <= 1
C1307: + x51 + x263 <= 1
C1308: + x65 + x74 <= 1
C1309: + x20 + x75 <= 1
C1310: + x48 + x198 <= 1
C1311: + x243 + x258 <= 1
C1312: + x17 + x493 <= 1
C1313: + x5 + x364 <= 1
C1314: + x365 + x405 <= 1
C1315: + x5 + x9 <= 1
C1316: + x44 + x96 <= 1
C1317: + x219 + x311 <= 1
C1318: + x70 + x122 <= 1
C1319: + x107 + x313 <= 1
C1320: + x118 + x416 <= 1
C1321: + x182 + x267 <= 1
C1322: + x8 + x401 <= 1
C1323: + x313 + x472 <= 1
C1324: + x5 + x160 <= 1
C1325: + x6 + x24 <= 1
C1326: + x7 + x176 <= 1
C1327: + x10 + x45 <= 1
C1328: + x32 + x190 <= 1
C1329: + x5 + x394 <= 1
C1330: + x145 + x480 <= 1
C1331: + x93 + x446 <= 1
C1332: + x59 + x382 <= 1
C1333: + x222 + x224 <= 1
C1334: + x41 + x257 <= 1
C1335: + x150 + x350 <= 1
C1336: + x159 + x361 <= 1
C1337: + x101 + x302 <= 1
C1338: + x365 + x480 <= 1
C1339: + x51 + x93 <= 1
C1340: + x9 + x135 <= 1
C1341: + x10 + x25 <= 1
C1342: + x202 + x276 <= 1
C1343: + x7 + x301 <= 1
C1344: + x77 + x311 <= 1
C1345: + x5 + x97 <= 1
C1346: + x5 + x446 <= 1
C1347: + x6 + x458 <= 1
C1348: + x27 + x150 <= 1
C1349: + x243 + x472 <= 1
C1350: + x17 + x71 <= 1
C1351: + x35 + x241 <= 1
C1352: + x178 + x491 <= 1
C1353: + x342 + x482 <= 1
C1354: + x164 + x172 <= 1
C1355: + x2 + x5 <= 1
C1356: + x77 + x134 <= 1
C1357: + x35 + x439 <= 1
C1358: + x11 + x219 <= 1
C1359: + x48 + x180 <= 1
C1360: + x158 + x410 <= 1
C1361: + x69 + x85 <= 1
C1362: + x33 + x233 <= 1
C1363: + x5 + x135 <= 1
C1364: + x6 + x17 <= 1
C1365: + x91 + x187 <= 1
C1366: + x137 + x279 <= 1
C1367: + x19 + x121 <= 1
C1368: + x6 + x180 <= 1
C1369: + x198 + x207 <= 1
C1370: + x18 + x22 <= 1
C1371: + x24 + x266 <= 1
C1372: + x354 + x400 <= 1
C1373: + x49 + x86 <= 1
C1374: + x67 + x420 <= 1
C1375: + x209 + x239 <= 1
C1376: + x17 + x47 <= 1
C1377: + x76 + x199 <= 1
C1378: + x267 + x387 <= 1
C1379: + x39 + x463 <= 1
C1380: + x6 + x197 <= 1
C1381: + x75 + x82 <= 1
C1382: + x2 + x237 <= 1
C1383: + x60 + x496 <= 1
C1384: + x107 + x174 <= 1
C1385: + x72 + x147 <= 1
C1386: + x106 + x268 <= 1
C1387: + x34 + x103 <= 1
C1388: + x5 + x346 <= 1
C1389: + x7 + x110 <= 1
C1390: + x256 + x341 <= 1
C1391: + x365 + x395 <= 1
C1392: + x11 + x97 <= 1
C1393: + x21 + x357 <= 1
C1394: + x225 + x286 <= 1
C1395: + x23 + x65 <= 1
C1396: + x15 + x279 <= 1
C1397: + x276 + x381 <= 1
C1398: + x11 + x423 <= 1
C1399: + x123 + x266 <= 1
C1400: + x167 + x351 <= 1
C1401: + x6 + x26 <= 1
C1402: + x285 + x449 <= 1
C1403: + x6 + x189 <= 1
C1404: + x139 + x451 <= 1
C1405: + x213 + x334 <= 1
C1406: + x71 + x233 <= 1
C1407: + x74 + x85 <= 1
C1408: + x37 + x41 <= 1
C1409: + x11 + x40 <= 1
C1410: + x109 + x276 <= 1
C1411: + x36 + x54 <= 1
C1412: + x197 + x228 <= 1
C1413: + x24 + x130 <= 1
C1414: + x190 + x207 <= 1
C1415: + x126 + x196 <= 1
C1416: + x247 + x386 <= 1
C1417: + x85 + x485 <= 1
C1418: + x68 + x357 <= 1
C1419: + x394 + x474 <= 1
C1420: + x60 + x247 <= 1
C1421: + x6 + x95 <= 1
C1422: + x62 + x146 <= 1
C1423: + x81 + x146 <= 1
C1424: + x93 + x357 <= 1
C1425: + x57 + x382 <= 1
C1426: + x28 + x443 <= 1
C1427: + x114 + x381 <= 1
C1428: + x44 + x243 <= 1
C1429: + x17 + x383 <= 1
C1430: + x6 + x333 <= 1
C1431: + x45 + x77 <= 1
C1432: + x1 + x14 <= 1
C1433: + x21 + x193 <= 1
C1434: + x214 + x383 <= 1
C1435: + x25 + x132 <= 1
C1436: + x170 + x273 <= 1
C1437: + x134 + x315 <= 1
C1438: + x106 + x313 <= 1
C1439: + x5 + x373 <= 1
C1440: + x79 + x152 <= 1
C1441: + x396 + x410 <= 1
C1442: + x401 + x424 <= 1
C1443: + x40 + x118 <= 1
C1444: + x6 + x369 <= 1
C1445: + x146 + x459 <= 1
C1446: + x328 + x412 <= 1
C1447: + x28 + x217 <= 1
C1448: + x11 + x305 <= 1
C1449: + x49 + x68 <= 1
C1450: + x12 + x74 <= 1
C1451: + x106 + x119 <= 1
C1452: + x24 + x42 <= 1
C1453: + x104 + x424 <= 1
C1454: + x89 + x272 <= 1
C1455: + x220 + x338 <= 1
C1456: + x5 + x185 <= 1
C1457: + x82 + x337 <= 1
C1458: + x366 + x374 <= 1
C1459: + x112 + x187 <= 1
C1460: + x29 + x295 <= 1
C1461: + x194 + x354 <= 1
C1462: + x142 + x397 <= 1
C1463: + x7 + x435 <= 1
C1464: + x135 + x136 <= 1
C1465: + x109 + x117 <= 1
C1466: + x29 + x76 <= 1
C1467: + x30 + x116 <= 1
C1468: + x468 + x478 <= 1
C1469: + x196 + x376 <= 1
C1470: + x73 + x473 <= 1
C1471: + x15 + x19 <= 1
C1472: + x142 + x240 <= 1
C1473: + x21 + x89 <= 1
C1474: + x55 + x102 <= 1
C1475: + x258 + x379 <= 1
C1476: + x440 + x463 <= 1
C1477: + x5 + x237 <= 1
C1478: + x18 + x378 <= 1
C1479: + x1 + x5 <= 1
C1480: + x59 + x462 <= 1
C1481: + x196 + x261 <= 1
C1482: + x27 + x179 <= 1
C1483: + x63 + x156 <= 1
C1484: + x123 + x284 <= 1
C1485: + x6 + x12 <= 1
C1486: + x24 + x434 <= 1
C1487: + x199 + x460 <= 1
C1488: + x11 + x71 <= 1
C1489: + x123 + x125 <= 1
C1490: + x11 + x23 + x35 <= 1
C1491: + x5 + x17 <= 1
C1492: + x6 + x175 <= 1
C1493: + x64 + x121 <= 1
C1494: + x85 + x295 <= 1
C1495: + x24 + x39 <= 1
C1496: + x7 + x27 <= 1
C1497: + x136 + x248 <= 1
C1498: + x5 + x168 <= 1
C1499: + x25 + x500 <= 1
C1500: + x190 + x435 <= 1
C1501: + x19 + x26 <= 1
C1502: + x257 + x378 <= 1
C1503: + x5 + x6 + x7 + x8 + x18 <= 1
C1504: + x5 + x69 <= 1
C1505: + x5 + x402 <= 1
C1506: + x145 + x332 + x469 <= 1
C1507: + x28 + x238 <= 1
C1508: + x49 + x183 <= 1
C1509: + x139 + x313 <= 1
C1510: + x303 + x418 <= 1
C1511: + x78 + x83 <= 1
C1512: + x116 + x420 <= 1
C1513: + x17 + x464 <= 1
C1514: + x3 + x111 <= 1
C1515: + x203 + x279 <= 1
C1516: + x12 + x301 <= 1
C1517: + x104 + x248 <= 1
C1518: + x6 + x228 <= 1
C1519: + x24 + x346 <= 1
C1520: + x17 + x95 <= 1
C1521: + x160 + x276 <= 1
C1522: + x145 + x420 <= 1
C1523: + x298 + x342 <= 1
C1524: + x67 + x277 <= 1
C1525: + x139 + x365 <= 1
C1526: + x5 + x379 <= 1
C1527: + x19 + x93 <= 1
C1528: + x129 + x384 <= 1
C1529: + x6 + x355 <= 1
C1530: + x67 + x392 <= 1
C1531: + x108 + x460 <= 1
C1532: + x7 + x30 <= 1
C1533: + x27 + x322 <= 1
C1534: + x55 + x60 <= 1
C1535: + x103 + x477 <= 1
C1536: + x20 + x443 <= 1
C1537: + x132 + x149 <= 1
C1538: + x6 + x57 <= 1
C1539: + x28 + x72 <= 1
C1540: + x39 + x88 <= 1
C1541: + x132 + x308 <= 1
C1542: + x361 + x435 <= 1
C1543: + x333 + x369 <= 1
C1544: + x35 + x48 <= 1
C1545: + x127 + x197 <= 1
C1546: + x8 + x55 <= 1
C1547: + x93 + x429 <= 1
C1548: + x21 + x412 <= 1
C1549: + x178 + x272 <= 1
C1550: + x342 + x399 <= 1
C1551: + x5 + x318 <= 1
C1552: + x100 + x419 <= 1
C1553: + x139 + x210 <= 1
C1554: + x132 + x321 <= 1
C1555: + x44 + x483 <= 1
C1556: + x72 + x264 <= 1
C1557: + x2 + x133 <= 1
C1558: + x4 + x128 <= 1
C1559: + x73 + x435 <= 1
C1560: + x202 + x224 <= 1
C1561: + x328 + x498 <= 1
C1562: + x22 + x488 <= 1
C1563: + x25 + x54 <= 1
C1564: + x270 + x342 <= 1
C1565: + x49 + x396 <= 1
C1566: + x30 + x360 <= 1
C1567: + x298 + x496 <= 1
C1568: + x12 + x125 <= 1
C1569: + x9 + x447 <= 1
C1570: + x10 + x305 <= 1
C1571: + x11 + x399 <= 1
C1572: + x350 + x388 <= 1
C1573: + x14 + x127 <= 1
C1574: + x5 + x150 <= 1
C1575: + x18 + x305 <= 1
C1576: + x72 + x126 <= 1
C1577: + x1 + x222 <= 1
C1578: + x6 + x34 <= 1
C1579: + x7 + x178 <= 1
C1580: + x24 + x412 <= 1
C1581: + x27 + x494 <= 1
C1582: + x5 + x75 <= 1
C1583: + x5 + x392 <= 1
C1584: + x12 + x206 <= 1
C1585: + x13 + x214 <= 1
C1586: + x19 + x173 <= 1
C1587: + x176 + x479 <= 1
C1588: + x22 + x285 <= 1
C1589: + x88 + x329 <= 1
C1590: + x57 + x282 <= 1
C1591: + x158 + x173 <= 1
C1592: + x97 + x177 <= 1
C1593: + x10 + x19 <= 1
C1594: + x8 + x189 <= 1
C1595: + x5 + x127 <= 1
C1596: + x5 + x460 <= 1
C1597: + x244 + x278 <= 1
C1598: + x27 + x144 <= 1
C1599: + x8 + x484 <= 1
C1600: + x203 + x223 <= 1
C1601: + x166 + x416 <= 1
C1602: + x251 + x354 <= 1
C1603: + x243 + x259 <= 1
C1604: + x36 + x344 <= 1
C1605: + x11 + x116 <= 1
C1606: + x58 + x90 <= 1
C1607: + x32 + x141 <= 1
C1608: + x61 + x438 <= 1
C1609: + x6 + x154 <= 1
C1610: + x8 + x113 <= 1
C1611: + x20 + x183 <= 1
C1612: + x179 + x342 <= 1
C1613: + x208 + x273 <= 1
C1614: + x127 + x360 <= 1
C1615: + x11 + x394 <= 1
C1616: + x139 + x323 <= 1
C1617: + x86 + x186 <= 1
C1618: + x16 + x465 <= 1
C1619: + x47 + x151 <= 1
C1620: + x6 + x43 <= 1
C1621: + x5 + x50 <= 1
C1622: + x27 + x195 <= 1
C1623: + x7 + x415 <= 1
C1624: + x11 + x281 <= 1
C1625: + x50 + x292 <= 1
C1626: + x276 + x314 <= 1
C1627: + x78 + x126 <= 1
C1628: + x397 + x465 <= 1
C1629: + x134 + x247 <= 1
C1630: + x229 + x256 <= 1
C1631: + x3 + x124 <= 1
C1632: + x139 + x196 <= 1
C1633: + x23 + x127 <= 1
C1634: + x150 + x180 <= 1
C1635: + x117 + x334 <= 1
C1636: + x134 + x485 <= 1
C1637: + x10 + x28 <= 1
C1638: + x8 + x182 <= 1
C1639: + x183 + x216 <= 1
C1640: + x177 + x256 <= 1
C1641: + x23 + x269 <= 1
C1642: + x44 + x195 <= 1
C1643: + x174 + x294 <= 1
C1644: + x12 + x30 <= 1
C1645: + x131 + x216 <= 1
C1646: + x61 + x240 <= 1
C1647: + x7 + x120 <= 1
C1648: + x146 + x269 <= 1
C1649: + x2 + x8 <= 1
C1650: + x5 + x245 <= 1
C1651: + x6 + x131 <= 1
C1652: + x27 + x58 <= 1
C1653: + x146 + x432 <= 1
C1654: + x136 + x437 <= 1
C1655: + x20 + x192 <= 1
C1656: + x45 + x257 <= 1
C1657: + x93 + x267 <= 1
C1658: + x94 + x128 <= 1
C1659: + x69 + x143 <= 1
C1660: + x14 + x113 <= 1
C1661: + x35 + x299 <= 1
C1662: + x23 + x38 <= 1
C1663: + x74 + x222 <= 1
C1664: + x6 + x20 <= 1
C1665: + x10 + x81 <= 1
C1666: + x5 + x57 <= 1
C1667: + x254 + x421 <= 1
C1668: + x10 + x180 <= 1
C1669: + x19 + x159 <= 1
C1670: + x1 + x278 <= 1
C1671: + x4 + x312 <= 1
C1672: + x17 + x329 <= 1
C1673: + x72 + x499 <= 1
C1674: + x11 + x147 <= 1
C1675: + x174 + x252 <= 1
C1676: + x52 + x442 <= 1
C1677: + x5 + x109 <= 1
C1678: + x116 + x250 <= 1
C1679: + x24 + x144 <= 1
C1680: + x98 + x327 <= 1
C1681: + x155 + x459 <= 1
C1682: + x322 + x446 <= 1
C1683: + x6 + x105 <= 1
C1684: + x100 + x390 <= 1
C1685: + x234 + x290 <= 1
C1686: + x22 + x86 <= 1
C1687: + x44 + x390 <= 1
C1688: + x24 + x253 <= 1
C1689: + x36 + x120 <= 1
C1690: + x7 + x349 <= 1
C1691: + x41 + x116 + x453 <= 1
C1692: + x69 + x81 <= 1
C1693: + x54 + x160 <= 1
C1694: + x247 + x328 <= 1
C1695: + x174 + x467 <= 1
C1696: + x33 + x74 <= 1
C1697: + x23 + x61 <= 1
C1698: + x198 + x477 <= 1
C1699: + x199 + x475 <= 1
C1700: + x19 + x428 <= 1
C1701: + x6 + x29 <= 1
C1702: + x79 + x138 <= 1
C1703: + x5 + x40 <= 1
C1704: + x23 + x154 <= 1
C1705: + x244 + x477 <= 1
C1706: + x17 + x134 <= 1
C1707: + x199 + x201 <= 1
C1708: + x5 + x274 <= 1
C1709: + x72 + x250 <= 1
C1710: + x70 + x310 <= 1
C1711: + x8 + x172 <= 1
C1712: + x2 + x225 <= 1
C1713: + x57 + x396 <= 1
C1714: + x25 + x245 <= 1
C1715: + x334 + x343 <= 1
C1716: + x18 + x70 <= 1
C1717: + x37 + x189 <= 1
C1718: + x313 + x414 <= 1
C1719: + x104 + x354 <= 1
C1720: + x116 + x465 <= 1
C1721: + x8 + x366 <= 1
C1722: + x238 + x251 <= 1
C1723: + x3 + x130 <= 1
C1724: + x5 + x251 <= 1
C1725: + x24 + x335 <= 1
C1726: + x1 + x11 <= 1
C1727: + x5 + x469 <= 1
C1728: + x26 + x55 <= 1
C1729: + x8 + x387 <= 1
C1730: + x20 + x41 <= 1
C1731: + x176 + x270 <= 1
C1732: + x5 + x138 <= 1
C1733: + x35 + x317 <= 1
C1734: + x229 + x339 <= 1
C1735: + x16 + x93 <= 1
C1736: + x127 + x236 <= 1
C1737: + x120 + x271 <= 1
C1738: + x71 + x324 <= 1
C1739: + x6 + x407 <= 1
C1740: + x218 + x246 <= 1
C1741: + x10 + x281 <= 1
C1742: + x318 + x389 <= 1
C1743: + x12 + x21 + x155 <= 1
C1744: + x4 + x294 <= 1
C1745: + x70 + x319 <= 1
C1746: + x45 + x186 <= 1
C1747: + x299 + x308 <= 1
C1748: + x6 + x91 <= 1
C1749: + x36 + x372 <= 1
C1750: + x46 + x52 <= 1
C1751: + x11 + x24 <= 1
C1752: + x55 + x428 <= 1
C1753: + x60 + x362 <= 1
C1754: + x5 + x226 <= 1
C1755: + x42 + x271 <= 1
C1756: + x201 + x215 <= 1
C1757: + x86 + x94 <= 1
C1758: + x6 + x15 <= 1
C1759: + x65 + x140 <= 1
C1760: + x263 + x474 <= 1
C1761: + x29 + x367 <= 1
C1762: + x77 + x364 <= 1
C1763: + x286 + x452 <= 1
C1764: + x5 + x22 <= 1
C1765: + x8 + x9 <= 1
C1766: + x291 + x444 <= 1
C1767: + x79 + x267 <= 1
C1768: + x37 + x489 <= 1
C1769: + x6 + x51 <= 1
C1770: + x7 + x193 <= 1
C1771: + x152 + x355 <= 1
C1772: + x16 + x203 <= 1
C1773: + x52 + x397 <= 1
C1774: + x87 + x489 <= 1
C1775: + x24 + x155 <= 1
C1776: + x6 + x289 <= 1
C1777: + x1 + x106 <= 1
C1778: + x210 + x315 <= 1
C1779: + x38 + x61 <= 1
C1780: + x78 + x86 <= 1
C1781: + x13 + x471 <= 1
C1782: + x352 + x450 <= 1
C1783: + x15 + x23 <= 1
C1784: + x5 + x233 <= 1
C1785: + x6 + x231 <= 1
C1786: + x145 + x191 <= 1
C1787: + x295 + x479 <= 1
C1788: + x336 + x425 <= 1
C1789: + x120 + x368 <= 1
C1790: + x85 + x436 <= 1
C1791: + x37 + x151 <= 1
C1792: + x39 + x316 <= 1
C1793: + x7 + x144 <= 1
C1794: + x10 + x442 <= 1
C1795: + x1 + x184 <= 1
C1796: + x92 + x247 <= 1
C1797: + x237 + x356 <= 1
C1798: + x262 + x451 <= 1
C1799: + x156 + x254 <= 1
C1800: + x5 + x29 <= 1
C1801: + x69 + x264 <= 1
C1802: + x6 + x358 <= 1
C1803: + x27 + x34 <= 1
C1804: + x146 + x456 <= 1
C1805: + x74 + x496 <= 1
C1806: + x225 + x473 <= 1
C1807: + x88 + x355 <= 1
C1808: + x11 + x409 <= 1
C1809: + x85 + x392 <= 1
C1810: + x22 + x422 <= 1
C1811: + x5 + x164 <= 1
C1812: + x61 + x284 <= 1
C1813: + x7 + x188 <= 1
C1814: + x11 + x183 <= 1
C1815: + x29 + x314 <= 1
C1816: + x4 + x79 <= 1
C1817: + x22 + x249 <= 1
C1818: + x24 + x148 <= 1
C1819: + x117 + x187 <= 1
C1820: + x8 + x54 <= 1
C1821: + x148 + x500 <= 1
C1822: + x227 + x255 <= 1
C1823: + x84 + x143 <= 1
C1824: + x29 + x425 <= 1
C1825: + x14 + x61 <= 1
C1826: + x260 + x403 <= 1
C1827: + x6 + x240 <= 1
C1828: + x45 + x498 <= 1
C1829: + x21 + x211 <= 1
C1830: + x116 + x341 <= 1
C1831: + x28 + x318 <= 1
C1832: + x49 + x300 <= 1
C1833: + x12 + x434 <= 1
C1834: + x20 + x499 <= 1
C1835: + x5 + x359 <= 1
C1836: + x6 + x113 <= 1
C1837: + x79 + x230 <= 1
C1838: + x95 + x248 <= 1
C1839: + x104 + x168 <= 1
C1840: + x5 + x28 <= 1
C1841: + x14 + x241 <= 1
C1842: + x1 + x44 <= 1
C1843: + x24 + x60 <= 1
C1844: + x16 + x463 <= 1
C1845: + x6 + x386 <= 1
C1846: + x32 + x44 <= 1
C1847: + x127 + x475 <= 1
C1848: + x18 + x135 <= 1
C1849: + x146 + x330 <= 1
C1850: + x20 + x286 <= 1
C1851: + x114 + x139 <= 1
C1852: + x5 + x389 <= 1
C1853: + x6 + x275 <= 1
C1854: + x54 + x297 <= 1
C1855: + x55 + x175 <= 1
C1856: + x8 + x51 <= 1
C1857: + x21 + x107 <= 1
C1858: + x248 + x277 <= 1
C1859: + x139 + x304 <= 1
C1860: + x5 + x314 <= 1
C1861: + x298 + x306 <= 1
C1862: + x7 + x78 <= 1
C1863: + x68 + x352 <= 1
C1864: + x89 + x302 <= 1
C1865: + x92 + x326 <= 1
C1866: + x13 + x170 <= 1
C1867: + x108 + x167 <= 1
C1868: + x35 + x466 <= 1
C1869: + x117 + x380 <= 1
C1870: + x7 + x239 <= 1
C1871: + x11 + x230 <= 1
C1872: + x21 + x218 <= 1
C1873: + x48 + x89 <= 1
C1874: + x378 + x479 <= 1
C1875: + x150 + x444 <= 1
C1876: + x5 + x457 <= 1
C1877: + x38 + x430 <= 1
C1878: + x5 + x366 <= 1
C1879: + x6 + x122 <= 1
C1880: + x10 + x127 <= 1
C1881: + x2 + x10 <= 1
C1882: + x7 + x368 <= 1
C1883: + x281 + x438 <= 1
C1884: + x75 + x490 <= 1
C1885: + x344 + x448 <= 1
C1886: + x7 + x9 <= 1
C1887: + x130 + x238 <= 1
C1888: + x275 + x377 <= 1
C1889: + x260 + x372 <= 1
C1890: + x107 + x322 <= 1
C1891: + x17 + x149 <= 1
C1892: + x6 + x284 <= 1
C1893: + x75 + x478 <= 1
C1894: + x39 + x176 <= 1
C1895: + x243 + x331 <= 1
C1896: + x164 + x291 <= 1
C1897: + x55 + x67 <= 1
C1898: + x11 + x12 <= 1
C1899: + x75 + x204 <= 1
C1900: + x123 + x450 <= 1
C1901: + x290 + x412 <= 1
C1902: + x9 + x129 <= 1
C1903: + x8 + x185 <= 1
C1904: + x7 + x299 <= 1
C1905: + x39 + x63 <= 1
C1906: + x41 + x85 <= 1
C1907: + x18 + x87 <= 1
C1908: + x11 + x322 <= 1
C1909: + x285 + x302 <= 1
C1910: + x228 + x358 <= 1
C1911: + x193 + x386 <= 1
C1912: + x10 + x20 + x32 <= 1
C1913: + x5 + x10 <= 1
C1914: + x27 + x59 <= 1
C1915: + x9 + x205 <= 1
C1916: + x7 + x359 <= 1
C1917: + x154 + x384 <= 1
C1918: + x104 + x456 <= 1
C1919: + x161 + x264 <= 1
C1920: + x24 + x74 <= 1
C1921: + x1 + x455 <= 1
C1922: + x120 + x399 <= 1
C1923: + x385 + x497 <= 1
C1924: + x403 + x445 <= 1
C1925: + x5 + x153 <= 1
C1926: + x6 + x23 <= 1
C1927: + x151 + x236 <= 1
C1928: + x27 + x497 <= 1
C1929: + x164 + x347 <= 1
C1930: + x54 + x488 <= 1
C1931: + x13 + x201 <= 1
C1932: + x23 + x132 <= 1
C1933: + x5 + x395 <= 1
C1934: + x18 + x20 <= 1
C1935: + x8 + x33 <= 1
C1936: + x24 + x30 <= 1
C1937: + x79 + x307 <= 1
C1938: + x129 + x200 <= 1
C1939: + x251 + x262 <= 1
C1940: + x7 + x217 <= 1
C1941: + x1 + x229 <= 1
C1942: + x20 + x248 <= 1
C1943: + x8 + x178 <= 1
C1944: + x77 + x405 <= 1
C1945: + x69 + x199 <= 1
C1946: + x6 + x108 <= 1
C1947: + x8 + x380 <= 1
C1948: + x158 + x246 <= 1
C1949: + x6 + x143 <= 1
C1950: + x26 + x142 <= 1
C1951: + x6 + x346 <= 1
C1952: + x8 + x102 <= 1
C1953: + x153 + x492 <= 1
C1954: + x71 + x315 <= 1
C1955: + x20 + x31 <= 1

binary
x1 x2 x3 x4 x5 x6 x7 x8 x9 x10 x11 x12 x13 x14 x15 x16 x17 x18 x19 x20 x21 x22 x23 x24 x25 x26 x27 x28 x29 x30 x31 x32 x33 x34 x35 x36 x37 x38 x39 x40 x41 x42 x43 x44 x45 x46 x47 x48 x49 x50 x51 x52 x53 x54 x55 x56 x57 x58 x59 x60 x61 x62 x63 x64 x65 x66 x67 x68 x69 x70 x71 x72 x73 x74 x75 x76 x77 x78 x79 x80 x81 x82 x83 x84 x85 x86 x87 x88 x89 x90 x91 x92 x93 x94 x95 x96 x97 x98 x99 x100 x101 x102 x103 x104 x105 x106 x107 x108 x109 x110 x111 x112 x113 x114 x115 x116 x117 x118 x119 x120 x121 x122 x123 x124 x125 x126 x127 x128 x129 x130 x131 x132 x133 x134 x135 x136 x137 x138 x139 x140 x141 x142 x143 x144 x145 x146 x147 x148 x149 x150 x151 x152 x153 x154 x155 x156 x157 x158 x159 x160 x161 x162 x163 x164 x165 x166 x167 x168 x169 x170 x171 x172 x173 x174 x175 x176 x177 x178 x179 x180 x181 x182 x183 x184 x185 x186 x187 x188 x189 x190 x191 x192 x193 x194 x195 x196 x197 x198 x199 x200 x201 x202 x203 x204 x205 x206 x207 x208 x209 x210 x211 x212 x213 x214 x215 x216 x217 x218 x219 x220 x221 x222 x223 x224 x225 x226 x227 x228 x229 x230 x231 x232 x233 x234 x235 x236 x237 x238 x239 x240 x241 x242 x243 x244 x245 x246 x247 x248 x249 x250 x251 x252 x253 x254 x255 x256 x257 x258 x259 x260 x261 x262 x263 x264 x265 x266 x267 x268 x269 x270 x271 x272 x273 x274 x275 x276 x277 x278 x279 x280 x281 x282 x283 x284 x285 x286 x287 x288 x289 x290 x291 x292 x293 x294 x295 x296 x297 x298 x299 x300 x301 x302 x303 x304 x305 x306 x307 x308 x309 x310 x311 x312 x313 x314 x315 x316 x317 x318 x319 x320 x321 x322 x323 x324 x325 x326 x327 x328 x329 x330 x331 x332 x333 x334 x335 x336 x337 x338 x339 x340 x341 x342 x343 x344 x345 x346 x347 x348 x349 x350 x351 x352 x353 x354 x355 x356 x357 x358 x359 x360 x361 x362 x363 x364 x365 x366 x367 x368 x369 x370 x371 x372 x373 x374 x375 x376 x377 x378 x379 x380 x381 x382 x383 x384 x385 x386 x387 x388 x389 x390 x391 x392 x393 x394 x395 x396 x397 x398 x399 x400 x401 x402 x403 x404 x405 x406 x407 x408 x409 x410 x411 x412 x413 x414 x415 x416 x417 x418 x419 x420 x421 x422 x423 x424 x425 x426 x427 x428 x429 x430 x431 x432 x433 x434 x435 x436 x437 x438 x439 x440 x441 x442 x443 x444 x445 x446 x447 x448 x449 x450 x451 x452 x453 x454 x455 x456 x457 x458 x459 x460 x461 x462 x463 x464 x465 x466 x467 x468 x469 x470 x471 x472 x473 x474 x475 x476 x477 x478 x479 x480 x481 x482 x483 x484 x485 x486 x487 x488 x489 x490 x491 x492 x493 x494 x495 x496 x497 x498 x499 x500
