maximize
OBJ: + 1 x1 + 1 x2 + 1 x3 + 1 x4 + 1 x5 + 1 x6 + 1 x7 + 1 x8 + 1 x9 + 1 x10 + 1 x11 + 1 x12 + 1 x13 + 1 x14 + 1 x15 + 1 x16 + 1 x17 + 1 x18 + 1 x19 + 1 x20 + 1 x21 + 1 x22 + 1 x23 + 1 x24 + 1 x25 + 1 x26 + 1 x27 + 1 x28 + 1 x29 + 1 x30 + 1 x31 + 1 x32 + 1 x33 + 1 x34 + 1 x35 + 1 x36 + 1 x37 + 1 x38 + 1 x39 + 1 x40 + 1 x41 + 1 x42 + 1 x43 + 1 x44 + 1 x45 + 1 x46 + 1 x47 + 1 x48 + 1 x49 + 1 x50 + 1 x51 + 1 x52 + 1 x53 + 1 x54 + 1 x55 + 1 x56 + 1 x57 + 1 x58 + 1 x59 + 1 x60 + 1 x61 + 1 x62 + 1 x63 + 1 x64 + 1 x65 + 1 x66 + 1 x67 + 1 x68 + 1 x69 + 1 x70 + 1 x71 + 1 x72 + 1 x73 + 1 x74 + 1 x75 + 1 x76 + 1 x77 + 1 x78 + 1 x79 + 1 x80 + 1 x81 + 1 x82 + 1 x83 + 1 x84 + 1 x85 + 1 x86 + 1 x87 + 1 x88 + 1 x89 + 1 x90 + 1 x91 + 1 x92 + 1 x93 + 1 x94 + 1 x95 + 1 x96 + 1 x97 + 1 x98 + 1 x99 + 1 x100 + 1 x101 + 1 x102 + 1 x103 + 1 x104 + 1 x105 + 1 x106 + 1 x107 + 1 x108 + 1 x109 + 1 x110 + 1 x111 + 1 x112 + 1 x113 + 1 x114 + 1 x115 + 1 x116 + 1 x117 + 1 x118 + 1 x119 + 1 x120 + 1 x121 + 1 x122 + 1 x123 + 1 x124 + 1 x125 + 1 x126 + 1 x127 + 1 x128 + 1 x129 + 1 x130 + 1 x131 + 1 x132 + 1 x133 + 1 x134 + 1 x135 + 1 x136 + 1 x137 + 1 x138 + 1 x139 + 1 x140 + 1 x141 + 1 x142 + 1 x143 + 1 x144 + 1 x145 + 1 x146 + 1 x147 + 1 x148 + 1 x149 + 1 x150 + 1 x151 + 1 x152 + 1 x153 + 1 x154 + 1 x155 + 1 x156 + 1 x157 + 1 x158 + 1 x159 + 1 x160 + 1 x161 + 1 x162 + 1 x163 + 1 x164 + 1 x165 + 1 x166 + 1 x167 + 1 x168 + 1 x169 + 1 x170 + 1 x171 + 1 x172 + 1 x173 + 1 x174 + 1 x175 + 1 x176 + 1 x177 + 1 x178 + 1 x179 + 1 x180 + 1 x181 + 1 x182 + 1 x183 + 1 x184 + 1 x185 + 1 x186 + 1 x187 + 1 x188 + 1 x189 + 1 x190 + 1 x191 + 1 x192 + 1 x193 + 1 x194 + 1 x195 + 1 x196 + 1 x197 + 1 x198 + 1 x199 + 1 x200 + 1 x201 + 1 x202 + 1 x203 + 1 x204 + 1 x205 + 1 x206 + 1 x207 + 1 x208 + 1 x209 + 1 x210 + 1 x211 + 1 x212 + 1 x213 + 1 x214 + 1 x215 + 1 x216 + 1 x217 + 1 x218 + 1 x219 + 1 x220 + 1 x221 + 1 x222 + 1 x223 + 1 x224 + 1 x225 + 1 x226 + 1 x227 + 1 x228 + 1 x229 + 1 x230 + 1 x231 + 1 x232 + 1 x233 + 1 x234 + 1 x235 + 1 x236 + 1 x237 + 1 x238 + 1 x239 + 1 x240 + 1 x241 + 1 x242 + 1 x243 + 1 x244 + 1 x245 + 1 x246 + 1 x247 + 1 x248 + 1 x249 + 1 x250 + 1 x251 + 1 x252 + 1 x253 + 1 x254 + 1 x255 + 1 x256 + 1 x257 + 1 x258 + 1 x259 + 1 x260 + 1 x261 + 1 x262 + 1 x263 + 1 x264 + 1 x265 + 1 x266 + 1 x267 + 1 x268 + 1 x269 + 1 x270 + 1 x271 + 1 x272 + 1 x273 + 1 x274 + 1 x275 + 1 x276 + 1 x277 + 1 x278 + 1 x279 + 1 x280 + 1 x281 + 1 x282 + 1 x283 + 1 x284 + 1 x285 + 1 x286 + 1 x287 + 1 x288 + 1 x289 + 1 x290 + 1 x291 + 1 x292 + 1 x293 + 1 x294 + 1 x295 + 1 x296 + 1 x297 + 1 x298 + 1 x299 + 1 x300 + 1 x301 + 1 x302 + 1 x303 + 1 x304 + 1 x305 + 1 x306 + 1 x307 + 1 x308 + 1 x309 + 1 x310 + 1 x311 + 1 x312 + 1 x313 + 1 x314 + 1 x315 + 1 x316 + 1 x317 + 1 x318 + 1 x319 + 1 x320 + 1 x321 + 1 x322 + 1 x323 + 1 x324 + 1 x325 + 1 x326 + 1 x327 + 1 x328 + 1 x329 + 1 x330 + 1 x331 + 1 x332 + 1 x333 + 1 x334 + 1 x335 + 1 x336 + 1 x337 + 1 x338 + 1 x339 + 1 x340 + 1 x341 + 1 x342 + 1 x343 + 1 x344 + 1 x345 + 1 x346 + 1 x347 + 1 x348 + 1 x349 + 1 x350 + 1 x351 + 1 x352 + 1 x353 + 1 x354 + 1 x355 + 1 x356 + 1 x357 + 1 x358 + 1 x359 + 1 x360 + 1 x361 + 1 x362 + 1 x363 + 1 x364 + 1 x365 + 1 x366 + 1 x367 + 1 x368 + 1 x369 + 1 x370 + 1 x371 + 1 x372 + 1 x373 + 1 x374 + 1 x375 + 1 x376 + 1 x377 + 1 x378 + 1 x379 + 1 x380 + 1 x381 + 1 x382 + 1 x383 + 1 x384 + 1 x385 + 1 x386 + 1 x387 + 1 x388 + 1 x389 + 1 x390 + 1 x391 + 1 x392 + 1 x393 + 1 x394 + 1 x395 + 1 x396 + 1 x397 + 1 x398 + 1 x399 + 1 x400 + 1 x401 + 1 x402 + 1 x403 + 1 x404 + 1 x405 + 1 x406 + 1 x407 + 1 x408 + 1 x409 + 1 x410 + 1 x411 + 1 x412 + 1 x413 + 1 x414 + 1 x415 + 1 x416 + 1 x417 + 1 x418 + 1 x419 + 1 x420 + 1 x421 + 1 x422 + 1 x423 + 1 x424 + 1 x425 + 1 x426 + 1 x427 + 1 x428 + 1 x429 + 1 x430 + 1 x431 + 1 x432 + 1 x433 + 1 x434 + 1 x435 + 1 x436 + 1 x437 + 1 x438 + 1 x439 + 1 x440 + 1 x441 + 1 x442 + 1 x443 + 1 x444 + 1 x445 + 1 x446 + 1 x447 + 1 x448 + 1 x449 + 1 x450 + 1 x451 + 1 x452 + 1 x453 + 1 x454 + 1 x455 + 1 x456 + 1 x457 + 1 x458 + 1 x459 + 1 x460 + 1 x461 + 1 x462 + 1 x463 + 1 x464 + 1 x465 + 1 x466 + 1 x467 + 1 x468 + 1 x469 + 1 x470 + 1 x471 + 1 x472 + 1 x473 + 1 x474 + 1 x475 + 1 x476 + 1 x477 + 1 x478 + 1 x479 + 1 x480 + 1 x481 + 1 x482 + 1 x483 + 1 x484 + 1 x485 + 1 x486 + 1 x487 + 1 x488 + 1 x489 + 1 x490 + 1 x491 + 1 x492 + 1 x493 + 1 x494 + 1 x495 + 1 x496 + 1 x497 + 1 x498 + 1 x499 + 1 x500

subject to
C1: + x422 + x490 <= 1
C2: + x296 + x303 <= 1
C3: + x53 + x333 <= 1
C4: + x18 + x295 <= 1
C5: + x144 + x184 <= 1
C6: + x1 + x176 <= 1
C7: + x6 + x32 <= 1
C8: + x3 + x224 <= 1
C9: + x112 + x228 <= 1
C10: + x42 + x425 <= 1
C11: + x100 + x333 <= 1
C12: + x153 + x166 <= 1
C13: + x24 + x265 <= 1
C14: + x198 + x206 <= 1
C15: + x8 + x26 <= 1
C16: + x119 + x143 <= 1
C17: + x29 + x163 <= 1
C18: + x193 + x242 <= 1
C19: + x85 + x267 <= 1
C20: + x5 + x204 <= 1
C21: + x44 + x462 <= 1
C22: + x181 + x187 <= 1
C23: + x237 + x304 <= 1
C24: + x11 + x159 <= 1
C25: + x174 + x248 <= 1
C26: + x33 + x368 <= 1
C27: + x18 + x65 <= 1
C28: + x47 + x217 <= 1
C29: + x183 + x489 <= 1
C30: + x2 + x29 <= 1
C31: + x4 + x232 <= 1
C32: + x2 + x192 <= 1
C33: + x21 + x59 <= 1
C34: + x312 + x468 <= 1
C35: + x13 + x112 <= 1
C36: + x327 + x391 <= 1
C37: + x119 + x279 <= 1
C38: + x275 + x358 <= 1
C39: + x114 + x460 <= 1
C40: + x13 + x282 <= 1
C41: + x87 + x241 <= 1
C42: + x70 + x270 <= 1
C43: + x79 + x142 <= 1
C44: + x219 + x425 <= 1
C45: + x10 + x94 <= 1
C46: + x11 + x86 <= 1
C47: + x107 + x226 <= 1
C48: + x108 + x246 <= 1
C49: + x180 + x225 <= 1
C50: + x8 + x23 <= 1
C51: + x64 + x118 <= 1
C52: + x29 + x186 <= 1
C53: + x37 + x245 <= 1
C54: + x3 + x380 <= 1
C55: + x33 + x189 <= 1
C56: + x325 + x427 <= 1
C57: + x129 + x283 <= 1
C58: + x11 + x37 <= 1
C59: + x4 + x289 <= 1
C60: + x6 + x205 <= 1
C61: + x16 + x193 <= 1
C62: + x264 + x314 <= 1
C63: + x31 + x221 <= 1
C64: + x34 + x148 <= 1
C65: + x18 + x58 <= 1
C66: + x9 + x19 <= 1
C67: + x7 + x441 <= 1
C68: + x133 + x194 <= 1
C69: + x6 + x94 <= 1
C70: + x26 + x394 <= 1
C71: + x103 + x170 <= 1
C72: + x167 + x200 <= 1
C73: + x42 + x495 <= 1
C74: + x151 + x439 <= 1
C75: + x2 + x177 <= 1
C76: + x13 + x436 <= 1
C77: + x96 + x402 <= 1
C78: + x171 + x432 <= 1
C79: + x262 + x491 <= 1
C80: + x3 + x13 <= 1
C81: + x42 + x128 <= 1
C82: + x8 + x286 <= 1
C83: + x28 + x61 <= 1
C84: + x46 + x438 <= 1
C85: + x17 + x241 <= 1
C86: + x37 + x244 <= 1
C87: + x241 + x261 <= 1
C88: + x41 + x162 <= 1
C89: + x366 + x466 <= 1
C90: + x21 + x296 <= 1
C91: + x29 + x387 <= 1
C92: + x194 + x454 <= 1
C93: + x6 + x54 <= 1
C94: + x70 + x315 <= 1
C95: + x10 + x51 <= 1
C96: + x28 + x73 <= 1
C97: + x40 + x169 <= 1
C98: + x242 + x455 <= 1
C99: + x50 + x263 <= 1
C100: + x42 + x181 <= 1
C101: + x33 + x144 <= 1
C102: + x354 + x379 <= 1
C103: + x52 + x158 <= 1
C104: + x10 + x457 <= 1
C105: + x29 + x343 <= 1
C106: + x4 + x5 + x10 <= 1
C107: + x51 + x443 <= 1
C108: + x5 + x238 <= 1
C109: + x15 + x173 <= 1
C110: + x16 + x295 <= 1
C111: + x38 + x129 <= 1
C112: + x379 + x456 <= 1
C113: + x5 + x480 <= 1
C114: + x16 + x49 <= 1
C115: + x290 + x351 <= 1
C116: + x11 + x426 <= 1
C117: + x15 + x96 <= 1
C118: + x35 + x308 <= 1
C119: + x10 + x80 <= 1
C120: + x8 + x226 <= 1
C121: + x26 + x378 <= 1
C122: + x108 + x311 <= 1
C123: + x27 + x35 <= 1
C124: + x230 + x437 <= 1
C125: + x12 + x66 <= 1
C126: + x142 + x308 <= 1
C127: + x20 + x437 <= 1
C128: + x50 + x114 <= 1
C129: + x18 + x137 <= 1
C130: + x28 + x66 <= 1
C131: + x13 + x33 <= 1
C132: + x14 + x175 <= 1
C133: + x179 + x313 <= 1
C134: + x4 + x78 <= 1
C135: + x42 + x336 <= 1
C136: + x27 + x247 <= 1
C137: + x1 + x6 + x7 <= 1
C138: + x239 + x302 <= 1
C139: + x59 + x355 <= 1
C140: + x116 + x419 <= 1
C141: + x49 + x346 <= 1
C142: + x6 + x227 <= 1
C143: + x145 + x179 <= 1
C144: + x18 + x370 <= 1
C145: + x28 + x158 <= 1
C146: + x102 + x191 <= 1
C147: + x10 + x232 <= 1
C148: + x114 + x201 <= 1
C149: + x334 + x441 <= 1
C150: + x18 + x104 <= 1
C151: + x164 + x385 <= 1
C152: + x11 + x337 <= 1
C153: + x13 + x263 <= 1
C154: + x116 + x495 <= 1
C155: + x3 + x164 <= 1
C156: + x170 + x224 <= 1
C157: + x43 + x283 <= 1
C158: + x14 + x244 <= 1
C159: + x183 + x288 <= 1
C160: + x303 + x478 <= 1
C161: + x21 + x28 <= 1
C162: + x13 + x406 <= 1
C163: + x15 + x466 <= 1
C164: + x80 + x142 <= 1
C165: + x10 + x271 <= 1
C166: + x29 + x401 <= 1
C167: + x114 + x299 <= 1
C168: + x12 + x361 <= 1
C169: + x137 + x384 <= 1
C170: + x11 + x179 <= 1
C171: + x273 + x408 <= 1
C172: + x387 + x388 <= 1
C173: + x10 + x160 <= 1
C174: + x28 + x230 <= 1
C175: + x29 + x91 <= 1
C176: + x47 + x245 <= 1
C177: + x27 + x275 <= 1
C178: + x66 + x313 <= 1
C179: + x55 + x442 <= 1
C180: + x3 + x103 <= 1
C181: + x106 + x130 <= 1
C182: + x4 + x196 <= 1
C183: + x117 + x377 <= 1
C184: + x145 + x170 <= 1
C185: + x7 + x236 <= 1
C186: + x8 + x71 <= 1
C187: + x11 + x231 <= 1
C188: + x211 + x335 <= 1
C189: + x41 + x107 <= 1
C190: + x12 + x132 <= 1
C191: + x53 + x139 <= 1
C192: + x8 + x486 <= 1
C193: + x250 + x386 <= 1
C194: + x29 + x476 <= 1
C195: + x31 + x468 <= 1
C196: + x25 + x55 <= 1
C197: + x255 + x296 <= 1
C198: + x20 + x342 <= 1
C199: + x5 + x8 <= 1
C200: + x8 + x123 <= 1
C201: + x11 + x299 <= 1
C202: + x4 + x482 <= 1
C203: + x24 + x56 <= 1
C204: + x11 + x400 <= 1
C205: + x33 + x38 <= 1
C206: + x100 + x350 <= 1
C207: + x28 + x96 <= 1
C208: + x176 + x208 <= 1
C209: + x161 + x184 <= 1
C210: + x15 + x332 <= 1
C211: + x18 + x38 <= 1
C212: + x6 + x287 <= 1
C213: + x10 + x129 <= 1
C214: + x3 + x404 <= 1
C215: + x33 + x149 <= 1
C216: + x8 + x334 <= 1
C217: + x191 + x419 <= 1
C218: + x11 + x500 <= 1
C219: + x14 + x50 <= 1
C220: + x16 + x233 <= 1
C221: + x84 + x119 <= 1
C222: + x20 + x238 <= 1
C223: + x47 + x111 <= 1
C224: + x442 + x470 <= 1
C225: + x170 + x372 <= 1
C226: + x10 + x333 <= 1
C227: + x1 + x440 <= 1
C228: + x239 + x268 <= 1
C229: + x25 + x62 <= 1
C230: + x103 + x130 <= 1
C231: + x4 + x245 <= 1
C232: + x34 + x306 <= 1
C233: + x152 + x277 <= 1
C234: + x28 + x168 <= 1
C235: + x65 + x487 <= 1
C236: + x1 + x39 <= 1
C237: + x2 + x169 <= 1
C238: + x4 + x20 <= 1
C239: + x124 + x287 <= 1
C240: + x70 + x124 <= 1
C241: + x7 + x13 <= 1
C242: + x120 + x398 <= 1
C243: + x8 + x9 + x12 <= 1
C244: + x21 + x316 <= 1
C245: + x13 + x361 <= 1
C246: + x23 + x36 <= 1
C247: + x98 + x99 <= 1
C248: + x16 + x375 <= 1
C249: + x1 + x214 <= 1
C250: + x2 + x218 <= 1
C251: + x98 + x206 <= 1
C252: + x14 + x357 <= 1
C253: + x2 + x357 <= 1
C254: + x26 + x111 <= 1
C255: + x15 + x496 <= 1
C256: + x37 + x57 <= 1
C257: + x11 + x56 <= 1
C258: + x2 + x75 <= 1
C259: + x195 + x486 <= 1
C260: + x13 + x349 <= 1
C261: + x215 + x320 <= 1
C262: + x31 + x435 <= 1
C263: + x21 + x272 <= 1
C264: + x252 + x399 <= 1
C265: + x10 + x374 <= 1
C266: + x77 + x410 <= 1
C267: + x23 + x495 <= 1
C268: + x327 + x378 <= 1
C269: + x164 + x170 <= 1
C270: + x72 + x390 <= 1
C271: + x102 + x158 <= 1
C272: + x383 + x409 <= 1
C273: + x7 + x8 <= 1
C274: + x190 + x371 <= 1
C275: + x6 + x19 <= 1
C276: + x152 + x216 <= 1
C277: + x53 + x322 <= 1
C278: + x30 + x141 <= 1
C279: + x160 + x451 <= 1
C280: + x9 + x61 <= 1
C281: + x317 + x417 <= 1
C282: + x41 + x177 <= 1
C283: + x4 + x412 <= 1
C284: + x62 + x199 <= 1
C285: + x29 + x434 <= 1
C286: + x15 + x148 <= 1
C287: + x2 + x239 <= 1
C288: + x29 + x215 <= 1
C289: + x21 + x236 <= 1
C290: + x242 + x373 <= 1
C291: + x85 + x383 <= 1
C292: + x53 + x104 <= 1
C293: + x16 + x30 <= 1
C294: + x18 + x68 <= 1
C295: + x12 + x22 <= 1
C296: + x13 + x299 <= 1
C297: + x115 + x489 <= 1
C298: + x150 + x301 <= 1
C299: + x1 + x291 <= 1
C300: + x117 + x282 <= 1
C301: + x181 + x196 <= 1
C302: + x228 + x462 <= 1
C303: + x69 + x82 <= 1
C304: + x60 + x109 <= 1
C305: + x4 + x469 <= 1
C306: + x9 + x85 <= 1
C307: + x19 + x264 <= 1
C308: + x37 + x123 <= 1
C309: + x385 + x460 <= 1
C310: + x221 + x309 <= 1
C311: + x194 + x436 <= 1
C312: + x42 + x114 <= 1
C313: + x145 + x218 <= 1
C314: + x83 + x233 <= 1
C315: + x101 + x160 <= 1
C316: + x8 + x300 <= 1
C317: + x164 + x328 <= 1
C318: + x199 + x476 <= 1
C319: + x21 + x175 <= 1
C320: + x170 + x232 <= 1
C321: + x198 + x202 <= 1
C322: + x73 + x484 <= 1
C323: + x227 + x318 <= 1
C324: + x59 + x187 <= 1
C325: + x48 + x314 <= 1
C326: + x13 + x494 <= 1
C327: + x334 + x453 <= 1
C328: + x7 + x43 <= 1
C329: + x347 + x356 <= 1
C330: + x114 + x259 <= 1
C331: + x206 + x413 <= 1
C332: + x109 + x274 <= 1
C333: + x118 + x331 <= 1
C334: + x28 + x127 <= 1
C335: + x96 + x481 <= 1
C336: + x71 + x262 <= 1
C337: + x326 + x457 <= 1
C338: + x249 + x298 <= 1
C339: + x47 + x221 <= 1
C340: + x120 + x325 <= 1
C341: + x33 + x118 <= 1
C342: + x104 + x353 <= 1
C343: + x37 + x432 <= 1
C344: + x264 + x334 <= 1
C345: + x5 + x252 <= 1
C346: + x32 + x123 <= 1
C347: + x128 + x183 <= 1
C348: + x201 + x372 <= 1
C349: + x33 + x320 <= 1
C350: + x51 + x362 <= 1
C351: + x107 + x280 <= 1
C352: + x32 + x341 <= 1
C353: + x16 + x47 <= 1
C354: + x159 + x404 <= 1
C355: + x4 + x7 <= 1
C356: + x40 + x235 <= 1
C357: + x38 + x393 <= 1
C358: + x318 + x464 <= 1
C359: + x4 + x377 <= 1
C360: + x5 + x139 <= 1
C361: + x99 + x126 <= 1
C362: + x102 + x483 <= 1
C363: + x10 + x399 <= 1
C364: + x28 + x60 <= 1
C365: + x280 + x480 <= 1
C366: + x47 + x447 <= 1
C367: + x2 + x45 <= 1
C368: + x33 + x431 <= 1
C369: + x26 + x167 <= 1
C370: + x8 + x19 <= 1
C371: + x5 + x282 <= 1
C372: + x10 + x288 <= 1
C373: + x193 + x479 <= 1
C374: + x47 + x298 <= 1
C375: + x18 + x147 <= 1
C376: + x72 + x484 <= 1
C377: + x134 + x479 <= 1
C378: + x10 + x14 <= 1
C379: + x173 + x227 <= 1
C380: + x13 + x47 <= 1
C381: + x65 + x84 <= 1
C382: + x303 + x409 <= 1
C383: + x21 + x95 <= 1
C384: + x31 + x311 <= 1
C385: + x4 + x438 <= 1
C386: + x134 + x149 <= 1
C387: + x1 + x305 <= 1
C388: + x136 + x384 <= 1
C389: + x4 + x209 <= 1
C390: + x214 + x423 <= 1
C391: + x26 + x297 <= 1
C392: + x44 + x499 <= 1
C393: + x102 + x137 <= 1
C394: + x4 + x16 <= 1
C395: + x142 + x323 <= 1
C396: + x15 + x448 <= 1
C397: + x7 + x489 <= 1
C398: + x37 + x105 <= 1
C399: + x210 + x253 <= 1
C400: + x3 + x9 <= 1
C401: + x83 + x219 <= 1
C402: + x10 + x75 <= 1
C403: + x48 + x62 <= 1
C404: + x4 + x157 <= 1
C405: + x189 + x348 <= 1
C406: + x36 + x81 <= 1
C407: + x1 + x95 <= 1
C408: + x16 + x165 <= 1
C409: + x144 + x404 <= 1
C410: + x4 + x60 <= 1
C411: + x29 + x141 <= 1
C412: + x13 + x87 <= 1
C413: + x7 + x37 <= 1
C414: + x84 + x266 <= 1
C415: + x266 + x290 <= 1
C416: + x47 + x305 <= 1
C417: + x56 + x288 <= 1
C418: + x60 + x150 <= 1
C419: + x17 + x447 <= 1
C420: + x49 + x472 <= 1
C421: + x12 + x222 <= 1
C422: + x187 + x192 <= 1
C423: + x69 + x462 <= 1
C424: + x23 + x298 <= 1
C425: + x87 + x490 <= 1
C426: + x144 + x424 <= 1
C427: + x11 + x354 <= 1
C428: + x56 + x194 <= 1
C429: + x124 + x323 <= 1
C430: + x252 + x266 <= 1
C431: + x97 + x452 <= 1
C432: + x199 + x273 <= 1
C433: + x2 + x448 <= 1
C434: + x11 + x32 <= 1
C435: + x29 + x339 <= 1
C436: + x7 + x254 <= 1
C437: + x9 + x237 <= 1
C438: + x8 + x77 <= 1
C439: + x12 + x138 <= 1
C440: + x114 + x204 <= 1
C441: + x18 + x99 <= 1
C442: + x139 + x367 <= 1
C443: + x123 + x293 <= 1
C444: + x21 + x188 <= 1
C445: + x4 + x134 <= 1
C446: + x112 + x251 <= 1
C447: + x17 + x236 <= 1
C448: + x15 + x306 <= 1
C449: + x3 + x330 <= 1
C450: + x13 + x78 <= 1
C451: + x3 + x88 <= 1
C452: + x43 + x431 <= 1
C453: + x151 + x200 <= 1
C454: + x100 + x231 <= 1
C455: + x4 + x178 <= 1
C456: + x32 + x193 <= 1
C457: + x10 + x155 <= 1
C458: + x39 + x328 <= 1
C459: + x11 + x462 <= 1
C460: + x69 + x348 <= 1
C461: + x62 + x461 <= 1
C462: + x40 + x146 <= 1
C463: + x442 + x464 <= 1
C464: + x87 + x445 <= 1
C465: + x24 + x103 <= 1
C466: + x399 + x440 <= 1
C467: + x3 + x27 <= 1
C468: + x105 + x410 <= 1
C469: + x4 + x368 <= 1
C470: + x41 + x48 + x70 <= 1
C471: + x14 + x397 <= 1
C472: + x7 + x136 <= 1
C473: + x9 + x302 <= 1
C474: + x291 + x362 <= 1
C475: + x72 + x314 <= 1
C476: + x21 + x40 <= 1
C477: + x4 + x42 <= 1
C478: + x50 + x377 <= 1
C479: + x104 + x465 <= 1
C480: + x388 + x391 <= 1
C481: + x177 + x302 <= 1
C482: + x15 + x119 <= 1
C483: + x6 + x36 <= 1
C484: + x237 + x272 <= 1
C485: + x47 + x416 <= 1
C486: + x97 + x208 <= 1
C487: + x62 + x341 <= 1
C488: + x127 + x202 <= 1
C489: + x47 + x249 <= 1
C490: + x237 + x429 <= 1
C491: + x5 + x315 <= 1
C492: + x256 + x376 <= 1
C493: + x58 + x144 <= 1
C494: + x5 + x224 <= 1
C495: + x49 + x133 + x197 <= 1
C496: + x9 + x326 <= 1
C497: + x28 + x151 <= 1
C498: + x10 + x237 <= 1
C499: + x202 + x360 <= 1
C500: + x12 + x136 <= 1
C501: + x13 + x16 <= 1
C502: + x114 + x198 <= 1
C503: + x188 + x258 <= 1
C504: + x249 + x274 <= 1
C505: + x29 + x107 <= 1
C506: + x15 + x46 <= 1
C507: + x71 + x191 <= 1
C508: + x10 + x126 <= 1
C509: + x2 + x9 <= 1
C510: + x195 + x420 <= 1
C511: + x26 + x131 <= 1
C512: + x236 + x496 <= 1
C513: + x8 + x119 <= 1
C514: + x86 + x430 <= 1
C515: + x205 + x260 <= 1
C516: + x196 + x239 <= 1
C517: + x7 + x10 <= 1
C518: + x191 + x379 <= 1
C519: + x5 + x147 <= 1
C520: + x244 + x251 <= 1
C521: + x146 + x255 <= 1
C522: + x237 + x263 <= 1
C523: + x202 + x317 <= 1
C524: + x54 + x414 <= 1
C525: + x77 + x326 <= 1
C526: + x204 + x240 <= 1
C527: + x18 + x453 <= 1
C528: + x331 + x351 <= 1
C529: + x100 + x270 <= 1
C530: + x180 + x327 <= 1
C531: + x21 + x71 <= 1
C532: + x12 + x28 <= 1
C533: + x30 + x473 <= 1
C534: + x101 + x162 <= 1
C535: + x137 + x294 <= 1
C536: + x129 + x323 <= 1
C537: + x5 + x11 <= 1
C538: + x15 + x210 <= 1
C539: + x16 + x185 <= 1
C540: + x1 + x59 <= 1
C541: + x8 + x112 <= 1
C542: + x325 + x498 <= 1
C543: + x3 + x33 <= 1
C544: + x412 + x491 <= 1
C545: + x35 + x301 <= 1
C546: + x28 + x41 <= 1
C547: + x10 + x83 <= 1
C548: + x194 + x321 <= 1
C549: + x21 + x165 <= 1
C550: + x4 + x165 <= 1
C551: + x169 + x230 <= 1
C552: + x19 + x161 <= 1
C553: + x68 + x132 <= 1
C554: + x24 + x29 <= 1
C555: + x44 + x169 <= 1
C556: + x51 + x91 <= 1
C557: + x23 + x116 <= 1
C558: + x32 + x77 <= 1
C559: + x16 + x254 <= 1
C560: + x164 + x221 <= 1
C561: + x248 + x411 <= 1
C562: + x56 + x91 <= 1
C563: + x14 + x138 <= 1
C564: + x53 + x101 <= 1
C565: + x127 + x168 <= 1
C566: + x227 + x380 <= 1
C567: + x231 + x340 <= 1
C568: + x43 + x95 <= 1
C569: + x24 + x465 <= 1
C570: + x54 + x97 <= 1
C571: + x110 + x313 <= 1
C572: + x67 + x73 <= 1
C573: + x160 + x411 <= 1
C574: + x1 + x50 <= 1
C575: + x11 + x217 <= 1
C576: + x4 + x29 <= 1
C577: + x61 + x92 <= 1
C578: + x32 + x355 <= 1
C579: + x9 + x82 <= 1
C580: + x411 + x500 <= 1
C581: + x114 + x466 <= 1
C582: + x13 + x356 <= 1
C583: + x5 + x129 <= 1
C584: + x21 + x164 <= 1
C585: + x12 + x255 <= 1
C586: + x9 + x33 <= 1
C587: + x256 + x400 <= 1
C588: + x5 + x280 <= 1
C589: + x84 + x375 <= 1
C590: + x107 + x119 <= 1
C591: + x53 + x402 <= 1
C592: + x102 + x223 <= 1
C593: + x303 + x306 <= 1
C594: + x128 + x293 <= 1
C595: + x41 + x310 <= 1
C596: + x33 + x115 <= 1
C597: + x34 + x101 <= 1
C598: + x252 + x359 <= 1
C599: + x18 + x483 <= 1
C600: + x86 + x230 <= 1
C601: + x104 + x203 <= 1
C602: + x39 + x441 <= 1
C603: + x4 + x231 <= 1
C604: + x88 + x444 <= 1
C605: + x100 + x187 <= 1
C606: + x4 + x6 <= 1
C607: + x13 + x105 <= 1
C608: + x51 + x363 <= 1
C609: + x37 + x103 <= 1
C610: + x2 + x474 <= 1
C611: + x6 + x8 <= 1
C612: + x9 + x310 <= 1
C613: + x1 + x168 <= 1
C614: + x10 + x93 <= 1
C615: + x26 + x162 <= 1
C616: + x1 + x69 <= 1
C617: + x55 + x140 <= 1
C618: + x28 + x42 + x102 <= 1
C619: + x12 + x83 <= 1
C620: + x2 + x89 <= 1
C621: + x193 + x476 <= 1
C622: + x95 + x176 <= 1
C623: + x15 + x159 <= 1
C624: + x2 + x252 <= 1
C625: + x85 + x130 <= 1
C626: + x5 + x81 <= 1
C627: + x116 + x313 <= 1
C628: + x53 + x107 <= 1
C629: + x54 + x224 <= 1
C630: + x32 + x452 <= 1
C631: + x147 + x309 <= 1
C632: + x48 + x493 <= 1
C633: + x13 + x131 <= 1
C634: + x461 + x482 <= 1
C635: + x211 + x355 <= 1
C636: + x311 + x444 <= 1
C637: + x33 + x249 <= 1
C638: + x99 + x405 <= 1
C639: + x18 + x117 <= 1
C640: + x67 + x257 <= 1
C641: + x112 + x414 <= 1
C642: + x87 + x265 <= 1
C643: + x10 + x70 <= 1
C644: + x2 + x33 <= 1
C645: + x292 + x347 <= 1
C646: + x67 + x111 <= 1
C647: + x23 + x150 <= 1
C648: + x133 + x428 <= 1
C649: + x153 + x362 <= 1
C650: + x200 + x207 <= 1
C651: + x21 + x23 <= 1
C652: + x34 + x59 <= 1
C653: + x135 + x235 <= 1
C654: + x28 + x378 <= 1
C655: + x102 + x110 <= 1
C656: + x47 + x302 <= 1
C657: + x114 + x320 <= 1
C658: + x4 + x297 <= 1
C659: + x18 + x151 <= 1
C660: + x10 + x50 <= 1
C661: + x3 + x227 <= 1
C662: + x40 + x172 <= 1
C663: + x1 + x408 <= 1
C664: + x243 + x292 <= 1
C665: + x52 + x157 <= 1
C666: + x7 + x94 <= 1
C667: + x70 + x366 <= 1
C668: + x71 + x388 <= 1
C669: + x172 + x318 <= 1
C670: + x190 + x396 <= 1
C671: + x28 + x136 <= 1
C672: + x250 + x284 <= 1
C673: + x13 + x31 <= 1
C674: + x379 + x453 <= 1
C675: + x24 + x109 <= 1
C676: + x9 + x71 <= 1
C677: + x6 + x471 <= 1
C678: + x130 + x287 <= 1
C679: + x3 + x5 <= 1
C680: + x50 + x133 <= 1
C681: + x4 + x358 <= 1
C682: + x352 + x396 <= 1
C683: + x71 + x74 <= 1
C684: + x208 + x407 <= 1
C685: + x26 + x478 <= 1
C686: + x83 + x292 <= 1
C687: + x297 + x322 <= 1
C688: + x10 + x170 <= 1
C689: + x55 + x134 <= 1
C690: + x40 + x212 <= 1
C691: + x106 + x433 <= 1
C692: + x42 + x241 <= 1
C693: + x167 + x474 <= 1
C694: + x7 + x25 <= 1
C695: + x49 + x367 <= 1
C696: + x21 + x304 <= 1
C697: + x52 + x373 <= 1
C698: + x15 + x105 <= 1
C699: + x82 + x133 <= 1
C700: + x28 + x65 <= 1
C701: + x253 + x273 <= 1
C702: + x18 + x43 <= 1
C703: + x10 + x150 <= 1
C704: + x28 + x240 <= 1
C705: + x114 + x127 <= 1
C706: + x349 + x439 <= 1
C707: + x104 + x403 <= 1
C708: + x279 + x308 <= 1
C709: + x128 + x439 <= 1
C710: + x149 + x244 <= 1
C711: + x15 + x181 <= 1
C712: + x354 + x478 <= 1
C713: + x42 + x379 <= 1
C714: + x13 + x22 <= 1
C715: + x43 + x198 <= 1
C716: + x7 + x488 <= 1
C717: + x25 + x49 <= 1
C718: + x43 + x103 <= 1
C719: + x85 + x203 <= 1
C720: + x97 + x241 <= 1
C721: + x223 + x459 <= 1
C722: + x63 + x276 <= 1
C723: + x102 + x354 <= 1
C724: + x61 + x180 <= 1
C725: + x24 + x58 <= 1
C726: + x37 + x72 <= 1
C727: + x33 + x45 + x46 <= 1
C728: + x102 + x243 <= 1
C729: + x20 + x284 <= 1
C730: + x12 + x215 <= 1
C731: + x33 + x397 <= 1
C732: + x5 + x78 <= 1
C733: + x23 + x34 + x248 <= 1
C734: + x203 + x226 <= 1
C735: + x334 + x480 <= 1
C736: + x64 + x322 <= 1
C737: + x14 + x56 <= 1
C738: + x53 + x442 <= 1
C739: + x143 + x422 <= 1
C740: + x1 + x21 <= 1
C741: + x90 + x461 <= 1
C742: + x145 + x413 <= 1
C743: + x10 + x331 <= 1
C744: + x110 + x423 <= 1
C745: + x37 + x155 <= 1
C746: + x184 + x385 <= 1
C747: + x21 + x490 <= 1
C748: + x15 + x47 <= 1
C749: + x335 + x420 <= 1
C750: + x37 + x437 <= 1
C751: + x132 + x271 <= 1
C752: + x6 + x159 <= 1
C753: + x128 + x158 <= 1
C754: + x55 + x152 <= 1
C755: + x20 + x180 <= 1
C756: + x205 + x257 <= 1
C757: + x33 + x218 <= 1
C758: + x388 + x395 <= 1
C759: + x7 + x11 <= 1
C760: + x6 + x397 <= 1
C761: + x58 + x269 <= 1
C762: + x271 + x432 <= 1
C763: + x137 + x211 <= 1
C764: + x329 + x403 <= 1
C765: + x240 + x340 <= 1
C766: + x188 + x253 <= 1
C767: + x243 + x492 <= 1
C768: + x30 + x93 <= 1
C769: + x184 + x454 <= 1
C770: + x54 + x87 <= 1
C771: + x84 + x360 <= 1
C772: + x11 + x14 <= 1
C773: + x67 + x191 <= 1
C774: + x356 + x459 <= 1
C775: + x2 + x398 <= 1
C776: + x109 + x243 <= 1
C777: + x120 + x214 <= 1
C778: + x20 + x237 <= 1
C779: + x105 + x147 <= 1
C780: + x33 + x352 <= 1
C781: + x9 + x124 <= 1
C782: + x12 + x430 <= 1
C783: + x178 + x499 <= 1
C784: + x11 + x114 <= 1
C785: + x59 + x88 <= 1
C786: + x86 + x215 <= 1
C787: + x31 + x117 <= 1
C788: + x29 + x150 <= 1
C789: + x3 + x344 <= 1
C790: + x87 + x225 <= 1
C791: + x70 + x286 <= 1
C792: + x82 + x240 <= 1
C793: + x28 + x481 <= 1
C794: + x33 + x411 <= 1
C795: + x97 + x219 <= 1
C796: + x10 + x137 <= 1
C797: + x210 + x289 <= 1
C798: + x49 + x94 <= 1
C799: + x12 + x36 <= 1
C800: + x21 + x428 <= 1
C801: + x43 + x48 <= 1
C802: + x88 + x324 <= 1
C803: + x100 + x467 <= 1
C804: + x127 + x338 <= 1
C805: + x26 + x265 <= 1
C806: + x28 + x100 <= 1
C807: + x101 + x223 <= 1
C808: + x41 + x90 <= 1
C809: + x12 + x177 <= 1
C810: + x188 + x283 <= 1
C811: + x86 + x125 <= 1
C812: + x50 + x161 <= 1
C813: + x10 + x472 <= 1
C814: + x144 + x349 <= 1
C815: + x2 + x6 <= 1
C816: + x193 + x391 <= 1
C817: + x39 + x387 <= 1
C818: + x370 + x407 <= 1
C819: + x19 + x233 <= 1
C820: + x37 + x288 <= 1
C821: + x95 + x392 <= 1
C822: + x35 + x200 <= 1
C823: + x143 + x157 <= 1
C824: + x127 + x365 <= 1
C825: + x18 + x390 <= 1
C826: + x9 + x268 <= 1
C827: + x28 + x45 <= 1
C828: + x2 + x210 <= 1
C829: + x85 + x172 <= 1
C830: + x33 + x402 <= 1
C831: + x107 + x249 <= 1
C832: + x16 + x73 <= 1
C833: + x250 + x336 <= 1
C834: + x158 + x431 <= 1
C835: + x42 + x153 <= 1
C836: + x5 + x277 <= 1
C837: + x44 + x173 <= 1
C838: + x4 + x411 <= 1
C839: + x34 + x44 <= 1
C840: + x18 + x168 <= 1
C841: + x9 + x141 <= 1
C842: + x3 + x278 <= 1
C843: + x21 + x245 <= 1
C844: + x70 + x494 <= 1
C845: + x5 + x444 <= 1
C846: + x14 + x337 <= 1
C847: + x154 + x475 <= 1
C848: + x191 + x317 <= 1
C849: + x10 + x382 <= 1
C850: + x15 + x359 <= 1
C851: + x12 + x21 <= 1
C852: + x37 + x184 <= 1
C853: + x5 + x345 <= 1
C854: + x67 + x69 <= 1
C855: + x149 + x220 <= 1
C856: + x86 + x217 <= 1
C857: + x45 + x85 <= 1
C858: + x12 + x102 <= 1
C859: + x389 + x498 <= 1
C860: + x3 + x56 <= 1
C861: + x15 + x80 <= 1
C862: + x53 + x330 <= 1
C863: + x4 + x146 <= 1
C864: + x215 + x480 <= 1
C865: + x371 + x460 <= 1
C866: + x53 + x92 <= 1
C867: + x15 + x350 <= 1
C868: + x219 + x336 <= 1
C869: + x289 + x440 <= 1
C870: + x10 + x187 <= 1
C871: + x65 + x386 <= 1
C872: + x258 + x343 <= 1
C873: + x85 + x280 <= 1
C874: + x83 + x121 <= 1
C875: + x147 + x262 <= 1
C876: + x11 + x39 <= 1
C877: + x122 + x487 <= 1
C878: + x3 + x76 <= 1
C879: + x234 + x253 <= 1
C880: + x6 + x207 <= 1
C881: + x16 + x268 <= 1
C882: + x18 + x153 <= 1
C883: + x18 + x342 <= 1
C884: + x8 + x166 <= 1
C885: + x120 + x161 <= 1
C886: + x52 + x120 <= 1
C887: + x199 + x251 <= 1
C888: + x28 + x285 <= 1
C889: + x18 + x487 <= 1
C890: + x93 + x209 <= 1
C891: + x68 + x88 <= 1
C892: + x24 + x248 <= 1
C893: + x18 + x213 <= 1
C894: + x3 + x289 <= 1
C895: + x60 + x101 <= 1
C896: + x4 + x477 <= 1
C897: + x314 + x495 <= 1
C898: + x72 + x189 <= 1
C899: + x271 + x396 <= 1
C900: + x8 + x239 <= 1
C901: + x11 + x95 <= 1
C902: + x93 + x229 <= 1
C903: + x33 + x432 <= 1
C904: + x60 + x303 <= 1
C905: + x8 + x14 <= 1
C906: + x4 + x54 <= 1
C907: + x13 + x486 <= 1
C908: + x44 + x155 <= 1
C909: + x172 + x482 <= 1
C910: + x107 + x126 <= 1
C911: + x25 + x492 <= 1
C912: + x202 + x264 <= 1
C913: + x42 + x321 <= 1
C914: + x52 + x394 <= 1
C915: + x399 + x415 <= 1
C916: + x157 + x459 <= 1
C917: + x140 + x387 <= 1
C918: + x11 + x22 <= 1
C919: + x83 + x406 <= 1
C920: + x237 + x472 <= 1
C921: + x122 + x151 <= 1
C922: + x292 + x498 <= 1
C923: + x78 + x481 <= 1
C924: + x160 + x300 <= 1
C925: + x16 + x55 <= 1
C926: + x9 + x68 <= 1
C927: + x154 + x497 <= 1
C928: + x38 + x102 <= 1
C929: + x3 + x10 <= 1
C930: + x76 + x191 <= 1
C931: + x6 + x13 <= 1
C932: + x82 + x204 <= 1
C933: + x10 + x74 <= 1
C934: + x46 + x433 <= 1
C935: + x86 + x319 <= 1
C936: + x21 + x190 <= 1
C937: + x5 + x24 <= 1
C938: + x25 + x324 <= 1
C939: + x99 + x260 <= 1
C940: + x3 + x11 + x15 + x18 <= 1
C941: + x210 + x269 <= 1
C942: + x22 + x141 <= 1
C943: + x178 + x348 <= 1
C944: + x96 + x321 <= 1
C945: + x82 + x101 <= 1
C946: + x415 + x438 <= 1
C947: + x18 + x328 <= 1
C948: + x4 + x76 <= 1
C949: + x116 + x207 <= 1
C950: + x13 + x39 <= 1
C951: + x15 + x380 <= 1
C952: + x27 + x233 <= 1
C953: + x8 + x63 <= 1
C954: + x80 + x300 <= 1
C955: + x52 + x225 <= 1
C956: + x25 + x98 <= 1
C957: + x74 + x180 <= 1
C958: + x20 + x383 <= 1
C959: + x40 + x53 <= 1
C960: + x31 + x92 <= 1
C961: + x27 + x28 <= 1
C962: + x238 + x473 <= 1
C963: + x107 + x263 <= 1
C964: + x36 + x204 <= 1
C965: + x73 + x395 <= 1
C966: + x11 + x339 <= 1
C967: + x63 + x436 <= 1
C968: + x11 + x65 <= 1
C969: + x373 + x454 <= 1
C970: + x20 + x331 <= 1
C971: + x52 + x460 <= 1
C972: + x317 + x326 <= 1
C973: + x2 + x345 <= 1
C974: + x21 + x26 <= 1
C975: + x79 + x276 <= 1
C976: + x182 + x317 <= 1
C977: + x102 + x456 <= 1
C978: + x34 + x403 <= 1
C979: + x126 + x450 <= 1
C980: + x45 + x448 <= 1
C981: + x100 + x234 <= 1
C982: + x20 + x279 <= 1
C983: + x103 + x206 <= 1
C984: + x170 + x345 <= 1
C985: + x52 + x75 <= 1
C986: + x389 + x418 <= 1
C987: + x36 + x47 + x188 <= 1
C988: + x157 + x473 <= 1
C989: + x32 + x446 <= 1
C990: + x139 + x209 <= 1
C991: + x40 + x46 <= 1
C992: + x4 + x194 <= 1
C993: + x24 + x344 <= 1
C994: + x217 + x326 <= 1
C995: + x16 + x226 <= 1
C996: + x8 + x69 <= 1
C997: + x84 + x112 <= 1
C998: + x14 + x297 <= 1
C999: + x154 + x451 <= 1
C1000: + x7 + x476 <= 1
C1001: + x8 + x492 <= 1
C1002: + x155 + x497 <= 1
C1003: + x18 + x262 <= 1
C1004: + x418 + x438 <= 1
C1005: + x157 + x255 <= 1
C1006: + x48 + x451 <= 1
C1007: + x14 + x37 + x64 <= 1
C1008: + x34 + x315 <= 1
C1009: + x91 + x375 <= 1
C1010: + x3 + x322 <= 1
C1011: + x12 + x126 <= 1
C1012: + x4 + x41 <= 1
C1013: + x22 + x330 <= 1
C1014: + x51 + x145 <= 1
C1015: + x88 + x374 <= 1
C1016: + x8 + x416 <= 1
C1017: + x55 + x62 <= 1
C1018: + x30 + x282 <= 1
C1019: + x13 + x376 <= 1
C1020: + x5 + x149 <= 1
C1021: + x152 + x200 <= 1
C1022: + x32 + x264 <= 1
C1023: + x9 + x13 <= 1
C1024: + x121 + x199 <= 1
C1025: + x165 + x339 <= 1
C1026: + x48 + x246 <= 1
C1027: + x177 + x446 <= 1
C1028: + x2 + x366 <= 1
C1029: + x32 + x443 <= 1
C1030: + x21 + x418 <= 1
C1031: + x18 + x451 <= 1
C1032: + x183 + x458 <= 1
C1033: + x56 + x289 <= 1
C1034: + x4 + x199 <= 1
C1035: + x360 + x434 <= 1
C1036: + x9 + x327 <= 1
C1037: + x18 + x366 <= 1
C1038: + x10 + x20 <= 1
C1039: + x103 + x305 <= 1
C1040: + x18 + x84 <= 1
C1041: + x9 + x121 <= 1
C1042: + x28 + x309 <= 1
C1043: + x319 + x449 <= 1
C1044: + x3 + x19 <= 1
C1045: + x29 + x108 <= 1
C1046: + x317 + x485 <= 1
C1047: + x65 + x328 <= 1
C1048: + x110 + x145 <= 1
C1049: + x3 + x184 <= 1
C1050: + x36 + x71 <= 1
C1051: + x54 + x364 <= 1
C1052: + x4 + x18 <= 1
C1053: + x35 + x178 <= 1
C1054: + x344 + x442 <= 1
C1055: + x75 + x329 <= 1
C1056: + x114 + x295 <= 1
C1057: + x98 + x109 <= 1
C1058: + x53 + x377 <= 1
C1059: + x364 + x425 <= 1
C1060: + x5 + x148 <= 1
C1061: + x164 + x235 <= 1
C1062: + x28 + x83 <= 1
C1063: + x105 + x235 <= 1
C1064: + x42 + x445 <= 1
C1065: + x5 + x49 <= 1
C1066: + x69 + x316 <= 1
C1067: + x70 + x436 <= 1
C1068: + x52 + x89 <= 1
C1069: + x50 + x450 <= 1
C1070: + x4 + x401 <= 1
C1071: + x26 + x105 <= 1
C1072: + x28 + x413 <= 1
C1073: + x47 + x279 <= 1
C1074: + x21 + x270 <= 1
C1075: + x284 + x382 <= 1
C1076: + x51 + x417 <= 1
C1077: + x144 + x291 <= 1
C1078: + x166 + x295 <= 1
C1079: + x214 + x285 <= 1
C1080: + x24 + x120 <= 1
C1081: + x21 + x72 <= 1
C1082: + x86 + x128 <= 1
C1083: + x24 + x475 <= 1
C1084: + x10 + x467 <= 1
C1085: + x211 + x470 <= 1
C1086: + x171 + x195 <= 1
C1087: + x44 + x81 <= 1
C1088: + x12 + x108 <= 1
C1089: + x285 + x351 <= 1
C1090: + x124 + x278 <= 1
C1091: + x31 + x367 <= 1
C1092: + x74 + x100 <= 1
C1093: + x37 + x114 <= 1
C1094: + x49 + x195 <= 1
C1095: + x275 + x370 <= 1
C1096: + x269 + x435 <= 1
C1097: + x16 + x382 <= 1
C1098: + x7 + x163 <= 1
C1099: + x8 + x256 <= 1
C1100: + x3 + x195 <= 1
C1101: + x21 + x166 <= 1
C1102: + x44 + x442 <= 1
C1103: + x160 + x449 <= 1
C1104: + x1 + x120 <= 1
C1105: + x174 + x364 <= 1
C1106: + x267 + x294 <= 1
C1107: + x99 + x477 <= 1
C1108: + x37 + x38 <= 1
C1109: + x11 + x488 <= 1
C1110: + x192 + x399 <= 1
C1111: + x133 + x335 <= 1
C1112: + x7 + x223 <= 1
C1113: + x152 + x341 <= 1
C1114: + x10 + x30 <= 1
C1115: + x73 + x181 <= 1
C1116: + x109 + x230 <= 1
C1117: + x149 + x362 <= 1
C1118: + x13 + x63 <= 1
C1119: + x115 + x253 <= 1
C1120: + x23 + x222 <= 1
C1121: + x90 + x291 <= 1
C1122: + x318 + x485 <= 1
C1123: + x103 + x400 <= 1
C1124: + x12 + x20 <= 1
C1125: + x110 + x131 <= 1
C1126: + x46 + x398 <= 1
C1127: + x2 + x26 <= 1
C1128: + x86 + x220 <= 1
C1129: + x79 + x467 <= 1
C1130: + x54 + x382 <= 1
C1131: + x205 + x256 <= 1
C1132: + x2 + x16 + x32 <= 1
C1133: + x3 + x464 <= 1
C1134: + x177 + x468 <= 1
C1135: + x23 + x64 <= 1
C1136: + x126 + x486 <= 1
C1137: + x45 + x420 <= 1
C1138: + x146 + x307 <= 1
C1139: + x5 + x39 <= 1
C1140: + x162 + x205 <= 1
C1141: + x10 + x182 <= 1
C1142: + x97 + x488 <= 1
C1143: + x5 + x273 <= 1
C1144: + x66 + x212 <= 1
C1145: + x20 + x420 <= 1
C1146: + x114 + x269 <= 1
C1147: + x426 + x454 <= 1
C1148: + x145 + x345 <= 1
C1149: + x11 + x157 <= 1
C1150: + x139 + x426 <= 1
C1151: + x4 + x89 <= 1
C1152: + x21 + x86 <= 1
C1153: + x68 + x353 <= 1
C1154: + x139 + x267 <= 1
C1155: + x242 + x249 <= 1
C1156: + x32 + x121 <= 1
C1157: + x6 + x246 <= 1
C1158: + x71 + x407 <= 1
C1159: + x28 + x137 <= 1
C1160: + x93 + x123 <= 1
C1161: + x265 + x327 <= 1
C1162: + x283 + x433 <= 1
C1163: + x42 + x218 <= 1
C1164: + x13 + x106 <= 1
C1165: + x33 + x318 <= 1
C1166: + x32 + x363 <= 1
C1167: + x399 + x477 <= 1
C1168: + x250 + x492 <= 1
C1169: + x74 + x201 <= 1
C1170: + x1 + x372 <= 1
C1171: + x37 + x402 <= 1
C1172: + x128 + x463 <= 1
C1173: + x10 + x68 <= 1
C1174: + x297 + x341 <= 1
C1175: + x98 + x211 <= 1
C1176: + x8 + x17 <= 1
C1177: + x56 + x59 <= 1
C1178: + x58 + x405 <= 1
C1179: + x31 + x261 <= 1
C1180: + x35 + x175 <= 1
C1181: + x209 + x217 <= 1
C1182: + x55 + x86 <= 1
C1183: + x384 + x468 <= 1
C1184: + x12 + x163 <= 1
C1185: + x55 + x197 <= 1
C1186: + x58 + x353 <= 1
C1187: + x16 + x389 <= 1
C1188: + x28 + x448 <= 1
C1189: + x120 + x487 <= 1
C1190: + x49 + x430 <= 1
C1191: + x15 + x172 <= 1
C1192: + x35 + x113 <= 1
C1193: + x153 + x234 <= 1
C1194: + x210 + x340 <= 1
C1195: + x56 + x128 <= 1
C1196: + x103 + x265 <= 1
C1197: + x191 + x280 <= 1
C1198: + x95 + x108 <= 1
C1199: + x169 + x319 <= 1
C1200: + x5 + x376 <= 1
C1201: + x16 + x329 <= 1
C1202: + x19 + x413 <= 1
C1203: + x92 + x255 <= 1
C1204: + x10 + x434 <= 1
C1205: + x10 + x69 <= 1
C1206: + x101 + x132 <= 1
C1207: + x169 + x220 <= 1
C1208: + x26 + x375 <= 1
C1209: + x4 + x58 <= 1
C1210: + x13 + x482 <= 1
C1211: + x27 + x379 <= 1
C1212: + x200 + x365 <= 1
C1213: + x46 + x122 <= 1
C1214: + x192 + x422 <= 1
C1215: + x114 + x319 <= 1
C1216: + x159 + x254 <= 1
C1217: + x114 + x154 <= 1
C1218: + x13 + x44 <= 1
C1219: + x5 + x89 <= 1
C1220: + x6 + x290 <= 1
C1221: + x200 + x254 <= 1
C1222: + x3 + x389 <= 1
C1223: + x70 + x202 <= 1
C1224: + x7 + x83 <= 1
C1225: + x34 + x465 <= 1
C1226: + x100 + x172 <= 1
C1227: + x1 + x8 <= 1
C1228: + x19 + x210 <= 1
C1229: + x56 + x117 <= 1
C1230: + x3 + x312 <= 1
C1231: + x246 + x393 <= 1
C1232: + x40 + x294 <= 1
C1233: + x318 + x452 <= 1
C1234: + x3 + x6 <= 1
C1235: + x403 + x415 <= 1
C1236: + x152 + x250 <= 1
C1237: + x203 + x479 <= 1
C1238: + x53 + x54 <= 1
C1239: + x179 + x424 <= 1
C1240: + x200 + x358 <= 1
C1241: + x147 + x372 <= 1
C1242: + x255 + x395 <= 1
C1243: + x327 + x419 <= 1
C1244: + x34 + x414 <= 1
C1245: + x8 + x152 <= 1
C1246: + x19 + x21 <= 1
C1247: + x273 + x403 <= 1
C1248: + x3 + x251 <= 1
C1249: + x53 + x122 <= 1
C1250: + x18 + x42 <= 1
C1251: + x1 + x112 <= 1
C1252: + x121 + x189 <= 1
C1253: + x4 + x418 <= 1
C1254: + x414 + x427 <= 1
C1255: + x55 + x116 <= 1
C1256: + x11 + x25 <= 1
C1257: + x330 + x459 <= 1
C1258: + x12 + x290 <= 1
C1259: + x31 + x96 <= 1
C1260: + x40 + x49 <= 1
C1261: + x4 + x221 <= 1
C1262: + x73 + x338 <= 1
C1263: + x19 + x201 <= 1
C1264: + x28 + x160 <= 1
C1265: + x9 + x79 <= 1
C1266: + x299 + x361 <= 1
C1267: + x211 + x247 <= 1
C1268: + x16 + x60 <= 1
C1269: + x2 + x292 <= 1
C1270: + x34 + x91 <= 1
C1271: + x15 + x37 <= 1
C1272: + x216 + x268 <= 1
C1273: + x61 + x419 <= 1
C1274: + x363 + x406 <= 1
C1275: + x171 + x303 <= 1
C1276: + x27 + x44 <= 1
C1277: + x417 + x428 <= 1
C1278: + x11 + x290 <= 1
C1279: + x36 + x93 <= 1
C1280: + x1 + x43 <= 1
C1281: + x7 + x17 <= 1
C1282: + x275 + x422 <= 1
C1283: + x42 + x439 <= 1
C1284: + x5 + x412 <= 1
C1285: + x96 + x475 <= 1
C1286: + x8 + x52 <= 1
C1287: + x310 + x485 <= 1
C1288: + x12 + x53 <= 1
C1289: + x42 + x165 <= 1
C1290: + x7 + x77 <= 1
C1291: + x221 + x359 <= 1
C1292: + x418 + x473 <= 1
C1293: + x18 + x180 <= 1
C1294: + x152 + x159 <= 1
C1295: + x274 + x330 <= 1
C1296: + x7 + x307 <= 1
C1297: + x99 + x447 <= 1
C1298: + x245 + x386 <= 1
C1299: + x290 + x367 <= 1
C1300: + x102 + x281 <= 1
C1301: + x3 + x24 <= 1
C1302: + x1 + x352 <= 1
C1303: + x128 + x483 <= 1
C1304: + x2 + x11 <= 1
C1305: + x10 + x421 <= 1
C1306: + x11 + x120 <= 1
C1307: + x27 + x51 <= 1
C1308: + x182 + x239 <= 1
C1309: + x46 + x194 <= 1
C1310: + x20 + x179 <= 1
C1311: + x213 + x365 <= 1
C1312: + x13 + x66 <= 1
C1313: + x295 + x392 <= 1
C1314: + x205 + x207 <= 1
C1315: + x43 + x242 <= 1
C1316: + x351 + x374 <= 1
C1317: + x72 + x220 <= 1
C1318: + x167 + x457 <= 1
C1319: + x174 + x485 <= 1
C1320: + x33 + x40 <= 1
C1321: + x61 + x297 <= 1
C1322: + x45 + x435 <= 1
C1323: + x10 + x44 <= 1
C1324: + x47 + x417 <= 1
C1325: + x369 + x464 <= 1
C1326: + x40 + x82 <= 1
C1327: + x23 + x140 <= 1
C1328: + x4 + x190 <= 1
C1329: + x6 + x285 <= 1
C1330: + x54 + x307 <= 1
C1331: + x249 + x331 <= 1
C1332: + x20 + x127 <= 1
C1333: + x40 + x324 <= 1
C1334: + x81 + x369 <= 1
C1335: + x28 + x412 <= 1
C1336: + x212 + x337 <= 1
C1337: + x12 + x352 <= 1
C1338: + x38 + x455 <= 1
C1339: + x8 + x186 <= 1
C1340: + x20 + x240 <= 1
C1341: + x4 + x106 <= 1
C1342: + x9 + x125 <= 1
C1343: + x54 + x199 <= 1
C1344: + x195 + x284 <= 1
C1345: + x39 + x304 <= 1
C1346: + x42 + x90 <= 1
C1347: + x7 + x116 <= 1
C1348: + x21 + x343 <= 1
C1349: + x22 + x65 <= 1
C1350: + x5 + x9 <= 1
C1351: + x4 + x247 <= 1
C1352: + x316 + x368 <= 1
C1353: + x250 + x378 <= 1
C1354: + x4 + x22 <= 1
C1355: + x179 + x337 <= 1
C1356: + x18 + x388 <= 1
C1357: + x74 + x127 <= 1
C1358: + x9 + x425 <= 1
C1359: + x296 + x311 <= 1
C1360: + x7 + x176 <= 1
C1361: + x101 + x351 <= 1
C1362: + x269 + x440 <= 1
C1363: + x356 + x358 <= 1
C1364: + x21 + x155 <= 1
C1365: + x13 + x208 <= 1
C1366: + x78 + x333 <= 1
C1367: + x35 + x61 <= 1
C1368: + x8 + x34 <= 1
C1369: + x226 + x261 <= 1
C1370: + x49 + x321 <= 1
C1371: + x15 + x143 <= 1
C1372: + x18 + x174 <= 1
C1373: + x9 + x135 <= 1
C1374: + x57 + x385 <= 1
C1375: + x112 + x176 <= 1
C1376: + x5 + x446 <= 1
C1377: + x16 + x23 <= 1
C1378: + x54 + x208 <= 1
C1379: + x1 + x385 <= 1
C1380: + x58 + x338 <= 1
C1381: + x12 + x31 <= 1
C1382: + x267 + x363 <= 1
C1383: + x149 + x452 <= 1
C1384: + x282 + x410 <= 1
C1385: + x2 + x5 <= 1
C1386: + x57 + x368 <= 1
C1387: + x122 + x296 <= 1
C1388: + x12 + x257 <= 1
C1389: + x102 + x156 <= 1
C1390: + x47 + x68 <= 1
C1391: + x93 + x97 <= 1
C1392: + x112 + x116 <= 1
C1393: + x38 + x74 <= 1
C1394: + x221 + x320 <= 1
C1395: + x85 + x88 <= 1
C1396: + x48 + x334 <= 1
C1397: + x6 + x17 <= 1
C1398: + x271 + x447 <= 1
C1399: + x211 + x262 <= 1
C1400: + x285 + x458 <= 1
C1401: + x22 + x30 <= 1
C1402: + x9 + x63 <= 1
C1403: + x130 + x423 <= 1
C1404: + x98 + x491 <= 1
C1405: + x24 + x28 <= 1
C1406: + x26 + x118 <= 1
C1407: + x10 + x276 <= 1
C1408: + x271 + x298 <= 1
C1409: + x19 + x319 <= 1
C1410: + x2 + x66 <= 1
C1411: + x115 + x408 <= 1
C1412: + x262 + x416 <= 1
C1413: + x18 + x167 <= 1
C1414: + x14 + x133 <= 1
C1415: + x5 + x421 <= 1
C1416: + x10 + x381 <= 1
C1417: + x12 + x24 <= 1
C1418: + x13 + x293 <= 1
C1419: + x271 + x374 <= 1
C1420: + x11 + x97 <= 1
C1421: + x3 + x134 <= 1
C1422: + x39 + x443 <= 1
C1423: + x31 + x104 <= 1
C1424: + x32 + x128 <= 1
C1425: + x15 + x279 <= 1
C1426: + x227 + x488 <= 1
C1427: + x1 + x55 <= 1
C1428: + x22 + x182 <= 1
C1429: + x124 + x303 <= 1
C1430: + x42 + x258 <= 1
C1431: + x11 + x85 <= 1
C1432: + x227 + x316 <= 1
C1433: + x8 + x24 <= 1
C1434: + x29 + x185 <= 1
C1435: + x95 + x444 <= 1
C1436: + x77 + x99 <= 1
C1437: + x244 + x381 <= 1
C1438: + x162 + x471 <= 1
C1439: + x102 + x428 <= 1
C1440: + x258 + x497 <= 1
C1441: + x1 + x242 <= 1
C1442: + x365 + x371 <= 1
C1443: + x114 + x228 <= 1
C1444: + x40 + x177 <= 1
C1445: + x242 + x356 <= 1
C1446: + x88 + x450 <= 1
C1447: + x36 + x145 <= 1
C1448: + x47 + x227 <= 1
C1449: + x161 + x445 <= 1
C1450: + x199 + x293 <= 1
C1451: + x144 + x247 <= 1
C1452: + x75 + x287 <= 1
C1453: + x437 + x474 <= 1
C1454: + x181 + x213 <= 1
C1455: + x320 + x347 <= 1
C1456: + x77 + x281 <= 1
C1457: + x214 + x383 <= 1
C1458: + x40 + x229 <= 1
C1459: + x236 + x373 <= 1
C1460: + x110 + x446 <= 1
C1461: + x75 + x354 <= 1
C1462: + x2 + x477 <= 1
C1463: + x130 + x203 <= 1
C1464: + x10 + x338 <= 1
C1465: + x42 + x121 <= 1
C1466: + x129 + x354 <= 1
C1467: + x29 + x275 <= 1
C1468: + x4 + x154 <= 1
C1469: + x16 + x90 <= 1
C1470: + x2 + x334 <= 1
C1471: + x321 + x335 <= 1
C1472: + x12 + x74 <= 1
C1473: + x24 + x42 <= 1
C1474: + x7 + x36 <= 1
C1475: + x190 + x343 <= 1
C1476: + x127 + x332 <= 1
C1477: + x399 + x493 <= 1
C1478: + x47 + x304 <= 1
C1479: + x48 + x424 <= 1
C1480: + x13 + x332 <= 1
C1481: + x14 + x84 <= 1
C1482: + x88 + x205 <= 1
C1483: + x429 + x466 <= 1
C1484: + x19 + x31 <= 1
C1485: + x57 + x406 <= 1
C1486: + x166 + x222 <= 1
C1487: + x5 + x185 <= 1
C1488: + x4 + x70 <= 1
C1489: + x227 + x422 <= 1
C1490: + x177 + x232 <= 1
C1491: + x13 + x41 <= 1
C1492: + x34 + x355 <= 1
C1493: + x18 + x52 <= 1
C1494: + x68 + x161 <= 1
C1495: + x69 + x344 <= 1
C1496: + x181 + x212 <= 1
C1497: + x1 + x5 <= 1
C1498: + x102 + x183 <= 1
C1499: + x177 + x212 <= 1
C1500: + x13 + x29 <= 1
C1501: + x63 + x156 <= 1
C1502: + x10 + x347 <= 1
C1503: + x20 + x51 <= 1
C1504: + x3 + x7 <= 1
C1505: + x112 + x409 <= 1
C1506: + x42 + x98 <= 1
C1507: + x20 + x490 <= 1
C1508: + x349 + x498 <= 1
C1509: + x313 + x500 <= 1
C1510: + x342 + x449 <= 1
C1511: + x83 + x294 <= 1
C1512: + x1 + x335 <= 1
C1513: + x401 + x415 <= 1
C1514: + x13 + x244 <= 1
C1515: + x40 + x115 <= 1
C1516: + x23 + x175 <= 1
C1517: + x26 + x174 <= 1
C1518: + x140 + x463 <= 1
C1519: + x13 + x21 + x389 <= 1
C1520: + x251 + x456 <= 1
C1521: + x216 + x231 <= 1
C1522: + x9 + x433 <= 1
C1523: + x71 + x219 <= 1
C1524: + x127 + x371 <= 1
C1525: + x25 + x52 + x357 <= 1
C1526: + x12 + x369 <= 1
C1527: + x15 + x107 <= 1
C1528: + x18 + x138 <= 1
C1529: + x28 + x79 <= 1
C1530: + x11 + x139 <= 1
C1531: + x309 + x481 <= 1
C1532: + x29 + x67 <= 1
C1533: + x47 + x237 <= 1
C1534: + x33 + x134 <= 1
C1535: + x70 + x182 <= 1
C1536: + x259 + x356 <= 1
C1537: + x167 + x408 <= 1
C1538: + x265 + x412 <= 1
C1539: + x353 + x472 <= 1
C1540: + x7 + x325 <= 1
C1541: + x10 + x225 <= 1
C1542: + x102 + x192 <= 1
C1543: + x146 + x393 <= 1
C1544: + x124 + x143 <= 1
C1545: + x31 + x246 <= 1
C1546: + x160 + x276 <= 1
C1547: + x36 + x203 <= 1
C1548: + x1 + x441 <= 1
C1549: + x11 + x340 <= 1
C1550: + x408 + x417 <= 1
C1551: + x64 + x259 <= 1
C1552: + x12 + x281 <= 1
C1553: + x18 + x242 <= 1
C1554: + x143 + x489 <= 1
C1555: + x166 + x383 <= 1
C1556: + x21 + x27 <= 1
C1557: + x4 + x35 <= 1
C1558: + x40 + x278 <= 1
C1559: + x12 + x72 <= 1
C1560: + x33 + x284 <= 1
C1561: + x69 + x424 <= 1
C1562: + x53 + x215 <= 1
C1563: + x139 + x238 <= 1
C1564: + x15 + x110 <= 1
C1565: + x27 + x96 <= 1
C1566: + x11 + x182 <= 1
C1567: + x203 + x399 <= 1
C1568: + x333 + x369 <= 1
C1569: + x35 + x48 <= 1
C1570: + x10 + x153 <= 1
C1571: + x41 + x219 <= 1
C1572: + x312 + x392 <= 1
C1573: + x173 + x277 <= 1
C1574: + x35 + x470 <= 1
C1575: + x8 + x72 <= 1
C1576: + x10 + x234 <= 1
C1577: + x49 + x61 <= 1
C1578: + x54 + x350 <= 1
C1579: + x51 + x273 <= 1
C1580: + x129 + x456 <= 1
C1581: + x243 + x423 <= 1
C1582: + x307 + x308 <= 1
C1583: + x44 + x213 <= 1
C1584: + x182 + x369 <= 1
C1585: + x387 + x471 <= 1
C1586: + x15 + x41 <= 1
C1587: + x45 + x388 <= 1
C1588: + x8 + x266 <= 1
C1589: + x18 + x261 <= 1
C1590: + x3 + x190 <= 1
C1591: + x12 + x274 <= 1
C1592: + x70 + x390 <= 1
C1593: + x25 + x339 <= 1
C1594: + x8 + x124 <= 1
C1595: + x21 + x34 <= 1
C1596: + x82 + x86 <= 1
C1597: + x8 + x415 <= 1
C1598: + x127 + x381 <= 1
C1599: + x164 + x499 <= 1
C1600: + x94 + x110 <= 1
C1601: + x48 + x435 <= 1
C1602: + x168 + x189 <= 1
C1603: + x8 + x318 <= 1
C1604: + x242 + x272 <= 1
C1605: + x13 + x214 <= 1
C1606: + x5 + x75 <= 1
C1607: + x252 + x443 <= 1
C1608: + x28 + x252 <= 1
C1609: + x55 + x174 <= 1
C1610: + x176 + x479 <= 1
C1611: + x4 + x427 <= 1
C1612: + x17 + x62 <= 1
C1613: + x16 + x416 <= 1
C1614: + x440 + x470 <= 1
C1615: + x7 + x238 <= 1
C1616: + x7 + x311 <= 1
C1617: + x16 + x307 <= 1
C1618: + x164 + x209 <= 1
C1619: + x32 + x256 <= 1
C1620: + x85 + x461 <= 1
C1621: + x48 + x376 <= 1
C1622: + x13 + x316 <= 1
C1623: + x243 + x259 <= 1
C1624: + x15 + x52 <= 1
C1625: + x85 + x223 <= 1
C1626: + x258 + x421 <= 1
C1627: + x5 + x14 <= 1
C1628: + x1 + x38 <= 1
C1629: + x93 + x111 <= 1
C1630: + x3 + x346 <= 1
C1631: + x131 + x259 <= 1
C1632: + x4 + x17 <= 1
C1633: + x8 + x113 <= 1
C1634: + x213 + x361 <= 1
C1635: + x393 + x400 <= 1
C1636: + x29 + x57 <= 1
C1637: + x10 + x405 <= 1
C1638: + x448 + x463 <= 1
C1639: + x176 + x214 <= 1
C1640: + x5 + x50 <= 1
C1641: + x23 + x144 <= 1
C1642: + x26 + x205 <= 1
C1643: + x3 + x366 <= 1
C1644: + x7 + x229 <= 1
C1645: + x18 + x169 <= 1
C1646: + x292 + x493 <= 1
C1647: + x47 + x113 <= 1
C1648: + x21 + x228 <= 1
C1649: + x34 + x142 <= 1
C1650: + x127 + x163 <= 1
C1651: + x101 + x434 <= 1
C1652: + x20 + x79 <= 1
C1653: + x133 + x216 <= 1
C1654: + x89 + x324 <= 1
C1655: + x28 + x31 <= 1
C1656: + x62 + x401 <= 1
C1657: + x18 + x392 <= 1
C1658: + x110 + x463 <= 1
C1659: + x46 + x90 <= 1
C1660: + x156 + x272 <= 1
C1661: + x16 + x474 <= 1
C1662: + x20 + x27 <= 1
C1663: + x6 + x20 <= 1
C1664: + x110 + x370 <= 1
C1665: + x3 + x196 <= 1
C1666: + x21 + x167 <= 1
C1667: + x4 + x167 <= 1
C1668: + x42 + x421 <= 1
C1669: + x30 + x142 <= 1
C1670: + x117 + x147 <= 1
C1671: + x9 + x60 <= 1
C1672: + x24 + x188 <= 1
C1673: + x134 + x349 <= 1
C1674: + x16 + x79 <= 1
C1675: + x21 + x124 <= 1
C1676: + x39 + x166 <= 1
C1677: + x16 + x494 <= 1
C1678: + x7 + x51 <= 1
C1679: + x2 + x77 <= 1
C1680: + x20 + x414 <= 1
C1681: + x63 + x478 <= 1
C1682: + x39 + x53 <= 1
C1683: + x197 + x301 <= 1
C1684: + x197 + x250 <= 1
C1685: + x5 + x109 <= 1
C1686: + x77 + x93 <= 1
C1687: + x4 + x325 <= 1
C1688: + x52 + x140 <= 1
C1689: + x3 + x135 <= 1
C1690: + x114 + x327 <= 1
C1691: + x21 + x346 <= 1
C1692: + x14 + x25 <= 1
C1693: + x180 + x286 <= 1
C1694: + x18 + x222 <= 1
C1695: + x274 + x364 <= 1
C1696: + x97 + x429 <= 1
C1697: + x53 + x171 <= 1
C1698: + x57 + x174 <= 1
C1699: + x94 + x398 <= 1
C1700: + x3 + x58 <= 1
C1701: + x5 + x131 <= 1
C1702: + x423 + x493 <= 1
C1703: + x109 + x349 <= 1
C1704: + x76 + x110 <= 1
C1705: + x434 + x457 <= 1
C1706: + x9 + x35 <= 1
C1707: + x19 + x154 <= 1
C1708: + x54 + x257 <= 1
C1709: + x20 + x145 <= 1
C1710: + x41 + x183 <= 1
C1711: + x72 + x347 <= 1
C1712: + x256 + x394 <= 1
C1713: + x11 + x57 <= 1
C1714: + x6 + x193 <= 1
C1715: + x9 + x178 <= 1
C1716: + x288 + x387 <= 1
C1717: + x181 + x329 <= 1
C1718: + x20 + x258 <= 1
C1719: + x208 + x458 <= 1
C1720: + x371 + x386 <= 1
C1721: + x171 + x384 <= 1
C1722: + x7 + x453 <= 1
C1723: + x167 + x196 <= 1
C1724: + x117 + x360 <= 1
C1725: + x245 + x266 <= 1
C1726: + x56 + x98 <= 1
C1727: + x320 + x346 <= 1
C1728: + x23 + x363 <= 1
C1729: + x6 + x483 <= 1
C1730: + x19 + x258 <= 1
C1731: + x102 + x484 <= 1
C1732: + x57 + x181 <= 1
C1733: + x72 + x98 <= 1
C1734: + x1 + x373 <= 1
C1735: + x10 + x67 <= 1
C1736: + x312 + x350 <= 1
C1737: + x48 + x54 <= 1
C1738: + x170 + x234 <= 1
C1739: + x69 + x274 <= 1
C1740: + x70 + x430 <= 1
C1741: + x465 + x471 <= 1
C1742: + x6 + x407 <= 1
C1743: + x19 + x310 <= 1
C1744: + x1 + x484 <= 1
C1745: + x57 + x310 <= 1
C1746: + x275 + x277 <= 1
C1747: + x10 + x15 <= 1
C1748: + x177 + x229 <= 1
C1749: + x18 + x63 <= 1
C1750: + x109 + x122 <= 1
C1751: + x29 + x73 <= 1
C1752: + x31 + x306 <= 1
C1753: + x15 + x16 <= 1
C1754: + x262 + x278 <= 1
C1755: + x181 + x455 <= 1
C1756: + x75 + x283 <= 1
C1757: + x49 + x431 <= 1
C1758: + x3 + x153 <= 1
C1759: + x160 + x395 <= 1
C1760: + x16 + x146 <= 1
C1761: + x19 + x216 <= 1
C1762: + x11 + x201 <= 1
C1763: + x50 + x404 <= 1
C1764: + x60 + x437 <= 1
C1765: + x53 + x185 <= 1
C1766: + x16 + x53 <= 1
C1767: + x10 + x342 <= 1
C1768: + x47 + x360 <= 1
C1769: + x3 + x12 <= 1
C1770: + x69 + x252 <= 1
C1771: + x167 + x342 <= 1
C1772: + x43 + x115 <= 1
C1773: + x79 + x156 <= 1
C1774: + x7 + x149 <= 1
C1775: + x10 + x76 <= 1
C1776: + x203 + x469 <= 1
C1777: + x114 + x173 <= 1
C1778: + x36 + x82 <= 1
C1779: + x40 + x213 <= 1
C1780: + x5 + x264 <= 1
C1781: + x102 + x465 <= 1
C1782: + x57 + x317 <= 1
C1783: + x11 + x43 <= 1
C1784: + x25 + x270 <= 1
C1785: + x25 + x195 <= 1
C1786: + x1 + x106 <= 1
C1787: + x65 + x426 <= 1
C1788: + x15 + x23 <= 1
C1789: + x7 + x84 <= 1
C1790: + x2 + x100 <= 1
C1791: + x42 + x469 <= 1
C1792: + x23 + x87 <= 1
C1793: + x25 + x445 <= 1
C1794: + x16 + x292 <= 1
C1795: + x18 + x193 <= 1
C1796: + x1 + x25 <= 1
C1797: + x10 + x228 <= 1
C1798: + x239 + x409 <= 1
C1799: + x12 + x151 <= 1
C1800: + x4 + x118 <= 1
C1801: + x25 + x143 <= 1
C1802: + x387 + x449 <= 1
C1803: + x18 + x100 <= 1
C1804: + x127 + x139 <= 1
C1805: + x52 + x171 <= 1
C1806: + x15 + x35 <= 1
C1807: + x14 + x405 <= 1
C1808: + x23 + x450 <= 1
C1809: + x28 + x55 <= 1
C1810: + x11 + x67 <= 1
C1811: + x30 + x146 <= 1
C1812: + x6 + x171 <= 1
C1813: + x74 + x496 <= 1
C1814: + x11 + x296 <= 1
C1815: + x59 + x286 <= 1
C1816: + x5 + x271 <= 1
C1817: + x130 + x148 <= 1
C1818: + x5 + x164 <= 1
C1819: + x71 + x461 <= 1
C1820: + x10 + x57 <= 1
C1821: + x15 + x381 <= 1
C1822: + x49 + x171 <= 1
C1823: + x107 + x497 <= 1
C1824: + x44 + x323 <= 1
C1825: + x134 + x136 <= 1
C1826: + x11 + x26 <= 1
C1827: + x18 + x186 <= 1
C1828: + x83 + x394 <= 1
C1829: + x15 + x393 <= 1
C1830: + x9 + x80 <= 1
C1831: + x65 + x125 <= 1
C1832: + x20 + x64 <= 1
C1833: + x38 + x106 <= 1
C1834: + x47 + x467 <= 1
C1835: + x197 + x348 <= 1
C1836: + x33 + x197 <= 1
C1837: + x13 + x401 <= 1
C1838: + x61 + x78 <= 1
C1839: + x44 + x144 <= 1
C1840: + x23 + x332 <= 1
C1841: + x95 + x135 <= 1
C1842: + x9 + x281 <= 1
C1843: + x125 + x312 <= 1
C1844: + x5 + x80 <= 1
C1845: + x260 + x267 <= 1
C1846: + x18 + x34 <= 1
C1847: + x6 + x275 <= 1
C1848: + x23 + x315 <= 1
C1849: + x210 + x309 <= 1
C1850: + x480 + x496 <= 1
C1851: + x49 + x162 <= 1
C1852: + x5 + x314 <= 1
C1853: + x88 + x336 <= 1
C1854: + x227 + x250 <= 1
C1855: + x90 + x418 <= 1
C1856: + x146 + x152 <= 1
C1857: + x74 + x192 <= 1
C1858: + x204 + x410 <= 1
C1859: + x15 + x190 <= 1
C1860: + x250 + x300 <= 1
C1861: + x13 + x15 <= 1
C1862: + x43 + x370 <= 1
C1863: + x107 + x178 <= 1
C1864: + x70 + x76 <= 1
C1865: + x32 + x243 <= 1
C1866: + x10 + x329 <= 1
C1867: + x177 + x198 <= 1
C1868: + x35 + x256 <= 1
C1869: + x186 + x301 <= 1
C1870: + x14 + x391 <= 1
C1871: + x15 + x45 <= 1
C1872: + x6 + x122 <= 1
C1873: + x437 + x455 <= 1
C1874: + x11 + x117 <= 1
C1875: + x97 + x138 <= 1
C1876: + x87 + x125 <= 1
C1877: + x15 + x202 <= 1
C1878: + x26 + x132 <= 1
C1879: + x124 + x216 <= 1
C1880: + x4 + x48 <= 1
C1881: + x98 + x260 <= 1
C1882: + x45 + x271 <= 1
C1883: + x29 + x491 <= 1
C1884: + x41 + x396 <= 1
C1885: + x208 + x427 <= 1
C1886: + x155 + x291 <= 1
C1887: + x173 + x198 <= 1
C1888: + x39 + x67 <= 1
C1889: + x81 + x469 <= 1
C1890: + x18 + x27 <= 1
C1891: + x72 + x364 <= 1
C1892: + x2 + x353 <= 1
C1893: + x20 + x130 <= 1
C1894: + x146 + x494 <= 1
C1895: + x12 + x500 <= 1
C1896: + x42 + x173 <= 1
C1897: + x167 + x390 <= 1
C1898: + x20 + x40 + x429 <= 1
C1899: + x54 + x85 <= 1
C1900: + x11 + x12 <= 1
C1901: + x114 + x285 <= 1
C1902: + x4 + x206 <= 1
C1903: + x189 + x299 <= 1
C1904: + x100 + x267 <= 1
C1905: + x9 + x129 <= 1
C1906: + x193 + x275 <= 1
C1907: + x31 + x236 <= 1
C1908: + x52 + x99 <= 1
C1909: + x18 + x87 <= 1
C1910: + x191 + x305 <= 1
C1911: + x290 + x359 <= 1
C1912: + x29 + x97 <= 1
C1913: + x242 + x475 <= 1
C1914: + x13 + x312 <= 1
C1915: + x7 + x113 <= 1
C1916: + x21 + x344 <= 1
C1917: + x167 + x211 <= 1
C1918: + x4 + x250 <= 1
C1919: + x55 + x365 <= 1
C1920: + x33 + x211 <= 1
C1921: + x129 + x140 <= 1
C1922: + x11 + x164 <= 1
C1923: + x36 + x186 <= 1
C1924: + x85 + x260 <= 1
C1925: + x250 + x325 <= 1
C1926: + x67 + x426 <= 1
C1927: + x24 + x30 <= 1
C1928: + x15 + x499 <= 1
C1929: + x13 + x352 <= 1
C1930: + x14 + x40 <= 1
C1931: + x82 + x154 <= 1
C1932: + x16 + x243 <= 1
C1933: + x9 + x371 <= 1
C1934: + x56 + x92 <= 1
C1935: + x11 + x152 <= 1
C1936: + x302 + x458 <= 1
C1937: + x105 + x156 <= 1
C1938: + x12 + x179 <= 1
C1939: + x52 + x108 <= 1
C1940: + x336 + x397 <= 1
C1941: + x30 + x104 <= 1
C1942: + x204 + x210 <= 1
C1943: + x176 + x312 <= 1
C1944: + x52 + x135 <= 1
C1945: + x8 + x380 <= 1
C1946: + x15 + x269 <= 1
C1947: + x36 + x115 <= 1
C1948: + x109 + x160 <= 1
C1949: + x54 + x384 <= 1
C1950: + x25 + x183 <= 1
C1951: + x9 + x81 <= 1

binary
x1 x2 x3 x4 x5 x6 x7 x8 x9 x10 x11 x12 x13 x14 x15 x16 x17 x18 x19 x20 x21 x22 x23 x24 x25 x26 x27 x28 x29 x30 x31 x32 x33 x34 x35 x36 x37 x38 x39 x40 x41 x42 x43 x44 x45 x46 x47 x48 x49 x50 x51 x52 x53 x54 x55 x56 x57 x58 x59 x60 x61 x62 x63 x64 x65 x66 x67 x68 x69 x70 x71 x72 x73 x74 x75 x76 x77 x78 x79 x80 x81 x82 x83 x84 x85 x86 x87 x88 x89 x90 x91 x92 x93 x94 x95 x96 x97 x98 x99 x100 x101 x102 x103 x104 x105 x106 x107 x108 x109 x110 x111 x112 x113 x114 x115 x116 x117 x118 x119 x120 x121 x122 x123 x124 x125 x126 x127 x128 x129 x130 x131 x132 x133 x134 x135 x136 x137 x138 x139 x140 x141 x142 x143 x144 x145 x146 x147 x148 x149 x150 x151 x152 x153 x154 x155 x156 x157 x158 x159 x160 x161 x162 x163 x164 x165 x166 x167 x168 x169 x170 x171 x172 x173 x174 x175 x176 x177 x178 x179 x180 x181 x182 x183 x184 x185 x186 x187 x188 x189 x190 x191 x192 x193 x194 x195 x196 x197 x198 x199 x200 x201 x202 x203 x204 x205 x206 x207 x208 x209 x210 x211 x212 x213 x214 x215 x216 x217 x218 x219 x220 x221 x222 x223 x224 x225 x226 x227 x228 x229 x230 x231 x232 x233 x234 x235 x236 x237 x238 x239 x240 x241 x242 x243 x244 x245 x246 x247 x248 x249 x250 x251 x252 x253 x254 x255 x256 x257 x258 x259 x260 x261 x262 x263 x264 x265 x266 x267 x268 x269 x270 x271 x272 x273 x274 x275 x276 x277 x278 x279 x280 x281 x282 x283 x284 x285 x286 x287 x288 x289 x290 x291 x292 x293 x294 x295 x296 x297 x298 x299 x300 x301 x302 x303 x304 x305 x306 x307 x308 x309 x310 x311 x312 x313 x314 x315 x316 x317 x318 x319 x320 x321 x322 x323 x324 x325 x326 x327 x328 x329 x330 x331 x332 x333 x334 x335 x336 x337 x338 x339 x340 x341 x342 x343 x344 x345 x346 x347 x348 x349 x350 x351 x352 x353 x354 x355 x356 x357 x358 x359 x360 x361 x362 x363 x364 x365 x366 x367 x368 x369 x370 x371 x372 x373 x374 x375 x376 x377 x378 x379 x380 x381 x382 x383 x384 x385 x386 x387 x388 x389 x390 x391 x392 x393 x394 x395 x396 x397 x398 x399 x400 x401 x402 x403 x404 x405 x406 x407 x408 x409 x410 x411 x412 x413 x414 x415 x416 x417 x418 x419 x420 x421 x422 x423 x424 x425 x426 x427 x428 x429 x430 x431 x432 x433 x434 x435 x436 x437 x438 x439 x440 x441 x442 x443 x444 x445 x446 x447 x448 x449 x450 x451 x452 x453 x454 x455 x456 x457 x458 x459 x460 x461 x462 x463 x464 x465 x466 x467 x468 x469 x470 x471 x472 x473 x474 x475 x476 x477 x478 x479 x480 x481 x482 x483 x484 x485 x486 x487 x488 x489 x490 x491 x492 x493 x494 x495 x496 x497 x498 x499 x500
