maximize
OBJ: + 1 x1 + 1 x2 + 1 x3 + 1 x4 + 1 x5 + 1 x6 + 1 x7 + 1 x8 + 1 x9 + 1 x10 + 1 x11 + 1 x12 + 1 x13 + 1 x14 + 1 x15 + 1 x16 + 1 x17 + 1 x18 + 1 x19 + 1 x20 + 1 x21 + 1 x22 + 1 x23 + 1 x24 + 1 x25 + 1 x26 + 1 x27 + 1 x28 + 1 x29 + 1 x30 + 1 x31 + 1 x32 + 1 x33 + 1 x34 + 1 x35 + 1 x36 + 1 x37 + 1 x38 + 1 x39 + 1 x40 + 1 x41 + 1 x42 + 1 x43 + 1 x44 + 1 x45 + 1 x46 + 1 x47 + 1 x48 + 1 x49 + 1 x50 + 1 x51 + 1 x52 + 1 x53 + 1 x54 + 1 x55 + 1 x56 + 1 x57 + 1 x58 + 1 x59 + 1 x60 + 1 x61 + 1 x62 + 1 x63 + 1 x64 + 1 x65 + 1 x66 + 1 x67 + 1 x68 + 1 x69 + 1 x70 + 1 x71 + 1 x72 + 1 x73 + 1 x74 + 1 x75 + 1 x76 + 1 x77 + 1 x78 + 1 x79 + 1 x80 + 1 x81 + 1 x82 + 1 x83 + 1 x84 + 1 x85 + 1 x86 + 1 x87 + 1 x88 + 1 x89 + 1 x90 + 1 x91 + 1 x92 + 1 x93 + 1 x94 + 1 x95 + 1 x96 + 1 x97 + 1 x98 + 1 x99 + 1 x100 + 1 x101 + 1 x102 + 1 x103 + 1 x104 + 1 x105 + 1 x106 + 1 x107 + 1 x108 + 1 x109 + 1 x110 + 1 x111 + 1 x112 + 1 x113 + 1 x114 + 1 x115 + 1 x116 + 1 x117 + 1 x118 + 1 x119 + 1 x120 + 1 x121 + 1 x122 + 1 x123 + 1 x124 + 1 x125 + 1 x126 + 1 x127 + 1 x128 + 1 x129 + 1 x130 + 1 x131 + 1 x132 + 1 x133 + 1 x134 + 1 x135 + 1 x136 + 1 x137 + 1 x138 + 1 x139 + 1 x140 + 1 x141 + 1 x142 + 1 x143 + 1 x144 + 1 x145 + 1 x146 + 1 x147 + 1 x148 + 1 x149 + 1 x150 + 1 x151 + 1 x152 + 1 x153 + 1 x154 + 1 x155 + 1 x156 + 1 x157 + 1 x158 + 1 x159 + 1 x160 + 1 x161 + 1 x162 + 1 x163 + 1 x164 + 1 x165 + 1 x166 + 1 x167 + 1 x168 + 1 x169 + 1 x170 + 1 x171 + 1 x172 + 1 x173 + 1 x174 + 1 x175 + 1 x176 + 1 x177 + 1 x178 + 1 x179 + 1 x180 + 1 x181 + 1 x182 + 1 x183 + 1 x184 + 1 x185 + 1 x186 + 1 x187 + 1 x188 + 1 x189 + 1 x190 + 1 x191 + 1 x192 + 1 x193 + 1 x194 + 1 x195 + 1 x196 + 1 x197 + 1 x198 + 1 x199 + 1 x200 + 1 x201 + 1 x202 + 1 x203 + 1 x204 + 1 x205 + 1 x206 + 1 x207 + 1 x208 + 1 x209 + 1 x210 + 1 x211 + 1 x212 + 1 x213 + 1 x214 + 1 x215 + 1 x216 + 1 x217 + 1 x218 + 1 x219 + 1 x220 + 1 x221 + 1 x222 + 1 x223 + 1 x224 + 1 x225 + 1 x226 + 1 x227 + 1 x228 + 1 x229 + 1 x230 + 1 x231 + 1 x232 + 1 x233 + 1 x234 + 1 x235 + 1 x236 + 1 x237 + 1 x238 + 1 x239 + 1 x240 + 1 x241 + 1 x242 + 1 x243 + 1 x244 + 1 x245 + 1 x246 + 1 x247 + 1 x248 + 1 x249 + 1 x250 + 1 x251 + 1 x252 + 1 x253 + 1 x254 + 1 x255 + 1 x256 + 1 x257 + 1 x258 + 1 x259 + 1 x260 + 1 x261 + 1 x262 + 1 x263 + 1 x264 + 1 x265 + 1 x266 + 1 x267 + 1 x268 + 1 x269 + 1 x270 + 1 x271 + 1 x272 + 1 x273 + 1 x274 + 1 x275 + 1 x276 + 1 x277 + 1 x278 + 1 x279 + 1 x280 + 1 x281 + 1 x282 + 1 x283 + 1 x284 + 1 x285 + 1 x286 + 1 x287 + 1 x288 + 1 x289 + 1 x290 + 1 x291 + 1 x292 + 1 x293 + 1 x294 + 1 x295 + 1 x296 + 1 x297 + 1 x298 + 1 x299 + 1 x300 + 1 x301 + 1 x302 + 1 x303 + 1 x304 + 1 x305 + 1 x306 + 1 x307 + 1 x308 + 1 x309 + 1 x310 + 1 x311 + 1 x312 + 1 x313 + 1 x314 + 1 x315 + 1 x316 + 1 x317 + 1 x318 + 1 x319 + 1 x320 + 1 x321 + 1 x322 + 1 x323 + 1 x324 + 1 x325 + 1 x326 + 1 x327 + 1 x328 + 1 x329 + 1 x330 + 1 x331 + 1 x332 + 1 x333 + 1 x334 + 1 x335 + 1 x336 + 1 x337 + 1 x338 + 1 x339 + 1 x340 + 1 x341 + 1 x342 + 1 x343 + 1 x344 + 1 x345 + 1 x346 + 1 x347 + 1 x348 + 1 x349 + 1 x350 + 1 x351 + 1 x352 + 1 x353 + 1 x354 + 1 x355 + 1 x356 + 1 x357 + 1 x358 + 1 x359 + 1 x360 + 1 x361 + 1 x362 + 1 x363 + 1 x364 + 1 x365 + 1 x366 + 1 x367 + 1 x368 + 1 x369 + 1 x370 + 1 x371 + 1 x372 + 1 x373 + 1 x374 + 1 x375 + 1 x376 + 1 x377 + 1 x378 + 1 x379 + 1 x380 + 1 x381 + 1 x382 + 1 x383 + 1 x384 + 1 x385 + 1 x386 + 1 x387 + 1 x388 + 1 x389 + 1 x390 + 1 x391 + 1 x392 + 1 x393 + 1 x394 + 1 x395 + 1 x396 + 1 x397 + 1 x398 + 1 x399 + 1 x400 + 1 x401 + 1 x402 + 1 x403 + 1 x404 + 1 x405 + 1 x406 + 1 x407 + 1 x408 + 1 x409 + 1 x410 + 1 x411 + 1 x412 + 1 x413 + 1 x414 + 1 x415 + 1 x416 + 1 x417 + 1 x418 + 1 x419 + 1 x420 + 1 x421 + 1 x422 + 1 x423 + 1 x424 + 1 x425 + 1 x426 + 1 x427 + 1 x428 + 1 x429 + 1 x430 + 1 x431 + 1 x432 + 1 x433 + 1 x434 + 1 x435 + 1 x436 + 1 x437 + 1 x438 + 1 x439 + 1 x440 + 1 x441 + 1 x442 + 1 x443 + 1 x444 + 1 x445 + 1 x446 + 1 x447 + 1 x448 + 1 x449 + 1 x450 + 1 x451 + 1 x452 + 1 x453 + 1 x454 + 1 x455 + 1 x456 + 1 x457 + 1 x458 + 1 x459 + 1 x460 + 1 x461 + 1 x462 + 1 x463 + 1 x464 + 1 x465 + 1 x466 + 1 x467 + 1 x468 + 1 x469 + 1 x470 + 1 x471 + 1 x472 + 1 x473 + 1 x474 + 1 x475 + 1 x476 + 1 x477 + 1 x478 + 1 x479 + 1 x480 + 1 x481 + 1 x482 + 1 x483 + 1 x484 + 1 x485 + 1 x486 + 1 x487 + 1 x488 + 1 x489 + 1 x490 + 1 x491 + 1 x492 + 1 x493 + 1 x494 + 1 x495 + 1 x496 + 1 x497 + 1 x498 + 1 x499 + 1 x500

subject to
C1: + x341 + x443 <= 1
C2: + x18 + x295 <= 1
C3: + x203 + x424 <= 1
C4: + x227 + x290 <= 1
C5: + x1 + x77 <= 1
C6: + x107 + x469 <= 1
C7: + x160 + x355 <= 1
C8: + x5 + x279 <= 1
C9: + x191 + x340 <= 1
C10: + x57 + x300 <= 1
C11: + x67 + x143 <= 1
C12: + x18 + x339 <= 1
C13: + x100 + x208 <= 1
C14: + x46 + x376 <= 1
C15: + x301 + x437 <= 1
C16: + x75 + x95 <= 1
C17: + x111 + x139 <= 1
C18: + x38 + x171 <= 1
C19: + x5 + x105 <= 1
C20: + x126 + x202 <= 1
C21: + x170 + x176 <= 1
C22: + x10 + x356 <= 1
C23: + x5 + x6 + x8 + x10 <= 1
C24: + x148 + x476 <= 1
C25: + x41 + x309 <= 1
C26: + x94 + x196 <= 1
C27: + x50 + x59 <= 1
C28: + x13 + x139 <= 1
C29: + x87 + x130 <= 1
C30: + x95 + x212 <= 1
C31: + x99 + x316 <= 1
C32: + x6 + x323 <= 1
C33: + x47 + x76 <= 1
C34: + x67 + x488 <= 1
C35: + x4 + x474 <= 1
C36: + x14 + x259 <= 1
C37: + x88 + x288 <= 1
C38: + x256 + x293 <= 1
C39: + x21 + x469 <= 1
C40: + x104 + x345 <= 1
C41: + x167 + x352 <= 1
C42: + x5 + x143 <= 1
C43: + x16 + x322 <= 1
C44: + x6 + x25 <= 1
C45: + x279 + x358 <= 1
C46: + x10 + x94 <= 1
C47: + x22 + x38 <= 1
C48: + x97 + x235 <= 1
C49: + x104 + x192 <= 1
C50: + x35 + x387 <= 1
C51: + x63 + x378 <= 1
C52: + x300 + x403 <= 1
C53: + x122 + x215 <= 1
C54: + x68 + x316 <= 1
C55: + x12 + x487 <= 1
C56: + x457 + x497 <= 1
C57: + x25 + x74 <= 1
C58: + x5 + x286 <= 1
C59: + x2 + x90 <= 1
C60: + x188 + x464 <= 1
C61: + x14 + x90 <= 1
C62: + x197 + x499 <= 1
C63: + x13 + x51 <= 1
C64: + x25 + x249 <= 1
C65: + x44 + x53 <= 1
C66: + x7 + x441 <= 1
C67: + x135 + x142 <= 1
C68: + x50 + x209 <= 1
C69: + x4 + x434 <= 1
C70: + x13 + x477 <= 1
C71: + x64 + x157 <= 1
C72: + x86 + x240 <= 1
C73: + x104 + x193 <= 1
C74: + x13 + x436 <= 1
C75: + x16 + x44 <= 1
C76: + x174 + x456 <= 1
C77: + x49 + x315 <= 1
C78: + x14 + x415 <= 1
C79: + x25 + x34 <= 1
C80: + x118 + x269 <= 1
C81: + x173 + x349 <= 1
C82: + x65 + x382 <= 1
C83: + x28 + x458 <= 1
C84: + x96 + x108 <= 1
C85: + x7 + x392 <= 1
C86: + x8 + x16 <= 1
C87: + x28 + x220 <= 1
C88: + x5 + x261 <= 1
C89: + x203 + x313 <= 1
C90: + x266 + x318 <= 1
C91: + x9 + x189 <= 1
C92: + x165 + x195 <= 1
C93: + x4 + x69 <= 1
C94: + x54 + x218 <= 1
C95: + x204 + x268 <= 1
C96: + x41 + x291 <= 1
C97: + x351 + x463 <= 1
C98: + x97 + x464 <= 1
C99: + x104 + x411 <= 1
C100: + x173 + x296 <= 1
C101: + x35 + x384 <= 1
C102: + x16 + x388 <= 1
C103: + x53 + x427 <= 1
C104: + x1 + x6 <= 1
C105: + x4 + x113 <= 1
C106: + x60 + x457 <= 1
C107: + x65 + x99 <= 1
C108: + x10 + x346 <= 1
C109: + x49 + x237 <= 1
C110: + x67 + x200 <= 1
C111: + x3 + x8 <= 1
C112: + x186 + x286 <= 1
C113: + x78 + x141 <= 1
C114: + x8 + x283 <= 1
C115: + x356 + x385 <= 1
C116: + x5 + x18 <= 1
C117: + x179 + x188 <= 1
C118: + x52 + x453 <= 1
C119: + x45 + x121 <= 1
C120: + x19 + x136 <= 1
C121: + x20 + x163 <= 1
C122: + x12 + x66 <= 1
C123: + x13 + x82 <= 1
C124: + x5 + x260 <= 1
C125: + x62 + x239 <= 1
C126: + x66 + x161 <= 1
C127: + x58 + x260 <= 1
C128: + x203 + x292 <= 1
C129: + x32 + x34 <= 1
C130: + x308 + x339 <= 1
C131: + x21 + x132 <= 1
C132: + x14 + x378 <= 1
C133: + x89 + x391 <= 1
C134: + x119 + x176 <= 1
C135: + x57 + x123 <= 1
C136: + x210 + x319 <= 1
C137: + x349 + x438 <= 1
C138: + x22 + x266 <= 1
C139: + x25 + x100 <= 1
C140: + x5 + x312 <= 1
C141: + x415 + x459 <= 1
C142: + x127 + x320 <= 1
C143: + x146 + x154 <= 1
C144: + x212 + x321 <= 1
C145: + x40 + x55 <= 1
C146: + x23 + x107 <= 1
C147: + x5 + x213 <= 1
C148: + x143 + x478 <= 1
C149: + x45 + x68 <= 1
C150: + x3 + x305 <= 1
C151: + x178 + x212 <= 1
C152: + x6 + x465 <= 1
C153: + x118 + x124 <= 1
C154: + x18 + x104 <= 1
C155: + x290 + x344 <= 1
C156: + x47 + x371 <= 1
C157: + x21 + x482 <= 1
C158: + x5 + x380 <= 1
C159: + x11 + x79 <= 1
C160: + x22 + x148 <= 1
C161: + x22 + x335 <= 1
C162: + x7 + x19 <= 1
C163: + x76 + x230 <= 1
C164: + x32 + x47 <= 1
C165: + x215 + x338 <= 1
C166: + x154 + x167 <= 1
C167: + x4 + x179 <= 1
C168: + x52 + x410 <= 1
C169: + x53 + x71 <= 1
C170: + x326 + x417 <= 1
C171: + x151 + x489 <= 1
C172: + x12 + x51 <= 1
C173: + x123 + x174 <= 1
C174: + x213 + x304 <= 1
C175: + x5 + x319 <= 1
C176: + x416 + x450 <= 1
C177: + x102 + x394 <= 1
C178: + x40 + x48 <= 1
C179: + x1 + x20 <= 1
C180: + x37 + x293 <= 1
C181: + x4 + x127 <= 1
C182: + x32 + x333 <= 1
C183: + x397 + x435 <= 1
C184: + x1 + x11 + x24 <= 1
C185: + x74 + x314 <= 1
C186: + x26 + x191 <= 1
C187: + x45 + x111 <= 1
C188: + x47 + x52 <= 1
C189: + x239 + x500 <= 1
C190: + x40 + x270 <= 1
C191: + x5 + x498 <= 1
C192: + x181 + x396 <= 1
C193: + x200 + x346 <= 1
C194: + x128 + x370 <= 1
C195: + x56 + x164 <= 1
C196: + x94 + x418 <= 1
C197: + x83 + x91 <= 1
C198: + x318 + x428 <= 1
C199: + x61 + x303 <= 1
C200: + x140 + x226 <= 1
C201: + x137 + x210 <= 1
C202: + x291 + x313 <= 1
C203: + x148 + x162 <= 1
C204: + x50 + x463 <= 1
C205: + x31 + x57 <= 1
C206: + x32 + x258 <= 1
C207: + x28 + x251 <= 1
C208: + x12 + x44 <= 1
C209: + x204 + x319 <= 1
C210: + x45 + x328 <= 1
C211: + x9 + x492 <= 1
C212: + x1 + x281 <= 1
C213: + x11 + x13 <= 1
C214: + x347 + x407 <= 1
C215: + x104 + x229 <= 1
C216: + x19 + x61 <= 1
C217: + x41 + x82 <= 1
C218: + x25 + x225 <= 1
C219: + x35 + x252 <= 1
C220: + x18 + x82 <= 1
C221: + x10 + x333 <= 1
C222: + x8 + x483 <= 1
C223: + x235 + x324 <= 1
C224: + x264 + x452 <= 1
C225: + x169 + x281 <= 1
C226: + x6 + x102 <= 1
C227: + x261 + x423 <= 1
C228: + x58 + x89 <= 1
C229: + x4 + x245 <= 1
C230: + x5 + x15 <= 1
C231: + x51 + x412 <= 1
C232: + x180 + x198 <= 1
C233: + x11 + x214 <= 1
C234: + x4 + x20 <= 1
C235: + x178 + x333 <= 1
C236: + x187 + x229 <= 1
C237: + x25 + x173 <= 1
C238: + x208 + x276 <= 1
C239: + x335 + x469 <= 1
C240: + x173 + x472 <= 1
C241: + x76 + x148 <= 1
C242: + x1 + x353 <= 1
C243: + x10 + x47 <= 1
C244: + x242 + x264 <= 1
C245: + x31 + x36 <= 1
C246: + x104 + x141 <= 1
C247: + x87 + x498 <= 1
C248: + x5 + x400 <= 1
C249: + x83 + x485 <= 1
C250: + x55 + x166 <= 1
C251: + x30 + x386 <= 1
C252: + x4 + x403 <= 1
C253: + x71 + x249 <= 1
C254: + x102 + x119 <= 1
C255: + x429 + x491 <= 1
C256: + x2 + x75 <= 1
C257: + x421 + x480 <= 1
C258: + x99 + x165 <= 1
C259: + x18 + x357 <= 1
C260: + x10 + x27 <= 1
C261: + x28 + x97 <= 1
C262: + x278 + x406 <= 1
C263: + x5 + x436 <= 1
C264: + x52 + x103 <= 1
C265: + x7 + x460 <= 1
C266: + x88 + x306 <= 1
C267: + x16 + x21 <= 1
C268: + x12 + x420 <= 1
C269: + x91 + x105 <= 1
C270: + x2 + x7 <= 1
C271: + x367 + x470 <= 1
C272: + x91 + x327 <= 1
C273: + x10 + x199 <= 1
C274: + x40 + x260 <= 1
C275: + x243 + x398 <= 1
C276: + x397 + x405 <= 1
C277: + x16 + x473 <= 1
C278: + x255 + x417 <= 1
C279: + x110 + x462 <= 1
C280: + x49 + x197 <= 1
C281: + x94 + x127 <= 1
C282: + x38 + x378 <= 1
C283: + x169 + x233 <= 1
C284: + x8 + x29 <= 1
C285: + x18 + x435 <= 1
C286: + x137 + x175 <= 1
C287: + x37 + x40 <= 1
C288: + x102 + x128 <= 1
C289: + x56 + x305 <= 1
C290: + x78 + x217 <= 1
C291: + x5 + x201 <= 1
C292: + x173 + x237 <= 1
C293: + x18 + x68 <= 1
C294: + x248 + x315 <= 1
C295: + x21 + x73 <= 1
C296: + x9 + x454 <= 1
C297: + x237 + x247 <= 1
C298: + x10 + x109 <= 1
C299: + x238 + x332 <= 1
C300: + x59 + x89 <= 1
C301: + x22 + x85 <= 1
C302: + x89 + x233 <= 1
C303: + x88 + x113 <= 1
C304: + x15 + x224 <= 1
C305: + x125 + x151 <= 1
C306: + x14 + x262 <= 1
C307: + x258 + x295 <= 1
C308: + x33 + x75 <= 1
C309: + x91 + x136 <= 1
C310: + x28 + x35 <= 1
C311: + x190 + x253 <= 1
C312: + x8 + x22 <= 1
C313: + x165 + x330 <= 1
C314: + x351 + x405 <= 1
C315: + x134 + x232 <= 1
C316: + x416 + x422 <= 1
C317: + x1 + x494 <= 1
C318: + x419 + x482 <= 1
C319: + x8 + x171 <= 1
C320: + x94 + x175 <= 1
C321: + x21 + x88 <= 1
C322: + x60 + x245 <= 1
C323: + x143 + x255 <= 1
C324: + x28 + x441 <= 1
C325: + x141 + x263 <= 1
C326: + x5 + x252 <= 1
C327: + x354 + x464 <= 1
C328: + x117 + x222 <= 1
C329: + x17 + x194 <= 1
C330: + x18 + x214 <= 1
C331: + x25 + x130 <= 1
C332: + x17 + x111 <= 1
C333: + x256 + x289 <= 1
C334: + x58 + x298 <= 1
C335: + x38 + x393 <= 1
C336: + x385 + x451 <= 1
C337: + x141 + x150 <= 1
C338: + x20 + x153 <= 1
C339: + x11 + x33 <= 1
C340: + x156 + x160 <= 1
C341: + x376 + x398 <= 1
C342: + x141 + x202 <= 1
C343: + x104 + x265 <= 1
C344: + x217 + x299 <= 1
C345: + x18 + x336 <= 1
C346: + x16 + x205 <= 1
C347: + x216 + x435 <= 1
C348: + x2 + x249 <= 1
C349: + x37 + x328 <= 1
C350: + x257 + x353 <= 1
C351: + x40 + x176 <= 1
C352: + x5 + x191 <= 1
C353: + x5 + x425 <= 1
C354: + x9 + x186 <= 1
C355: + x9 + x23 <= 1
C356: + x10 + x361 <= 1
C357: + x173 + x392 <= 1
C358: + x294 + x334 <= 1
C359: + x12 + x471 <= 1
C360: + x112 + x459 <= 1
C361: + x78 + x92 <= 1
C362: + x96 + x269 <= 1
C363: + x272 + x488 <= 1
C364: + x49 + x432 <= 1
C365: + x5 + x227 <= 1
C366: + x224 + x292 <= 1
C367: + x9 + x337 <= 1
C368: + x269 + x459 <= 1
C369: + x163 + x271 <= 1
C370: + x201 + x379 <= 1
C371: + x93 + x273 <= 1
C372: + x186 + x281 <= 1
C373: + x187 + x407 <= 1
C374: + x7 + x150 <= 1
C375: + x27 + x458 <= 1
C376: + x129 + x359 <= 1
C377: + x47 + x450 <= 1
C378: + x50 + x484 <= 1
C379: + x185 + x260 <= 1
C380: + x294 + x432 <= 1
C381: + x35 + x410 <= 1
C382: + x180 + x238 <= 1
C383: + x242 + x399 <= 1
C384: + x24 + x37 <= 1
C385: + x92 + x443 <= 1
C386: + x108 + x128 <= 1
C387: + x26 + x486 <= 1
C388: + x16 + x214 <= 1
C389: + x27 + x87 <= 1
C390: + x22 + x255 <= 1
C391: + x19 + x189 <= 1
C392: + x97 + x452 <= 1
C393: + x2 + x448 <= 1
C394: + x57 + x266 <= 1
C395: + x363 + x485 <= 1
C396: + x1 + x26 <= 1
C397: + x90 + x456 <= 1
C398: + x28 + x296 <= 1
C399: + x339 + x382 <= 1
C400: + x12 + x444 <= 1
C401: + x23 + x455 <= 1
C402: + x34 + x72 <= 1
C403: + x63 + x122 <= 1
C404: + x65 + x132 <= 1
C405: + x48 + x59 <= 1
C406: + x12 + x231 <= 1
C407: + x5 + x30 <= 1
C408: + x18 + x244 <= 1
C409: + x85 + x292 <= 1
C410: + x67 + x394 <= 1
C411: + x169 + x439 <= 1
C412: + x71 + x224 <= 1
C413: + x217 + x313 <= 1
C414: + x10 + x64 <= 1
C415: + x173 + x209 <= 1
C416: + x371 + x428 <= 1
C417: + x6 + x297 <= 1
C418: + x29 + x96 <= 1
C419: + x30 + x72 <= 1
C420: + x26 + x416 <= 1
C421: + x129 + x244 <= 1
C422: + x348 + x429 <= 1
C423: + x89 + x197 <= 1
C424: + x6 + x239 <= 1
C425: + x163 + x257 <= 1
C426: + x18 + x185 <= 1
C427: + x8 + x70 <= 1
C428: + x119 + x211 <= 1
C429: + x265 + x382 <= 1
C430: + x4 + x126 <= 1
C431: + x5 + x118 <= 1
C432: + x40 + x146 <= 1
C433: + x17 + x84 <= 1
C434: + x18 + x92 <= 1
C435: + x54 + x243 <= 1
C436: + x25 + x151 <= 1
C437: + x25 + x290 <= 1
C438: + x28 + x317 <= 1
C439: + x66 + x98 <= 1
C440: + x15 + x43 <= 1
C441: + x19 + x90 <= 1
C442: + x136 + x290 <= 1
C443: + x121 + x413 <= 1
C444: + x21 + x323 <= 1
C445: + x27 + x42 <= 1
C446: + x92 + x110 <= 1
C447: + x65 + x493 <= 1
C448: + x38 + x250 <= 1
C449: + x21 + x40 <= 1
C450: + x29 + x131 <= 1
C451: + x6 + x385 <= 1
C452: + x7 + x23 <= 1
C453: + x70 + x118 <= 1
C454: + x138 + x326 <= 1
C455: + x148 + x395 <= 1
C456: + x15 + x119 <= 1
C457: + x62 + x71 <= 1
C458: + x9 + x282 <= 1
C459: + x10 + x33 <= 1
C460: + x85 + x154 <= 1
C461: + x112 + x216 <= 1
C462: + x4 + x183 <= 1
C463: + x5 + x73 <= 1
C464: + x140 + x332 <= 1
C465: + x18 + x33 <= 1
C466: + x8 + x46 <= 1
C467: + x236 + x291 <= 1
C468: + x457 + x470 <= 1
C469: + x32 + x444 <= 1
C470: + x88 + x335 <= 1
C471: + x91 + x95 <= 1
C472: + x27 + x287 <= 1
C473: + x129 + x203 <= 1
C474: + x228 + x253 <= 1
C475: + x3 + x99 <= 1
C476: + x84 + x151 <= 1
C477: + x4 + x200 <= 1
C478: + x5 + x224 <= 1
C479: + x6 + x216 <= 1
C480: + x9 + x326 <= 1
C481: + x409 + x438 <= 1
C482: + x31 + x69 <= 1
C483: + x15 + x131 <= 1
C484: + x85 + x366 <= 1
C485: + x163 + x284 <= 1
C486: + x33 + x348 <= 1
C487: + x135 + x167 <= 1
C488: + x169 + x278 <= 1
C489: + x61 + x215 <= 1
C490: + x6 + x121 <= 1
C491: + x217 + x251 <= 1
C492: + x173 + x326 <= 1
C493: + x2 + x9 <= 1
C494: + x18 + x238 <= 1
C495: + x285 + x327 <= 1
C496: + x33 + x58 <= 1
C497: + x217 + x263 <= 1
C498: + x70 + x274 <= 1
C499: + x52 + x328 <= 1
C500: + x144 + x161 <= 1
C501: + x1 + x211 <= 1
C502: + x219 + x477 <= 1
C503: + x6 + x45 <= 1
C504: + x18 + x26 <= 1
C505: + x8 + x43 <= 1
C506: + x273 + x304 <= 1
C507: + x139 + x198 <= 1
C508: + x108 + x159 <= 1
C509: + x9 + x130 <= 1
C510: + x102 + x173 <= 1
C511: + x56 + x94 <= 1
C512: + x5 + x124 <= 1
C513: + x1 + x396 <= 1
C514: + x8 + x479 <= 1
C515: + x21 + x71 <= 1
C516: + x184 + x411 <= 1
C517: + x177 + x496 <= 1
C518: + x33 + x101 <= 1
C519: + x406 + x466 <= 1
C520: + x7 + x114 <= 1
C521: + x186 + x408 <= 1
C522: + x5 + x11 <= 1
C523: + x154 + x383 <= 1
C524: + x146 + x426 <= 1
C525: + x21 + x54 <= 1
C526: + x351 + x355 <= 1
C527: + x248 + x373 <= 1
C528: + x67 + x225 <= 1
C529: + x76 + x152 <= 1
C530: + x41 + x372 <= 1
C531: + x18 + x301 <= 1
C532: + x37 + x355 <= 1
C533: + x169 + x230 <= 1
C534: + x9 + x58 <= 1
C535: + x18 + x19 <= 1
C536: + x11 + x262 <= 1
C537: + x25 + x125 <= 1
C538: + x351 + x431 <= 1
C539: + x144 + x223 <= 1
C540: + x18 + x345 <= 1
C541: + x19 + x52 <= 1
C542: + x148 + x375 <= 1
C543: + x41 + x93 <= 1
C544: + x13 + x62 <= 1
C545: + x14 + x138 <= 1
C546: + x125 + x283 <= 1
C547: + x269 + x331 <= 1
C548: + x18 + x79 <= 1
C549: + x252 + x387 <= 1
C550: + x188 + x288 <= 1
C551: + x224 + x420 <= 1
C552: + x247 + x438 <= 1
C553: + x12 + x17 <= 1
C554: + x6 + x107 <= 1
C555: + x208 + x376 <= 1
C556: + x9 + x451 <= 1
C557: + x91 + x117 <= 1
C558: + x2 + x27 <= 1
C559: + x177 + x324 <= 1
C560: + x25 + x422 <= 1
C561: + x281 + x389 <= 1
C562: + x2 + x166 <= 1
C563: + x47 + x66 <= 1
C564: + x459 + x495 <= 1
C565: + x31 + x337 <= 1
C566: + x37 + x128 <= 1
C567: + x113 + x462 <= 1
C568: + x12 + x404 <= 1
C569: + x104 + x291 <= 1
C570: + x258 + x290 <= 1
C571: + x88 + x229 <= 1
C572: + x18 + x294 <= 1
C573: + x22 + x441 <= 1
C574: + x23 + x63 <= 1
C575: + x6 + x31 <= 1
C576: + x23 + x156 <= 1
C577: + x126 + x245 <= 1
C578: + x21 + x446 <= 1
C579: + x314 + x430 <= 1
C580: + x61 + x176 <= 1
C581: + x181 + x426 <= 1
C582: + x265 + x445 <= 1
C583: + x22 + x397 <= 1
C584: + x32 + x54 <= 1
C585: + x6 + x195 <= 1
C586: + x15 + x152 <= 1
C587: + x27 + x122 <= 1
C588: + x16 + x272 <= 1
C589: + x139 + x425 <= 1
C590: + x25 + x243 <= 1
C591: + x17 + x192 <= 1
C592: + x195 + x364 <= 1
C593: + x104 + x360 <= 1
C594: + x396 + x439 <= 1
C595: + x6 + x84 <= 1
C596: + x146 + x182 <= 1
C597: + x11 + x470 <= 1
C598: + x22 + x81 <= 1
C599: + x287 + x319 <= 1
C600: + x63 + x307 <= 1
C601: + x12 + x18 + x25 <= 1
C602: + x86 + x441 <= 1
C603: + x4 + x6 <= 1
C604: + x42 + x219 <= 1
C605: + x25 + x191 <= 1
C606: + x5 + x491 <= 1
C607: + x69 + x94 <= 1
C608: + x16 + x46 <= 1
C609: + x4 + x376 <= 1
C610: + x14 + x101 <= 1
C611: + x15 + x83 <= 1
C612: + x7 + x160 <= 1
C613: + x2 + x48 <= 1
C614: + x266 + x427 <= 1
C615: + x6 + x187 <= 1
C616: + x219 + x331 <= 1
C617: + x38 + x194 <= 1
C618: + x13 + x93 <= 1
C619: + x4 + x389 <= 1
C620: + x5 + x287 <= 1
C621: + x35 + x146 <= 1
C622: + x344 + x410 <= 1
C623: + x1 + x482 <= 1
C624: + x7 + x47 <= 1
C625: + x140 + x197 <= 1
C626: + x422 + x454 <= 1
C627: + x52 + x359 <= 1
C628: + x6 + x204 <= 1
C629: + x73 + x162 <= 1
C630: + x127 + x420 <= 1
C631: + x18 + x57 <= 1
C632: + x233 + x424 <= 1
C633: + x386 + x427 <= 1
C634: + x14 + x426 <= 1
C635: + x355 + x367 <= 1
C636: + x8 + x361 <= 1
C637: + x184 + x261 <= 1
C638: + x112 + x301 <= 1
C639: + x215 + x282 <= 1
C640: + x216 + x390 <= 1
C641: + x114 + x371 <= 1
C642: + x236 + x460 <= 1
C643: + x378 + x454 <= 1
C644: + x214 + x381 <= 1
C645: + x178 + x364 <= 1
C646: + x226 + x338 <= 1
C647: + x16 + x43 <= 1
C648: + x218 + x301 <= 1
C649: + x194 + x393 <= 1
C650: + x27 + x459 <= 1
C651: + x119 + x396 <= 1
C652: + x2 + x33 <= 1
C653: + x213 + x498 <= 1
C654: + x234 + x346 <= 1
C655: + x5 + x44 <= 1
C656: + x45 + x131 <= 1
C657: + x12 + x76 <= 1
C658: + x21 + x23 <= 1
C659: + x60 + x399 <= 1
C660: + x87 + x380 <= 1
C661: + x17 + x31 <= 1
C662: + x7 + x34 <= 1
C663: + x58 + x173 <= 1
C664: + x6 + x53 <= 1
C665: + x100 + x298 <= 1
C666: + x62 + x483 <= 1
C667: + x18 + x151 <= 1
C668: + x1 + x203 <= 1
C669: + x85 + x137 <= 1
C670: + x51 + x297 <= 1
C671: + x188 + x291 <= 1
C672: + x197 + x213 <= 1
C673: + x5 + x405 <= 1
C674: + x18 + x50 <= 1
C675: + x38 + x63 <= 1
C676: + x29 + x70 <= 1
C677: + x45 + x348 <= 1
C678: + x136 + x173 <= 1
C679: + x11 + x17 <= 1
C680: + x31 + x88 <= 1
C681: + x28 + x32 + x329 <= 1
C682: + x163 + x267 <= 1
C683: + x16 + x157 <= 1
C684: + x1 + x7 <= 1
C685: + x18 + x195 <= 1
C686: + x54 + x330 <= 1
C687: + x114 + x215 <= 1
C688: + x155 + x494 <= 1
C689: + x38 + x99 <= 1
C690: + x3 + x5 <= 1
C691: + x97 + x285 <= 1
C692: + x4 + x358 <= 1
C693: + x112 + x250 <= 1
C694: + x22 + x55 <= 1
C695: + x5 + x19 <= 1
C696: + x24 + x279 <= 1
C697: + x121 + x240 <= 1
C698: + x195 + x248 <= 1
C699: + x22 + x138 <= 1
C700: + x60 + x392 <= 1
C701: + x84 + x270 <= 1
C702: + x47 + x132 <= 1
C703: + x3 + x89 <= 1
C704: + x49 + x367 <= 1
C705: + x14 + x75 <= 1
C706: + x424 + x472 <= 1
C707: + x197 + x482 <= 1
C708: + x18 + x144 <= 1
C709: + x91 + x275 <= 1
C710: + x5 + x71 <= 1
C711: + x239 + x307 <= 1
C712: + x88 + x181 <= 1
C713: + x66 + x295 <= 1
C714: + x14 + x63 <= 1
C715: + x6 + x226 <= 1
C716: + x27 + x103 <= 1
C717: + x312 + x314 <= 1
C718: + x170 + x257 <= 1
C719: + x389 + x490 <= 1
C720: + x143 + x384 <= 1
C721: + x48 + x356 <= 1
C722: + x42 + x105 <= 1
C723: + x40 + x391 <= 1
C724: + x18 + x258 <= 1
C725: + x10 + x120 <= 1
C726: + x11 + x80 <= 1
C727: + x97 + x241 <= 1
C728: + x107 + x220 <= 1
C729: + x289 + x480 <= 1
C730: + x8 + x125 <= 1
C731: + x1 + x42 <= 1
C732: + x49 + x116 <= 1
C733: + x12 + x122 <= 1
C734: + x2 + x350 <= 1
C735: + x54 + x359 <= 1
C736: + x52 + x223 <= 1
C737: + x4 + x37 <= 1
C738: + x25 + x96 <= 1
C739: + x45 + x278 <= 1
C740: + x239 + x256 <= 1
C741: + x184 + x352 <= 1
C742: + x61 + x273 <= 1
C743: + x6 + x39 <= 1
C744: + x284 + x341 <= 1
C745: + x33 + x48 <= 1
C746: + x8 + x142 <= 1
C747: + x129 + x398 <= 1
C748: + x157 + x183 <= 1
C749: + x38 + x334 <= 1
C750: + x353 + x370 <= 1
C751: + x5 + x411 <= 1
C752: + x18 + x36 <= 1
C753: + x41 + x274 <= 1
C754: + x14 + x56 <= 1
C755: + x6 + x235 <= 1
C756: + x172 + x255 <= 1
C757: + x286 + x320 <= 1
C758: + x5 + x114 <= 1
C759: + x10 + x331 <= 1
C760: + x47 + x194 <= 1
C761: + x31 + x465 <= 1
C762: + x22 + x486 <= 1
C763: + x262 + x311 <= 1
C764: + x19 + x86 <= 1
C765: + x2 + x12 <= 1
C766: + x266 + x455 <= 1
C767: + x22 + x57 <= 1
C768: + x268 + x423 <= 1
C769: + x7 + x362 <= 1
C770: + x47 + x49 <= 1
C771: + x58 + x434 <= 1
C772: + x104 + x461 <= 1
C773: + x25 + x167 <= 1
C774: + x63 + x248 <= 1
C775: + x147 + x357 <= 1
C776: + x60 + x168 <= 1
C777: + x118 + x299 <= 1
C778: + x10 + x37 <= 1
C779: + x11 + x187 <= 1
C780: + x53 + x79 <= 1
C781: + x134 + x361 <= 1
C782: + x54 + x308 <= 1
C783: + x8 + x42 <= 1
C784: + x10 + x136 <= 1
C785: + x114 + x436 <= 1
C786: + x45 + x321 <= 1
C787: + x138 + x201 <= 1
C788: + x354 + x496 <= 1
C789: + x381 + x451 <= 1
C790: + x39 + x57 <= 1
C791: + x42 + x357 <= 1
C792: + x59 + x485 <= 1
C793: + x132 + x487 <= 1
C794: + x12 + x188 <= 1
C795: + x140 + x316 <= 1
C796: + x362 + x384 <= 1
C797: + x14 + x351 <= 1
C798: + x18 + x81 <= 1
C799: + x30 + x476 <= 1
C800: + x8 + x257 <= 1
C801: + x144 + x344 <= 1
C802: + x63 + x417 <= 1
C803: + x408 + x433 <= 1
C804: + x264 + x354 <= 1
C805: + x49 + x389 <= 1
C806: + x5 + x16 <= 1
C807: + x62 + x406 <= 1
C808: + x85 + x318 <= 1
C809: + x59 + x297 <= 1
C810: + x17 + x123 <= 1
C811: + x24 + x80 <= 1
C812: + x7 + x14 <= 1
C813: + x94 + x101 <= 1
C814: + x4 + x261 <= 1
C815: + x188 + x484 <= 1
C816: + x89 + x139 <= 1
C817: + x118 + x308 <= 1
C818: + x8 + x309 <= 1
C819: + x71 + x111 <= 1
C820: + x49 + x497 <= 1
C821: + x114 + x135 <= 1
C822: + x117 + x150 <= 1
C823: + x27 + x193 <= 1
C824: + x68 + x332 <= 1
C825: + x178 + x320 <= 1
C826: + x173 + x261 <= 1
C827: + x200 + x390 <= 1
C828: + x37 + x58 <= 1
C829: + x234 + x243 <= 1
C830: + x17 + x340 <= 1
C831: + x10 + x26 <= 1
C832: + x320 + x354 <= 1
C833: + x31 + x237 <= 1
C834: + x23 + x218 <= 1
C835: + x14 + x344 <= 1
C836: + x121 + x157 <= 1
C837: + x40 + x430 <= 1
C838: + x32 + x465 <= 1
C839: + x172 + x439 <= 1
C840: + x275 + x478 <= 1
C841: + x5 + x247 <= 1
C842: + x14 + x30 <= 1
C843: + x2 + x161 <= 1
C844: + x196 + x220 <= 1
C845: + x205 + x311 <= 1
C846: + x20 + x468 <= 1
C847: + x5 + x134 <= 1
C848: + x362 + x387 <= 1
C849: + x8 + x302 <= 1
C850: + x10 + x87 <= 1
C851: + x103 + x246 <= 1
C852: + x24 + x271 <= 1
C853: + x6 + x272 <= 1
C854: + x16 + x73 <= 1
C855: + x36 + x189 <= 1
C856: + x81 + x449 <= 1
C857: + x204 + x304 <= 1
C858: + x22 + x301 <= 1
C859: + x25 + x65 <= 1
C860: + x171 + x484 <= 1
C861: + x27 + x365 <= 1
C862: + x51 + x246 <= 1
C863: + x1 + x280 <= 1
C864: + x140 + x203 <= 1
C865: + x51 + x87 <= 1
C866: + x12 + x331 <= 1
C867: + x25 + x414 <= 1
C868: + x117 + x343 <= 1
C869: + x102 + x210 <= 1
C870: + x95 + x323 <= 1
C871: + x121 + x164 <= 1
C872: + x32 + x474 <= 1
C873: + x2 + x428 <= 1
C874: + x2 + x31 <= 1
C875: + x11 + x100 <= 1
C876: + x22 + x84 <= 1
C877: + x141 + x265 <= 1
C878: + x108 + x200 <= 1
C879: + x24 + x255 <= 1
C880: + x28 + x181 <= 1
C881: + x201 + x334 <= 1
C882: + x115 + x377 <= 1
C883: + x325 + x485 <= 1
C884: + x298 + x356 <= 1
C885: + x41 + x383 <= 1
C886: + x97 + x268 <= 1
C887: + x12 + x408 <= 1
C888: + x180 + x397 <= 1
C889: + x10 + x96 <= 1
C890: + x19 + x115 <= 1
C891: + x54 + x492 <= 1
C892: + x170 + x231 <= 1
C893: + x6 + x265 <= 1
C894: + x8 + x21 <= 1
C895: + x195 + x231 <= 1
C896: + x3 + x76 <= 1
C897: + x30 + x310 <= 1
C898: + x251 + x266 <= 1
C899: + x108 + x129 <= 1
C900: + x18 + x153 <= 1
C901: + x28 + x114 <= 1
C902: + x165 + x218 <= 1
C903: + x238 + x435 <= 1
C904: + x177 + x240 <= 1
C905: + x303 + x310 <= 1
C906: + x253 + x264 <= 1
C907: + x36 + x146 <= 1
C908: + x6 + x96 <= 1
C909: + x129 + x341 <= 1
C910: + x61 + x349 <= 1
C911: + x87 + x155 <= 1
C912: + x125 + x413 <= 1
C913: + x56 + x100 <= 1
C914: + x54 + x58 <= 1
C915: + x146 + x297 <= 1
C916: + x147 + x183 <= 1
C917: + x257 + x342 <= 1
C918: + x56 + x401 <= 1
C919: + x225 + x368 <= 1
C920: + x32 + x170 <= 1
C921: + x25 + x381 <= 1
C922: + x45 + x136 <= 1
C923: + x8 + x14 <= 1
C924: + x134 + x333 <= 1
C925: + x185 + x219 <= 1
C926: + x17 + x28 <= 1
C927: + x22 + x402 <= 1
C928: + x5 + x192 <= 1
C929: + x6 + x56 <= 1
C930: + x76 + x81 <= 1
C931: + x5 + x426 <= 1
C932: + x155 + x475 <= 1
C933: + x25 + x27 <= 1
C934: + x6 + x89 <= 1
C935: + x137 + x138 <= 1
C936: + x173 + x294 <= 1
C937: + x238 + x317 <= 1
C938: + x103 + x163 <= 1
C939: + x21 + x362 <= 1
C940: + x42 + x466 <= 1
C941: + x431 + x481 <= 1
C942: + x7 + x252 <= 1
C943: + x144 + x463 <= 1
C944: + x125 + x166 <= 1
C945: + x82 + x425 <= 1
C946: + x138 + x367 <= 1
C947: + x47 + x177 <= 1
C948: + x41 + x365 <= 1
C949: + x6 + x13 <= 1
C950: + x35 + x310 <= 1
C951: + x1 + x179 <= 1
C952: + x57 + x336 <= 1
C953: + x48 + x61 <= 1
C954: + x68 + x393 <= 1
C955: + x361 + x415 <= 1
C956: + x45 + x127 <= 1
C957: + x8 + x11 <= 1
C958: + x466 + x472 <= 1
C959: + x52 + x213 <= 1
C960: + x7 + x38 <= 1
C961: + x129 + x162 <= 1
C962: + x238 + x258 <= 1
C963: + x47 + x306 <= 1
C964: + x32 + x40 <= 1
C965: + x23 + x25 <= 1
C966: + x6 + x49 <= 1
C967: + x9 + x365 <= 1
C968: + x245 + x342 <= 1
C969: + x274 + x289 <= 1
C970: + x11 + x142 <= 1
C971: + x12 + x221 <= 1
C972: + x5 + x401 <= 1
C973: + x121 + x185 <= 1
C974: + x12 + x60 <= 1
C975: + x50 + x205 <= 1
C976: + x23 + x396 <= 1
C977: + x127 + x314 <= 1
C978: + x112 + x358 <= 1
C979: + x59 + x115 <= 1
C980: + x25 + x447 <= 1
C981: + x63 + x289 <= 1
C982: + x210 + x330 <= 1
C983: + x57 + x488 <= 1
C984: + x196 + x267 <= 1
C985: + x161 + x313 <= 1
C986: + x17 + x94 <= 1
C987: + x18 + x98 <= 1
C988: + x160 + x273 <= 1
C989: + x6 + x201 <= 1
C990: + x25 + x145 <= 1
C991: + x12 + x443 <= 1
C992: + x252 + x325 <= 1
C993: + x9 + x296 <= 1
C994: + x104 + x169 <= 1
C995: + x44 + x110 <= 1
C996: + x159 + x335 <= 1
C997: + x165 + x453 <= 1
C998: + x21 + x300 <= 1
C999: + x5 + x174 <= 1
C1000: + x188 + x465 <= 1
C1001: + x16 + x359 <= 1
C1002: + x163 + x247 <= 1
C1003: + x19 + x20 <= 1
C1004: + x1 + x198 <= 1
C1005: + x5 + x67 <= 1
C1006: + x14 + x170 <= 1
C1007: + x70 + x450 <= 1
C1008: + x28 + x228 <= 1
C1009: + x165 + x300 <= 1
C1010: + x114 + x115 <= 1
C1011: + x114 + x390 <= 1
C1012: + x7 + x73 <= 1
C1013: + x62 + x190 <= 1
C1014: + x27 + x277 <= 1
C1015: + x129 + x314 <= 1
C1016: + x138 + x195 <= 1
C1017: + x194 + x494 <= 1
C1018: + x31 + x67 <= 1
C1019: + x12 + x130 <= 1
C1020: + x27 + x97 + x160 <= 1
C1021: + x257 + x414 <= 1
C1022: + x186 + x298 <= 1
C1023: + x85 + x114 <= 1
C1024: + x5 + x353 <= 1
C1025: + x7 + x133 <= 1
C1026: + x9 + x303 <= 1
C1027: + x336 + x343 <= 1
C1028: + x200 + x463 <= 1
C1029: + x1 + x129 <= 1
C1030: + x21 + x324 <= 1
C1031: + x64 + x112 <= 1
C1032: + x4 + x41 <= 1
C1033: + x161 + x268 <= 1
C1034: + x62 + x227 <= 1
C1035: + x9 + x446 <= 1
C1036: + x18 + x407 <= 1
C1037: + x47 + x143 <= 1
C1038: + x67 + x240 <= 1
C1039: + x52 + x322 <= 1
C1040: + x24 + x409 <= 1
C1041: + x7 + x177 <= 1
C1042: + x266 + x398 <= 1
C1043: + x231 + x394 <= 1
C1044: + x25 + x211 <= 1
C1045: + x9 + x13 <= 1
C1046: + x29 + x88 <= 1
C1047: + x1 + x263 <= 1
C1048: + x11 + x15 <= 1
C1049: + x156 + x178 <= 1
C1050: + x50 + x90 <= 1
C1051: + x5 + x217 <= 1
C1052: + x52 + x270 <= 1
C1053: + x9 + x327 <= 1
C1054: + x67 + x453 <= 1
C1055: + x21 + x220 <= 1
C1056: + x34 + x246 <= 1
C1057: + x6 + x104 <= 1
C1058: + x15 + x51 <= 1
C1059: + x88 + x158 <= 1
C1060: + x127 + x280 <= 1
C1061: + x2 + x16 <= 1
C1062: + x68 + x128 <= 1
C1063: + x77 + x147 <= 1
C1064: + x217 + x409 <= 1
C1065: + x15 + x208 <= 1
C1066: + x97 + x140 <= 1
C1067: + x5 + x13 <= 1
C1068: + x149 + x203 <= 1
C1069: + x63 + x287 <= 1
C1070: + x20 + x184 <= 1
C1071: + x157 + x283 <= 1
C1072: + x22 + x168 <= 1
C1073: + x97 + x414 <= 1
C1074: + x125 + x135 <= 1
C1075: + x35 + x178 <= 1
C1076: + x208 + x274 <= 1
C1077: + x161 + x259 <= 1
C1078: + x57 + x159 <= 1
C1079: + x413 + x415 <= 1
C1080: + x244 + x254 <= 1
C1081: + x1 + x367 <= 1
C1082: + x92 + x147 <= 1
C1083: + x63 + x85 <= 1
C1084: + x94 + x139 <= 1
C1085: + x193 + x345 <= 1
C1086: + x434 + x480 <= 1
C1087: + x26 + x206 <= 1
C1088: + x227 + x302 <= 1
C1089: + x170 + x248 <= 1
C1090: + x77 + x428 <= 1
C1091: + x55 + x65 <= 1
C1092: + x20 + x406 <= 1
C1093: + x26 + x268 <= 1
C1094: + x91 + x252 <= 1
C1095: + x309 + x356 <= 1
C1096: + x76 + x425 <= 1
C1097: + x89 + x113 <= 1
C1098: + x14 + x144 <= 1
C1099: + x23 + x219 <= 1
C1100: + x5 + x434 <= 1
C1101: + x121 + x154 <= 1
C1102: + x258 + x276 <= 1
C1103: + x5 + x343 <= 1
C1104: + x15 + x54 <= 1
C1105: + x10 + x102 <= 1
C1106: + x67 + x79 <= 1
C1107: + x136 + x279 <= 1
C1108: + x228 + x360 <= 1
C1109: + x204 + x461 <= 1
C1110: + x5 + x12 <= 1
C1111: + x120 + x230 <= 1
C1112: + x22 + x348 <= 1
C1113: + x125 + x158 <= 1
C1114: + x118 + x413 <= 1
C1115: + x18 + x385 <= 1
C1116: + x24 + x431 <= 1
C1117: + x6 + x184 <= 1
C1118: + x64 + x66 <= 1
C1119: + x386 + x388 <= 1
C1120: + x25 + x126 <= 1
C1121: + x27 + x354 <= 1
C1122: + x11 + x49 <= 1
C1123: + x12 + x330 <= 1
C1124: + x152 + x341 <= 1
C1125: + x109 + x230 <= 1
C1126: + x94 + x344 <= 1
C1127: + x40 + x192 <= 1
C1128: + x32 + x227 <= 1
C1129: + x315 + x395 <= 1
C1130: + x12 + x423 <= 1
C1131: + x6 + x106 <= 1
C1132: + x15 + x61 <= 1
C1133: + x38 + x305 <= 1
C1134: + x22 + x87 <= 1
C1135: + x5 + x243 <= 1
C1136: + x2 + x165 <= 1
C1137: + x21 + x62 <= 1
C1138: + x40 + x244 <= 1
C1139: + x12 + x97 <= 1
C1140: + x42 + x116 <= 1
C1141: + x217 + x278 <= 1
C1142: + x23 + x64 <= 1
C1143: + x36 + x399 <= 1
C1144: + x132 + x242 <= 1
C1145: + x173 + x361 <= 1
C1146: + x105 + x217 <= 1
C1147: + x14 + x206 <= 1
C1148: + x6 + x177 <= 1
C1149: + x171 + x242 <= 1
C1150: + x4 + x415 <= 1
C1151: + x25 + x69 <= 1
C1152: + x337 + x439 <= 1
C1153: + x10 + x273 <= 1
C1154: + x8 + x447 <= 1
C1155: + x66 + x263 <= 1
C1156: + x203 + x309 <= 1
C1157: + x140 + x207 <= 1
C1158: + x60 + x134 <= 1
C1159: + x5 + x182 <= 1
C1160: + x24 + x380 <= 1
C1161: + x69 + x185 <= 1
C1162: + x9 + x177 <= 1
C1163: + x122 + x189 <= 1
C1164: + x76 + x423 <= 1
C1165: + x104 + x117 <= 1
C1166: + x443 + x473 <= 1
C1167: + x108 + x370 <= 1
C1168: + x106 + x265 <= 1
C1169: + x96 + x262 <= 1
C1170: + x46 + x60 <= 1
C1171: + x55 + x111 <= 1
C1172: + x85 + x235 <= 1
C1173: + x194 + x262 <= 1
C1174: + x177 + x380 <= 1
C1175: + x129 + x237 <= 1
C1176: + x97 + x145 <= 1
C1177: + x6 + x246 <= 1
C1178: + x73 + x317 <= 1
C1179: + x1 + x10 <= 1
C1180: + x3 + x294 <= 1
C1181: + x68 + x498 <= 1
C1182: + x4 + x5 <= 1
C1183: + x5 + x492 <= 1
C1184: + x91 + x496 <= 1
C1185: + x98 + x120 <= 1
C1186: + x6 + x7 <= 1
C1187: + x5 + x137 <= 1
C1188: + x19 + x422 <= 1
C1189: + x27 + x449 <= 1
C1190: + x4 + x150 <= 1
C1191: + x226 + x457 <= 1
C1192: + x19 + x148 <= 1
C1193: + x256 + x440 <= 1
C1194: + x176 + x500 <= 1
C1195: + x78 + x106 <= 1
C1196: + x6 + x408 <= 1
C1197: + x37 + x481 <= 1
C1198: + x21 + x283 <= 1
C1199: + x78 + x205 <= 1
C1200: + x31 + x418 <= 1
C1201: + x14 + x88 <= 1
C1202: + x19 + x35 <= 1
C1203: + x301 + x430 <= 1
C1204: + x295 + x491 <= 1
C1205: + x5 + x431 <= 1
C1206: + x47 + x226 <= 1
C1207: + x42 + x178 <= 1
C1208: + x51 + x221 <= 1
C1209: + x34 + x125 <= 1
C1210: + x181 + x454 <= 1
C1211: + x12 + x308 <= 1
C1212: + x5 + x225 <= 1
C1213: + x26 + x158 <= 1
C1214: + x381 + x448 <= 1
C1215: + x105 + x184 <= 1
C1216: + x86 + x321 <= 1
C1217: + x4 + x449 <= 1
C1218: + x5 + x467 <= 1
C1219: + x32 + x340 <= 1
C1220: + x15 + x442 <= 1
C1221: + x18 + x108 <= 1
C1222: + x13 + x275 <= 1
C1223: + x25 + x36 <= 1
C1224: + x6 + x16 <= 1
C1225: + x7 + x152 <= 1
C1226: + x82 + x215 <= 1
C1227: + x201 + x456 <= 1
C1228: + x10 + x69 <= 1
C1229: + x266 + x467 <= 1
C1230: + x5 + x21 <= 1
C1231: + x27 + x218 <= 1
C1232: + x62 + x369 <= 1
C1233: + x200 + x202 <= 1
C1234: + x13 + x85 <= 1
C1235: + x87 + x377 <= 1
C1236: + x162 + x493 <= 1
C1237: + x38 + x104 + x468 <= 1
C1238: + x140 + x253 <= 1
C1239: + x5 + x188 <= 1
C1240: + x151 + x207 <= 1
C1241: + x100 + x256 <= 1
C1242: + x10 + x49 <= 1
C1243: + x36 + x64 <= 1
C1244: + x30 + x174 <= 1
C1245: + x21 + x135 <= 1
C1246: + x14 + x180 <= 1
C1247: + x75 + x420 <= 1
C1248: + x156 + x477 <= 1
C1249: + x248 + x264 <= 1
C1250: + x85 + x495 <= 1
C1251: + x25 + x31 <= 1
C1252: + x11 + x453 <= 1
C1253: + x11 + x18 <= 1
C1254: + x31 + x85 <= 1
C1255: + x286 + x394 <= 1
C1256: + x27 + x29 <= 1
C1257: + x28 + x135 <= 1
C1258: + x7 + x321 <= 1
C1259: + x66 + x107 <= 1
C1260: + x56 + x156 <= 1
C1261: + x3 + x6 <= 1
C1262: + x366 + x405 <= 1
C1263: + x6 + x9 <= 1
C1264: + x408 + x421 <= 1
C1265: + x237 + x355 <= 1
C1266: + x87 + x110 <= 1
C1267: + x6 + x172 <= 1
C1268: + x100 + x152 <= 1
C1269: + x93 + x413 <= 1
C1270: + x262 + x341 <= 1
C1271: + x165 + x474 <= 1
C1272: + x23 + x29 <= 1
C1273: + x6 + x61 <= 1
C1274: + x203 + x387 <= 1
C1275: + x289 + x406 <= 1
C1276: + x28 + x239 <= 1
C1277: + x310 + x412 <= 1
C1278: + x156 + x470 <= 1
C1279: + x49 + x170 <= 1
C1280: + x349 + x440 <= 1
C1281: + x78 + x80 <= 1
C1282: + x150 + x323 <= 1
C1283: + x123 + x161 <= 1
C1284: + x262 + x281 <= 1
C1285: + x53 + x287 <= 1
C1286: + x416 + x475 <= 1
C1287: + x14 + x62 <= 1
C1288: + x108 + x175 <= 1
C1289: + x27 + x104 <= 1
C1290: + x46 + x277 <= 1
C1291: + x130 + x460 <= 1
C1292: + x21 + x210 <= 1
C1293: + x178 + x210 <= 1
C1294: + x317 + x467 <= 1
C1295: + x85 + x119 <= 1
C1296: + x145 + x196 <= 1
C1297: + x1 + x345 <= 1
C1298: + x9 + x300 <= 1
C1299: + x5 + x27 <= 1
C1300: + x144 + x488 <= 1
C1301: + x256 + x419 <= 1
C1302: + x239 + x495 <= 1
C1303: + x21 + x38 <= 1
C1304: + x4 + x40 <= 1
C1305: + x14 + x288 <= 1
C1306: + x315 + x455 <= 1
C1307: + x7 + x17 <= 1
C1308: + x8 + x419 <= 1
C1309: + x241 + x402 <= 1
C1310: + x29 + x38 <= 1
C1311: + x86 + x280 <= 1
C1312: + x52 + x412 <= 1
C1313: + x14 + x369 <= 1
C1314: + x25 + x208 <= 1
C1315: + x6 + x276 <= 1
C1316: + x47 + x251 <= 1
C1317: + x12 + x53 <= 1
C1318: + x6 + x234 <= 1
C1319: + x11 + x229 <= 1
C1320: + x229 + x487 <= 1
C1321: + x5 + x115 <= 1
C1322: + x14 + x293 <= 1
C1323: + x147 + x434 <= 1
C1324: + x122 + x443 <= 1
C1325: + x12 + x440 <= 1
C1326: + x88 + x129 <= 1
C1327: + x207 + x368 <= 1
C1328: + x189 + x386 <= 1
C1329: + x22 + x72 <= 1
C1330: + x15 + x318 <= 1
C1331: + x308 + x310 <= 1
C1332: + x57 + x63 <= 1
C1333: + x2 + x342 <= 1
C1334: + x33 + x278 <= 1
C1335: + x4 + x45 <= 1
C1336: + x22 + x155 <= 1
C1337: + x5 + x500 <= 1
C1338: + x102 + x461 <= 1
C1339: + x47 + x328 <= 1
C1340: + x141 + x244 <= 1
C1341: + x6 + x47 <= 1
C1342: + x36 + x416 <= 1
C1343: + x66 + x391 <= 1
C1344: + x2 + x199 <= 1
C1345: + x12 + x207 <= 1
C1346: + x149 + x276 <= 1
C1347: + x40 + x82 <= 1
C1348: + x125 + x251 <= 1
C1349: + x188 + x256 <= 1
C1350: + x18 + x28 <= 1
C1351: + x6 + x285 <= 1
C1352: + x123 + x368 <= 1
C1353: + x351 + x418 <= 1
C1354: + x165 + x436 <= 1
C1355: + x212 + x337 <= 1
C1356: + x27 + x106 <= 1
C1357: + x10 + x24 <= 1
C1358: + x2 + x147 <= 1
C1359: + x8 + x186 <= 1
C1360: + x40 + x134 <= 1
C1361: + x5 + x122 <= 1
C1362: + x60 + x466 <= 1
C1363: + x235 + x322 <= 1
C1364: + x19 + x352 <= 1
C1365: + x14 + x385 <= 1
C1366: + x67 + x116 <= 1
C1367: + x69 + x372 <= 1
C1368: + x5 + x9 <= 1
C1369: + x126 + x383 <= 1
C1370: + x6 + x338 <= 1
C1371: + x9 + x204 <= 1
C1372: + x270 + x431 <= 1
C1373: + x42 + x280 <= 1
C1374: + x344 + x438 <= 1
C1375: + x359 + x493 <= 1
C1376: + x14 + x117 <= 1
C1377: + x26 + x452 <= 1
C1378: + x114 + x134 <= 1
C1379: + x23 + x312 <= 1
C1380: + x45 + x156 <= 1
C1381: + x10 + x144 <= 1
C1382: + x2 + x379 <= 1
C1383: + x78 + x123 <= 1
C1384: + x62 + x204 <= 1
C1385: + x356 + x499 <= 1
C1386: + x238 + x285 <= 1
C1387: + x76 + x194 <= 1
C1388: + x32 + x67 <= 1
C1389: + x15 + x143 <= 1
C1390: + x144 + x303 <= 1
C1391: + x83 + x374 <= 1
C1392: + x41 + x91 <= 1
C1393: + x12 + x180 <= 1
C1394: + x158 + x326 <= 1
C1395: + x387 + x424 <= 1
C1396: + x26 + x30 <= 1
C1397: + x6 + x458 <= 1
C1398: + x14 + x140 <= 1
C1399: + x108 + x392 <= 1
C1400: + x85 + x471 <= 1
C1401: + x182 + x336 <= 1
C1402: + x184 + x402 <= 1
C1403: + x159 + x277 <= 1
C1404: + x10 + x106 <= 1
C1405: + x2 + x5 <= 1
C1406: + x228 + x364 <= 1
C1407: + x373 + x479 <= 1
C1408: + x5 + x248 <= 1
C1409: + x125 + x400 <= 1
C1410: + x265 + x349 <= 1
C1411: + x20 + x193 <= 1
C1412: + x25 + x182 <= 1
C1413: + x125 + x155 <= 1
C1414: + x71 + x198 <= 1
C1415: + x85 + x411 <= 1
C1416: + x21 + x461 <= 1
C1417: + x341 + x442 <= 1
C1418: + x6 + x17 <= 1
C1419: + x447 + x483 <= 1
C1420: + x13 + x199 <= 1
C1421: + x180 + x294 <= 1
C1422: + x6 + x180 <= 1
C1423: + x64 + x78 <= 1
C1424: + x314 + x432 <= 1
C1425: + x24 + x28 <= 1
C1426: + x172 + x499 <= 1
C1427: + x2 + x66 <= 1
C1428: + x140 + x206 <= 1
C1429: + x150 + x186 <= 1
C1430: + x18 + x340 <= 1
C1431: + x66 + x429 <= 1
C1432: + x103 + x295 <= 1
C1433: + x48 + x117 <= 1
C1434: + x86 + x375 <= 1
C1435: + x5 + x112 <= 1
C1436: + x5 + x421 <= 1
C1437: + x285 + x414 <= 1
C1438: + x227 + x373 <= 1
C1439: + x55 + x207 <= 1
C1440: + x12 + x24 <= 1
C1441: + x50 + x217 <= 1
C1442: + x195 + x366 <= 1
C1443: + x6 + x86 <= 1
C1444: + x129 + x234 <= 1
C1445: + x64 + x149 <= 1
C1446: + x11 + x97 <= 1
C1447: + x48 + x486 <= 1
C1448: + x97 + x158 <= 1
C1449: + x224 + x320 <= 1
C1450: + x15 + x222 <= 1
C1451: + x253 + x377 <= 1
C1452: + x67 + x487 <= 1
C1453: + x52 + x62 <= 1
C1454: + x125 + x145 <= 1
C1455: + x5 + x489 <= 1
C1456: + x94 + x118 <= 1
C1457: + x275 + x357 <= 1
C1458: + x6 + x26 <= 1
C1459: + x72 + x102 <= 1
C1460: + x373 + x490 <= 1
C1461: + x2 + x42 <= 1
C1462: + x42 + x403 <= 1
C1463: + x5 + x35 <= 1
C1464: + x226 + x460 <= 1
C1465: + x145 + x462 <= 1
C1466: + x94 + x316 <= 1
C1467: + x41 + x271 <= 1
C1468: + x314 + x433 <= 1
C1469: + x5 + x285 <= 1
C1470: + x96 + x350 <= 1
C1471: + x129 + x213 <= 1
C1472: + x10 + x11 <= 1
C1473: + x76 + x91 <= 1
C1474: + x20 + x259 <= 1
C1475: + x22 + x235 <= 1
C1476: + x52 + x388 <= 1
C1477: + x9 + x18 <= 1
C1478: + x63 + x165 <= 1
C1479: + x127 + x212 <= 1
C1480: + x38 + x56 <= 1
C1481: + x48 + x209 <= 1
C1482: + x59 + x141 <= 1
C1483: + x169 + x272 <= 1
C1484: + x4 + x238 <= 1
C1485: + x14 + x15 <= 1
C1486: + x52 + x305 <= 1
C1487: + x26 + x60 <= 1
C1488: + x101 + x407 <= 1
C1489: + x84 + x311 <= 1
C1490: + x203 + x376 <= 1
C1491: + x68 + x232 <= 1
C1492: + x12 + x400 <= 1
C1493: + x159 + x307 <= 1
C1494: + x200 + x483 <= 1
C1495: + x85 + x187 <= 1
C1496: + x50 + x489 <= 1
C1497: + x97 + x225 <= 1
C1498: + x35 + x74 <= 1
C1499: + x82 + x456 <= 1
C1500: + x165 + x371 <= 1
C1501: + x4 + x53 <= 1
C1502: + x5 + x284 <= 1
C1503: + x66 + x169 <= 1
C1504: + x138 + x236 <= 1
C1505: + x49 + x374 <= 1
C1506: + x86 + x166 <= 1
C1507: + x215 + x327 <= 1
C1508: + x7 + x205 <= 1
C1509: + x10 + x52 <= 1
C1510: + x28 + x74 <= 1
C1511: + x76 + x84 <= 1
C1512: + x63 + x499 <= 1
C1513: + x51 + x299 <= 1
C1514: + x23 + x228 <= 1
C1515: + x17 + x172 <= 1
C1516: + x200 + x257 <= 1
C1517: + x2 + x282 <= 1
C1518: + x186 + x339 <= 1
C1519: + x25 + x28 <= 1
C1520: + x2 + x421 <= 1
C1521: + x1 + x5 <= 1
C1522: + x170 + x282 <= 1
C1523: + x73 + x389 <= 1
C1524: + x72 + x181 <= 1
C1525: + x227 + x347 <= 1
C1526: + x80 + x370 <= 1
C1527: + x29 + x32 <= 1
C1528: + x69 + x231 <= 1
C1529: + x5 + x372 <= 1
C1530: + x6 + x12 <= 1
C1531: + x261 + x457 <= 1
C1532: + x28 + x464 <= 1
C1533: + x18 + x267 <= 1
C1534: + x109 + x334 <= 1
C1535: + x56 + x489 <= 1
C1536: + x223 + x478 <= 1
C1537: + x17 + x247 <= 1
C1538: + x231 + x270 <= 1
C1539: + x304 + x458 <= 1
C1540: + x167 + x476 <= 1
C1541: + x215 + x253 <= 1
C1542: + x134 + x216 <= 1
C1543: + x247 + x353 <= 1
C1544: + x64 + x363 <= 1
C1545: + x93 + x148 <= 1
C1546: + x140 + x241 <= 1
C1547: + x187 + x473 <= 1
C1548: + x14 + x77 <= 1
C1549: + x5 + x168 <= 1
C1550: + x202 + x272 <= 1
C1551: + x39 + x93 <= 1
C1552: + x1 + x109 <= 1
C1553: + x475 + x480 <= 1
C1554: + x186 + x348 <= 1
C1555: + x52 + x228 <= 1
C1556: + x6 + x65 <= 1
C1557: + x173 + x286 <= 1
C1558: + x274 + x433 <= 1
C1559: + x58 + x132 <= 1
C1560: + x11 + x30 <= 1
C1561: + x26 + x312 <= 1
C1562: + x239 + x416 <= 1
C1563: + x41 + x99 <= 1
C1564: + x69 + x500 <= 1
C1565: + x40 + x155 <= 1
C1566: + x32 + x325 <= 1
C1567: + x17 + x95 <= 1
C1568: + x159 + x388 <= 1
C1569: + x187 + x315 <= 1
C1570: + x93 + x490 <= 1
C1571: + x132 + x233 <= 1
C1572: + x70 + x250 <= 1
C1573: + x164 + x180 <= 1
C1574: + x85 + x201 <= 1
C1575: + x281 + x427 <= 1
C1576: + x311 + x452 <= 1
C1577: + x30 + x50 <= 1
C1578: + x32 + x393 <= 1
C1579: + x248 + x364 <= 1
C1580: + x56 + x172 <= 1
C1581: + x415 + x446 <= 1
C1582: + x11 + x182 <= 1
C1583: + x33 + x395 <= 1
C1584: + x6 + x279 <= 1
C1585: + x21 + x412 <= 1
C1586: + x6 + x74 <= 1
C1587: + x57 + x222 <= 1
C1588: + x75 + x197 <= 1
C1589: + x22 + x119 <= 1
C1590: + x45 + x493 <= 1
C1591: + x18 + x191 <= 1
C1592: + x302 + x476 <= 1
C1593: + x5 + x120 <= 1
C1594: + x17 + x86 <= 1
C1595: + x19 + x362 <= 1
C1596: + x164 + x391 <= 1
C1597: + x293 + x342 <= 1
C1598: + x284 + x288 <= 1
C1599: + x39 + x306 <= 1
C1600: + x52 + x181 <= 1
C1601: + x15 + x41 <= 1
C1602: + x129 + x375 <= 1
C1603: + x267 + x479 <= 1
C1604: + x22 + x59 <= 1
C1605: + x5 + x7 <= 1
C1606: + x35 + x83 <= 1
C1607: + x81 + x421 <= 1
C1608: + x27 + x56 <= 1
C1609: + x49 + x105 <= 1
C1610: + x51 + x146 <= 1
C1611: + x5 + x497 <= 1
C1612: + x35 + x184 <= 1
C1613: + x109 + x467 <= 1
C1614: + x318 + x429 <= 1
C1615: + x189 + x475 <= 1
C1616: + x10 + x39 <= 1
C1617: + x282 + x471 <= 1
C1618: + x23 + x245 <= 1
C1619: + x9 + x14 <= 1
C1620: + x18 + x39 <= 1
C1621: + x250 + x448 <= 1
C1622: + x12 + x41 <= 1
C1623: + x114 + x446 <= 1
C1624: + x5 + x293 <= 1
C1625: + x8 + x339 <= 1
C1626: + x96 + x153 <= 1
C1627: + x52 + x269 <= 1
C1628: + x108 + x156 <= 1
C1629: + x16 + x234 <= 1
C1630: + x165 + x264 <= 1
C1631: + x310 + x437 <= 1
C1632: + x22 + x481 <= 1
C1633: + x92 + x275 <= 1
C1634: + x204 + x471 <= 1
C1635: + x69 + x369 <= 1
C1636: + x22 + x68 <= 1
C1637: + x5 + x14 <= 1
C1638: + x10 + x223 <= 1
C1639: + x1 + x451 <= 1
C1640: + x37 + x76 <= 1
C1641: + x50 + x102 <= 1
C1642: + x48 + x444 <= 1
C1643: + x95 + x141 <= 1
C1644: + x180 + x445 <= 1
C1645: + x41 + x399 <= 1
C1646: + x6 + x43 <= 1
C1647: + x10 + x48 <= 1
C1648: + x122 + x358 <= 1
C1649: + x231 + x386 <= 1
C1650: + x52 + x92 <= 1
C1651: + x18 + x32 <= 1
C1652: + x103 + x346 <= 1
C1653: + x87 + x350 <= 1
C1654: + x284 + x381 <= 1
C1655: + x31 + x78 <= 1
C1656: + x278 + x308 <= 1
C1657: + x69 + x332 <= 1
C1658: + x17 + x338 <= 1
C1659: + x152 + x351 <= 1
C1660: + x286 + x401 <= 1
C1661: + x84 + x125 <= 1
C1662: + x165 + x170 <= 1
C1663: + x23 + x269 <= 1
C1664: + x52 + x131 <= 1
C1665: + x6 + x112 <= 1
C1666: + x207 + x379 <= 1
C1667: + x15 + x59 <= 1
C1668: + x10 + x101 <= 1
C1669: + x199 + x312 <= 1
C1670: + x2 + x8 <= 1
C1671: + x169 + x188 <= 1
C1672: + x78 + x277 <= 1
C1673: + x24 + x232 <= 1
C1674: + x273 + x365 <= 1
C1675: + x195 + x222 <= 1
C1676: + x109 + x449 <= 1
C1677: + x8 + x397 <= 1
C1678: + x6 + x20 <= 1
C1679: + x63 + x93 <= 1
C1680: + x19 + x126 <= 1
C1681: + x2 + x212 <= 1
C1682: + x4 + x167 <= 1
C1683: + x126 + x250 <= 1
C1684: + x9 + x60 <= 1
C1685: + x49 + x83 <= 1
C1686: + x125 + x140 + x236 <= 1
C1687: + x21 + x433 <= 1
C1688: + x191 + x432 <= 1
C1689: + x328 + x336 <= 1
C1690: + x64 + x168 <= 1
C1691: + x11 + x50 <= 1
C1692: + x67 + x179 <= 1
C1693: + x13 + x347 <= 1
C1694: + x5 + x208 <= 1
C1695: + x108 + x138 <= 1
C1696: + x65 + x296 <= 1
C1697: + x11 + x147 <= 1
C1698: + x47 + x124 <= 1
C1699: + x52 + x109 <= 1
C1700: + x168 + x401 <= 1
C1701: + x18 + x77 <= 1
C1702: + x12 + x19 <= 1
C1703: + x167 + x368 <= 1
C1704: + x26 + x445 <= 1
C1705: + x18 + x496 <= 1
C1706: + x28 + x417 <= 1
C1707: + x94 + x200 <= 1
C1708: + x25 + x424 <= 1
C1709: + x6 + x140 <= 1
C1710: + x162 + x315 <= 1
C1711: + x206 + x473 <= 1
C1712: + x8 + x103 <= 1
C1713: + x47 + x72 <= 1
C1714: + x140 + x484 <= 1
C1715: + x51 + x187 <= 1
C1716: + x191 + x363 <= 1
C1717: + x8 + x390 <= 1
C1718: + x92 + x402 <= 1
C1719: + x266 + x325 <= 1
C1720: + x78 + x159 <= 1
C1721: + x288 + x351 <= 1
C1722: + x44 + x275 <= 1
C1723: + x56 + x410 <= 1
C1724: + x39 + x116 <= 1
C1725: + x21 + x174 <= 1
C1726: + x31 + x45 <= 1
C1727: + x9 + x35 <= 1
C1728: + x200 + x219 <= 1
C1729: + x239 + x468 <= 1
C1730: + x2 + x70 <= 1
C1731: + x9 + x178 <= 1
C1732: + x19 + x41 <= 1
C1733: + x229 + x416 <= 1
C1734: + x269 + x324 <= 1
C1735: + x18 + x70 <= 1
C1736: + x78 + x164 <= 1
C1737: + x11 + x109 <= 1
C1738: + x10 + x242 <= 1
C1739: + x12 + x153 <= 1
C1740: + x115 + x374 <= 1
C1741: + x25 + x129 <= 1
C1742: + x5 + x469 <= 1
C1743: + x64 + x226 <= 1
C1744: + x56 + x133 <= 1
C1745: + x113 + x455 <= 1
C1746: + x141 + x149 <= 1
C1747: + x25 + x478 <= 1
C1748: + x65 + x378 <= 1
C1749: + x114 + x172 <= 1
C1750: + x97 + x238 <= 1
C1751: + x27 + x224 <= 1
C1752: + x50 + x343 <= 1
C1753: + x4 + x52 <= 1
C1754: + x25 + x77 <= 1
C1755: + x7 + x45 <= 1
C1756: + x21 + x284 <= 1
C1757: + x5 + x190 <= 1
C1758: + x7 + x202 <= 1
C1759: + x11 + x133 <= 1
C1760: + x122 + x325 <= 1
C1761: + x21 + x249 <= 1
C1762: + x13 + x46 <= 1
C1763: + x5 + x83 <= 1
C1764: + x57 + x112 <= 1
C1765: + x6 + x91 <= 1
C1766: + x126 + x419 <= 1
C1767: + x58 + x118 <= 1
C1768: + x111 + x221 <= 1
C1769: + x19 + x21 + x22 <= 1
C1770: + x244 + x318 <= 1
C1771: + x18 + x107 <= 1
C1772: + x20 + x50 <= 1
C1773: + x3 + x12 <= 1
C1774: + x324 + x374 <= 1
C1775: + x5 + x369 <= 1
C1776: + x6 + x15 <= 1
C1777: + x92 + x242 <= 1
C1778: + x113 + x347 <= 1
C1779: + x22 + x44 <= 1
C1780: + x5 + x22 <= 1
C1781: + x8 + x9 <= 1
C1782: + x210 + x271 <= 1
C1783: + x93 + x145 <= 1
C1784: + x5 + x165 <= 1
C1785: + x345 + x486 <= 1
C1786: + x118 + x137 <= 1
C1787: + x18 + x149 <= 1
C1788: + x324 + x335 <= 1
C1789: + x6 + x68 <= 1
C1790: + x226 + x256 <= 1
C1791: + x155 + x377 <= 1
C1792: + x156 + x379 <= 1
C1793: + x88 + x186 <= 1
C1794: + x2 + x100 <= 1
C1795: + x433 + x448 <= 1
C1796: + x5 + x233 <= 1
C1797: + x7 + x322 <= 1
C1798: + x8 + x78 <= 1
C1799: + x383 + x440 <= 1
C1800: + x246 + x408 <= 1
C1801: + x5 + x475 <= 1
C1802: + x14 + x306 <= 1
C1803: + x4 + x360 <= 1
C1804: + x5 + x384 <= 1
C1805: + x22 + x466 <= 1
C1806: + x2 + x64 <= 1
C1807: + x11 + x67 <= 1
C1808: + x5 + x29 <= 1
C1809: + x188 + x354 <= 1
C1810: + x79 + x497 <= 1
C1811: + x7 + x382 <= 1
C1812: + x53 + x55 <= 1
C1813: + x2 + x347 <= 1
C1814: + x231 + x258 <= 1
C1815: + x31 + x163 <= 1
C1816: + x21 + x32 <= 1
C1817: + x4 + x34 <= 1
C1818: + x15 + x462 <= 1
C1819: + x40 + x206 <= 1
C1820: + x135 + x228 <= 1
C1821: + x310 + x362 <= 1
C1822: + x94 + x429 <= 1
C1823: + x139 + x239 <= 1
C1824: + x5 + x164 <= 1
C1825: + x278 + x337 <= 1
C1826: + x9 + x274 <= 1
C1827: + x11 + x183 <= 1
C1828: + x1 + x196 <= 1
C1829: + x454 + x477 <= 1
C1830: + x39 + x81 <= 1
C1831: + x5 + x65 <= 1
C1832: + x34 + x163 <= 1
C1833: + x26 + x254 <= 1
C1834: + x6 + x298 <= 1
C1835: + x8 + x54 <= 1
C1836: + x67 + x349 <= 1
C1837: + x5 + x307 <= 1
C1838: + x306 + x350 <= 1
C1839: + x159 + x373 <= 1
C1840: + x318 + x363 <= 1
C1841: + x67 + x171 <= 1
C1842: + x89 + x196 <= 1
C1843: + x5 + x216 <= 1
C1844: + x222 + x442 <= 1
C1845: + x4 + x123 <= 1
C1846: + x12 + x144 <= 1
C1847: + x14 + x299 <= 1
C1848: + x53 + x292 <= 1
C1849: + x6 + x113 <= 1
C1850: + x11 + x78 <= 1
C1851: + x270 + x444 <= 1
C1852: + x154 + x366 <= 1
C1853: + x8 + x127 <= 1
C1854: + x11 + x303 <= 1
C1855: + x69 + x121 <= 1
C1856: + x169 + x445 <= 1
C1857: + x53 + x211 <= 1
C1858: + x181 + x400 <= 1
C1859: + x26 + x86 <= 1
C1860: + x341 + x430 <= 1
C1861: + x6 + x37 <= 1
C1862: + x356 + x375 <= 1
C1863: + x40 + x92 <= 1
C1864: + x5 + x80 <= 1
C1865: + x49 + x162 <= 1
C1866: + x187 + x351 <= 1
C1867: + x2 + x126 <= 1
C1868: + x5 + x223 <= 1
C1869: + x15 + x190 <= 1
C1870: + x17 + x360 <= 1
C1871: + x50 + x98 + x108 <= 1
C1872: + x234 + x418 <= 1
C1873: + x5 + x457 <= 1
C1874: + x85 + x450 <= 1
C1875: + x59 + x234 <= 1
C1876: + x5 + x366 <= 1
C1877: + x8 + x209 <= 1
C1878: + x280 + x481 <= 1
C1879: + x59 + x75 <= 1
C1880: + x21 + x329 <= 1
C1881: + x86 + x204 <= 1
C1882: + x8 + x120 <= 1
C1883: + x37 + x236 <= 1
C1884: + x22 + x154 <= 1
C1885: + x205 + x259 <= 1
C1886: + x76 + x329 <= 1
C1887: + x366 + x442 <= 1
C1888: + x140 + x227 <= 1
C1889: + x6 + x46 <= 1
C1890: + x27 + x490 <= 1
C1891: + x75 + x121 <= 1
C1892: + x38 + x373 <= 1
C1893: + x5 + x55 <= 1
C1894: + x160 + x474 <= 1
C1895: + x65 + x447 <= 1
C1896: + x185 + x193 <= 1
C1897: + x386 + x437 <= 1
C1898: + x5 + x289 <= 1
C1899: + x6 + x447 <= 1
C1900: + x9 + x495 <= 1
C1901: + x342 + x404 <= 1
C1902: + x1 + x284 <= 1
C1903: + x111 + x491 <= 1
C1904: + x22 + x124 <= 1
C1905: + x288 + x404 <= 1
C1906: + x8 + x185 <= 1
C1907: + x47 + x110 <= 1
C1908: + x32 + x311 <= 1
C1909: + x46 + x169 <= 1
C1910: + x55 + x254 <= 1
C1911: + x285 + x302 <= 1
C1912: + x2 + x317 <= 1
C1913: + x313 + x397 <= 1
C1914: + x3 + x419 <= 1
C1915: + x134 + x190 <= 1
C1916: + x19 + x386 <= 1
C1917: + x189 + x383 <= 1
C1918: + x32 + x137 <= 1
C1919: + x18 + x232 <= 1
C1920: + x51 + x133 <= 1
C1921: + x99 + x395 <= 1
C1922: + x80 + x157 <= 1
C1923: + x8 + x404 <= 1
C1924: + x3 + x36 <= 1
C1925: + x41 + x371 <= 1
C1926: + x412 + x492 <= 1
C1927: + x6 + x23 <= 1
C1928: + x18 + x302 <= 1
C1929: + x144 + x175 <= 1
C1930: + x8 + x254 <= 1
C1931: + x16 + x372 <= 1
C1932: + x185 + x363 <= 1
C1933: + x31 + x39 <= 1
C1934: + x48 + x309 <= 1
C1935: + x314 + x422 <= 1
C1936: + x5 + x304 <= 1
C1937: + x359 + x381 <= 1
C1938: + x11 + x51 <= 1
C1939: + x266 + x267 <= 1
C1940: + x20 + x409 <= 1
C1941: + x13 + x352 <= 1
C1942: + x87 + x179 <= 1
C1943: + x108 + x149 <= 1
C1944: + x25 + x409 <= 1
C1945: + x155 + x171 <= 1
C1946: + x165 + x214 <= 1
C1947: + x58 + x169 <= 1
C1948: + x173 + x241 <= 1
C1949: + x228 + x286 <= 1
C1950: + x5 + x98 <= 1
C1951: + x63 + x479 <= 1
C1952: + x44 + x199 <= 1
C1953: + x154 + x472 <= 1
C1954: + x52 + x437 <= 1
C1955: + x121 + x159 <= 1
C1956: + x57 + x95 <= 1
C1957: + x93 + x221 <= 1
C1958: + x11 + x103 <= 1
C1959: + x5 + x241 <= 1
C1960: + x26 + x142 <= 1
C1961: + x227 + x494 <= 1
C1962: + x106 + x403 <= 1
C1963: + x14 + x266 <= 1

binary
x1 x2 x3 x4 x5 x6 x7 x8 x9 x10 x11 x12 x13 x14 x15 x16 x17 x18 x19 x20 x21 x22 x23 x24 x25 x26 x27 x28 x29 x30 x31 x32 x33 x34 x35 x36 x37 x38 x39 x40 x41 x42 x43 x44 x45 x46 x47 x48 x49 x50 x51 x52 x53 x54 x55 x56 x57 x58 x59 x60 x61 x62 x63 x64 x65 x66 x67 x68 x69 x70 x71 x72 x73 x74 x75 x76 x77 x78 x79 x80 x81 x82 x83 x84 x85 x86 x87 x88 x89 x90 x91 x92 x93 x94 x95 x96 x97 x98 x99 x100 x101 x102 x103 x104 x105 x106 x107 x108 x109 x110 x111 x112 x113 x114 x115 x116 x117 x118 x119 x120 x121 x122 x123 x124 x125 x126 x127 x128 x129 x130 x131 x132 x133 x134 x135 x136 x137 x138 x139 x140 x141 x142 x143 x144 x145 x146 x147 x148 x149 x150 x151 x152 x153 x154 x155 x156 x157 x158 x159 x160 x161 x162 x163 x164 x165 x166 x167 x168 x169 x170 x171 x172 x173 x174 x175 x176 x177 x178 x179 x180 x181 x182 x183 x184 x185 x186 x187 x188 x189 x190 x191 x192 x193 x194 x195 x196 x197 x198 x199 x200 x201 x202 x203 x204 x205 x206 x207 x208 x209 x210 x211 x212 x213 x214 x215 x216 x217 x218 x219 x220 x221 x222 x223 x224 x225 x226 x227 x228 x229 x230 x231 x232 x233 x234 x235 x236 x237 x238 x239 x240 x241 x242 x243 x244 x245 x246 x247 x248 x249 x250 x251 x252 x253 x254 x255 x256 x257 x258 x259 x260 x261 x262 x263 x264 x265 x266 x267 x268 x269 x270 x271 x272 x273 x274 x275 x276 x277 x278 x279 x280 x281 x282 x283 x284 x285 x286 x287 x288 x289 x290 x291 x292 x293 x294 x295 x296 x297 x298 x299 x300 x301 x302 x303 x304 x305 x306 x307 x308 x309 x310 x311 x312 x313 x314 x315 x316 x317 x318 x319 x320 x321 x322 x323 x324 x325 x326 x327 x328 x329 x330 x331 x332 x333 x334 x335 x336 x337 x338 x339 x340 x341 x342 x343 x344 x345 x346 x347 x348 x349 x350 x351 x352 x353 x354 x355 x356 x357 x358 x359 x360 x361 x362 x363 x364 x365 x366 x367 x368 x369 x370 x371 x372 x373 x374 x375 x376 x377 x378 x379 x380 x381 x382 x383 x384 x385 x386 x387 x388 x389 x390 x391 x392 x393 x394 x395 x396 x397 x398 x399 x400 x401 x402 x403 x404 x405 x406 x407 x408 x409 x410 x411 x412 x413 x414 x415 x416 x417 x418 x419 x420 x421 x422 x423 x424 x425 x426 x427 x428 x429 x430 x431 x432 x433 x434 x435 x436 x437 x438 x439 x440 x441 x442 x443 x444 x445 x446 x447 x448 x449 x450 x451 x452 x453 x454 x455 x456 x457 x458 x459 x460 x461 x462 x463 x464 x465 x466 x467 x468 x469 x470 x471 x472 x473 x474 x475 x476 x477 x478 x479 x480 x481 x482 x483 x484 x485 x486 x487 x488 x489 x490 x491 x492 x493 x494 x495 x496 x497 x498 x499 x500
