maximize
OBJ: + 1 x1 + 1 x2 + 1 x3 + 1 x4 + 1 x5 + 1 x6 + 1 x7 + 1 x8 + 1 x9 + 1 x10 + 1 x11 + 1 x12 + 1 x13 + 1 x14 + 1 x15 + 1 x16 + 1 x17 + 1 x18 + 1 x19 + 1 x20 + 1 x21 + 1 x22 + 1 x23 + 1 x24 + 1 x25 + 1 x26 + 1 x27 + 1 x28 + 1 x29 + 1 x30 + 1 x31 + 1 x32 + 1 x33 + 1 x34 + 1 x35 + 1 x36 + 1 x37 + 1 x38 + 1 x39 + 1 x40 + 1 x41 + 1 x42 + 1 x43 + 1 x44 + 1 x45 + 1 x46 + 1 x47 + 1 x48 + 1 x49 + 1 x50 + 1 x51 + 1 x52 + 1 x53 + 1 x54 + 1 x55 + 1 x56 + 1 x57 + 1 x58 + 1 x59 + 1 x60 + 1 x61 + 1 x62 + 1 x63 + 1 x64 + 1 x65 + 1 x66 + 1 x67 + 1 x68 + 1 x69 + 1 x70 + 1 x71 + 1 x72 + 1 x73 + 1 x74 + 1 x75 + 1 x76 + 1 x77 + 1 x78 + 1 x79 + 1 x80 + 1 x81 + 1 x82 + 1 x83 + 1 x84 + 1 x85 + 1 x86 + 1 x87 + 1 x88 + 1 x89 + 1 x90 + 1 x91 + 1 x92 + 1 x93 + 1 x94 + 1 x95 + 1 x96 + 1 x97 + 1 x98 + 1 x99 + 1 x100 + 1 x101 + 1 x102 + 1 x103 + 1 x104 + 1 x105 + 1 x106 + 1 x107 + 1 x108 + 1 x109 + 1 x110 + 1 x111 + 1 x112 + 1 x113 + 1 x114 + 1 x115 + 1 x116 + 1 x117 + 1 x118 + 1 x119 + 1 x120 + 1 x121 + 1 x122 + 1 x123 + 1 x124 + 1 x125 + 1 x126 + 1 x127 + 1 x128 + 1 x129 + 1 x130 + 1 x131 + 1 x132 + 1 x133 + 1 x134 + 1 x135 + 1 x136 + 1 x137 + 1 x138 + 1 x139 + 1 x140 + 1 x141 + 1 x142 + 1 x143 + 1 x144 + 1 x145 + 1 x146 + 1 x147 + 1 x148 + 1 x149 + 1 x150 + 1 x151 + 1 x152 + 1 x153 + 1 x154 + 1 x155 + 1 x156 + 1 x157 + 1 x158 + 1 x159 + 1 x160 + 1 x161 + 1 x162 + 1 x163 + 1 x164 + 1 x165 + 1 x166 + 1 x167 + 1 x168 + 1 x169 + 1 x170 + 1 x171 + 1 x172 + 1 x173 + 1 x174 + 1 x175 + 1 x176 + 1 x177 + 1 x178 + 1 x179 + 1 x180 + 1 x181 + 1 x182 + 1 x183 + 1 x184 + 1 x185 + 1 x186 + 1 x187 + 1 x188 + 1 x189 + 1 x190 + 1 x191 + 1 x192 + 1 x193 + 1 x194 + 1 x195 + 1 x196 + 1 x197 + 1 x198 + 1 x199 + 1 x200 + 1 x201 + 1 x202 + 1 x203 + 1 x204 + 1 x205 + 1 x206 + 1 x207 + 1 x208 + 1 x209 + 1 x210 + 1 x211 + 1 x212 + 1 x213 + 1 x214 + 1 x215 + 1 x216 + 1 x217 + 1 x218 + 1 x219 + 1 x220 + 1 x221 + 1 x222 + 1 x223 + 1 x224 + 1 x225 + 1 x226 + 1 x227 + 1 x228 + 1 x229 + 1 x230 + 1 x231 + 1 x232 + 1 x233 + 1 x234 + 1 x235 + 1 x236 + 1 x237 + 1 x238 + 1 x239 + 1 x240 + 1 x241 + 1 x242 + 1 x243 + 1 x244 + 1 x245 + 1 x246 + 1 x247 + 1 x248 + 1 x249 + 1 x250 + 1 x251 + 1 x252 + 1 x253 + 1 x254 + 1 x255 + 1 x256 + 1 x257 + 1 x258 + 1 x259 + 1 x260 + 1 x261 + 1 x262 + 1 x263 + 1 x264 + 1 x265 + 1 x266 + 1 x267 + 1 x268 + 1 x269 + 1 x270 + 1 x271 + 1 x272 + 1 x273 + 1 x274 + 1 x275 + 1 x276 + 1 x277 + 1 x278 + 1 x279 + 1 x280 + 1 x281 + 1 x282 + 1 x283 + 1 x284 + 1 x285 + 1 x286 + 1 x287 + 1 x288 + 1 x289 + 1 x290 + 1 x291 + 1 x292 + 1 x293 + 1 x294 + 1 x295 + 1 x296 + 1 x297 + 1 x298 + 1 x299 + 1 x300 + 1 x301 + 1 x302 + 1 x303 + 1 x304 + 1 x305 + 1 x306 + 1 x307 + 1 x308 + 1 x309 + 1 x310 + 1 x311 + 1 x312 + 1 x313 + 1 x314 + 1 x315 + 1 x316 + 1 x317 + 1 x318 + 1 x319 + 1 x320 + 1 x321 + 1 x322 + 1 x323 + 1 x324 + 1 x325 + 1 x326 + 1 x327 + 1 x328 + 1 x329 + 1 x330 + 1 x331 + 1 x332 + 1 x333 + 1 x334 + 1 x335 + 1 x336 + 1 x337 + 1 x338 + 1 x339 + 1 x340 + 1 x341 + 1 x342 + 1 x343 + 1 x344 + 1 x345 + 1 x346 + 1 x347 + 1 x348 + 1 x349 + 1 x350 + 1 x351 + 1 x352 + 1 x353 + 1 x354 + 1 x355 + 1 x356 + 1 x357 + 1 x358 + 1 x359 + 1 x360 + 1 x361 + 1 x362 + 1 x363 + 1 x364 + 1 x365 + 1 x366 + 1 x367 + 1 x368 + 1 x369 + 1 x370 + 1 x371 + 1 x372 + 1 x373 + 1 x374 + 1 x375 + 1 x376 + 1 x377 + 1 x378 + 1 x379 + 1 x380 + 1 x381 + 1 x382 + 1 x383 + 1 x384 + 1 x385 + 1 x386 + 1 x387 + 1 x388 + 1 x389 + 1 x390 + 1 x391 + 1 x392 + 1 x393 + 1 x394 + 1 x395 + 1 x396 + 1 x397 + 1 x398 + 1 x399 + 1 x400 + 1 x401 + 1 x402 + 1 x403 + 1 x404 + 1 x405 + 1 x406 + 1 x407 + 1 x408 + 1 x409 + 1 x410 + 1 x411 + 1 x412 + 1 x413 + 1 x414 + 1 x415 + 1 x416 + 1 x417 + 1 x418 + 1 x419 + 1 x420 + 1 x421 + 1 x422 + 1 x423 + 1 x424 + 1 x425 + 1 x426 + 1 x427 + 1 x428 + 1 x429 + 1 x430 + 1 x431 + 1 x432 + 1 x433 + 1 x434 + 1 x435 + 1 x436 + 1 x437 + 1 x438 + 1 x439 + 1 x440 + 1 x441 + 1 x442 + 1 x443 + 1 x444 + 1 x445 + 1 x446 + 1 x447 + 1 x448 + 1 x449 + 1 x450 + 1 x451 + 1 x452 + 1 x453 + 1 x454 + 1 x455 + 1 x456 + 1 x457 + 1 x458 + 1 x459 + 1 x460 + 1 x461 + 1 x462 + 1 x463 + 1 x464 + 1 x465 + 1 x466 + 1 x467 + 1 x468 + 1 x469 + 1 x470 + 1 x471 + 1 x472 + 1 x473 + 1 x474 + 1 x475 + 1 x476 + 1 x477 + 1 x478 + 1 x479 + 1 x480 + 1 x481 + 1 x482 + 1 x483 + 1 x484 + 1 x485 + 1 x486 + 1 x487 + 1 x488 + 1 x489 + 1 x490 + 1 x491 + 1 x492 + 1 x493 + 1 x494 + 1 x495 + 1 x496 + 1 x497 + 1 x498 + 1 x499 + 1 x500

subject to
C1: + x7 + x168 <= 1
C2: + x4 + x171 <= 1
C3: + x44 + x445 <= 1
C4: + x281 + x336 <= 1
C5: + x346 + x368 <= 1
C6: + x7 + x55 <= 1
C7: + x2 + x414 <= 1
C8: + x135 + x252 <= 1
C9: + x9 + x143 <= 1
C10: + x7 + x293 <= 1
C11: + x37 + x349 <= 1
C12: + x69 + x468 <= 1
C13: + x125 + x273 <= 1
C14: + x18 + x65 <= 1
C15: + x148 + x476 <= 1
C16: + x131 + x354 <= 1
C17: + x77 + x89 <= 1
C18: + x60 + x241 <= 1
C19: + x29 + x119 <= 1
C20: + x4 + x232 <= 1
C21: + x60 + x352 <= 1
C22: + x153 + x225 <= 1
C23: + x8 + x99 <= 1
C24: + x37 + x257 <= 1
C25: + x12 + x104 <= 1
C26: + x23 + x344 <= 1
C27: + x218 + x293 <= 1
C28: + x191 + x367 <= 1
C29: + x38 + x114 <= 1
C30: + x50 + x140 <= 1
C31: + x41 + x353 <= 1
C32: + x52 + x348 <= 1
C33: + x198 + x473 <= 1
C34: + x199 + x479 <= 1
C35: + x7 + x159 <= 1
C36: + x5 + x36 <= 1
C37: + x7 + x397 <= 1
C38: + x1 + x68 <= 1
C39: + x4 + x390 <= 1
C40: + x20 + x423 <= 1
C41: + x144 + x320 <= 1
C42: + x54 + x446 <= 1
C43: + x122 + x328 <= 1
C44: + x178 + x246 <= 1
C45: + x164 + x423 <= 1
C46: + x310 + x396 <= 1
C47: + x20 + x97 <= 1
C48: + x39 + x141 <= 1
C49: + x121 + x173 <= 1
C50: + x34 + x127 <= 1
C51: + x6 + x94 <= 1
C52: + x14 + x427 <= 1
C53: + x146 + x176 <= 1
C54: + x35 + x115 <= 1
C55: + x51 + x178 <= 1
C56: + x9 + x95 <= 1
C57: + x40 + x117 <= 1
C58: + x5 + x43 <= 1
C59: + x104 + x181 <= 1
C60: + x24 + x198 <= 1
C61: + x33 + x418 <= 1
C62: + x162 + x260 <= 1
C63: + x46 + x217 <= 1
C64: + x90 + x364 <= 1
C65: + x48 + x149 <= 1
C66: + x23 + x443 <= 1
C67: + x6 + x403 <= 1
C68: + x215 + x328 <= 1
C69: + x52 + x365 <= 1
C70: + x27 + x402 <= 1
C71: + x19 + x32 <= 1
C72: + x40 + x169 <= 1
C73: + x5 + x95 <= 1
C74: + x107 + x362 <= 1
C75: + x116 + x319 <= 1
C76: + x72 + x132 <= 1
C77: + x28 + x280 <= 1
C78: + x20 + x106 <= 1
C79: + x77 + x79 <= 1
C80: + x186 + x338 <= 1
C81: + x61 + x241 <= 1
C82: + x196 + x375 <= 1
C83: + x7 + x93 <= 1
C84: + x190 + x298 <= 1
C85: + x34 + x120 <= 1
C86: + x211 + x444 <= 1
C87: + x18 + x478 <= 1
C88: + x202 + x407 <= 1
C89: + x172 + x315 <= 1
C90: + x28 + x133 <= 1
C91: + x174 + x449 <= 1
C92: + x105 + x431 <= 1
C93: + x33 + x92 <= 1
C94: + x30 + x498 <= 1
C95: + x16 + x344 <= 1
C96: + x8 + x283 <= 1
C97: + x94 + x234 <= 1
C98: + x20 + x328 <= 1
C99: + x4 + x130 <= 1
C100: + x297 + x321 <= 1
C101: + x118 + x228 <= 1
C102: + x1 + x82 <= 1
C103: + x19 + x136 <= 1
C104: + x256 + x444 <= 1
C105: + x21 + x29 <= 1
C106: + x40 + x288 <= 1
C107: + x22 + x409 <= 1
C108: + x32 + x34 <= 1
C109: + x160 + x253 <= 1
C110: + x7 + x197 <= 1
C111: + x118 + x149 <= 1
C112: + x111 + x160 <= 1
C113: + x13 + x33 <= 1
C114: + x234 + x400 <= 1
C115: + x5 + x70 <= 1
C116: + x1 + x6 + x7 <= 1
C117: + x18 + x44 <= 1
C118: + x7 + x427 <= 1
C119: + x55 + x209 <= 1
C120: + x8 + x57 <= 1
C121: + x6 + x80 <= 1
C122: + x80 + x201 <= 1
C123: + x10 + x498 <= 1
C124: + x53 + x285 <= 1
C125: + x75 + x258 <= 1
C126: + x3 + x112 <= 1
C127: + x80 + x475 <= 1
C128: + x12 + x139 <= 1
C129: + x10 + x323 <= 1
C130: + x2 + x302 <= 1
C131: + x47 + x371 <= 1
C132: + x12 + x445 <= 1
C133: + x34 + x69 <= 1
C134: + x179 + x466 <= 1
C135: + x61 + x196 <= 1
C136: + x347 + x457 <= 1
C137: + x2 + x52 <= 1
C138: + x264 + x369 <= 1
C139: + x22 + x49 <= 1
C140: + x1 + x41 <= 1
C141: + x54 + x360 <= 1
C142: + x74 + x404 <= 1
C143: + x25 + x95 <= 1
C144: + x61 + x179 <= 1
C145: + x7 + x19 <= 1
C146: + x133 + x304 <= 1
C147: + x6 + x40 <= 1
C148: + x32 + x47 <= 1
C149: + x216 + x350 <= 1
C150: + x28 + x71 <= 1
C151: + x8 + x147 <= 1
C152: + x4 + x16 + x375 <= 1
C153: + x23 + x243 <= 1
C154: + x188 + x306 <= 1
C155: + x17 + x155 <= 1
C156: + x18 + x45 <= 1
C157: + x16 + x115 <= 1
C158: + x91 + x434 <= 1
C159: + x58 + x374 <= 1
C160: + x12 + x51 <= 1
C161: + x258 + x332 <= 1
C162: + x50 + x252 <= 1
C163: + x195 + x335 <= 1
C164: + x3 + x103 <= 1
C165: + x184 + x273 <= 1
C166: + x47 + x104 <= 1
C167: + x112 + x160 <= 1
C168: + x5 + x113 <= 1
C169: + x43 + x208 <= 1
C170: + x116 + x345 <= 1
C171: + x3 + x26 <= 1
C172: + x33 + x106 <= 1
C173: + x261 + x448 <= 1
C174: + x16 + x422 <= 1
C175: + x28 + x477 <= 1
C176: + x19 + x85 <= 1
C177: + x284 + x446 <= 1
C178: + x5 + x8 <= 1
C179: + x270 + x440 <= 1
C180: + x288 + x478 <= 1
C181: + x143 + x497 <= 1
C182: + x291 + x458 <= 1
C183: + x12 + x128 <= 1
C184: + x7 + x22 <= 1
C185: + x94 + x109 <= 1
C186: + x76 + x155 <= 1
C187: + x21 + x317 <= 1
C188: + x332 + x373 <= 1
C189: + x19 + x448 <= 1
C190: + x201 + x423 <= 1
C191: + x185 + x353 <= 1
C192: + x77 + x330 <= 1
C193: + x40 + x88 <= 1
C194: + x132 + x316 <= 1
C195: + x16 + x124 <= 1
C196: + x239 + x320 <= 1
C197: + x13 + x449 <= 1
C198: + x1 + x281 <= 1
C199: + x11 + x13 <= 1
C200: + x60 + x369 <= 1
C201: + x14 + x50 <= 1
C202: + x15 + x130 <= 1
C203: + x16 + x318 <= 1
C204: + x82 + x164 <= 1
C205: + x154 + x303 <= 1
C206: + x29 + x193 <= 1
C207: + x114 + x251 <= 1
C208: + x34 + x321 <= 1
C209: + x43 + x183 <= 1
C210: + x14 + x352 <= 1
C211: + x113 + x487 <= 1
C212: + x69 + x221 <= 1
C213: + x6 + x102 <= 1
C214: + x127 + x278 <= 1
C215: + x374 + x450 <= 1
C216: + x29 + x376 <= 1
C217: + x5 + x15 <= 1
C218: + x116 + x156 <= 1
C219: + x36 + x73 <= 1
C220: + x8 + x116 <= 1
C221: + x102 + x149 <= 1
C222: + x33 + x299 <= 1
C223: + x23 + x327 <= 1
C224: + x7 + x13 <= 1
C225: + x80 + x148 <= 1
C226: + x20 + x460 <= 1
C227: + x23 + x36 <= 1
C228: + x6 + x42 <= 1
C229: + x5 + x158 <= 1
C230: + x159 + x220 <= 1
C231: + x109 + x368 <= 1
C232: + x211 + x269 <= 1
C233: + x104 + x141 <= 1
C234: + x70 + x434 <= 1
C235: + x5 + x51 <= 1
C236: + x15 + x339 <= 1
C237: + x23 + x141 <= 1
C238: + x2 + x357 <= 1
C239: + x3 + x363 <= 1
C240: + x41 + x202 <= 1
C241: + x11 + x282 <= 1
C242: + x12 + x33 <= 1
C243: + x43 + x47 <= 1
C244: + x25 + x121 <= 1
C245: + x5 + x301 <= 1
C246: + x159 + x363 <= 1
C247: + x325 + x442 <= 1
C248: + x35 + x485 <= 1
C249: + x109 + x292 <= 1
C250: + x16 + x315 <= 1
C251: + x364 + x487 <= 1
C252: + x228 + x281 <= 1
C253: + x11 + x334 <= 1
C254: + x139 + x263 <= 1
C255: + x130 + x380 <= 1
C256: + x2 + x7 <= 1
C257: + x58 + x98 <= 1
C258: + x6 + x349 <= 1
C259: + x134 + x408 <= 1
C260: + x16 + x134 <= 1
C261: + x1 + x62 <= 1
C262: + x68 + x262 <= 1
C263: + x40 + x245 <= 1
C264: + x92 + x412 <= 1
C265: + x2 + x461 <= 1
C266: + x3 + x499 <= 1
C267: + x10 + x290 <= 1
C268: + x132 + x139 <= 1
C269: + x60 + x179 <= 1
C270: + x163 + x341 <= 1
C271: + x10 + x88 <= 1
C272: + x105 + x212 <= 1
C273: + x13 + x197 <= 1
C274: + x25 + x366 <= 1
C275: + x9 + x61 <= 1
C276: + x58 + x393 <= 1
C277: + x458 + x473 <= 1
C278: + x12 + x90 <= 1
C279: + x17 + x45 <= 1
C280: + x7 + x52 <= 1
C281: + x83 + x129 <= 1
C282: + x256 + x359 <= 1
C283: + x402 + x457 <= 1
C284: + x41 + x419 <= 1
C285: + x92 + x186 <= 1
C286: + x114 + x245 <= 1
C287: + x48 + x107 <= 1
C288: + x23 + x261 <= 1
C289: + x16 + x30 <= 1
C290: + x66 + x74 <= 1
C291: + x46 + x158 <= 1
C292: + x239 + x278 <= 1
C293: + x7 + x112 <= 1
C294: + x2 + x32 <= 1
C295: + x38 + x319 <= 1
C296: + x13 + x109 <= 1
C297: + x26 + x45 <= 1
C298: + x16 + x34 <= 1
C299: + x24 + x67 <= 1
C300: + x28 + x337 <= 1
C301: + x113 + x449 <= 1
C302: + x13 + x287 <= 1
C303: + x43 + x386 <= 1
C304: + x6 + x28 <= 1
C305: + x142 + x180 <= 1
C306: + x101 + x160 <= 1
C307: + x46 + x448 <= 1
C308: + x19 + x118 <= 1
C309: + x220 + x298 <= 1
C310: + x34 + x288 <= 1
C311: + x146 + x305 <= 1
C312: + x8 + x22 <= 1
C313: + x256 + x393 <= 1
C314: + x77 + x476 <= 1
C315: + x334 + x453 <= 1
C316: + x271 + x307 <= 1
C317: + x74 + x87 <= 1
C318: + x255 + x408 <= 1
C319: + x18 + x343 <= 1
C320: + x91 + x261 <= 1
C321: + x237 + x300 <= 1
C322: + x37 + x345 <= 1
C323: + x68 + x456 <= 1
C324: + x7 + x454 <= 1
C325: + x331 + x479 <= 1
C326: + x31 + x464 <= 1
C327: + x42 + x79 <= 1
C328: + x24 + x491 <= 1
C329: + x9 + x461 <= 1
C330: + x2 + x430 <= 1
C331: + x102 + x402 <= 1
C332: + x11 + x110 <= 1
C333: + x269 + x468 <= 1
C334: + x10 + x241 <= 1
C335: + x43 + x216 <= 1
C336: + x207 + x245 <= 1
C337: + x16 + x47 <= 1
C338: + x111 + x440 <= 1
C339: + x66 + x159 <= 1
C340: + x5 + x139 <= 1
C341: + x269 + x419 <= 1
C342: + x55 + x494 <= 1
C343: + x20 + x318 <= 1
C344: + x185 + x381 <= 1
C345: + x24 + x201 <= 1
C346: + x145 + x451 <= 1
C347: + x54 + x265 <= 1
C348: + x46 + x220 <= 1
C349: + x11 + x307 <= 1
C350: + x13 + x96 <= 1
C351: + x35 + x173 <= 1
C352: + x7 + x46 <= 1
C353: + x82 + x109 <= 1
C354: + x64 + x213 <= 1
C355: + x163 + x474 <= 1
C356: + x266 + x313 <= 1
C357: + x60 + x157 <= 1
C358: + x288 + x395 <= 1
C359: + x366 + x376 <= 1
C360: + x132 + x452 <= 1
C361: + x13 + x47 <= 1
C362: + x46 + x144 <= 1
C363: + x42 + x184 <= 1
C364: + x133 + x206 <= 1
C365: + x7 + x90 <= 1
C366: + x13 + x190 <= 1
C367: + x32 + x100 <= 1
C368: + x15 + x170 <= 1
C369: + x58 + x472 <= 1
C370: + x108 + x421 <= 1
C371: + x46 + x68 <= 1
C372: + x411 + x449 <= 1
C373: + x251 + x343 <= 1
C374: + x25 + x38 <= 1
C375: + x6 + x14 <= 1
C376: + x401 + x413 <= 1
C377: + x93 + x227 <= 1
C378: + x39 + x99 <= 1
C379: + x114 + x164 <= 1
C380: + x9 + x210 <= 1
C381: + x8 + x12 <= 1
C382: + x10 + x166 <= 1
C383: + x11 + x318 <= 1
C384: + x22 + x142 <= 1
C385: + x31 + x270 <= 1
C386: + x23 + x447 <= 1
C387: + x244 + x329 <= 1
C388: + x7 + x37 <= 1
C389: + x216 + x229 <= 1
C390: + x38 + x486 <= 1
C391: + x141 + x193 <= 1
C392: + x34 + x411 <= 1
C393: + x16 + x214 <= 1
C394: + x454 + x467 <= 1
C395: + x75 + x77 <= 1
C396: + x76 + x87 <= 1
C397: + x165 + x207 <= 1
C398: + x24 + x150 <= 1
C399: + x8 + x64 <= 1
C400: + x10 + x146 <= 1
C401: + x68 + x168 <= 1
C402: + x186 + x342 <= 1
C403: + x35 + x380 <= 1
C404: + x3 + x145 <= 1
C405: + x85 + x251 <= 1
C406: + x426 + x482 <= 1
C407: + x18 + x200 <= 1
C408: + x10 + x227 <= 1
C409: + x47 + x90 <= 1
C410: + x48 + x86 <= 1
C411: + x16 + x61 <= 1
C412: + x145 + x418 <= 1
C413: + x50 + x186 <= 1
C414: + x6 + x119 <= 1
C415: + x335 + x341 <= 1
C416: + x24 + x461 <= 1
C417: + x13 + x233 <= 1
C418: + x361 + x389 <= 1
C419: + x116 + x137 <= 1
C420: + x153 + x372 <= 1
C421: + x16 + x174 <= 1
C422: + x140 + x454 <= 1
C423: + x60 + x80 <= 1
C424: + x33 + x207 <= 1
C425: + x6 + x392 <= 1
C426: + x83 + x101 <= 1
C427: + x28 + x372 <= 1
C428: + x58 + x264 <= 1
C429: + x130 + x147 <= 1
C430: + x86 + x170 <= 1
C431: + x239 + x252 <= 1
C432: + x186 + x494 <= 1
C433: + x7 + x185 <= 1
C434: + x16 + x211 <= 1
C435: + x9 + x168 <= 1
C436: + x9 + x275 <= 1
C437: + x252 + x420 <= 1
C438: + x18 + x48 <= 1
C439: + x8 + x53 <= 1
C440: + x10 + x155 <= 1
C441: + x35 + x371 <= 1
C442: + x284 + x365 <= 1
C443: + x39 + x417 <= 1
C444: + x194 + x495 <= 1
C445: + x5 + x118 <= 1
C446: + x25 + x151 <= 1
C447: + x5 + x451 <= 1
C448: + x11 + x349 <= 1
C449: + x284 + x286 <= 1
C450: + x160 + x190 <= 1
C451: + x7 + x136 <= 1
C452: + x82 + x199 <= 1
C453: + x8 + x219 <= 1
C454: + x65 + x336 <= 1
C455: + x128 + x488 <= 1
C456: + x15 + x200 <= 1
C457: + x35 + x85 <= 1
C458: + x17 + x227 <= 1
C459: + x92 + x110 <= 1
C460: + x372 + x453 <= 1
C461: + x22 + x331 <= 1
C462: + x24 + x59 <= 1
C463: + x160 + x323 <= 1
C464: + x111 + x405 <= 1
C465: + x7 + x180 <= 1
C466: + x27 + x89 <= 1
C467: + x82 + x243 <= 1
C468: + x114 + x138 <= 1
C469: + x268 + x415 <= 1
C470: + x82 + x481 <= 1
C471: + x282 + x372 <= 1
C472: + x41 + x277 <= 1
C473: + x37 + x55 <= 1
C474: + x184 + x365 <= 1
C475: + x78 + x298 <= 1
C476: + x23 + x98 <= 1
C477: + x52 + x267 <= 1
C478: + x198 + x280 <= 1
C479: + x444 + x452 <= 1
C480: + x8 + x67 <= 1
C481: + x49 + x50 <= 1
C482: + x308 + x391 <= 1
C483: + x28 + x310 <= 1
C484: + x266 + x361 <= 1
C485: + x357 + x432 <= 1
C486: + x175 + x435 <= 1
C487: + x15 + x46 <= 1
C488: + x7 + x127 <= 1
C489: + x363 + x378 <= 1
C490: + x137 + x319 <= 1
C491: + x66 + x329 <= 1
C492: + x1 + x135 <= 1
C493: + x30 + x355 <= 1
C494: + x75 + x182 <= 1
C495: + x24 + x290 <= 1
C496: + x51 + x322 <= 1
C497: + x55 + x56 <= 1
C498: + x3 + x42 <= 1
C499: + x30 + x276 <= 1
C500: + x243 + x249 <= 1
C501: + x71 + x107 <= 1
C502: + x273 + x387 <= 1
C503: + x112 + x221 <= 1
C504: + x369 + x450 <= 1
C505: + x175 + x220 <= 1
C506: + x244 + x461 <= 1
C507: + x16 + x72 <= 1
C508: + x135 + x366 <= 1
C509: + x273 + x304 <= 1
C510: + x58 + x387 <= 1
C511: + x41 + x284 <= 1
C512: + x5 + x290 <= 1
C513: + x7 + x70 <= 1
C514: + x56 + x319 <= 1
C515: + x139 + x198 <= 1
C516: + x12 + x338 <= 1
C517: + x5 + x199 <= 1
C518: + x82 + x168 <= 1
C519: + x7 + x231 <= 1
C520: + x134 + x487 <= 1
C521: + x16 + x314 <= 1
C522: + x18 + x360 <= 1
C523: + x183 + x210 <= 1
C524: + x4 + x108 <= 1
C525: + x5 + x124 <= 1
C526: + x204 + x220 <= 1
C527: + x30 + x110 <= 1
C528: + x48 + x200 <= 1
C529: + x18 + x497 <= 1
C530: + x28 + x29 <= 1
C531: + x164 + x165 <= 1
C532: + x75 + x189 <= 1
C533: + x149 + x209 <= 1
C534: + x59 + x83 <= 1
C535: + x5 + x11 <= 1
C536: + x7 + x360 <= 1
C537: + x30 + x31 <= 1
C538: + x4 + x24 <= 1
C539: + x13 + x392 <= 1
C540: + x200 + x339 <= 1
C541: + x248 + x373 <= 1
C542: + x122 + x398 <= 1
C543: + x23 + x40 <= 1
C544: + x5 + x154 <= 1
C545: + x40 + x73 <= 1
C546: + x23 + x310 <= 1
C547: + x24 + x186 <= 1
C548: + x5 + x396 <= 1
C549: + x108 + x489 <= 1
C550: + x29 + x439 <= 1
C551: + x32 + x77 <= 1
C552: + x89 + x218 <= 1
C553: + x18 + x164 <= 1
C554: + x101 + x218 <= 1
C555: + x19 + x52 <= 1
C556: + x320 + x355 <= 1
C557: + x2 + x234 <= 1
C558: + x23 + x221 <= 1
C559: + x243 + x470 <= 1
C560: + x142 + x416 <= 1
C561: + x16 + x17 <= 1
C562: + x65 + x67 <= 1
C563: + x112 + x444 <= 1
C564: + x288 + x297 <= 1
C565: + x72 + x386 <= 1
C566: + x201 + x493 <= 1
C567: + x194 + x270 <= 1
C568: + x33 + x473 <= 1
C569: + x14 + x27 <= 1
C570: + x4 + x226 <= 1
C571: + x21 + x61 <= 1
C572: + x35 + x195 <= 1
C573: + x37 + x128 <= 1
C574: + x21 + x463 <= 1
C575: + x5 + x129 <= 1
C576: + x92 + x315 <= 1
C577: + x19 + x119 <= 1
C578: + x2 + x215 <= 1
C579: + x220 + x469 <= 1
C580: + x28 + x34 <= 1
C581: + x28 + x205 <= 1
C582: + x228 + x437 <= 1
C583: + x311 + x486 <= 1
C584: + x35 + x151 <= 1
C585: + x20 + x417 <= 1
C586: + x112 + x340 <= 1
C587: + x429 + x478 <= 1
C588: + x50 + x78 <= 1
C589: + x6 + x195 <= 1
C590: + x9 + x379 <= 1
C591: + x7 + x294 <= 1
C592: + x19 + x43 <= 1
C593: + x301 + x438 <= 1
C594: + x48 + x119 <= 1
C595: + x149 + x376 <= 1
C596: + x32 + x233 <= 1
C597: + x34 + x154 <= 1
C598: + x22 + x240 <= 1
C599: + x5 + x106 <= 1
C600: + x5 + x423 <= 1
C601: + x294 + x328 <= 1
C602: + x258 + x367 <= 1
C603: + x68 + x84 <= 1
C604: + x60 + x351 <= 1
C605: + x53 + x422 <= 1
C606: + x6 + x247 <= 1
C607: + x4 + x6 <= 1
C608: + x24 + x95 <= 1
C609: + x94 + x393 <= 1
C610: + x94 + x116 <= 1
C611: + x60 + x208 <= 1
C612: + x6 + x8 <= 1
C613: + x54 + x62 <= 1
C614: + x255 + x265 <= 1
C615: + x75 + x147 <= 1
C616: + x20 + x313 <= 1
C617: + x21 + x171 <= 1
C618: + x144 + x363 <= 1
C619: + x173 + x359 <= 1
C620: + x10 + x93 <= 1
C621: + x176 + x231 <= 1
C622: + x7 + x398 <= 1
C623: + x70 + x432 <= 1
C624: + x11 + x312 <= 1
C625: + x29 + x187 <= 1
C626: + x16 + x83 <= 1
C627: + x201 + x317 <= 1
C628: + x20 + x152 <= 1
C629: + x107 + x477 <= 1
C630: + x244 + x383 <= 1
C631: + x8 + x437 <= 1
C632: + x5 + x180 <= 1
C633: + x7 + x204 <= 1
C634: + x1 + x244 <= 1
C635: + x74 + x329 <= 1
C636: + x222 + x406 <= 1
C637: + x23 + x239 <= 1
C638: + x278 + x420 <= 1
C639: + x218 + x353 <= 1
C640: + x1 + x401 <= 1
C641: + x164 + x426 <= 1
C642: + x203 + x245 <= 1
C643: + x21 + x84 <= 1
C644: + x121 + x174 <= 1
C645: + x34 + x126 <= 1
C646: + x53 + x272 <= 1
C647: + x71 + x155 <= 1
C648: + x46 + x385 <= 1
C649: + x38 + x292 <= 1
C650: + x9 + x227 <= 1
C651: + x40 + x231 <= 1
C652: + x61 + x106 <= 1
C653: + x17 + x99 <= 1
C654: + x36 + x223 <= 1
C655: + x46 + x71 <= 1
C656: + x241 + x439 <= 1
C657: + x23 + x457 <= 1
C658: + x1 + x330 <= 1
C659: + x39 + x112 <= 1
C660: + x198 + x356 <= 1
C661: + x16 + x92 <= 1
C662: + x21 + x23 <= 1
C663: + x7 + x34 <= 1
C664: + x2 + x495 <= 1
C665: + x37 + x495 <= 1
C666: + x143 + x400 <= 1
C667: + x18 + x50 <= 1
C668: + x2 + x288 <= 1
C669: + x352 + x456 <= 1
C670: + x11 + x17 <= 1
C671: + x284 + x403 <= 1
C672: + x25 + x50 + x183 <= 1
C673: + x15 + x174 <= 1
C674: + x239 + x411 <= 1
C675: + x214 + x262 <= 1
C676: + x25 + x141 <= 1
C677: + x94 + x411 <= 1
C678: + x3 + x5 <= 1
C679: + x50 + x133 <= 1
C680: + x104 + x330 <= 1
C681: + x55 + x159 + x354 <= 1
C682: + x91 + x150 <= 1
C683: + x20 + x327 <= 1
C684: + x285 + x465 <= 1
C685: + x5 + x19 <= 1
C686: + x116 + x136 <= 1
C687: + x24 + x279 <= 1
C688: + x7 + x384 <= 1
C689: + x29 + x137 <= 1
C690: + x185 + x229 <= 1
C691: + x4 + x64 <= 1
C692: + x24 + x33 <= 1
C693: + x3 + x496 <= 1
C694: + x51 + x127 <= 1
C695: + x14 + x75 <= 1
C696: + x227 + x443 <= 1
C697: + x1 + x194 <= 1
C698: + x175 + x203 <= 1
C699: + x105 + x249 <= 1
C700: + x91 + x440 <= 1
C701: + x213 + x223 <= 1
C702: + x78 + x81 <= 1
C703: + x243 + x347 <= 1
C704: + x60 + x358 <= 1
C705: + x32 + x85 <= 1
C706: + x34 + x491 <= 1
C707: + x16 + x230 <= 1
C708: + x1 + x30 <= 1
C709: + x192 + x203 <= 1
C710: + x9 + x78 <= 1
C711: + x2 + x5 + x9 + x10 <= 1
C712: + x57 + x72 <= 1
C713: + x118 + x286 <= 1
C714: + x280 + x490 <= 1
C715: + x22 + x40 + x222 <= 1
C716: + x5 + x26 <= 1
C717: + x87 + x104 <= 1
C718: + x35 + x429 <= 1
C719: + x69 + x418 <= 1
C720: + x42 + x295 <= 1
C721: + x108 + x462 <= 1
C722: + x15 + x471 <= 1
C723: + x24 + x58 <= 1
C724: + x58 + x268 <= 1
C725: + x58 + x191 <= 1
C726: + x34 + x408 <= 1
C727: + x6 + x39 <= 1
C728: + x209 + x362 <= 1
C729: + x104 + x154 <= 1
C730: + x353 + x370 <= 1
C731: + x243 + x497 <= 1
C732: + x1 + x102 <= 1
C733: + x11 + x277 <= 1
C734: + x476 + x479 <= 1
C735: + x114 + x120 <= 1
C736: + x249 + x416 <= 1
C737: + x61 + x357 <= 1
C738: + x145 + x384 <= 1
C739: + x304 + x406 <= 1
C740: + x235 + x346 <= 1
C741: + x338 + x355 <= 1
C742: + x1 + x434 <= 1
C743: + x76 + x162 <= 1
C744: + x175 + x432 <= 1
C745: + x359 + x441 <= 1
C746: + x8 + x215 <= 1
C747: + x2 + x12 <= 1
C748: + x59 + x77 <= 1
C749: + x54 + x368 <= 1
C750: + x273 + x369 <= 1
C751: + x49 + x107 <= 1
C752: + x41 + x152 <= 1
C753: + x22 + x156 <= 1
C754: + x33 + x218 <= 1
C755: + x14 + x282 <= 1
C756: + x15 + x474 <= 1
C757: + x7 + x11 <= 1
C758: + x103 + x470 <= 1
C759: + x127 + x480 <= 1
C760: + x113 + x314 <= 1
C761: + x68 + x424 <= 1
C762: + x38 + x375 <= 1
C763: + x25 + x214 <= 1
C764: + x9 + x16 <= 1
C765: + x1 + x125 <= 1
C766: + x389 + x428 <= 1
C767: + x206 + x497 <= 1
C768: + x18 + x182 <= 1
C769: + x16 + x236 <= 1
C770: + x10 + x17 <= 1
C771: + x192 + x249 <= 1
C772: + x50 + x442 <= 1
C773: + x235 + x321 <= 1
C774: + x128 + x310 <= 1
C775: + x66 + x127 <= 1
C776: + x110 + x416 <= 1
C777: + x106 + x283 <= 1
C778: + x43 + x105 <= 1
C779: + x7 + x115 <= 1
C780: + x37 + x436 <= 1
C781: + x284 + x438 <= 1
C782: + x34 + x305 <= 1
C783: + x261 + x325 <= 1
C784: + x35 + x447 <= 1
C785: + x36 + x76 <= 1
C786: + x19 + x242 <= 1
C787: + x236 + x484 <= 1
C788: + x122 + x251 <= 1
C789: + x77 + x499 <= 1
C790: + x22 + x165 <= 1
C791: + x69 + x109 <= 1
C792: + x40 + x262 <= 1
C793: + x36 + x295 <= 1
C794: + x7 + x14 <= 1
C795: + x20 + x24 <= 1
C796: + x133 + x287 <= 1
C797: + x6 + x41 <= 1
C798: + x269 + x439 <= 1
C799: + x109 + x361 <= 1
C800: + x128 + x477 <= 1
C801: + x76 + x114 <= 1
C802: + x114 + x135 <= 1
C803: + x4 + x164 <= 1
C804: + x34 + x269 <= 1
C805: + x16 + x68 <= 1
C806: + x87 + x340 <= 1
C807: + x161 + x466 <= 1
C808: + x139 + x194 <= 1
C809: + x413 + x430 <= 1
C810: + x19 + x53 <= 1
C811: + x272 + x283 <= 1
C812: + x122 + x184 <= 1
C813: + x26 + x31 <= 1
C814: + x18 + x74 <= 1
C815: + x11 + x331 <= 1
C816: + x20 + x81 <= 1
C817: + x12 + x32 <= 1
C818: + x78 + x176 <= 1
C819: + x5 + x338 <= 1
C820: + x10 + x472 <= 1
C821: + x83 + x264 <= 1
C822: + x136 + x276 <= 1
C823: + x58 + x97 <= 1
C824: + x67 + x78 <= 1
C825: + x5 + x247 <= 1
C826: + x87 + x137 <= 1
C827: + x17 + x272 <= 1
C828: + x18 + x219 <= 1
C829: + x2 + x161 <= 1
C830: + x99 + x250 <= 1
C831: + x268 + x308 <= 1
C832: + x42 + x237 <= 1
C833: + x2 + x452 <= 1
C834: + x85 + x410 <= 1
C835: + x23 + x60 <= 1
C836: + x5 + x134 <= 1
C837: + x9 + x268 <= 1
C838: + x63 + x67 <= 1
C839: + x20 + x303 <= 1
C840: + x279 + x458 <= 1
C841: + x35 + x55 <= 1
C842: + x16 + x73 <= 1
C843: + x68 + x305 <= 1
C844: + x214 + x237 <= 1
C845: + x34 + x44 <= 1
C846: + x7 + x49 <= 1
C847: + x16 + x496 <= 1
C848: + x185 + x239 + x425 <= 1
C849: + x2 + x238 <= 1
C850: + x303 + x307 <= 1
C851: + x50 + x428 <= 1
C852: + x25 + x315 <= 1
C853: + x16 + x29 <= 1
C854: + x10 + x382 <= 1
C855: + x54 + x202 <= 1
C856: + x29 + x117 <= 1
C857: + x218 + x283 <= 1
C858: + x327 + x370 <= 1
C859: + x2 + x428 <= 1
C860: + x2 + x31 <= 1
C861: + x220 + x285 <= 1
C862: + x38 + x318 <= 1
C863: + x5 + x254 <= 1
C864: + x12 + x102 <= 1
C865: + x132 + x385 <= 1
C866: + x243 + x390 <= 1
C867: + x35 + x223 <= 1
C868: + x66 + x133 <= 1
C869: + x68 + x256 <= 1
C870: + x173 + x364 <= 1
C871: + x28 + x38 <= 1
C872: + x301 + x382 <= 1
C873: + x27 + x211 <= 1
C874: + x250 + x337 <= 1
C875: + x39 + x211 <= 1
C876: + x8 + x46 + x66 <= 1
C877: + x4 + x388 <= 1
C878: + x7 + x44 <= 1
C879: + x346 + x371 <= 1
C880: + x2 + x92 <= 1
C881: + x284 + x333 <= 1
C882: + x60 + x135 <= 1
C883: + x162 + x179 <= 1
C884: + x24 + x373 <= 1
C885: + x91 + x262 <= 1
C886: + x38 + x342 <= 1
C887: + x297 + x413 <= 1
C888: + x159 + x485 <= 1
C889: + x37 + x191 <= 1
C890: + x12 + x14 <= 1
C891: + x115 + x481 <= 1
C892: + x84 + x327 <= 1
C893: + x77 + x187 <= 1
C894: + x106 + x169 <= 1
C895: + x14 + x16 <= 1
C896: + x34 + x476 <= 1
C897: + x219 + x259 <= 1
C898: + x114 + x217 <= 1
C899: + x179 + x381 <= 1
C900: + x207 + x246 <= 1
C901: + x16 + x42 <= 1
C902: + x3 + x454 <= 1
C903: + x20 + x482 <= 1
C904: + x112 + x401 <= 1
C905: + x230 + x248 <= 1
C906: + x215 + x374 <= 1
C907: + x352 + x386 <= 1
C908: + x28 + x59 <= 1
C909: + x29 + x274 <= 1
C910: + x58 + x63 <= 1
C911: + x40 + x123 <= 1
C912: + x5 + x41 <= 1
C913: + x23 + x151 <= 1
C914: + x19 + x143 <= 1
C915: + x23 + x421 <= 1
C916: + x7 + x35 <= 1
C917: + x69 + x163 <= 1
C918: + x4 + x296 <= 1
C919: + x53 + x357 <= 1
C920: + x111 + x151 <= 1
C921: + x222 + x402 <= 1
C922: + x5 + x426 <= 1
C923: + x121 + x178 <= 1
C924: + x41 + x236 <= 1
C925: + x22 + x259 <= 1
C926: + x29 + x341 <= 1
C927: + x68 + x93 <= 1
C928: + x100 + x273 <= 1
C929: + x182 + x205 <= 1
C930: + x60 + x126 <= 1
C931: + x177 + x453 <= 1
C932: + x5 + x371 <= 1
C933: + x6 + x13 <= 1
C934: + x89 + x359 <= 1
C935: + x10 + x74 <= 1
C936: + x56 + x490 <= 1
C937: + x5 + x24 <= 1
C938: + x305 + x399 <= 1
C939: + x106 + x436 <= 1
C940: + x34 + x63 <= 1
C941: + x7 + x38 <= 1
C942: + x164 + x454 <= 1
C943: + x374 + x410 <= 1
C944: + x2 + x86 <= 1
C945: + x149 + x173 <= 1
C946: + x23 + x25 <= 1
C947: + x7 + x268 <= 1
C948: + x19 + x25 <= 1
C949: + x5 + x92 <= 1
C950: + x150 + x484 <= 1
C951: + x10 + x145 <= 1
C952: + x158 + x462 <= 1
C953: + x68 + x167 <= 1
C954: + x39 + x185 <= 1
C955: + x424 + x428 <= 1
C956: + x8 + x350 <= 1
C957: + x20 + x383 <= 1
C958: + x7 + x243 <= 1
C959: + x28 + x156 <= 1
C960: + x121 + x296 <= 1
C961: + x58 + x480 <= 1
C962: + x145 + x419 <= 1
C963: + x475 + x483 <= 1
C964: + x43 + x124 <= 1
C965: + x410 + x464 <= 1
C966: + x1 + x138 <= 1
C967: + x85 + x208 <= 1
C968: + x59 + x71 <= 1
C969: + x60 + x317 <= 1
C970: + x288 + x491 <= 1
C971: + x131 + x308 <= 1
C972: + x235 + x264 <= 1
C973: + x80 + x132 <= 1
C974: + x10 + x265 <= 1
C975: + x14 + x71 <= 1
C976: + x217 + x314 <= 1
C977: + x2 + x202 <= 1
C978: + x54 + x395 <= 1
C979: + x4 + x177 <= 1
C980: + x70 + x450 <= 1
C981: + x200 + x248 <= 1
C982: + x468 + x489 <= 1
C983: + x104 + x399 <= 1
C984: + x6 + x75 <= 1
C985: + x11 + x459 <= 1
C986: + x12 + x291 <= 1
C987: + x236 + x446 <= 1
C988: + x380 + x460 <= 1
C989: + x71 + x284 <= 1
C990: + x3 + x431 <= 1
C991: + x348 + x477 <= 1
C992: + x41 + x347 <= 1
C993: + x133 + x225 <= 1
C994: + x30 + x361 <= 1
C995: + x107 + x200 <= 1
C996: + x269 + x302 <= 1
C997: + x5 + x6 <= 1
C998: + x8 + x121 <= 1
C999: + x46 + x198 <= 1
C1000: + x24 + x54 <= 1
C1001: + x7 + x24 <= 1
C1002: + x10 + x306 <= 1
C1003: + x23 + x43 <= 1
C1004: + x7 + x177 <= 1
C1005: + x28 + x94 <= 1
C1006: + x194 + x374 <= 1
C1007: + x378 + x401 <= 1
C1008: + x46 + x250 <= 1
C1009: + x377 + x380 <= 1
C1010: + x48 + x246 <= 1
C1011: + x50 + x255 <= 1
C1012: + x13 + x455 <= 1
C1013: + x2 + x366 <= 1
C1014: + x41 + x278 <= 1
C1015: + x262 + x271 <= 1
C1016: + x228 + x256 <= 1
C1017: + x249 + x420 <= 1
C1018: + x133 + x345 <= 1
C1019: + x145 + x175 <= 1
C1020: + x163 + x281 <= 1
C1021: + x1 + x233 <= 1
C1022: + x344 + x348 <= 1
C1023: + x20 + x236 <= 1
C1024: + x242 + x325 <= 1
C1025: + x127 + x389 <= 1
C1026: + x58 + x490 <= 1
C1027: + x134 + x288 <= 1
C1028: + x313 + x392 <= 1
C1029: + x29 + x108 <= 1
C1030: + x33 + x111 <= 1
C1031: + x35 + x351 <= 1
C1032: + x63 + x105 <= 1
C1033: + x135 + x406 <= 1
C1034: + x19 + x389 <= 1
C1035: + x68 + x128 <= 1
C1036: + x232 + x351 <= 1
C1037: + x4 + x18 <= 1
C1038: + x115 + x332 <= 1
C1039: + x7 + x15 <= 1
C1040: + x8 + x405 <= 1
C1041: + x167 + x297 <= 1
C1042: + x14 + x121 <= 1
C1043: + x198 + x492 <= 1
C1044: + x18 + x299 <= 1
C1045: + x144 + x287 <= 1
C1046: + x10 + x41 <= 1
C1047: + x23 + x143 <= 1
C1048: + x135 + x355 <= 1
C1049: + x85 + x263 <= 1
C1050: + x313 + x323 <= 1
C1051: + x213 + x233 <= 1
C1052: + x251 + x424 <= 1
C1053: + x16 + x486 <= 1
C1054: + x136 + x152 <= 1
C1055: + x132 + x336 <= 1
C1056: + x106 + x142 <= 1
C1057: + x16 + x313 <= 1
C1058: + x28 + x111 <= 1
C1059: + x228 + x279 <= 1
C1060: + x83 + x378 <= 1
C1061: + x37 + x297 <= 1
C1062: + x5 + x101 <= 1
C1063: + x7 + x470 <= 1
C1064: + x92 + x462 <= 1
C1065: + x56 + x228 <= 1
C1066: + x39 + x291 <= 1
C1067: + x22 + x491 <= 1
C1068: + x177 + x481 <= 1
C1069: + x6 + x97 <= 1
C1070: + x32 + x472 <= 1
C1071: + x10 + x467 <= 1
C1072: + x137 + x295 <= 1
C1073: + x97 + x101 <= 1
C1074: + x284 + x394 <= 1
C1075: + x105 + x294 <= 1
C1076: + x22 + x78 <= 1
C1077: + x16 + x188 <= 1
C1078: + x121 + x265 <= 1
C1079: + x94 + x275 <= 1
C1080: + x135 + x203 <= 1
C1081: + x8 + x398 <= 1
C1082: + x241 + x387 <= 1
C1083: + x118 + x320 <= 1
C1084: + x121 + x376 <= 1
C1085: + x21 + x166 <= 1
C1086: + x69 + x291 <= 1
C1087: + x9 + x59 <= 1
C1088: + x1 + x120 <= 1
C1089: + x102 + x324 <= 1
C1090: + x377 + x394 <= 1
C1091: + x94 + x295 <= 1
C1092: + x43 + x44 <= 1
C1093: + x35 + x157 <= 1
C1094: + x25 + x126 <= 1
C1095: + x7 + x62 <= 1
C1096: + x58 + x153 <= 1
C1097: + x130 + x177 <= 1
C1098: + x16 + x253 <= 1
C1099: + x64 + x471 <= 1
C1100: + x20 + x250 <= 1
C1101: + x41 + x94 <= 1
C1102: + x52 + x110 <= 1
C1103: + x16 + x20 <= 1
C1104: + x80 + x340 <= 1
C1105: + x86 + x121 <= 1
C1106: + x5 + x350 <= 1
C1107: + x19 + x20 + x21 <= 1
C1108: + x24 + x254 <= 1
C1109: + x218 + x391 <= 1
C1110: + x7 + x352 <= 1
C1111: + x1 + x480 <= 1
C1112: + x2 + x456 <= 1
C1113: + x40 + x414 <= 1
C1114: + x6 + x30 <= 1
C1115: + x1 + x162 <= 1
C1116: + x80 + x277 <= 1
C1117: + x16 + x85 <= 1
C1118: + x46 + x229 <= 1
C1119: + x4 + x415 <= 1
C1120: + x81 + x354 <= 1
C1121: + x1 + x492 <= 1
C1122: + x58 + x162 <= 1
C1123: + x423 + x476 <= 1
C1124: + x6 + x194 <= 1
C1125: + x7 + x210 <= 1
C1126: + x137 + x326 <= 1
C1127: + x210 + x431 <= 1
C1128: + x294 + x484 <= 1
C1129: + x125 + x224 <= 1
C1130: + x24 + x134 <= 1
C1131: + x317 + x498 <= 1
C1132: + x30 + x426 <= 1
C1133: + x61 + x253 <= 1
C1134: + x144 + x235 <= 1
C1135: + x4 + x234 <= 1
C1136: + x417 + x459 <= 1
C1137: + x1 + x10 <= 1
C1138: + x37 + x259 <= 1
C1139: + x94 + x357 <= 1
C1140: + x55 + x381 <= 1
C1141: + x4 + x5 <= 1
C1142: + x249 + x500 <= 1
C1143: + x58 + x300 <= 1
C1144: + x287 + x335 <= 1
C1145: + x5 + x137 <= 1
C1146: + x73 + x247 <= 1
C1147: + x1 + x372 <= 1
C1148: + x28 + x58 <= 1
C1149: + x137 + x257 <= 1
C1150: + x294 + x441 <= 1
C1151: + x53 + x197 <= 1
C1152: + x5 + x189 <= 1
C1153: + x99 + x180 <= 1
C1154: + x9 + x21 <= 1
C1155: + x312 + x438 <= 1
C1156: + x115 + x285 <= 1
C1157: + x5 + x324 <= 1
C1158: + x187 + x325 <= 1
C1159: + x32 + x451 <= 1
C1160: + x39 + x433 <= 1
C1161: + x43 + x483 <= 1
C1162: + x10 + x252 <= 1
C1163: + x29 + x255 <= 1
C1164: + x93 + x279 <= 1
C1165: + x22 + x458 <= 1
C1166: + x35 + x311 <= 1
C1167: + x71 + x88 <= 1
C1168: + x288 + x334 <= 1
C1169: + x118 + x267 <= 1
C1170: + x5 + x21 <= 1
C1171: + x9 + x48 <= 1
C1172: + x228 + x422 <= 1
C1173: + x122 + x222 <= 1
C1174: + x87 + x377 <= 1
C1175: + x8 + x429 <= 1
C1176: + x20 + x434 <= 1
C1177: + x95 + x152 <= 1
C1178: + x149 + x162 <= 1
C1179: + x36 + x64 <= 1
C1180: + x189 + x219 <= 1
C1181: + x16 + x111 <= 1
C1182: + x68 + x166 <= 1
C1183: + x6 + x69 <= 1
C1184: + x137 + x142 <= 1
C1185: + x249 + x403 <= 1
C1186: + x11 + x18 <= 1
C1187: + x93 + x172 <= 1
C1188: + x94 + x212 <= 1
C1189: + x163 + x181 <= 1
C1190: + x1 + x8 <= 1
C1191: + x91 + x349 <= 1
C1192: + x20 + x217 <= 1
C1193: + x112 + x140 <= 1
C1194: + x192 + x205 <= 1
C1195: + x70 + x91 <= 1
C1196: + x46 + x191 <= 1
C1197: + x3 + x6 <= 1
C1198: + x19 + x408 <= 1
C1199: + x8 + x228 <= 1
C1200: + x11 + x70 <= 1
C1201: + x48 + x57 <= 1
C1202: + x69 + x263 <= 1
C1203: + x5 + x20 <= 1
C1204: + x27 + x33 <= 1
C1205: + x1 + x84 <= 1
C1206: + x28 + x459 <= 1
C1207: + x5 + x270 <= 1
C1208: + x24 + x36 <= 1
C1209: + x181 + x392 <= 1
C1210: + x66 + x167 <= 1
C1211: + x7 + x187 <= 1
C1212: + x7 + x272 <= 1
C1213: + x109 + x202 <= 1
C1214: + x1 + x195 <= 1
C1215: + x165 + x204 <= 1
C1216: + x41 + x58 <= 1
C1217: + x32 + x199 <= 1
C1218: + x73 + x358 <= 1
C1219: + x5 + x72 <= 1
C1220: + x127 + x193 <= 1
C1221: + x28 + x239 <= 1
C1222: + x202 + x240 <= 1
C1223: + x123 + x161 <= 1
C1224: + x16 + x395 <= 1
C1225: + x32 + x88 <= 1
C1226: + x70 + x342 <= 1
C1227: + x145 + x181 <= 1
C1228: + x119 + x221 <= 1
C1229: + x46 + x277 <= 1
C1230: + x49 + x57 <= 1
C1231: + x52 + x56 <= 1
C1232: + x16 + x60 <= 1
C1233: + x63 + x130 <= 1
C1234: + x194 + x410 <= 1
C1235: + x130 + x218 <= 1
C1236: + x186 + x293 <= 1
C1237: + x65 + x153 <= 1
C1238: + x72 + x409 <= 1
C1239: + x20 + x335 <= 1
C1240: + x122 + x269 <= 1
C1241: + x23 + x165 <= 1
C1242: + x61 + x419 <= 1
C1243: + x296 + x436 <= 1
C1244: + x273 + x379 <= 1
C1245: + x93 + x412 <= 1
C1246: + x149 + x422 <= 1
C1247: + x40 + x204 <= 1
C1248: + x23 + x331 <= 1
C1249: + x3 + x488 <= 1
C1250: + x47 + x317 <= 1
C1251: + x233 + x353 <= 1
C1252: + x5 + x79 <= 1
C1253: + x16 + x125 <= 1
C1254: + x110 + x114 <= 1
C1255: + x7 + x420 <= 1
C1256: + x133 + x185 <= 1
C1257: + x351 + x447 <= 1
C1258: + x27 + x273 <= 1
C1259: + x14 + x468 <= 1
C1260: + x54 + x77 <= 1
C1261: + x20 + x396 <= 1
C1262: + x32 + x93 <= 1
C1263: + x180 + x384 <= 1
C1264: + x7 + x234 <= 1
C1265: + x1 + x22 <= 1
C1266: + x211 + x333 <= 1
C1267: + x43 + x206 <= 1
C1268: + x15 + x403 <= 1
C1269: + x102 + x281 <= 1
C1270: + x2 + x293 <= 1
C1271: + x185 + x442 <= 1
C1272: + x195 + x257 <= 1
C1273: + x87 + x275 <= 1
C1274: + x26 + x431 <= 1
C1275: + x19 + x83 <= 1
C1276: + x204 + x467 <= 1
C1277: + x12 + x275 <= 1
C1278: + x23 + x192 <= 1
C1279: + x6 + x158 <= 1
C1280: + x16 + x178 <= 1
C1281: + x135 + x308 <= 1
C1282: + x83 + x440 <= 1
C1283: + x57 + x63 <= 1
C1284: + x113 + x172 <= 1
C1285: + x2 + x342 <= 1
C1286: + x159 + x438 <= 1
C1287: + x7 + x12 <= 1
C1288: + x74 + x118 <= 1
C1289: + x256 + x271 <= 1
C1290: + x166 + x456 <= 1
C1291: + x83 + x89 <= 1
C1292: + x258 + x466 <= 1
C1293: + x4 + x287 <= 1
C1294: + x40 + x499 <= 1
C1295: + x134 + x199 <= 1
C1296: + x7 + x181 <= 1
C1297: + x357 + x402 <= 1
C1298: + x14 + x124 <= 1
C1299: + x69 + x313 <= 1
C1300: + x269 + x286 <= 1
C1301: + x23 + x140 <= 1
C1302: + x43 + x129 <= 1
C1303: + x300 + x429 <= 1
C1304: + x131 + x136 <= 1
C1305: + x48 + x301 <= 1
C1306: + x5 + x296 <= 1
C1307: + x31 + x301 <= 1
C1308: + x37 + x52 <= 1
C1309: + x14 + x48 <= 1
C1310: + x24 + x361 <= 1
C1311: + x5 + x122 <= 1
C1312: + x107 + x188 <= 1
C1313: + x34 + x138 <= 1
C1314: + x27 + x139 <= 1
C1315: + x7 + x471 <= 1
C1316: + x86 + x115 <= 1
C1317: + x167 + x369 <= 1
C1318: + x21 + x343 <= 1
C1319: + x2 + x175 <= 1
C1320: + x20 + x188 <= 1
C1321: + x43 + x249 <= 1
C1322: + x118 + x416 <= 1
C1323: + x92 + x389 <= 1
C1324: + x135 + x216 <= 1
C1325: + x94 + x100 <= 1
C1326: + x20 + x462 <= 1
C1327: + x267 + x344 <= 1
C1328: + x141 + x235 <= 1
C1329: + x341 + x435 <= 1
C1330: + x10 + x45 <= 1
C1331: + x173 + x196 <= 1
C1332: + x121 + x373 <= 1
C1333: + x4 + x163 <= 1
C1334: + x14 + x216 <= 1
C1335: + x5 + x61 <= 1
C1336: + x9 + x56 <= 1
C1337: + x1 + x117 <= 1
C1338: + x182 + x188 <= 1
C1339: + x10 + x144 <= 1
C1340: + x158 + x469 <= 1
C1341: + x7 + x63 <= 1
C1342: + x84 + x163 <= 1
C1343: + x19 + x54 <= 1
C1344: + x155 + x174 <= 1
C1345: + x43 + x192 <= 1
C1346: + x114 + x488 <= 1
C1347: + x70 + x210 <= 1
C1348: + x32 + x468 <= 1
C1349: + x18 + x492 <= 1
C1350: + x1 + x302 <= 1
C1351: + x43 + x81 <= 1
C1352: + x155 + x356 <= 1
C1353: + x95 + x236 <= 1
C1354: + x5 + x248 <= 1
C1355: + x93 + x97 <= 1
C1356: + x4 + x27 <= 1
C1357: + x171 + x445 <= 1
C1358: + x46 + x87 <= 1
C1359: + x48 + x334 <= 1
C1360: + x18 + x296 <= 1
C1361: + x137 + x194 <= 1
C1362: + x1 + x175 <= 1
C1363: + x40 + x72 <= 1
C1364: + x81 + x125 <= 1
C1365: + x1 + x76 <= 1
C1366: + x144 + x391 <= 1
C1367: + x39 + x366 <= 1
C1368: + x5 + x278 <= 1
C1369: + x71 + x242 <= 1
C1370: + x92 + x426 <= 1
C1371: + x2 + x66 <= 1
C1372: + x3 + x114 <= 1
C1373: + x58 + x157 <= 1
C1374: + x203 + x266 <= 1
C1375: + x5 + x203 <= 1
C1376: + x292 + x316 <= 1
C1377: + x260 + x400 <= 1
C1378: + x109 + x226 <= 1
C1379: + x2 + x237 <= 1
C1380: + x11 + x146 <= 1
C1381: + x30 + x223 <= 1
C1382: + x5 + x112 <= 1
C1383: + x5 + x421 <= 1
C1384: + x125 + x280 <= 1
C1385: + x17 + x190 <= 1
C1386: + x173 + x404 <= 1
C1387: + x75 + x435 <= 1
C1388: + x34 + x103 <= 1
C1389: + x18 + x493 <= 1
C1390: + x54 + x108 <= 1
C1391: + x146 + x184 <= 1
C1392: + x117 + x284 <= 1
C1393: + x63 + x269 <= 1
C1394: + x1 + x55 <= 1
C1395: + x19 + x225 <= 1
C1396: + x48 + x185 <= 1
C1397: + x125 + x145 <= 1
C1398: + x43 + x235 <= 1
C1399: + x174 + x464 <= 1
C1400: + x20 + x37 <= 1
C1401: + x3 + x53 <= 1
C1402: + x392 + x409 <= 1
C1403: + x42 + x120 <= 1
C1404: + x132 + x246 <= 1
C1405: + x6 + x26 <= 1
C1406: + x40 + x410 <= 1
C1407: + x101 + x333 <= 1
C1408: + x70 + x271 <= 1
C1409: + x30 + x132 <= 1
C1410: + x156 + x439 <= 1
C1411: + x103 + x335 <= 1
C1412: + x50 + x230 <= 1
C1413: + x298 + x303 <= 1
C1414: + x58 + x166 <= 1
C1415: + x141 + x205 <= 1
C1416: + x32 + x49 <= 1
C1417: + x125 + x458 <= 1
C1418: + x109 + x276 <= 1
C1419: + x254 + x300 <= 1
C1420: + x54 + x447 <= 1
C1421: + x117 + x351 <= 1
C1422: + x11 + x153 <= 1
C1423: + x5 + x87 <= 1
C1424: + x10 + x358 <= 1
C1425: + x128 + x292 <= 1
C1426: + x38 + x56 <= 1
C1427: + x12 + x13 <= 1
C1428: + x48 + x209 <= 1
C1429: + x5 + x321 <= 1
C1430: + x2 + x23 <= 1
C1431: + x75 + x172 <= 1
C1432: + x184 + x267 <= 1
C1433: + x272 + x409 <= 1
C1434: + x289 + x500 <= 1
C1435: + x76 + x407 <= 1
C1436: + x86 + x324 <= 1
C1437: + x4 + x9 <= 1
C1438: + x69 + x91 <= 1
C1439: + x4 + x480 <= 1
C1440: + x68 + x232 <= 1
C1441: + x142 + x171 <= 1
C1442: + x173 + x356 <= 1
C1443: + x1 + x189 <= 1
C1444: + x11 + x96 <= 1
C1445: + x2 + x35 <= 1
C1446: + x81 + x448 <= 1
C1447: + x19 + x144 <= 1
C1448: + x149 + x405 <= 1
C1449: + x48 + x150 <= 1
C1450: + x50 + x332 <= 1
C1451: + x24 + x42 <= 1
C1452: + x10 + x286 <= 1
C1453: + x70 + x316 <= 1
C1454: + x18 + x145 <= 1
C1455: + x146 + x348 <= 1
C1456: + x210 + x412 <= 1
C1457: + x112 + x187 <= 1
C1458: + x131 + x466 <= 1
C1459: + x224 + x413 <= 1
C1460: + x5 + x427 <= 1
C1461: + x48 + x123 <= 1
C1462: + x2 + x282 <= 1
C1463: + x21 + x406 <= 1
C1464: + x110 + x294 <= 1
C1465: + x57 + x208 <= 1
C1466: + x84 + x134 <= 1
C1467: + x58 + x123 <= 1
C1468: + x66 + x304 <= 1
C1469: + x60 + x363 <= 1
C1470: + x23 + x83 <= 1
C1471: + x104 + x255 <= 1
C1472: + x462 + x489 <= 1
C1473: + x8 + x82 <= 1
C1474: + x218 + x405 <= 1
C1475: + x1 + x5 <= 1
C1476: + x57 + x482 <= 1
C1477: + x107 + x285 <= 1
C1478: + x9 + x69 <= 1
C1479: + x37 + x107 <= 1
C1480: + x3 + x7 <= 1
C1481: + x130 + x196 <= 1
C1482: + x86 + x91 <= 1
C1483: + x50 + x135 <= 1
C1484: + x146 + x222 <= 1
C1485: + x8 + x231 <= 1
C1486: + x46 + x432 <= 1
C1487: + x2 + x60 <= 1
C1488: + x129 + x377 <= 1
C1489: + x21 + x191 <= 1
C1490: + x360 + x378 <= 1
C1491: + x5 + x17 <= 1
C1492: + x7 + x378 <= 1
C1493: + x39 + x206 <= 1
C1494: + x259 + x304 <= 1
C1495: + x83 + x108 <= 1
C1496: + x2 + x482 <= 1
C1497: + x3 + x91 <= 1
C1498: + x151 + x195 <= 1
C1499: + x10 + x53 <= 1
C1500: + x55 + x311 <= 1
C1501: + x122 + x339 <= 1
C1502: + x175 + x197 <= 1
C1503: + x197 + x261 <= 1
C1504: + x322 + x390 <= 1
C1505: + x115 + x276 <= 1
C1506: + x4 + x445 <= 1
C1507: + x21 + x370 <= 1
C1508: + x104 + x248 <= 1
C1509: + x61 + x340 <= 1
C1510: + x36 + x473 <= 1
C1511: + x10 + x225 <= 1
C1512: + x102 + x192 <= 1
C1513: + x50 + x394 <= 1
C1514: + x13 + x28 <= 1
C1515: + x234 + x437 <= 1
C1516: + x60 + x463 <= 1
C1517: + x22 + x380 <= 1
C1518: + x1 + x441 <= 1
C1519: + x275 + x338 <= 1
C1520: + x104 + x325 <= 1
C1521: + x122 + x272 <= 1
C1522: + x3 + x163 <= 1
C1523: + x42 + x390 <= 1
C1524: + x117 + x242 <= 1
C1525: + x326 + x382 <= 1
C1526: + x97 + x385 <= 1
C1527: + x196 + x314 <= 1
C1528: + x15 + x465 <= 1
C1529: + x37 + x70 <= 1
C1530: + x87 + x209 <= 1
C1531: + x5 + x175 <= 1
C1532: + x2 + x201 <= 1
C1533: + x85 + x157 <= 1
C1534: + x5 + x68 <= 1
C1535: + x188 + x230 <= 1
C1536: + x200 + x247 <= 1
C1537: + x67 + x348 <= 1
C1538: + x23 + x388 <= 1
C1539: + x16 + x407 <= 1
C1540: + x5 + x211 <= 1
C1541: + x17 + x356 <= 1
C1542: + x82 + x172 <= 1
C1543: + x154 + x244 <= 1
C1544: + x246 + x414 <= 1
C1545: + x1 + x19 <= 1
C1546: + x20 + x65 <= 1
C1547: + x411 + x465 <= 1
C1548: + x267 + x382 <= 1
C1549: + x144 + x146 <= 1
C1550: + x1 + x130 <= 1
C1551: + x46 + x418 <= 1
C1552: + x13 + x226 <= 1
C1553: + x81 + x96 <= 1
C1554: + x17 + x229 <= 1
C1555: + x10 + x214 <= 1
C1556: + x2 + x337 <= 1
C1557: + x122 + x244 <= 1
C1558: + x459 + x500 <= 1
C1559: + x12 + x125 <= 1
C1560: + x104 + x467 <= 1
C1561: + x6 + x399 <= 1
C1562: + x76 + x341 <= 1
C1563: + x284 + x300 <= 1
C1564: + x104 + x306 <= 1
C1565: + x24 + x412 <= 1
C1566: + x128 + x470 <= 1
C1567: + x10 + x404 <= 1
C1568: + x102 + x254 <= 1
C1569: + x13 + x214 <= 1
C1570: + x35 + x39 <= 1
C1571: + x9 + x14 <= 1
C1572: + x18 + x39 <= 1
C1573: + x1 + x123 <= 1
C1574: + x145 + x486 <= 1
C1575: + x59 + x161 <= 1
C1576: + x7 + x65 <= 1
C1577: + x37 + x49 <= 1
C1578: + x132 + x330 <= 1
C1579: + x360 + x433 <= 1
C1580: + x344 + x347 <= 1
C1581: + x36 + x455 <= 1
C1582: + x28 + x105 <= 1
C1583: + x34 + x322 <= 1
C1584: + x5 + x460 <= 1
C1585: + x135 + x165 <= 1
C1586: + x58 + x255 <= 1
C1587: + x221 + x274 <= 1
C1588: + x190 + x266 <= 1
C1589: + x8 + x263 <= 1
C1590: + x65 + x148 <= 1
C1591: + x344 + x460 <= 1
C1592: + x2 + x15 <= 1
C1593: + x58 + x90 <= 1
C1594: + x149 + x204 <= 1
C1595: + x87 + x116 <= 1
C1596: + x181 + x253 <= 1
C1597: + x47 + x54 <= 1
C1598: + x35 + x207 <= 1
C1599: + x7 + x16 <= 1
C1600: + x39 + x485 <= 1
C1601: + x125 + x485 <= 1
C1602: + x6 + x43 <= 1
C1603: + x1 + x213 <= 1
C1604: + x122 + x358 <= 1
C1605: + x244 + x463 <= 1
C1606: + x152 + x490 <= 1
C1607: + x8 + x37 <= 1
C1608: + x18 + x32 <= 1
C1609: + x458 + x465 <= 1
C1610: + x50 + x292 <= 1
C1611: + x294 + x368 <= 1
C1612: + x89 + x312 <= 1
C1613: + x35 + x131 <= 1
C1614: + x61 + x156 <= 1
C1615: + x110 + x266 <= 1
C1616: + x4 + x207 <= 1
C1617: + x188 + x446 <= 1
C1618: + x9 + x132 <= 1
C1619: + x10 + x28 <= 1
C1620: + x65 + x289 <= 1
C1621: + x58 + x498 <= 1
C1622: + x108 + x387 <= 1
C1623: + x73 + x417 <= 1
C1624: + x21 + x65 <= 1
C1625: + x12 + x417 <= 1
C1626: + x33 + x103 <= 1
C1627: + x61 + x240 <= 1
C1628: + x28 + x31 <= 1
C1629: + x19 + x74 <= 1
C1630: + x274 + x472 <= 1
C1631: + x15 + x216 <= 1
C1632: + x202 + x347 <= 1
C1633: + x205 + x309 <= 1
C1634: + x9 + x429 <= 1
C1635: + x16 + x474 <= 1
C1636: + x164 + x481 <= 1
C1637: + x76 + x138 <= 1
C1638: + x124 + x500 <= 1
C1639: + x287 + x350 <= 1
C1640: + x115 + x421 <= 1
C1641: + x329 + x415 <= 1
C1642: + x2 + x212 <= 1
C1643: + x30 + x142 <= 1
C1644: + x169 + x232 <= 1
C1645: + x9 + x60 <= 1
C1646: + x11 + x260 <= 1
C1647: + x314 + x427 <= 1
C1648: + x71 + x243 <= 1
C1649: + x7 + x51 <= 1
C1650: + x102 + x113 <= 1
C1651: + x192 + x394 <= 1
C1652: + x77 + x206 <= 1
C1653: + x60 + x144 <= 1
C1654: + x209 + x393 <= 1
C1655: + x7 + x224 <= 1
C1656: + x7 + x289 <= 1
C1657: + x86 + x362 <= 1
C1658: + x89 + x430 <= 1
C1659: + x2 + x267 <= 1
C1660: + x12 + x19 <= 1
C1661: + x18 + x496 <= 1
C1662: + x54 + x474 <= 1
C1663: + x11 + x102 <= 1
C1664: + x2 + x25 <= 1
C1665: + x22 + x86 <= 1
C1666: + x6 + x140 <= 1
C1667: + x10 + x201 <= 1
C1668: + x5 + x494 <= 1
C1669: + x3 + x58 <= 1
C1670: + x360 + x492 <= 1
C1671: + x5 + x131 <= 1
C1672: + x43 + x385 <= 1
C1673: + x11 + x170 <= 1
C1674: + x121 + x384 <= 1
C1675: + x233 + x346 <= 1
C1676: + x22 + x26 <= 1
C1677: + x5 + x40 <= 1
C1678: + x23 + x154 <= 1
C1679: + x301 + x388 <= 1
C1680: + x68 + x312 <= 1
C1681: + x77 + x104 <= 1
C1682: + x31 + x259 <= 1
C1683: + x61 + x170 <= 1
C1684: + x5 + x274 <= 1
C1685: + x7 + x54 <= 1
C1686: + x80 + x171 <= 1
C1687: + x319 + x364 <= 1
C1688: + x102 + x122 <= 1
C1689: + x284 + x331 <= 1
C1690: + x68 + x75 + x131 <= 1
C1691: + x15 + x150 <= 1
C1692: + x18 + x344 <= 1
C1693: + x134 + x471 <= 1
C1694: + x3 + x239 <= 1
C1695: + x46 + x59 <= 1
C1696: + x2 + x18 <= 1
C1697: + x68 + x86 <= 1
C1698: + x18 + x215 <= 1
C1699: + x1 + x11 <= 1
C1700: + x4 + x8 <= 1
C1701: + x60 + x99 <= 1
C1702: + x5 + x469 <= 1
C1703: + x69 + x96 <= 1
C1704: + x10 + x301 <= 1
C1705: + x46 + x76 <= 1
C1706: + x102 + x484 <= 1
C1707: + x48 + x343 <= 1
C1708: + x15 + x81 <= 1
C1709: + x9 + x312 <= 1
C1710: + x8 + x290 <= 1
C1711: + x149 + x309 <= 1
C1712: + x13 + x250 <= 1
C1713: + x34 + x274 <= 1
C1714: + x15 + x238 <= 1
C1715: + x239 + x475 <= 1
C1716: + x30 + x35 <= 1
C1717: + x42 + x133 <= 1
C1718: + x35 + x176 <= 1
C1719: + x235 + x280 <= 1
C1720: + x44 + x153 <= 1
C1721: + x51 + x75 <= 1
C1722: + x18 + x329 <= 1
C1723: + x27 + x79 <= 1
C1724: + x10 + x15 <= 1
C1725: + x346 + x401 <= 1
C1726: + x19 + x36 <= 1
C1727: + x13 + x46 <= 1
C1728: + x4 + x435 <= 1
C1729: + x54 + x113 <= 1
C1730: + x174 + x436 <= 1
C1731: + x2 + x424 <= 1
C1732: + x77 + x184 <= 1
C1733: + x52 + x309 <= 1
C1734: + x362 + x487 <= 1
C1735: + x5 + x226 <= 1
C1736: + x2 + x182 <= 1
C1737: + x60 + x437 <= 1
C1738: + x13 + x98 <= 1
C1739: + x234 + x463 <= 1
C1740: + x32 + x339 <= 1
C1741: + x46 + x69 <= 1
C1742: + x47 + x179 <= 1
C1743: + x85 + x98 <= 1
C1744: + x3 + x479 <= 1
C1745: + x3 + x12 <= 1
C1746: + x39 + x257 <= 1
C1747: + x7 + x149 <= 1
C1748: + x137 + x244 <= 1
C1749: + x19 + x103 <= 1
C1750: + x2 + x39 <= 1
C1751: + x58 + x66 <= 1
C1752: + x3 + x173 <= 1
C1753: + x1 + x177 <= 1
C1754: + x205 + x433 <= 1
C1755: + x10 + x433 <= 1
C1756: + x301 + x370 <= 1
C1757: + x100 + x146 <= 1
C1758: + x119 + x160 <= 1
C1759: + x140 + x367 <= 1
C1760: + x1 + x94 <= 1
C1761: + x178 + x294 <= 1
C1762: + x35 + x167 <= 1
C1763: + x4 + x299 <= 1
C1764: + x23 + x27 <= 1
C1765: + x6 + x51 <= 1
C1766: + x32 + x38 <= 1
C1767: + x9 + x192 <= 1
C1768: + x14 + x80 <= 1
C1769: + x19 + x27 <= 1
C1770: + x264 + x308 <= 1
C1771: + x38 + x346 <= 1
C1772: + x13 + x37 <= 1
C1773: + x95 + x306 <= 1
C1774: + x42 + x332 <= 1
C1775: + x6 + x289 <= 1
C1776: + x152 + x450 <= 1
C1777: + x35 + x379 <= 1
C1778: + x71 + x148 <= 1
C1779: + x128 + x396 <= 1
C1780: + x2 + x441 <= 1
C1781: + x20 + x381 <= 1
C1782: + x115 + x122 <= 1
C1783: + x4 + x215 <= 1
C1784: + x7 + x322 <= 1
C1785: + x1 + x25 <= 1
C1786: + x2 + x143 <= 1
C1787: + x223 + x311 <= 1
C1788: + x60 + x113 <= 1
C1789: + x43 + x217 <= 1
C1790: + x18 + x100 <= 1
C1791: + x308 + x442 <= 1
C1792: + x46 + x190 <= 1
C1793: + x59 + x232 <= 1
C1794: + x186 + x291 <= 1
C1795: + x288 + x310 <= 1
C1796: + x182 + x398 <= 1
C1797: + x15 + x256 <= 1
C1798: + x435 + x452 <= 1
C1799: + x102 + x359 <= 1
C1800: + x231 + x258 <= 1
C1801: + x386 + x495 <= 1
C1802: + x21 + x298 <= 1
C1803: + x23 + x30 <= 1
C1804: + x26 + x496 <= 1
C1805: + x9 + x167 <= 1
C1806: + x19 + x22 <= 1
C1807: + x110 + x213 <= 1
C1808: + x272 + x326 <= 1
C1809: + x12 + x212 <= 1
C1810: + x146 + x337 <= 1
C1811: + x59 + x397 <= 1
C1812: + x105 + x493 <= 1
C1813: + x150 + x322 <= 1
C1814: + x23 + x397 <= 1
C1815: + x2 + x101 <= 1
C1816: + x60 + x360 <= 1
C1817: + x262 + x443 <= 1
C1818: + x236 + x444 <= 1
C1819: + x9 + x147 <= 1
C1820: + x135 + x270 <= 1
C1821: + x11 + x251 <= 1
C1822: + x210 + x333 <= 1
C1823: + x68 + x488 <= 1
C1824: + x5 + x117 <= 1
C1825: + x206 + x235 <= 1
C1826: + x171 + x413 <= 1
C1827: + x37 + x158 <= 1
C1828: + x178 + x455 <= 1
C1829: + x22 + x475 <= 1
C1830: + x24 + x459 <= 1
C1831: + x19 + x400 <= 1
C1832: + x144 + x324 <= 1
C1833: + x433 + x483 <= 1
C1834: + x5 + x28 <= 1
C1835: + x6 + x148 <= 1
C1836: + x28 + x35 + x383 <= 1
C1837: + x13 + x76 <= 1
C1838: + x7 + x18 <= 1
C1839: + x11 + x388 <= 1
C1840: + x21 + x305 <= 1
C1841: + x204 + x430 <= 1
C1842: + x43 + x425 <= 1
C1843: + x140 + x238 <= 1
C1844: + x127 + x475 <= 1
C1845: + x1 + x219 <= 1
C1846: + x192 + x266 <= 1
C1847: + x86 + x279 <= 1
C1848: + x387 + x415 <= 1
C1849: + x24 + x169 <= 1
C1850: + x9 + x11 <= 1
C1851: + x19 + x178 <= 1
C1852: + x222 + x258 <= 1
C1853: + x196 + x362 <= 1
C1854: + x228 + x254 <= 1
C1855: + x12 + x346 <= 1
C1856: + x109 + x297 <= 1
C1857: + x16 + x237 <= 1
C1858: + x19 + x193 <= 1
C1859: + x11 + x230 <= 1
C1860: + x48 + x89 <= 1
C1861: + x4 + x100 <= 1
C1862: + x328 + x494 <= 1
C1863: + x60 + x238 <= 1
C1864: + x7 + x122 <= 1
C1865: + x19 + x84 <= 1
C1866: + x68 + x126 <= 1
C1867: + x4 + x241 <= 1
C1868: + x61 + x443 <= 1
C1869: + x31 + x116 <= 1
C1870: + x125 + x379 <= 1
C1871: + x82 + x303 <= 1
C1872: + x20 + x182 <= 1
C1873: + x115 + x334 <= 1
C1874: + x7 + x9 <= 1
C1875: + x19 + x282 <= 1
C1876: + x430 + x453 <= 1
C1877: + x4 + x258 <= 1
C1878: + x23 + x48 <= 1
C1879: + x33 + x57 <= 1
C1880: + x121 + x367 <= 1
C1881: + x4 + x189 <= 1
C1882: + x53 + x73 <= 1
C1883: + x133 + x161 <= 1
C1884: + x209 + x242 <= 1
C1885: + x199 + x261 <= 1
C1886: + x176 + x186 <= 1
C1887: + x215 + x316 <= 1
C1888: + x343 + x365 <= 1
C1889: + x117 + x323 <= 1
C1890: + x9 + x129 <= 1
C1891: + x10 + x23 <= 1
C1892: + x65 + x302 <= 1
C1893: + x29 + x196 <= 1
C1894: + x4 + x105 <= 1
C1895: + x78 + x391 <= 1
C1896: + x34 + x326 <= 1
C1897: + x24 + x118 <= 1
C1898: + x82 + x407 <= 1
C1899: + x15 + x411 <= 1
C1900: + x218 + x271 <= 1
C1901: + x1 + x395 <= 1
C1902: + x110 + x414 <= 1
C1903: + x288 + x289 <= 1
C1904: + x135 + x399 <= 1
C1905: + x43 + x268 <= 1
C1906: + x226 + x493 <= 1
C1907: + x34 + x311 <= 1
C1908: + x300 + x489 <= 1
C1909: + x287 + x464 <= 1
C1910: + x19 + x240 <= 1
C1911: + x1 + x455 <= 1
C1912: + x135 + x213 <= 1
C1913: + x103 + x451 <= 1
C1914: + x107 + x256 <= 1
C1915: + x125 + x326 <= 1
C1916: + x162 + x377 <= 1
C1917: + x18 + x20 <= 1
C1918: + x5 + x62 <= 1
C1919: + x165 + x327 <= 1
C1920: + x116 + x169 <= 1
C1921: + x134 + x352 <= 1
C1922: + x39 + x364 <= 1
C1923: + x85 + x260 <= 1
C1924: + x48 + x309 <= 1
C1925: + x226 + x284 <= 1
C1926: + x7 + x64 <= 1
C1927: + x113 + x386 <= 1
C1928: + x420 + x457 <= 1
C1929: + x39 + x469 <= 1
C1930: + x70 + x336 <= 1
C1931: + x372 + x397 <= 1
C1932: + x16 + x264 <= 1
C1933: + x279 + x424 <= 1
C1934: + x48 + x111 <= 1
C1935: + x4 + x82 <= 1
C1936: + x13 + x23 + x224 <= 1
C1937: + x225 + x425 <= 1
C1938: + x26 + x29 <= 1
C1939: + x32 + x320 <= 1
C1940: + x18 + x80 <= 1
C1941: + x192 + x228 <= 1
C1942: + x29 + x128 <= 1
C1943: + x130 + x377 <= 1
C1944: + x43 + x82 <= 1
C1945: + x128 + x404 <= 1
C1946: + x291 + x374 <= 1
C1947: + x101 + x176 <= 1
C1948: + x38 + x307 <= 1
C1949: + x264 + x345 <= 1
C1950: + x12 + x260 <= 1
C1951: + x105 + x299 <= 1
C1952: + x159 + x183 <= 1
C1953: + x31 + x159 <= 1
C1954: + x5 + x483 <= 1
C1955: + x35 + x198 <= 1
C1956: + x1 + x478 <= 1
C1957: + x411 + x499 <= 1

binary
x1 x2 x3 x4 x5 x6 x7 x8 x9 x10 x11 x12 x13 x14 x15 x16 x17 x18 x19 x20 x21 x22 x23 x24 x25 x26 x27 x28 x29 x30 x31 x32 x33 x34 x35 x36 x37 x38 x39 x40 x41 x42 x43 x44 x45 x46 x47 x48 x49 x50 x51 x52 x53 x54 x55 x56 x57 x58 x59 x60 x61 x62 x63 x64 x65 x66 x67 x68 x69 x70 x71 x72 x73 x74 x75 x76 x77 x78 x79 x80 x81 x82 x83 x84 x85 x86 x87 x88 x89 x90 x91 x92 x93 x94 x95 x96 x97 x98 x99 x100 x101 x102 x103 x104 x105 x106 x107 x108 x109 x110 x111 x112 x113 x114 x115 x116 x117 x118 x119 x120 x121 x122 x123 x124 x125 x126 x127 x128 x129 x130 x131 x132 x133 x134 x135 x136 x137 x138 x139 x140 x141 x142 x143 x144 x145 x146 x147 x148 x149 x150 x151 x152 x153 x154 x155 x156 x157 x158 x159 x160 x161 x162 x163 x164 x165 x166 x167 x168 x169 x170 x171 x172 x173 x174 x175 x176 x177 x178 x179 x180 x181 x182 x183 x184 x185 x186 x187 x188 x189 x190 x191 x192 x193 x194 x195 x196 x197 x198 x199 x200 x201 x202 x203 x204 x205 x206 x207 x208 x209 x210 x211 x212 x213 x214 x215 x216 x217 x218 x219 x220 x221 x222 x223 x224 x225 x226 x227 x228 x229 x230 x231 x232 x233 x234 x235 x236 x237 x238 x239 x240 x241 x242 x243 x244 x245 x246 x247 x248 x249 x250 x251 x252 x253 x254 x255 x256 x257 x258 x259 x260 x261 x262 x263 x264 x265 x266 x267 x268 x269 x270 x271 x272 x273 x274 x275 x276 x277 x278 x279 x280 x281 x282 x283 x284 x285 x286 x287 x288 x289 x290 x291 x292 x293 x294 x295 x296 x297 x298 x299 x300 x301 x302 x303 x304 x305 x306 x307 x308 x309 x310 x311 x312 x313 x314 x315 x316 x317 x318 x319 x320 x321 x322 x323 x324 x325 x326 x327 x328 x329 x330 x331 x332 x333 x334 x335 x336 x337 x338 x339 x340 x341 x342 x343 x344 x345 x346 x347 x348 x349 x350 x351 x352 x353 x354 x355 x356 x357 x358 x359 x360 x361 x362 x363 x364 x365 x366 x367 x368 x369 x370 x371 x372 x373 x374 x375 x376 x377 x378 x379 x380 x381 x382 x383 x384 x385 x386 x387 x388 x389 x390 x391 x392 x393 x394 x395 x396 x397 x398 x399 x400 x401 x402 x403 x404 x405 x406 x407 x408 x409 x410 x411 x412 x413 x414 x415 x416 x417 x418 x419 x420 x421 x422 x423 x424 x425 x426 x427 x428 x429 x430 x431 x432 x433 x434 x435 x436 x437 x438 x439 x440 x441 x442 x443 x444 x445 x446 x447 x448 x449 x450 x451 x452 x453 x454 x455 x456 x457 x458 x459 x460 x461 x462 x463 x464 x465 x466 x467 x468 x469 x470 x471 x472 x473 x474 x475 x476 x477 x478 x479 x480 x481 x482 x483 x484 x485 x486 x487 x488 x489 x490 x491 x492 x493 x494 x495 x496 x497 x498 x499 x500
