maximize
OBJ: + 1 x1 + 1 x2 + 1 x3 + 1 x4 + 1 x5 + 1 x6 + 1 x7 + 1 x8 + 1 x9 + 1 x10 + 1 x11 + 1 x12 + 1 x13 + 1 x14 + 1 x15 + 1 x16 + 1 x17 + 1 x18 + 1 x19 + 1 x20 + 1 x21 + 1 x22 + 1 x23 + 1 x24 + 1 x25 + 1 x26 + 1 x27 + 1 x28 + 1 x29 + 1 x30 + 1 x31 + 1 x32 + 1 x33 + 1 x34 + 1 x35 + 1 x36 + 1 x37 + 1 x38 + 1 x39 + 1 x40 + 1 x41 + 1 x42 + 1 x43 + 1 x44 + 1 x45 + 1 x46 + 1 x47 + 1 x48 + 1 x49 + 1 x50 + 1 x51 + 1 x52 + 1 x53 + 1 x54 + 1 x55 + 1 x56 + 1 x57 + 1 x58 + 1 x59 + 1 x60 + 1 x61 + 1 x62 + 1 x63 + 1 x64 + 1 x65 + 1 x66 + 1 x67 + 1 x68 + 1 x69 + 1 x70 + 1 x71 + 1 x72 + 1 x73 + 1 x74 + 1 x75 + 1 x76 + 1 x77 + 1 x78 + 1 x79 + 1 x80 + 1 x81 + 1 x82 + 1 x83 + 1 x84 + 1 x85 + 1 x86 + 1 x87 + 1 x88 + 1 x89 + 1 x90 + 1 x91 + 1 x92 + 1 x93 + 1 x94 + 1 x95 + 1 x96 + 1 x97 + 1 x98 + 1 x99 + 1 x100 + 1 x101 + 1 x102 + 1 x103 + 1 x104 + 1 x105 + 1 x106 + 1 x107 + 1 x108 + 1 x109 + 1 x110 + 1 x111 + 1 x112 + 1 x113 + 1 x114 + 1 x115 + 1 x116 + 1 x117 + 1 x118 + 1 x119 + 1 x120 + 1 x121 + 1 x122 + 1 x123 + 1 x124 + 1 x125 + 1 x126 + 1 x127 + 1 x128 + 1 x129 + 1 x130 + 1 x131 + 1 x132 + 1 x133 + 1 x134 + 1 x135 + 1 x136 + 1 x137 + 1 x138 + 1 x139 + 1 x140 + 1 x141 + 1 x142 + 1 x143 + 1 x144 + 1 x145 + 1 x146 + 1 x147 + 1 x148 + 1 x149 + 1 x150 + 1 x151 + 1 x152 + 1 x153 + 1 x154 + 1 x155 + 1 x156 + 1 x157 + 1 x158 + 1 x159 + 1 x160 + 1 x161 + 1 x162 + 1 x163 + 1 x164 + 1 x165 + 1 x166 + 1 x167 + 1 x168 + 1 x169 + 1 x170 + 1 x171 + 1 x172 + 1 x173 + 1 x174 + 1 x175 + 1 x176 + 1 x177 + 1 x178 + 1 x179 + 1 x180 + 1 x181 + 1 x182 + 1 x183 + 1 x184 + 1 x185 + 1 x186 + 1 x187 + 1 x188 + 1 x189 + 1 x190 + 1 x191 + 1 x192 + 1 x193 + 1 x194 + 1 x195 + 1 x196 + 1 x197 + 1 x198 + 1 x199 + 1 x200 + 1 x201 + 1 x202 + 1 x203 + 1 x204 + 1 x205 + 1 x206 + 1 x207 + 1 x208 + 1 x209 + 1 x210 + 1 x211 + 1 x212 + 1 x213 + 1 x214 + 1 x215 + 1 x216 + 1 x217 + 1 x218 + 1 x219 + 1 x220 + 1 x221 + 1 x222 + 1 x223 + 1 x224 + 1 x225 + 1 x226 + 1 x227 + 1 x228 + 1 x229 + 1 x230 + 1 x231 + 1 x232 + 1 x233 + 1 x234 + 1 x235 + 1 x236 + 1 x237 + 1 x238 + 1 x239 + 1 x240 + 1 x241 + 1 x242 + 1 x243 + 1 x244 + 1 x245 + 1 x246 + 1 x247 + 1 x248 + 1 x249 + 1 x250 + 1 x251 + 1 x252 + 1 x253 + 1 x254 + 1 x255 + 1 x256 + 1 x257 + 1 x258 + 1 x259 + 1 x260 + 1 x261 + 1 x262 + 1 x263 + 1 x264 + 1 x265 + 1 x266 + 1 x267 + 1 x268 + 1 x269 + 1 x270 + 1 x271 + 1 x272 + 1 x273 + 1 x274 + 1 x275 + 1 x276 + 1 x277 + 1 x278 + 1 x279 + 1 x280 + 1 x281 + 1 x282 + 1 x283 + 1 x284 + 1 x285 + 1 x286 + 1 x287 + 1 x288 + 1 x289 + 1 x290 + 1 x291 + 1 x292 + 1 x293 + 1 x294 + 1 x295 + 1 x296 + 1 x297 + 1 x298 + 1 x299 + 1 x300 + 1 x301 + 1 x302 + 1 x303 + 1 x304 + 1 x305 + 1 x306 + 1 x307 + 1 x308 + 1 x309 + 1 x310 + 1 x311 + 1 x312 + 1 x313 + 1 x314 + 1 x315 + 1 x316 + 1 x317 + 1 x318 + 1 x319 + 1 x320 + 1 x321 + 1 x322 + 1 x323 + 1 x324 + 1 x325 + 1 x326 + 1 x327 + 1 x328 + 1 x329 + 1 x330 + 1 x331 + 1 x332 + 1 x333 + 1 x334 + 1 x335 + 1 x336 + 1 x337 + 1 x338 + 1 x339 + 1 x340 + 1 x341 + 1 x342 + 1 x343 + 1 x344 + 1 x345 + 1 x346 + 1 x347 + 1 x348 + 1 x349 + 1 x350 + 1 x351 + 1 x352 + 1 x353 + 1 x354 + 1 x355 + 1 x356 + 1 x357 + 1 x358 + 1 x359 + 1 x360 + 1 x361 + 1 x362 + 1 x363 + 1 x364 + 1 x365 + 1 x366 + 1 x367 + 1 x368 + 1 x369 + 1 x370 + 1 x371 + 1 x372 + 1 x373 + 1 x374 + 1 x375 + 1 x376 + 1 x377 + 1 x378 + 1 x379 + 1 x380 + 1 x381 + 1 x382 + 1 x383 + 1 x384 + 1 x385 + 1 x386 + 1 x387 + 1 x388 + 1 x389 + 1 x390 + 1 x391 + 1 x392 + 1 x393 + 1 x394 + 1 x395 + 1 x396 + 1 x397 + 1 x398 + 1 x399 + 1 x400 + 1 x401 + 1 x402 + 1 x403 + 1 x404 + 1 x405 + 1 x406 + 1 x407 + 1 x408 + 1 x409 + 1 x410 + 1 x411 + 1 x412 + 1 x413 + 1 x414 + 1 x415 + 1 x416 + 1 x417 + 1 x418 + 1 x419 + 1 x420 + 1 x421 + 1 x422 + 1 x423 + 1 x424 + 1 x425 + 1 x426 + 1 x427 + 1 x428 + 1 x429 + 1 x430 + 1 x431 + 1 x432 + 1 x433 + 1 x434 + 1 x435 + 1 x436 + 1 x437 + 1 x438 + 1 x439 + 1 x440 + 1 x441 + 1 x442 + 1 x443 + 1 x444 + 1 x445 + 1 x446 + 1 x447 + 1 x448 + 1 x449 + 1 x450 + 1 x451 + 1 x452 + 1 x453 + 1 x454 + 1 x455 + 1 x456 + 1 x457 + 1 x458 + 1 x459 + 1 x460 + 1 x461 + 1 x462 + 1 x463 + 1 x464 + 1 x465 + 1 x466 + 1 x467 + 1 x468 + 1 x469 + 1 x470 + 1 x471 + 1 x472 + 1 x473 + 1 x474 + 1 x475 + 1 x476 + 1 x477 + 1 x478 + 1 x479 + 1 x480 + 1 x481 + 1 x482 + 1 x483 + 1 x484 + 1 x485 + 1 x486 + 1 x487 + 1 x488 + 1 x489 + 1 x490 + 1 x491 + 1 x492 + 1 x493 + 1 x494 + 1 x495 + 1 x496 + 1 x497 + 1 x498 + 1 x499 + 1 x500

subject to
C1: + x10 + x85 <= 1
C2: + x18 + x21 <= 1
C3: + x8 + x26 <= 1
C4: + x20 + x144 <= 1
C5: + x12 + x91 <= 1
C6: + x25 + x67 <= 1
C7: + x160 + x355 <= 1
C8: + x209 + x240 <= 1
C9: + x170 + x466 <= 1
C10: + x264 + x414 <= 1
C11: + x181 + x187 <= 1
C12: + x290 + x406 <= 1
C13: + x56 + x81 <= 1
C14: + x33 + x368 <= 1
C15: + x179 + x195 <= 1
C16: + x150 + x471 <= 1
C17: + x1 + x409 <= 1
C18: + x13 + x294 <= 1
C19: + x43 + x89 <= 1
C20: + x6 + x85 <= 1
C21: + x100 + x394 <= 1
C22: + x88 + x175 <= 1
C23: + x11 + x98 <= 1
C24: + x3 + x131 <= 1
C25: + x34 + x449 <= 1
C26: + x90 + x343 <= 1
C27: + x16 + x144 <= 1
C28: + x45 + x87 <= 1
C29: + x112 + x124 <= 1
C30: + x294 + x298 <= 1
C31: + x187 + x303 <= 1
C32: + x50 + x358 <= 1
C33: + x124 + x290 <= 1
C34: + x2 + x41 <= 1
C35: + x132 + x276 <= 1
C36: + x126 + x324 <= 1
C37: + x180 + x225 <= 1
C38: + x245 + x467 <= 1
C39: + x50 + x229 <= 1
C40: + x100 + x451 <= 1
C41: + x430 + x484 <= 1
C42: + x73 + x374 <= 1
C43: + x31 + x221 <= 1
C44: + x197 + x280 <= 1
C45: + x9 + x19 <= 1
C46: + x330 + x475 <= 1
C47: + x2 + x22 <= 1
C48: + x365 + x387 <= 1
C49: + x41 + x473 <= 1
C50: + x5 + x231 <= 1
C51: + x99 + x138 <= 1
C52: + x154 + x339 <= 1
C53: + x1 + x15 <= 1
C54: + x146 + x414 <= 1
C55: + x20 + x210 <= 1
C56: + x83 + x409 <= 1
C57: + x4 + x12 <= 1
C58: + x22 + x361 <= 1
C59: + x5 + x465 <= 1
C60: + x65 + x463 <= 1
C61: + x178 + x373 <= 1
C62: + x13 + x436 <= 1
C63: + x129 + x145 <= 1
C64: + x20 + x45 <= 1
C65: + x33 + x69 <= 1
C66: + x78 + x148 <= 1
C67: + x43 + x120 <= 1
C68: + x1 + x329 <= 1
C69: + x2 + x34 <= 1
C70: + x5 + x43 <= 1
C71: + x39 + x204 <= 1
C72: + x70 + x136 <= 1
C73: + x24 + x41 <= 1
C74: + x7 + x33 <= 1
C75: + x220 + x238 <= 1
C76: + x55 + x404 <= 1
C77: + x56 + x260 <= 1
C78: + x50 + x121 <= 1
C79: + x42 + x44 <= 1
C80: + x17 + x443 <= 1
C81: + x12 + x218 <= 1
C82: + x303 + x323 <= 1
C83: + x213 + x453 <= 1
C84: + x52 + x127 <= 1
C85: + x189 + x217 <= 1
C86: + x121 + x180 <= 1
C87: + x204 + x268 <= 1
C88: + x39 + x329 <= 1
C89: + x351 + x463 <= 1
C90: + x14 + x420 <= 1
C91: + x55 + x123 <= 1
C92: + x50 + x53 <= 1
C93: + x13 + x185 <= 1
C94: + x86 + x233 <= 1
C95: + x141 + x313 <= 1
C96: + x360 + x389 <= 1
C97: + x163 + x183 <= 1
C98: + x261 + x315 <= 1
C99: + x83 + x404 <= 1
C100: + x379 + x456 <= 1
C101: + x6 + x472 <= 1
C102: + x16 + x49 <= 1
C103: + x3 + x475 <= 1
C104: + x3 + x8 <= 1
C105: + x15 + x96 <= 1
C106: + x58 + x70 <= 1
C107: + x162 + x210 <= 1
C108: + x15 + x302 <= 1
C109: + x228 + x425 <= 1
C110: + x58 + x417 <= 1
C111: + x86 + x416 <= 1
C112: + x14 + x489 <= 1
C113: + x5 + x260 <= 1
C114: + x151 + x359 <= 1
C115: + x83 + x105 <= 1
C116: + x149 + x175 <= 1
C117: + x77 + x247 <= 1
C118: + x10 + x60 <= 1
C119: + x455 + x488 <= 1
C120: + x20 + x276 <= 1
C121: + x23 + x252 <= 1
C122: + x43 + x328 <= 1
C123: + x137 + x470 <= 1
C124: + x8 + x30 + x314 <= 1
C125: + x340 + x409 <= 1
C126: + x22 + x266 <= 1
C127: + x20 + x385 <= 1
C128: + x35 + x476 <= 1
C129: + x47 + x93 <= 1
C130: + x29 + x243 <= 1
C131: + x320 + x332 <= 1
C132: + x90 + x453 <= 1
C133: + x38 + x424 <= 1
C134: + x60 + x212 <= 1
C135: + x22 + x478 <= 1
C136: + x1 + x140 <= 1
C137: + x57 + x345 <= 1
C138: + x10 + x113 <= 1
C139: + x26 + x323 <= 1
C140: + x120 + x281 <= 1
C141: + x21 + x28 <= 1
C142: + x34 + x54 <= 1
C143: + x351 + x397 <= 1
C144: + x73 + x121 <= 1
C145: + x24 + x63 <= 1
C146: + x429 + x449 <= 1
C147: + x4 + x280 <= 1
C148: + x22 + x418 <= 1
C149: + x43 + x430 <= 1
C150: + x10 + x61 <= 1
C151: + x1 + x200 <= 1
C152: + x2 + x208 <= 1
C153: + x54 + x393 <= 1
C154: + x35 + x45 <= 1
C155: + x19 + x179 <= 1
C156: + x135 + x375 <= 1
C157: + x193 + x234 <= 1
C158: + x115 + x268 <= 1
C159: + x180 + x479 <= 1
C160: + x84 + x147 <= 1
C161: + x108 + x166 <= 1
C162: + x1 + x20 <= 1
C163: + x56 + x73 <= 1
C164: + x214 + x265 <= 1
C165: + x443 + x451 <= 1
C166: + x35 + x225 <= 1
C167: + x9 + x116 <= 1
C168: + x67 + x365 <= 1
C169: + x51 + x64 <= 1
C170: + x9 + x465 <= 1
C171: + x1 + x131 <= 1
C172: + x10 + x122 <= 1
C173: + x123 + x400 <= 1
C174: + x5 + x8 <= 1
C175: + x207 + x395 <= 1
C176: + x44 + x101 <= 1
C177: + x107 + x198 <= 1
C178: + x13 + x72 <= 1
C179: + x22 + x344 <= 1
C180: + x109 + x468 <= 1
C181: + x17 + x432 <= 1
C182: + x145 + x245 <= 1
C183: + x11 + x190 <= 1
C184: + x34 + x373 <= 1
C185: + x43 + x330 <= 1
C186: + x23 + x319 <= 1
C187: + x73 + x463 <= 1
C188: + x282 + x369 <= 1
C189: + x9 + x492 <= 1
C190: + x83 + x143 <= 1
C191: + x10 + x484 <= 1
C192: + x374 + x446 <= 1
C193: + x2 + x399 <= 1
C194: + x12 + x350 <= 1
C195: + x232 + x357 <= 1
C196: + x217 + x335 <= 1
C197: + x15 + x130 <= 1
C198: + x22 + x127 <= 1
C199: + x17 + x20 + x447 <= 1
C200: + x37 + x292 <= 1
C201: + x49 + x53 <= 1
C202: + x197 + x245 <= 1
C203: + x17 + x78 <= 1
C204: + x152 + x424 <= 1
C205: + x18 + x82 <= 1
C206: + x66 + x128 <= 1
C207: + x47 + x381 <= 1
C208: + x76 + x168 <= 1
C209: + x405 + x474 <= 1
C210: + x199 + x318 <= 1
C211: + x48 + x470 <= 1
C212: + x5 + x15 <= 1
C213: + x35 + x107 <= 1
C214: + x228 + x480 <= 1
C215: + x11 + x214 <= 1
C216: + x1 + x39 <= 1
C217: + x93 + x112 <= 1
C218: + x37 + x280 <= 1
C219: + x55 + x362 <= 1
C220: + x253 + x462 <= 1
C221: + x7 + x13 <= 1
C222: + x20 + x21 <= 1
C223: + x341 + x433 <= 1
C224: + x86 + x284 <= 1
C225: + x22 + x23 <= 1
C226: + x380 + x400 <= 1
C227: + x201 + x267 <= 1
C228: + x46 + x241 <= 1
C229: + x113 + x157 <= 1
C230: + x39 + x164 <= 1
C231: + x311 + x495 <= 1
C232: + x303 + x444 <= 1
C233: + x17 + x54 <= 1
C234: + x208 + x296 <= 1
C235: + x13 + x349 <= 1
C236: + x132 + x178 <= 1
C237: + x259 + x495 <= 1
C238: + x45 + x484 <= 1
C239: + x373 + x430 <= 1
C240: + x213 + x429 <= 1
C241: + x26 + x32 <= 1
C242: + x156 + x499 <= 1
C243: + x12 + x29 <= 1
C244: + x21 + x66 <= 1
C245: + x112 + x448 <= 1
C246: + x27 + x297 <= 1
C247: + x30 + x377 <= 1
C248: + x96 + x181 <= 1
C249: + x6 + x349 <= 1
C250: + x315 + x470 <= 1
C251: + x47 + x159 <= 1
C252: + x172 + x356 <= 1
C253: + x1 + x360 <= 1
C254: + x75 + x112 <= 1
C255: + x35 + x58 <= 1
C256: + x10 + x179 <= 1
C257: + x12 + x90 <= 1
C258: + x12 + x493 <= 1
C259: + x5 + x300 <= 1
C260: + x44 + x174 <= 1
C261: + x344 + x389 <= 1
C262: + x84 + x371 <= 1
C263: + x2 + x68 <= 1
C264: + x12 + x332 <= 1
C265: + x69 + x180 <= 1
C266: + x22 + x385 <= 1
C267: + x17 + x330 <= 1
C268: + x43 + x459 <= 1
C269: + x16 + x255 <= 1
C270: + x30 + x193 <= 1
C271: + x116 + x249 <= 1
C272: + x44 + x59 <= 1
C273: + x82 + x388 <= 1
C274: + x63 + x192 <= 1
C275: + x17 + x188 <= 1
C276: + x123 + x139 <= 1
C277: + x30 + x431 <= 1
C278: + x175 + x452 <= 1
C279: + x21 + x390 <= 1
C280: + x65 + x344 <= 1
C281: + x2 + x32 <= 1
C282: + x122 + x299 <= 1
C283: + x49 + x434 <= 1
C284: + x35 + x125 <= 1
C285: + x7 + x350 <= 1
C286: + x69 + x389 <= 1
C287: + x69 + x247 <= 1
C288: + x6 + x28 <= 1
C289: + x10 + x89 <= 1
C290: + x49 + x494 <= 1
C291: + x31 + x46 <= 1
C292: + x176 + x219 <= 1
C293: + x24 + x261 <= 1
C294: + x9 + x36 <= 1
C295: + x19 + x151 <= 1
C296: + x280 + x294 <= 1
C297: + x167 + x428 <= 1
C298: + x103 + x127 <= 1
C299: + x67 + x139 <= 1
C300: + x13 + x339 <= 1
C301: + x14 + x93 <= 1
C302: + x15 + x155 <= 1
C303: + x203 + x307 <= 1
C304: + x96 + x247 <= 1
C305: + x189 + x309 <= 1
C306: + x33 + x356 <= 1
C307: + x7 + x454 <= 1
C308: + x147 + x408 <= 1
C309: + x96 + x264 <= 1
C310: + x134 + x172 <= 1
C311: + x1 + x314 <= 1
C312: + x65 + x250 <= 1
C313: + x335 + x447 <= 1
C314: + x265 + x492 <= 1
C315: + x67 + x95 <= 1
C316: + x169 + x171 <= 1
C317: + x23 + x70 <= 1
C318: + x354 + x464 <= 1
C319: + x207 + x487 <= 1
C320: + x100 + x192 <= 1
C321: + x37 + x269 <= 1
C322: + x34 + x235 <= 1
C323: + x324 + x465 <= 1
C324: + x84 + x309 <= 1
C325: + x48 + x338 <= 1
C326: + x34 + x438 <= 1
C327: + x83 + x228 <= 1
C328: + x86 + x311 <= 1
C329: + x5 + x48 <= 1
C330: + x26 + x167 <= 1
C331: + x10 + x189 <= 1
C332: + x5 + x282 <= 1
C333: + x253 + x431 <= 1
C334: + x2 + x94 <= 1
C335: + x55 + x413 <= 1
C336: + x51 + x76 <= 1
C337: + x5 + x191 <= 1
C338: + x172 + x209 <= 1
C339: + x227 + x424 <= 1
C340: + x2 + x249 <= 1
C341: + x11 + x134 <= 1
C342: + x103 + x211 <= 1
C343: + x9 + x23 <= 1
C344: + x28 + x275 <= 1
C345: + x18 + x62 <= 1
C346: + x50 + x258 <= 1
C347: + x114 + x405 <= 1
C348: + x424 + x436 <= 1
C349: + x224 + x292 <= 1
C350: + x254 + x379 <= 1
C351: + x8 + x88 <= 1
C352: + x56 + x122 <= 1
C353: + x231 + x468 <= 1
C354: + x76 + x398 <= 1
C355: + x33 + x252 <= 1
C356: + x9 + x67 <= 1
C357: + x63 + x150 <= 1
C358: + x3 + x9 <= 1
C359: + x33 + x89 <= 1
C360: + x23 + x464 <= 1
C361: + x6 + x14 <= 1
C362: + x99 + x117 <= 1
C363: + x24 + x440 <= 1
C364: + x10 + x75 <= 1
C365: + x34 + x79 <= 1
C366: + x1 + x333 <= 1
C367: + x75 + x153 <= 1
C368: + x148 + x195 <= 1
C369: + x95 + x267 <= 1
C370: + x17 + x304 <= 1
C371: + x108 + x310 <= 1
C372: + x180 + x311 <= 1
C373: + x133 + x407 <= 1
C374: + x8 + x12 <= 1
C375: + x20 + x162 <= 1
C376: + x7 + x37 <= 1
C377: + x92 + x443 <= 1
C378: + x64 + x361 <= 1
C379: + x149 + x164 <= 1
C380: + x75 + x77 <= 1
C381: + x211 + x293 <= 1
C382: + x157 + x164 <= 1
C383: + x353 + x359 <= 1
C384: + x43 + x150 <= 1
C385: + x10 + x146 <= 1
C386: + x200 + x256 <= 1
C387: + x75 + x418 <= 1
C388: + x12 + x57 <= 1
C389: + x231 + x380 <= 1
C390: + x134 + x158 <= 1
C391: + x101 + x268 <= 1
C392: + x2 + x448 <= 1
C393: + x2 + x99 <= 1
C394: + x58 + x126 <= 1
C395: + x10 + x461 <= 1
C396: + x7 + x254 <= 1
C397: + x157 + x376 <= 1
C398: + x9 + x74 <= 1
C399: + x90 + x99 <= 1
C400: + x262 + x450 <= 1
C401: + x65 + x132 <= 1
C402: + x8 + x279 <= 1
C403: + x19 + x95 <= 1
C404: + x74 + x308 <= 1
C405: + x126 + x338 <= 1
C406: + x152 + x262 <= 1
C407: + x280 + x305 <= 1
C408: + x2 + x346 <= 1
C409: + x64 + x104 <= 1
C410: + x247 + x473 <= 1
C411: + x30 + x52 <= 1
C412: + x172 + x477 <= 1
C413: + x18 + x141 <= 1
C414: + x154 + x277 <= 1
C415: + x69 + x309 <= 1
C416: + x5 + x66 <= 1
C417: + x43 + x157 <= 1
C418: + x5 + x415 <= 1
C419: + x94 + x477 <= 1
C420: + x12 + x50 <= 1
C421: + x41 + x217 <= 1
C422: + x133 + x180 <= 1
C423: + x8 + x348 <= 1
C424: + x66 + x241 <= 1
C425: + x42 + x477 <= 1
C426: + x192 + x248 <= 1
C427: + x12 + x143 <= 1
C428: + x13 + x17 <= 1
C429: + x17 + x84 <= 1
C430: + x290 + x364 <= 1
C431: + x6 + x477 <= 1
C432: + x86 + x111 <= 1
C433: + x12 + x433 <= 1
C434: + x243 + x270 <= 1
C435: + x79 + x235 <= 1
C436: + x74 + x226 <= 1
C437: + x90 + x135 <= 1
C438: + x15 + x313 <= 1
C439: + x45 + x116 <= 1
C440: + x2 + x339 <= 1
C441: + x213 + x360 <= 1
C442: + x110 + x479 <= 1
C443: + x123 + x500 <= 1
C444: + x39 + x496 <= 1
C445: + x180 + x438 <= 1
C446: + x73 + x218 <= 1
C447: + x95 + x289 <= 1
C448: + x98 + x184 <= 1
C449: + x5 + x390 <= 1
C450: + x133 + x457 <= 1
C451: + x317 + x408 <= 1
C452: + x10 + x132 <= 1
C453: + x321 + x366 <= 1
C454: + x18 + x33 <= 1
C455: + x89 + x303 <= 1
C456: + x43 + x57 <= 1
C457: + x1 + x262 <= 1
C458: + x156 + x191 <= 1
C459: + x172 + x244 <= 1
C460: + x1 + x24 <= 1
C461: + x128 + x171 <= 1
C462: + x179 + x215 <= 1
C463: + x15 + x401 <= 1
C464: + x7 + x478 <= 1
C465: + x263 + x295 <= 1
C466: + x68 + x194 <= 1
C467: + x132 + x213 <= 1
C468: + x90 + x109 <= 1
C469: + x160 + x187 <= 1
C470: + x63 + x108 <= 1
C471: + x9 + x10 + x13 <= 1
C472: + x2 + x9 <= 1
C473: + x12 + x277 <= 1
C474: + x162 + x232 <= 1
C475: + x9 + x199 <= 1
C476: + x32 + x381 <= 1
C477: + x35 + x177 <= 1
C478: + x182 + x272 <= 1
C479: + x78 + x239 <= 1
C480: + x76 + x126 <= 1
C481: + x41 + x42 <= 1
C482: + x185 + x357 <= 1
C483: + x194 + x336 <= 1
C484: + x10 + x133 <= 1
C485: + x219 + x370 <= 1
C486: + x166 + x343 <= 1
C487: + x312 + x412 <= 1
C488: + x48 + x303 <= 1
C489: + x153 + x427 <= 1
C490: + x156 + x321 <= 1
C491: + x203 + x262 <= 1
C492: + x268 + x485 <= 1
C493: + x80 + x122 <= 1
C494: + x2 + x145 <= 1
C495: + x177 + x254 <= 1
C496: + x43 + x179 <= 1
C497: + x155 + x454 <= 1
C498: + x12 + x28 <= 1
C499: + x131 + x218 <= 1
C500: + x190 + x261 <= 1
C501: + x75 + x189 <= 1
C502: + x103 + x134 <= 1
C503: + x12 + x270 <= 1
C504: + x87 + x117 <= 1
C505: + x5 + x11 <= 1
C506: + x41 + x130 <= 1
C507: + x50 + x363 <= 1
C508: + x86 + x439 <= 1
C509: + x13 + x392 <= 1
C510: + x11 + x435 <= 1
C511: + x139 + x153 <= 1
C512: + x296 + x305 <= 1
C513: + x96 + x128 <= 1
C514: + x43 + x317 <= 1
C515: + x32 + x426 <= 1
C516: + x73 + x87 <= 1
C517: + x74 + x169 <= 1
C518: + x14 + x39 <= 1
C519: + x34 + x499 <= 1
C520: + x12 + x182 <= 1
C521: + x22 + x231 <= 1
C522: + x34 + x129 <= 1
C523: + x25 + x236 <= 1
C524: + x121 + x160 <= 1
C525: + x47 + x215 <= 1
C526: + x12 + x17 <= 1
C527: + x320 + x450 <= 1
C528: + x404 + x499 <= 1
C529: + x9 + x451 <= 1
C530: + x143 + x241 <= 1
C531: + x2 + x27 <= 1
C532: + x215 + x272 <= 1
C533: + x57 + x463 <= 1
C534: + x113 + x220 <= 1
C535: + x13 + x114 <= 1
C536: + x35 + x195 <= 1
C537: + x69 + x140 <= 1
C538: + x17 + x402 <= 1
C539: + x10 + x385 <= 1
C540: + x19 + x119 <= 1
C541: + x1 + x161 <= 1
C542: + x37 + x362 <= 1
C543: + x5 + x38 <= 1
C544: + x44 + x448 <= 1
C545: + x14 + x207 <= 1
C546: + x9 + x33 <= 1
C547: + x317 + x445 <= 1
C548: + x108 + x323 <= 1
C549: + x312 + x490 <= 1
C550: + x133 + x152 <= 1
C551: + x328 + x331 <= 1
C552: + x113 + x442 <= 1
C553: + x29 + x398 <= 1
C554: + x187 + x462 <= 1
C555: + x31 + x442 <= 1
C556: + x16 + x251 <= 1
C557: + x47 + x125 <= 1
C558: + x141 + x437 <= 1
C559: + x126 + x201 <= 1
C560: + x307 + x474 <= 1
C561: + x42 + x74 <= 1
C562: + x107 + x410 <= 1
C563: + x354 + x368 <= 1
C564: + x163 + x408 <= 1
C565: + x328 + x383 <= 1
C566: + x44 + x80 <= 1
C567: + x1 + x9 <= 1
C568: + x83 + x415 <= 1
C569: + x4 + x6 <= 1
C570: + x6 + x485 <= 1
C571: + x17 + x108 <= 1
C572: + x160 + x295 <= 1
C573: + x15 + x434 <= 1
C574: + x322 + x461 <= 1
C575: + x47 + x351 <= 1
C576: + x279 + x379 <= 1
C577: + x8 + x296 <= 1
C578: + x1 + x168 <= 1
C579: + x2 + x48 <= 1
C580: + x105 + x223 <= 1
C581: + x232 + x319 <= 1
C582: + x5 + x45 <= 1
C583: + x24 + x257 <= 1
C584: + x126 + x142 <= 1
C585: + x128 + x250 <= 1
C586: + x12 + x83 <= 1
C587: + x205 + x285 <= 1
C588: + x155 + x432 <= 1
C589: + x66 + x214 <= 1
C590: + x78 + x206 <= 1
C591: + x189 + x305 <= 1
C592: + x19 + x38 <= 1
C593: + x2 + x252 <= 1
C594: + x98 + x176 <= 1
C595: + x278 + x420 <= 1
C596: + x6 + x314 <= 1
C597: + x30 + x420 <= 1
C598: + x216 + x295 <= 1
C599: + x172 + x410 <= 1
C600: + x17 + x468 <= 1
C601: + x57 + x203 <= 1
C602: + x52 + x307 <= 1
C603: + x7 + x329 <= 1
C604: + x1 + x16 <= 1
C605: + x148 + x337 <= 1
C606: + x25 + x134 <= 1
C607: + x6 + x494 <= 1
C608: + x9 + x96 <= 1
C609: + x14 + x315 <= 1
C610: + x11 + x432 <= 1
C611: + x160 + x304 <= 1
C612: + x29 + x464 <= 1
C613: + x19 + x379 <= 1
C614: + x256 + x301 <= 1
C615: + x76 + x187 <= 1
C616: + x60 + x197 <= 1
C617: + x19 + x105 <= 1
C618: + x55 + x482 <= 1
C619: + x3 + x175 <= 1
C620: + x46 + x437 <= 1
C621: + x5 + x44 <= 1
C622: + x1 + x92 <= 1
C623: + x2 + x6 + x12 + x24 <= 1
C624: + x99 + x489 <= 1
C625: + x11 + x45 <= 1
C626: + x60 + x145 <= 1
C627: + x13 + x326 <= 1
C628: + x15 + x98 <= 1
C629: + x163 + x228 <= 1
C630: + x51 + x297 <= 1
C631: + x9 + x27 <= 1
C632: + x42 + x188 <= 1
C633: + x315 + x380 <= 1
C634: + x7 + x94 <= 1
C635: + x54 + x124 <= 1
C636: + x2 + x110 <= 1
C637: + x192 + x367 <= 1
C638: + x8 + x84 <= 1
C639: + x10 + x254 <= 1
C640: + x136 + x415 <= 1
C641: + x64 + x439 <= 1
C642: + x13 + x428 <= 1
C643: + x43 + x219 <= 1
C644: + x10 + x345 <= 1
C645: + x3 + x5 <= 1
C646: + x41 + x368 <= 1
C647: + x34 + x67 <= 1
C648: + x6 + x10 <= 1
C649: + x18 + x265 <= 1
C650: + x95 + x271 <= 1
C651: + x48 + x58 <= 1
C652: + x287 + x469 <= 1
C653: + x15 + x250 <= 1
C654: + x27 + x36 <= 1
C655: + x210 + x258 <= 1
C656: + x65 + x403 <= 1
C657: + x73 + x115 <= 1
C658: + x18 + x410 <= 1
C659: + x93 + x289 <= 1
C660: + x311 + x364 <= 1
C661: + x3 + x89 <= 1
C662: + x207 + x297 <= 1
C663: + x7 + x198 <= 1
C664: + x142 + x150 <= 1
C665: + x39 + x83 <= 1
C666: + x4 + x77 <= 1
C667: + x308 + x497 <= 1
C668: + x1 + x111 <= 1
C669: + x56 + x222 <= 1
C670: + x21 + x98 <= 1
C671: + x103 + x427 <= 1
C672: + x88 + x181 <= 1
C673: + x36 + x384 <= 1
C674: + x156 + x165 <= 1
C675: + x22 + x108 <= 1
C676: + x216 + x412 <= 1
C677: + x109 + x312 <= 1
C678: + x82 + x177 <= 1
C679: + x1 + x30 <= 1
C680: + x205 + x227 <= 1
C681: + x17 + x81 <= 1
C682: + x28 + x316 <= 1
C683: + x54 + x246 <= 1
C684: + x76 + x358 <= 1
C685: + x231 + x253 <= 1
C686: + x243 + x271 <= 1
C687: + x15 + x40 <= 1
C688: + x49 + x407 <= 1
C689: + x22 + x64 <= 1
C690: + x5 + x26 <= 1
C691: + x99 + x237 <= 1
C692: + x13 + x229 <= 1
C693: + x9 + x221 <= 1
C694: + x28 + x169 <= 1
C695: + x69 + x269 <= 1
C696: + x69 + x127 <= 1
C697: + x239 + x331 <= 1
C698: + x148 + x394 <= 1
C699: + x29 + x37 <= 1
C700: + x404 + x423 <= 1
C701: + x61 + x273 <= 1
C702: + x13 + x380 <= 1
C703: + x8 + x142 <= 1
C704: + x83 + x335 <= 1
C705: + x103 + x193 <= 1
C706: + x52 + x80 <= 1
C707: + x87 + x485 <= 1
C708: + x18 + x36 <= 1
C709: + x273 + x310 <= 1
C710: + x170 + x350 <= 1
C711: + x317 + x405 <= 1
C712: + x10 + x159 <= 1
C713: + x154 + x444 <= 1
C714: + x42 + x166 <= 1
C715: + x12 + x54 <= 1
C716: + x44 + x186 <= 1
C717: + x48 + x293 <= 1
C718: + x179 + x406 <= 1
C719: + x14 + x469 <= 1
C720: + x54 + x78 <= 1
C721: + x290 + x397 <= 1
C722: + x9 + x152 <= 1
C723: + x86 + x349 <= 1
C724: + x25 + x155 <= 1
C725: + x116 + x348 <= 1
C726: + x90 + x461 <= 1
C727: + x1 + x434 <= 1
C728: + x320 + x471 <= 1
C729: + x20 + x67 <= 1
C730: + x160 + x186 <= 1
C731: + x203 + x452 <= 1
C732: + x47 + x472 <= 1
C733: + x170 + x200 <= 1
C734: + x17 + x231 <= 1
C735: + x11 + x300 <= 1
C736: + x379 + x411 <= 1
C737: + x106 + x419 <= 1
C738: + x40 + x194 <= 1
C739: + x6 + x397 <= 1
C740: + x74 + x119 <= 1
C741: + x38 + x404 <= 1
C742: + x12 + x353 <= 1
C743: + x40 + x500 <= 1
C744: + x35 + x279 <= 1
C745: + x36 + x413 <= 1
C746: + x19 + x445 <= 1
C747: + x264 + x285 <= 1
C748: + x170 + x244 <= 1
C749: + x1 + x125 <= 1
C750: + x2 + x355 <= 1
C751: + x8 + x42 <= 1
C752: + x120 + x293 <= 1
C753: + x258 + x324 <= 1
C754: + x39 + x371 <= 1
C755: + x66 + x206 <= 1
C756: + x47 + x275 <= 1
C757: + x175 + x328 <= 1
C758: + x22 + x126 <= 1
C759: + x10 + x17 <= 1
C760: + x77 + x319 <= 1
C761: + x42 + x357 <= 1
C762: + x25 + x301 <= 1
C763: + x30 + x206 <= 1
C764: + x79 + x341 <= 1
C765: + x47 + x201 <= 1
C766: + x130 + x354 <= 1
C767: + x30 + x476 <= 1
C768: + x25 + x63 <= 1
C769: + x26 + x433 <= 1
C770: + x57 + x360 <= 1
C771: + x5 + x16 <= 1
C772: + x6 + x136 <= 1
C773: + x17 + x222 <= 1
C774: + x1 + x40 <= 1
C775: + x19 + x242 <= 1
C776: + x47 + x60 <= 1
C777: + x54 + x361 <= 1
C778: + x4 + x19 <= 1
C779: + x32 + x377 <= 1
C780: + x29 + x59 <= 1
C781: + x3 + x38 <= 1
C782: + x23 + x33 <= 1
C783: + x14 + x118 <= 1
C784: + x410 + x491 <= 1
C785: + x110 + x375 <= 1
C786: + x66 + x409 <= 1
C787: + x10 + x137 <= 1
C788: + x302 + x443 <= 1
C789: + x33 + x173 <= 1
C790: + x18 + x441 <= 1
C791: + x8 + x326 <= 1
C792: + x2 + x391 <= 1
C793: + x2 + x74 <= 1
C794: + x20 + x407 <= 1
C795: + x423 + x429 <= 1
C796: + x8 + x184 <= 1
C797: + x121 + x320 <= 1
C798: + x113 + x237 <= 1
C799: + x229 + x492 <= 1
C800: + x133 + x375 <= 1
C801: + x44 + x399 <= 1
C802: + x26 + x144 <= 1
C803: + x25 + x419 <= 1
C804: + x14 + x30 <= 1
C805: + x126 + x377 <= 1
C806: + x17 + x213 <= 1
C807: + x225 + x483 <= 1
C808: + x33 + x216 <= 1
C809: + x136 + x214 <= 1
C810: + x39 + x286 <= 1
C811: + x6 + x18 <= 1
C812: + x7 + x162 <= 1
C813: + x56 + x387 <= 1
C814: + x242 + x320 <= 1
C815: + x35 + x55 <= 1
C816: + x127 + x256 <= 1
C817: + x11 + x258 <= 1
C818: + x59 + x177 <= 1
C819: + x23 + x427 <= 1
C820: + x127 + x345 <= 1
C821: + x147 + x267 <= 1
C822: + x11 + x64 <= 1
C823: + x256 + x354 <= 1
C824: + x55 + x388 <= 1
C825: + x13 + x341 <= 1
C826: + x22 + x400 <= 1
C827: + x133 + x330 <= 1
C828: + x19 + x48 <= 1
C829: + x8 + x173 <= 1
C830: + x104 + x121 <= 1
C831: + x5 + x111 <= 1
C832: + x98 + x325 <= 1
C833: + x133 + x495 <= 1
C834: + x124 + x173 <= 1
C835: + x10 + x382 <= 1
C836: + x125 + x196 <= 1
C837: + x197 + x303 <= 1
C838: + x86 + x459 <= 1
C839: + x307 + x475 <= 1
C840: + x176 + x307 <= 1
C841: + x14 + x436 <= 1
C842: + x1 + x391 <= 1
C843: + x2 + x265 <= 1
C844: + x20 + x90 <= 1
C845: + x133 + x217 <= 1
C846: + x117 + x454 <= 1
C847: + x9 + x455 <= 1
C848: + x136 + x190 <= 1
C849: + x14 + x23 <= 1
C850: + x15 + x221 <= 1
C851: + x35 + x126 <= 1
C852: + x180 + x211 <= 1
C853: + x1 + x54 <= 1
C854: + x326 + x352 <= 1
C855: + x20 + x199 <= 1
C856: + x3 + x298 <= 1
C857: + x237 + x482 <= 1
C858: + x14 + x261 <= 1
C859: + x6 + x488 <= 1
C860: + x20 + x38 <= 1
C861: + x3 + x56 <= 1
C862: + x131 + x225 <= 1
C863: + x50 + x150 <= 1
C864: + x23 + x51 <= 1
C865: + x207 + x272 <= 1
C866: + x13 + x288 <= 1
C867: + x109 + x351 <= 1
C868: + x246 + x300 <= 1
C869: + x13 + x253 <= 1
C870: + x234 + x340 <= 1
C871: + x33 + x425 <= 1
C872: + x45 + x137 <= 1
C873: + x63 + x380 <= 1
C874: + x55 + x181 <= 1
C875: + x2 + x374 <= 1
C876: + x317 + x441 <= 1
C877: + x213 + x250 <= 1
C878: + x6 + x428 <= 1
C879: + x89 + x165 <= 1
C880: + x270 + x487 <= 1
C881: + x145 + x151 <= 1
C882: + x36 + x51 <= 1
C883: + x237 + x293 <= 1
C884: + x284 + x492 <= 1
C885: + x334 + x341 <= 1
C886: + x143 + x291 <= 1
C887: + x65 + x94 <= 1
C888: + x12 + x14 <= 1
C889: + x315 + x374 <= 1
C890: + x157 + x222 <= 1
C891: + x143 + x462 <= 1
C892: + x1 + x13 <= 1
C893: + x74 + x440 <= 1
C894: + x33 + x230 <= 1
C895: + x17 + x112 <= 1
C896: + x84 + x312 <= 1
C897: + x20 + x43 <= 1
C898: + x248 + x327 <= 1
C899: + x216 + x378 <= 1
C900: + x92 + x251 <= 1
C901: + x93 + x229 <= 1
C902: + x257 + x342 <= 1
C903: + x12 + x236 <= 1
C904: + x33 + x432 <= 1
C905: + x59 + x437 <= 1
C906: + x25 + x381 <= 1
C907: + x219 + x343 <= 1
C908: + x76 + x452 <= 1
C909: + x7 + x35 <= 1
C910: + x12 + x377 <= 1
C911: + x43 + x446 <= 1
C912: + x6 + x56 <= 1
C913: + x45 + x458 <= 1
C914: + x12 + x168 <= 1
C915: + x31 + x194 <= 1
C916: + x86 + x378 <= 1
C917: + x34 + x151 <= 1
C918: + x112 + x470 <= 1
C919: + x33 + x142 <= 1
C920: + x5 + x335 <= 1
C921: + x1 + x306 <= 1
C922: + x11 + x473 <= 1
C923: + x57 + x260 <= 1
C924: + x41 + x478 <= 1
C925: + x4 + x212 <= 1
C926: + x219 + x270 <= 1
C927: + x66 + x460 <= 1
C928: + x378 + x458 <= 1
C929: + x61 + x102 <= 1
C930: + x25 + x138 <= 1
C931: + x338 + x372 <= 1
C932: + x247 + x344 <= 1
C933: + x148 + x436 <= 1
C934: + x230 + x241 <= 1
C935: + x47 + x358 <= 1
C936: + x35 + x310 <= 1
C937: + x9 + x289 <= 1
C938: + x110 + x166 <= 1
C939: + x284 + x430 <= 1
C940: + x107 + x452 <= 1
C941: + x44 + x148 <= 1
C942: + x17 + x19 <= 1
C943: + x73 + x80 <= 1
C944: + x46 + x119 <= 1
C945: + x2 + x86 <= 1
C946: + x55 + x405 <= 1
C947: + x13 + x322 <= 1
C948: + x239 + x242 <= 1
C949: + x160 + x243 <= 1
C950: + x120 + x183 <= 1
C951: + x212 + x466 <= 1
C952: + x13 + x39 <= 1
C953: + x43 + x147 <= 1
C954: + x99 + x344 <= 1
C955: + x9 + x31 <= 1
C956: + x126 + x215 <= 1
C957: + x1 + x108 <= 1
C958: + x50 + x205 <= 1
C959: + x21 + x404 <= 1
C960: + x15 + x21 <= 1
C961: + x11 + x29 <= 1
C962: + x13 + x182 <= 1
C963: + x5 + x235 <= 1
C964: + x17 + x364 <= 1
C965: + x48 + x85 <= 1
C966: + x12 + x137 <= 1
C967: + x22 + x381 <= 1
C968: + x179 + x367 <= 1
C969: + x98 + x316 <= 1
C970: + x24 + x105 <= 1
C971: + x44 + x221 <= 1
C972: + x338 + x373 <= 1
C973: + x122 + x123 <= 1
C974: + x58 + x238 <= 1
C975: + x49 + x226 <= 1
C976: + x34 + x71 <= 1
C977: + x7 + x142 <= 1
C978: + x58 + x73 <= 1
C979: + x22 + x51 <= 1
C980: + x43 + x285 <= 1
C981: + x133 + x415 <= 1
C982: + x277 + x498 <= 1
C983: + x119 + x149 <= 1
C984: + x210 + x262 <= 1
C985: + x205 + x220 <= 1
C986: + x37 + x69 <= 1
C987: + x47 + x136 <= 1
C988: + x204 + x439 <= 1
C989: + x151 + x197 <= 1
C990: + x121 + x355 <= 1
C991: + x41 + x61 <= 1
C992: + x107 + x350 <= 1
C993: + x235 + x407 <= 1
C994: + x94 + x476 <= 1
C995: + x30 + x71 <= 1
C996: + x195 + x369 <= 1
C997: + x351 + x443 <= 1
C998: + x18 + x458 <= 1
C999: + x9 + x483 <= 1
C1000: + x93 + x190 <= 1
C1001: + x3 + x105 <= 1
C1002: + x40 + x46 <= 1
C1003: + x353 + x494 <= 1
C1004: + x122 + x161 <= 1
C1005: + x13 + x18 <= 1
C1006: + x14 + x158 <= 1
C1007: + x488 + x498 <= 1
C1008: + x6 + x476 <= 1
C1009: + x47 + x376 <= 1
C1010: + x96 + x290 <= 1
C1011: + x5 + x6 <= 1
C1012: + x126 + x149 <= 1
C1013: + x219 + x292 <= 1
C1014: + x58 + x429 <= 1
C1015: + x48 + x162 <= 1
C1016: + x106 + x107 <= 1
C1017: + x104 + x468 <= 1
C1018: + x323 + x481 <= 1
C1019: + x164 + x500 <= 1
C1020: + x256 + x259 <= 1
C1021: + x49 + x282 <= 1
C1022: + x47 + x324 <= 1
C1023: + x14 + x128 <= 1
C1024: + x6 + x35 <= 1
C1025: + x146 + x336 <= 1
C1026: + x66 + x387 <= 1
C1027: + x14 + x163 <= 1
C1028: + x10 + x131 <= 1
C1029: + x41 + x193 <= 1
C1030: + x14 + x465 <= 1
C1031: + x2 + x393 <= 1
C1032: + x30 + x302 <= 1
C1033: + x13 + x172 <= 1
C1034: + x23 + x103 <= 1
C1035: + x48 + x392 <= 1
C1036: + x136 + x393 <= 1
C1037: + x12 + x135 <= 1
C1038: + x14 + x290 <= 1
C1039: + x46 + x174 <= 1
C1040: + x247 + x441 <= 1
C1041: + x192 + x490 <= 1
C1042: + x88 + x158 <= 1
C1043: + x43 + x271 <= 1
C1044: + x35 + x420 <= 1
C1045: + x44 + x92 <= 1
C1046: + x6 + x342 <= 1
C1047: + x1 + x37 <= 1
C1048: + x93 + x110 <= 1
C1049: + x55 + x364 <= 1
C1050: + x39 + x242 <= 1
C1051: + x174 + x191 <= 1
C1052: + x211 + x384 <= 1
C1053: + x33 + x297 <= 1
C1054: + x81 + x328 <= 1
C1055: + x57 + x159 <= 1
C1056: + x41 + x398 <= 1
C1057: + x87 + x238 <= 1
C1058: + x1 + x367 <= 1
C1059: + x11 + x167 <= 1
C1060: + x189 + x227 <= 1
C1061: + x27 + x198 <= 1
C1062: + x1 + x113 <= 1
C1063: + x46 + x243 <= 1
C1064: + x113 + x155 <= 1
C1065: + x271 + x291 <= 1
C1066: + x54 + x83 <= 1
C1067: + x2 + x386 <= 1
C1068: + x7 + x59 <= 1
C1069: + x20 + x406 <= 1
C1070: + x41 + x442 <= 1
C1071: + x117 + x333 <= 1
C1072: + x16 + x248 <= 1
C1073: + x121 + x317 <= 1
C1074: + x55 + x343 <= 1
C1075: + x5 + x101 <= 1
C1076: + x65 + x77 <= 1
C1077: + x230 + x346 <= 1
C1078: + x43 + x85 <= 1
C1079: + x243 + x317 <= 1
C1080: + x67 + x79 <= 1
C1081: + x194 + x268 <= 1
C1082: + x112 + x273 <= 1
C1083: + x32 + x139 <= 1
C1084: + x88 + x421 <= 1
C1085: + x9 + x207 <= 1
C1086: + x187 + x226 <= 1
C1087: + x98 + x283 <= 1
C1088: + x44 + x256 <= 1
C1089: + x47 + x153 <= 1
C1090: + x14 + x114 <= 1
C1091: + x15 + x66 <= 1
C1092: + x35 + x302 <= 1
C1093: + x150 + x234 <= 1
C1094: + x28 + x44 <= 1
C1095: + x11 + x162 <= 1
C1096: + x148 + x174 <= 1
C1097: + x354 + x396 <= 1
C1098: + x17 + x313 <= 1
C1099: + x90 + x279 <= 1
C1100: + x10 + x141 <= 1
C1101: + x12 + x40 <= 1
C1102: + x48 + x252 <= 1
C1103: + x48 + x311 <= 1
C1104: + x215 + x216 <= 1
C1105: + x168 + x232 <= 1
C1106: + x154 + x200 <= 1
C1107: + x1 + x231 <= 1
C1108: + x55 + x298 <= 1
C1109: + x33 + x363 <= 1
C1110: + x23 + x263 <= 1
C1111: + x290 + x382 <= 1
C1112: + x310 + x392 <= 1
C1113: + x47 + x216 <= 1
C1114: + x12 + x423 <= 1
C1115: + x26 + x446 <= 1
C1116: + x15 + x61 <= 1
C1117: + x91 + x118 <= 1
C1118: + x2 + x26 <= 1
C1119: + x20 + x359 <= 1
C1120: + x438 + x449 <= 1
C1121: + x167 + x204 <= 1
C1122: + x17 + x201 <= 1
C1123: + x66 + x485 <= 1
C1124: + x464 + x491 <= 1
C1125: + x13 + x115 <= 1
C1126: + x60 + x107 <= 1
C1127: + x115 + x382 <= 1
C1128: + x24 + x65 <= 1
C1129: + x27 + x165 <= 1
C1130: + x2 + x456 <= 1
C1131: + x96 + x193 <= 1
C1132: + x142 + x182 <= 1
C1133: + x73 + x208 <= 1
C1134: + x146 + x240 <= 1
C1135: + x65 + x189 <= 1
C1136: + x10 + x91 <= 1
C1137: + x132 + x301 <= 1
C1138: + x62 + x383 <= 1
C1139: + x128 + x244 <= 1
C1140: + x20 + x146 <= 1
C1141: + x41 + x182 <= 1
C1142: + x109 + x499 <= 1
C1143: + x7 + x53 <= 1
C1144: + x390 + x437 <= 1
C1145: + x100 + x480 <= 1
C1146: + x212 + x356 <= 1
C1147: + x167 + x279 <= 1
C1148: + x27 + x71 <= 1
C1149: + x63 + x456 <= 1
C1150: + x450 + x480 <= 1
C1151: + x34 + x153 <= 1
C1152: + x44 + x50 <= 1
C1153: + x182 + x342 <= 1
C1154: + x399 + x401 <= 1
C1155: + x20 + x94 <= 1
C1156: + x3 + x129 <= 1
C1157: + x439 + x458 <= 1
C1158: + x24 + x336 <= 1
C1159: + x126 + x185 <= 1
C1160: + x17 + x208 <= 1
C1161: + x15 + x278 <= 1
C1162: + x281 + x397 <= 1
C1163: + x58 + x457 <= 1
C1164: + x112 + x134 <= 1
C1165: + x4 + x5 <= 1
C1166: + x280 + x365 <= 1
C1167: + x122 + x137 <= 1
C1168: + x24 + x90 <= 1
C1169: + x44 + x238 <= 1
C1170: + x63 + x237 <= 1
C1171: + x154 + x491 <= 1
C1172: + x13 + x106 <= 1
C1173: + x16 + x26 + x86 <= 1
C1174: + x23 + x55 <= 1
C1175: + x6 + x7 <= 1
C1176: + x364 + x416 <= 1
C1177: + x1 + x372 <= 1
C1178: + x11 + x84 <= 1
C1179: + x24 + x260 <= 1
C1180: + x9 + x41 <= 1
C1181: + x36 + x170 <= 1
C1182: + x73 + x489 <= 1
C1183: + x29 + x188 <= 1
C1184: + x58 + x405 <= 1
C1185: + x52 + x362 <= 1
C1186: + x10 + x16 <= 1
C1187: + x1 + x245 <= 1
C1188: + x111 + x148 <= 1
C1189: + x143 + x295 <= 1
C1190: + x9 + x21 <= 1
C1191: + x21 + x93 <= 1
C1192: + x17 + x469 <= 1
C1193: + x31 + x110 <= 1
C1194: + x381 + x448 <= 1
C1195: + x246 + x400 <= 1
C1196: + x263 + x320 <= 1
C1197: + x136 + x200 <= 1
C1198: + x67 + x258 <= 1
C1199: + x3 + x11 <= 1
C1200: + x41 + x362 <= 1
C1201: + x141 + x147 <= 1
C1202: + x6 + x16 <= 1
C1203: + x181 + x266 <= 1
C1204: + x263 + x473 <= 1
C1205: + x138 + x160 <= 1
C1206: + x12 + x240 <= 1
C1207: + x270 + x395 <= 1
C1208: + x85 + x283 <= 1
C1209: + x58 + x414 <= 1
C1210: + x214 + x251 <= 1
C1211: + x5 + x263 <= 1
C1212: + x17 + x32 <= 1
C1213: + x57 + x316 <= 1
C1214: + x43 + x442 <= 1
C1215: + x10 + x49 <= 1
C1216: + x75 + x79 <= 1
C1217: + x197 + x214 <= 1
C1218: + x315 + x424 <= 1
C1219: + x19 + x191 <= 1
C1220: + x228 + x402 <= 1
C1221: + x47 + x233 <= 1
C1222: + x142 + x237 <= 1
C1223: + x71 + x147 <= 1
C1224: + x247 + x313 <= 1
C1225: + x56 + x466 <= 1
C1226: + x126 + x288 <= 1
C1227: + x7 + x256 <= 1
C1228: + x1 + x8 <= 1
C1229: + x10 + x253 <= 1
C1230: + x300 + x471 <= 1
C1231: + x47 + x92 <= 1
C1232: + x12 + x152 <= 1
C1233: + x17 + x91 <= 1
C1234: + x326 + x481 <= 1
C1235: + x55 + x236 <= 1
C1236: + x139 + x353 <= 1
C1237: + x56 + x156 <= 1
C1238: + x3 + x6 <= 1
C1239: + x315 + x333 <= 1
C1240: + x288 + x331 <= 1
C1241: + x18 + x272 <= 1
C1242: + x62 + x124 <= 1
C1243: + x155 + x249 <= 1
C1244: + x49 + x401 <= 1
C1245: + x5 + x20 <= 1
C1246: + x261 + x361 <= 1
C1247: + x35 + x403 <= 1
C1248: + x210 + x257 <= 1
C1249: + x128 + x239 <= 1
C1250: + x12 + x68 <= 1
C1251: + x219 + x255 <= 1
C1252: + x12 + x374 <= 1
C1253: + x23 + x29 <= 1
C1254: + x5 + x163 <= 1
C1255: + x154 + x164 <= 1
C1256: + x409 + x481 <= 1
C1257: + x273 + x403 <= 1
C1258: + x312 + x357 <= 1
C1259: + x42 + x334 <= 1
C1260: + x32 + x286 <= 1
C1261: + x188 + x226 <= 1
C1262: + x37 + x169 <= 1
C1263: + x12 + x64 <= 1
C1264: + x303 + x421 <= 1
C1265: + x22 + x280 <= 1
C1266: + x43 + x52 <= 1
C1267: + x159 + x376 <= 1
C1268: + x15 + x25 <= 1
C1269: + x67 + x174 <= 1
C1270: + x225 + x294 <= 1
C1271: + x14 + x62 <= 1
C1272: + x32 + x88 <= 1
C1273: + x109 + x305 <= 1
C1274: + x9 + x146 <= 1
C1275: + x1 + x31 <= 1
C1276: + x47 + x99 <= 1
C1277: + x305 + x334 <= 1
C1278: + x332 + x423 <= 1
C1279: + x15 + x396 <= 1
C1280: + x82 + x422 <= 1
C1281: + x290 + x342 <= 1
C1282: + x38 + x107 <= 1
C1283: + x257 + x411 <= 1
C1284: + x340 + x487 <= 1
C1285: + x359 + x391 <= 1
C1286: + x78 + x132 <= 1
C1287: + x35 + x329 <= 1
C1288: + x133 + x230 <= 1
C1289: + x167 + x327 <= 1
C1290: + x7 + x130 <= 1
C1291: + x2 + x50 <= 1
C1292: + x261 + x435 <= 1
C1293: + x21 + x321 <= 1
C1294: + x5 + x27 <= 1
C1295: + x126 + x365 <= 1
C1296: + x17 + x225 <= 1
C1297: + x82 + x311 <= 1
C1298: + x27 + x44 <= 1
C1299: + x109 + x178 <= 1
C1300: + x49 + x117 <= 1
C1301: + x13 + x75 <= 1
C1302: + x33 + x287 <= 1
C1303: + x24 + x57 <= 1
C1304: + x7 + x17 <= 1
C1305: + x153 + x406 <= 1
C1306: + x37 + x65 <= 1
C1307: + x76 + x232 <= 1
C1308: + x51 + x119 <= 1
C1309: + x61 + x274 <= 1
C1310: + x197 + x490 <= 1
C1311: + x216 + x352 <= 1
C1312: + x7 + x263 <= 1
C1313: + x129 + x399 <= 1
C1314: + x212 + x475 <= 1
C1315: + x52 + x412 <= 1
C1316: + x179 + x306 <= 1
C1317: + x35 + x43 <= 1
C1318: + x22 + x273 <= 1
C1319: + x25 + x109 <= 1
C1320: + x55 + x75 <= 1
C1321: + x138 + x199 <= 1
C1322: + x58 + x138 <= 1
C1323: + x163 + x286 <= 1
C1324: + x7 + x234 <= 1
C1325: + x47 + x102 <= 1
C1326: + x13 + x14 <= 1
C1327: + x33 + x346 <= 1
C1328: + x70 + x498 <= 1
C1329: + x308 + x389 <= 1
C1330: + x357 + x430 <= 1
C1331: + x54 + x100 + x219 <= 1
C1332: + x1 + x133 <= 1
C1333: + x55 + x460 <= 1
C1334: + x13 + x157 <= 1
C1335: + x372 + x460 <= 1
C1336: + x92 + x97 <= 1
C1337: + x93 + x403 <= 1
C1338: + x15 + x479 <= 1
C1339: + x9 + x418 <= 1
C1340: + x58 + x276 <= 1
C1341: + x231 + x398 <= 1
C1342: + x112 + x211 <= 1
C1343: + x24 + x167 <= 1
C1344: + x2 + x354 <= 1
C1345: + x21 + x113 <= 1
C1346: + x22 + x282 <= 1
C1347: + x75 + x203 <= 1
C1348: + x32 + x70 <= 1
C1349: + x45 + x52 <= 1
C1350: + x300 + x318 <= 1
C1351: + x38 + x186 <= 1
C1352: + x33 + x337 <= 1
C1353: + x43 + x181 <= 1
C1354: + x5 + x439 <= 1
C1355: + x6 + x449 <= 1
C1356: + x263 + x284 <= 1
C1357: + x19 + x352 <= 1
C1358: + x47 + x202 <= 1
C1359: + x20 + x75 <= 1
C1360: + x169 + x283 <= 1
C1361: + x208 + x365 <= 1
C1362: + x37 + x445 <= 1
C1363: + x67 + x116 <= 1
C1364: + x60 + x335 <= 1
C1365: + x6 + x135 <= 1
C1366: + x17 + x266 <= 1
C1367: + x90 + x326 <= 1
C1368: + x10 + x196 <= 1
C1369: + x46 + x315 <= 1
C1370: + x136 + x441 <= 1
C1371: + x48 + x171 <= 1
C1372: + x1 + x454 <= 1
C1373: + x10 + x319 <= 1
C1374: + x136 + x224 <= 1
C1375: + x320 + x387 <= 1
C1376: + x97 + x383 <= 1
C1377: + x33 + x63 <= 1
C1378: + x207 + x259 <= 1
C1379: + x119 + x417 <= 1
C1380: + x215 + x354 <= 1
C1381: + x11 + x163 <= 1
C1382: + x73 + x198 <= 1
C1383: + x164 + x348 <= 1
C1384: + x232 + x271 <= 1
C1385: + x43 + x140 <= 1
C1386: + x90 + x274 <= 1
C1387: + x9 + x56 <= 1
C1388: + x48 + x255 <= 1
C1389: + x344 + x394 <= 1
C1390: + x58 + x156 <= 1
C1391: + x39 + x472 <= 1
C1392: + x69 + x183 <= 1
C1393: + x87 + x190 <= 1
C1394: + x6 + x220 <= 1
C1395: + x118 + x327 <= 1
C1396: + x9 + x370 <= 1
C1397: + x23 + x25 + x47 <= 1
C1398: + x302 + x366 <= 1
C1399: + x12 + x422 <= 1
C1400: + x404 + x497 <= 1
C1401: + x10 + x106 <= 1
C1402: + x2 + x5 <= 1
C1403: + x20 + x358 <= 1
C1404: + x24 + x310 <= 1
C1405: + x301 + x497 <= 1
C1406: + x2 + x168 <= 1
C1407: + x98 + x287 <= 1
C1408: + x162 + x386 <= 1
C1409: + x244 + x300 <= 1
C1410: + x96 + x417 <= 1
C1411: + x217 + x275 <= 1
C1412: + x216 + x363 <= 1
C1413: + x71 + x103 <= 1
C1414: + x54 + x482 <= 1
C1415: + x375 + x411 <= 1
C1416: + x3 + x223 <= 1
C1417: + x20 + x306 <= 1
C1418: + x5 + x60 <= 1
C1419: + x6 + x180 <= 1
C1420: + x9 + x63 <= 1
C1421: + x135 + x346 <= 1
C1422: + x39 + x217 <= 1
C1423: + x41 + x264 <= 1
C1424: + x30 + x46 <= 1
C1425: + x73 + x92 <= 1
C1426: + x10 + x276 <= 1
C1427: + x2 + x66 <= 1
C1428: + x47 + x286 <= 1
C1429: + x32 + x76 <= 1
C1430: + x11 + x146 <= 1
C1431: + x114 + x235 <= 1
C1432: + x48 + x117 <= 1
C1433: + x13 + x59 <= 1
C1434: + x33 + x367 <= 1
C1435: + x14 + x336 <= 1
C1436: + x65 + x72 <= 1
C1437: + x318 + x481 <= 1
C1438: + x1 + x392 <= 1
C1439: + x52 + x114 <= 1
C1440: + x44 + x348 <= 1
C1441: + x268 + x461 <= 1
C1442: + x34 + x450 <= 1
C1443: + x189 + x372 <= 1
C1444: + x36 + x121 <= 1
C1445: + x56 + x102 <= 1
C1446: + x34 + x216 <= 1
C1447: + x8 + x391 <= 1
C1448: + x38 + x115 <= 1
C1449: + x40 + x410 <= 1
C1450: + x96 + x205 <= 1
C1451: + x150 + x255 <= 1
C1452: + x269 + x422 <= 1
C1453: + x101 + x154 <= 1
C1454: + x312 + x322 <= 1
C1455: + x14 + x202 <= 1
C1456: + x44 + x122 <= 1
C1457: + x127 + x232 <= 1
C1458: + x215 + x227 <= 1
C1459: + x1 + x496 <= 1
C1460: + x147 + x259 <= 1
C1461: + x366 + x474 <= 1
C1462: + x86 + x157 <= 1
C1463: + x112 + x351 <= 1
C1464: + x198 + x270 <= 1
C1465: + x228 + x265 <= 1
C1466: + x2 + x230 <= 1
C1467: + x6 + x316 <= 1
C1468: + x334 + x340 <= 1
C1469: + x65 + x95 <= 1
C1470: + x29 + x77 <= 1
C1471: + x79 + x204 <= 1
C1472: + x189 + x422 <= 1
C1473: + x75 + x287 <= 1
C1474: + x55 + x472 <= 1
C1475: + x58 + x114 <= 1
C1476: + x14 + x15 <= 1
C1477: + x15 + x165 <= 1
C1478: + x35 + x118 <= 1
C1479: + x17 + x196 <= 1
C1480: + x10 + x247 <= 1
C1481: + x215 + x284 <= 1
C1482: + x2 + x178 <= 1
C1483: + x94 + x353 <= 1
C1484: + x33 + x306 <= 1
C1485: + x143 + x467 <= 1
C1486: + x60 + x104 <= 1
C1487: + x110 + x446 <= 1
C1488: + x37 + x100 <= 1
C1489: + x257 + x394 <= 1
C1490: + x39 + x269 <= 1
C1491: + x9 + x315 <= 1
C1492: + x33 + x417 <= 1
C1493: + x253 + x332 <= 1
C1494: + x1 + x90 <= 1
C1495: + x12 + x74 <= 1
C1496: + x123 + x215 <= 1
C1497: + x5 + x284 <= 1
C1498: + x26 + x72 <= 1
C1499: + x17 + x29 <= 1
C1500: + x83 + x113 <= 1
C1501: + x374 + x416 <= 1
C1502: + x132 + x167 <= 1
C1503: + x7 + x205 <= 1
C1504: + x18 + x145 <= 1
C1505: + x19 + x31 <= 1
C1506: + x214 + x308 <= 1
C1507: + x17 + x172 <= 1
C1508: + x145 + x497 <= 1
C1509: + x50 + x264 <= 1
C1510: + x158 + x500 <= 1
C1511: + x61 + x248 <= 1
C1512: + x7 + x96 <= 1
C1513: + x105 + x188 <= 1
C1514: + x33 + x254 <= 1
C1515: + x35 + x210 <= 1
C1516: + x20 + x51 <= 1
C1517: + x3 + x7 <= 1
C1518: + x114 + x455 <= 1
C1519: + x5 + x372 <= 1
C1520: + x29 + x32 <= 1
C1521: + x135 + x418 <= 1
C1522: + x93 + x253 <= 1
C1523: + x148 + x197 <= 1
C1524: + x233 + x331 <= 1
C1525: + x290 + x457 <= 1
C1526: + x246 + x480 <= 1
C1527: + x38 + x246 <= 1
C1528: + x12 + x79 <= 1
C1529: + x4 + x62 <= 1
C1530: + x13 + x414 <= 1
C1531: + x395 + x408 <= 1
C1532: + x11 + x42 <= 1
C1533: + x56 + x282 <= 1
C1534: + x61 + x288 <= 1
C1535: + x9 + x366 <= 1
C1536: + x109 + x207 <= 1
C1537: + x8 + x155 <= 1
C1538: + x234 + x393 <= 1
C1539: + x107 + x340 <= 1
C1540: + x7 + x438 <= 1
C1541: + x1 + x109 <= 1
C1542: + x66 + x83 <= 1
C1543: + x49 + x183 <= 1
C1544: + x21 + x413 <= 1
C1545: + x15 + x22 <= 1
C1546: + x17 + x464 <= 1
C1547: + x7 + x87 <= 1
C1548: + x407 + x487 <= 1
C1549: + x12 + x301 <= 1
C1550: + x195 + x412 <= 1
C1551: + x5 + x236 <= 1
C1552: + x1 + x5 + x7 <= 1
C1553: + x355 + x456 <= 1
C1554: + x100 + x176 <= 1
C1555: + x9 + x239 <= 1
C1556: + x84 + x106 <= 1
C1557: + x139 + x396 <= 1
C1558: + x273 + x332 <= 1
C1559: + x127 + x138 <= 1
C1560: + x9 + x76 <= 1
C1561: + x10 + x324 <= 1
C1562: + x30 + x460 <= 1
C1563: + x15 + x34 <= 1
C1564: + x82 + x196 <= 1
C1565: + x136 + x299 <= 1
C1566: + x112 + x261 <= 1
C1567: + x114 + x347 <= 1
C1568: + x206 + x309 <= 1
C1569: + x44 + x109 <= 1
C1570: + x20 + x169 <= 1
C1571: + x166 + x383 <= 1
C1572: + x12 + x72 <= 1
C1573: + x69 + x125 <= 1
C1574: + x34 + x55 <= 1
C1575: + x6 + x390 <= 1
C1576: + x106 + x444 <= 1
C1577: + x55 + x60 <= 1
C1578: + x313 + x455 <= 1
C1579: + x424 + x467 <= 1
C1580: + x9 + x277 <= 1
C1581: + x10 + x62 <= 1
C1582: + x39 + x88 <= 1
C1583: + x12 + x213 <= 1
C1584: + x55 + x120 <= 1
C1585: + x61 + x69 + x156 <= 1
C1586: + x44 + x483 <= 1
C1587: + x1 + x19 <= 1
C1588: + x102 + x185 <= 1
C1589: + x179 + x222 <= 1
C1590: + x207 + x208 <= 1
C1591: + x45 + x223 <= 1
C1592: + x121 + x141 <= 1
C1593: + x15 + x41 <= 1
C1594: + x35 + x325 <= 1
C1595: + x155 + x275 <= 1
C1596: + x17 + x229 <= 1
C1597: + x1 + x47 <= 1
C1598: + x247 + x466 <= 1
C1599: + x157 + x285 <= 1
C1600: + x48 + x161 <= 1
C1601: + x35 + x184 <= 1
C1602: + x191 + x370 <= 1
C1603: + x129 + x177 <= 1
C1604: + x47 + x144 <= 1
C1605: + x30 + x281 <= 1
C1606: + x6 + x34 <= 1
C1607: + x12 + x206 <= 1
C1608: + x197 + x267 <= 1
C1609: + x1 + x123 <= 1
C1610: + x50 + x299 <= 1
C1611: + x41 + x194 <= 1
C1612: + x29 + x419 <= 1
C1613: + x9 + x328 <= 1
C1614: + x163 + x195 <= 1
C1615: + x42 + x359 <= 1
C1616: + x14 + x289 <= 1
C1617: + x244 + x278 <= 1
C1618: + x250 + x396 <= 1
C1619: + x6 + x103 <= 1
C1620: + x1 + x340 <= 1
C1621: + x10 + x100 <= 1
C1622: + x5 + x14 <= 1
C1623: + x88 + x100 <= 1
C1624: + x24 + x292 <= 1
C1625: + x26 + x129 <= 1
C1626: + x6 + x341 <= 1
C1627: + x2 + x170 <= 1
C1628: + x124 + x233 <= 1
C1629: + x33 + x223 <= 1
C1630: + x351 + x378 <= 1
C1631: + x14 + x120 <= 1
C1632: + x6 + x43 <= 1
C1633: + x152 + x224 <= 1
C1634: + x10 + x48 <= 1
C1635: + x5 + x50 <= 1
C1636: + x8 + x37 <= 1
C1637: + x82 + x123 <= 1
C1638: + x191 + x421 <= 1
C1639: + x10 + x486 <= 1
C1640: + x27 + x118 <= 1
C1641: + x2 + x151 <= 1
C1642: + x48 + x99 <= 1
C1643: + x14 + x143 <= 1
C1644: + x34 + x347 <= 1
C1645: + x133 + x486 <= 1
C1646: + x123 + x131 <= 1
C1647: + x43 + x86 <= 1
C1648: + x90 + x124 <= 1
C1649: + x8 + x384 <= 1
C1650: + x54 + x102 <= 1
C1651: + x2 + x8 <= 1
C1652: + x13 + x152 <= 1
C1653: + x47 + x61 <= 1
C1654: + x123 + x246 <= 1
C1655: + x22 + x176 <= 1
C1656: + x259 + x308 <= 1
C1657: + x35 + x202 <= 1
C1658: + x45 + x257 <= 1
C1659: + x28 + x345 <= 1
C1660: + x50 + x159 <= 1
C1661: + x177 + x478 <= 1
C1662: + x5 + x57 <= 1
C1663: + x34 + x264 <= 1
C1664: + x15 + x228 <= 1
C1665: + x1 + x73 <= 1
C1666: + x12 + x39 <= 1
C1667: + x15 + x498 <= 1
C1668: + x24 + x31 <= 1
C1669: + x255 + x368 <= 1
C1670: + x3 + x115 <= 1
C1671: + x7 + x224 <= 1
C1672: + x9 + x139 <= 1
C1673: + x172 + x228 <= 1
C1674: + x145 + x355 <= 1
C1675: + x50 + x438 <= 1
C1676: + x77 + x307 <= 1
C1677: + x9 + x104 <= 1
C1678: + x55 + x204 <= 1
C1679: + x141 + x170 <= 1
C1680: + x1 + x290 <= 1
C1681: + x10 + x110 <= 1
C1682: + x19 + x65 <= 1
C1683: + x175 + x288 <= 1
C1684: + x6 + x140 <= 1
C1685: + x90 + x339 <= 1
C1686: + x189 + x369 <= 1
C1687: + x1 + x52 <= 1
C1688: + x19 + x230 <= 1
C1689: + x219 + x318 <= 1
C1690: + x373 + x384 <= 1
C1691: + x225 + x488 <= 1
C1692: + x28 + x338 <= 1
C1693: + x136 + x209 <= 1
C1694: + x2 + x455 <= 1
C1695: + x20 + x471 <= 1
C1696: + x175 + x399 <= 1
C1697: + x43 + x385 <= 1
C1698: + x81 + x212 <= 1
C1699: + x182 + x435 <= 1
C1700: + x11 + x170 <= 1
C1701: + x265 + x304 <= 1
C1702: + x177 + x178 <= 1
C1703: + x104 + x132 <= 1
C1704: + x5 + x40 <= 1
C1705: + x23 + x154 <= 1
C1706: + x9 + x35 <= 1
C1707: + x101 + x116 <= 1
C1708: + x227 + x317 <= 1
C1709: + x68 + x312 <= 1
C1710: + x31 + x259 <= 1
C1711: + x332 + x490 <= 1
C1712: + x35 + x149 <= 1
C1713: + x36 + x287 <= 1
C1714: + x84 + x176 <= 1
C1715: + x50 + x68 <= 1
C1716: + x99 + x186 <= 1
C1717: + x426 + x453 <= 1
C1718: + x109 + x273 <= 1
C1719: + x106 + x243 + x425 <= 1
C1720: + x113 + x281 <= 1
C1721: + x231 + x496 <= 1
C1722: + x25 + x245 <= 1
C1723: + x90 + x299 <= 1
C1724: + x399 + x402 <= 1
C1725: + x263 + x266 <= 1
C1726: + x20 + x93 <= 1
C1727: + x58 + x351 <= 1
C1728: + x66 + x68 <= 1
C1729: + x65 + x249 <= 1
C1730: + x256 + x337 <= 1
C1731: + x2 + x18 <= 1
C1732: + x2 + x431 <= 1
C1733: + x48 + x482 <= 1
C1734: + x15 + x283 <= 1
C1735: + x45 + x82 <= 1
C1736: + x1 + x11 <= 1
C1737: + x135 + x281 <= 1
C1738: + x70 + x88 <= 1
C1739: + x73 + x411 <= 1
C1740: + x3 + x49 <= 1
C1741: + x87 + x248 <= 1
C1742: + x15 + x81 <= 1
C1743: + x270 + x302 <= 1
C1744: + x16 + x323 <= 1
C1745: + x148 + x187 <= 1
C1746: + x12 + x234 <= 1
C1747: + x303 + x371 <= 1
C1748: + x5 + x47 <= 1
C1749: + x434 + x450 <= 1
C1750: + x35 + x386 <= 1
C1751: + x9 + x42 <= 1
C1752: + x8 + x20 <= 1
C1753: + x7 + x388 <= 1
C1754: + x1 + x71 <= 1
C1755: + x20 + x154 <= 1
C1756: + x1 + x484 <= 1
C1757: + x57 + x129 <= 1
C1758: + x11 + x36 <= 1
C1759: + x12 + x327 <= 1
C1760: + x150 + x207 <= 1
C1761: + x6 + x202 <= 1
C1762: + x9 + x185 <= 1
C1763: + x10 + x15 <= 1
C1764: + x1 + x246 <= 1
C1765: + x12 + x166 <= 1
C1766: + x78 + x431 <= 1
C1767: + x86 + x479 <= 1
C1768: + x270 + x371 <= 1
C1769: + x327 + x366 <= 1
C1770: + x328 + x370 <= 1
C1771: + x20 + x376 <= 1
C1772: + x87 + x160 <= 1
C1773: + x84 + x96 <= 1
C1774: + x95 + x379 <= 1
C1775: + x48 + x78 <= 1
C1776: + x37 + x112 <= 1
C1777: + x47 + x179 <= 1
C1778: + x346 + x462 <= 1
C1779: + x12 + x239 <= 1
C1780: + x50 + x493 <= 1
C1781: + x5 + x22 <= 1
C1782: + x151 + x386 <= 1
C1783: + x35 + x70 <= 1
C1784: + x36 + x82 <= 1
C1785: + x64 + x128 <= 1
C1786: + x2 + x322 <= 1
C1787: + x15 + x459 <= 1
C1788: + x136 + x251 <= 1
C1789: + x22 + x413 <= 1
C1790: + x9 + x192 <= 1
C1791: + x146 + x352 <= 1
C1792: + x68 + x435 <= 1
C1793: + x160 + x483 <= 1
C1794: + x153 + x312 <= 1
C1795: + x1 + x106 <= 1
C1796: + x56 + x199 <= 1
C1797: + x12 + x58 <= 1
C1798: + x81 + x141 <= 1
C1799: + x208 + x333 <= 1
C1800: + x136 + x175 <= 1
C1801: + x42 + x469 <= 1
C1802: + x100 + x171 <= 1
C1803: + x1 + x25 <= 1
C1804: + x334 + x445 <= 1
C1805: + x318 + x451 <= 1
C1806: + x20 + x55 <= 1
C1807: + x41 + x338 <= 1
C1808: + x6 + x120 <= 1
C1809: + x155 + x269 <= 1
C1810: + x8 + x227 <= 1
C1811: + x136 + x298 <= 1
C1812: + x67 + x104 <= 1
C1813: + x184 + x212 <= 1
C1814: + x22 + x53 <= 1
C1815: + x294 + x426 <= 1
C1816: + x194 + x291 <= 1
C1817: + x13 + x240 <= 1
C1818: + x134 + x433 <= 1
C1819: + x192 + x349 <= 1
C1820: + x17 + x294 <= 1
C1821: + x361 + x388 <= 1
C1822: + x50 + x321 <= 1
C1823: + x148 + x296 <= 1
C1824: + x41 + x172 <= 1
C1825: + x160 + x347 <= 1
C1826: + x28 + x369 <= 1
C1827: + x37 + x91 <= 1
C1828: + x57 + x143 <= 1
C1829: + x109 + x203 <= 1
C1830: + x19 + x22 <= 1
C1831: + x110 + x213 <= 1
C1832: + x272 + x326 <= 1
C1833: + x68 + x444 <= 1
C1834: + x40 + x163 <= 1
C1835: + x371 + x427 <= 1
C1836: + x180 + x192 <= 1
C1837: + x241 + x491 <= 1
C1838: + x240 + x419 <= 1
C1839: + x30 + x73 <= 1
C1840: + x97 + x474 <= 1
C1841: + x64 + x347 <= 1
C1842: + x47 + x263 <= 1
C1843: + x192 + x402 <= 1
C1844: + x211 + x434 <= 1
C1845: + x184 + x277 <= 1
C1846: + x23 + x203 <= 1
C1847: + x43 + x375 <= 1
C1848: + x99 + x421 <= 1
C1849: + x7 + x486 <= 1
C1850: + x28 + x318 <= 1
C1851: + x14 + x160 <= 1
C1852: + x2 + x291 <= 1
C1853: + x90 + x101 <= 1
C1854: + x235 + x242 <= 1
C1855: + x24 + x459 <= 1
C1856: + x301 + x360 <= 1
C1857: + x39 + x416 <= 1
C1858: + x117 + x257 <= 1
C1859: + x172 + x184 <= 1
C1860: + x10 + x209 <= 1
C1861: + x75 + x495 <= 1
C1862: + x195 + x205 <= 1
C1863: + x240 + x488 <= 1
C1864: + x163 + x486 <= 1
C1865: + x1 + x457 <= 1
C1866: + x10 + x308 <= 1
C1867: + x3 + x82 <= 1
C1868: + x95 + x135 <= 1
C1869: + x82 + x244 <= 1
C1870: + x10 + x34 <= 1
C1871: + x149 + x278 <= 1
C1872: + x5 + x80 <= 1
C1873: + x43 + x334 <= 1
C1874: + x151 + x496 <= 1
C1875: + x9 + x11 <= 1
C1876: + x39 + x378 <= 1
C1877: + x100 + x423 <= 1
C1878: + x132 + x325 <= 1
C1879: + x152 + x154 <= 1
C1880: + x80 + x429 <= 1
C1881: + x44 + x201 <= 1
C1882: + x1 + x337 <= 1
C1883: + x2 + x10 <= 1
C1884: + x12 + x278 <= 1
C1885: + x296 + x428 <= 1
C1886: + x88 + x103 <= 1
C1887: + x35 + x111 <= 1
C1888: + x10 + x218 <= 1
C1889: + x1 + x35 <= 1
C1890: + x313 + x373 <= 1
C1891: + x21 + x46 <= 1
C1892: + x51 + x321 <= 1
C1893: + x6 + x395 <= 1
C1894: + x7 + x9 <= 1
C1895: + x47 + x148 <= 1
C1896: + x67 + x233 <= 1
C1897: + x16 + x363 <= 1
C1898: + x65 + x274 <= 1
C1899: + x107 + x322 <= 1
C1900: + x17 + x149 <= 1
C1901: + x18 + x27 <= 1
C1902: + x45 + x158 <= 1
C1903: + x2 + x353 <= 1
C1904: + x63 + x325 <= 1
C1905: + x83 + x489 <= 1
C1906: + x30 + x390 <= 1
C1907: + x55 + x440 <= 1
C1908: + x13 + x161 <= 1
C1909: + x32 + x69 <= 1
C1910: + x132 + x334 <= 1
C1911: + x10 + x23 <= 1
C1912: + x58 + x493 <= 1
C1913: + x49 + x56 <= 1
C1914: + x232 + x453 <= 1
C1915: + x5 + x440 <= 1
C1916: + x45 + x210 <= 1
C1917: + x1 + x395 <= 1
C1918: + x29 + x97 <= 1
C1919: + x12 + x25 <= 1
C1920: + x43 + x87 <= 1
C1921: + x186 + x401 <= 1
C1922: + x5 + x10 <= 1
C1923: + x24 + x320 <= 1
C1924: + x26 + x133 <= 1
C1925: + x15 + x209 <= 1
C1926: + x36 + x78 <= 1
C1927: + x66 + x494 <= 1
C1928: + x47 + x58 <= 1
C1929: + x128 + x133 <= 1
C1930: + x9 + x426 <= 1
C1931: + x247 + x330 <= 1
C1932: + x7 + x173 <= 1
C1933: + x137 + x220 <= 1
C1934: + x10 + x84 <= 1
C1935: + x199 + x493 <= 1
C1936: + x122 + x197 <= 1
C1937: + x5 + x304 <= 1
C1938: + x24 + x30 <= 1
C1939: + x147 + x274 <= 1
C1940: + x141 + x224 <= 1
C1941: + x9 + x136 <= 1
C1942: + x5 + x98 <= 1
C1943: + x43 + x189 <= 1
C1944: + x43 + x356 <= 1
C1945: + x9 + x101 <= 1
C1946: + x210 + x211 <= 1
C1947: + x5 + x447 <= 1
C1948: + x12 + x18 <= 1
C1949: + x32 + x467 <= 1
C1950: + x2 + x28 <= 1
C1951: + x113 + x382 <= 1
C1952: + x67 + x76 <= 1
C1953: + x1 + x49 <= 1
C1954: + x47 + x65 <= 1
C1955: + x187 + x296 <= 1
C1956: + x93 + x95 + x97 <= 1
C1957: + x15 + x426 <= 1
C1958: + x9 + x81 <= 1
C1959: + x66 + x130 <= 1

binary
x1 x2 x3 x4 x5 x6 x7 x8 x9 x10 x11 x12 x13 x14 x15 x16 x17 x18 x19 x20 x21 x22 x23 x24 x25 x26 x27 x28 x29 x30 x31 x32 x33 x34 x35 x36 x37 x38 x39 x40 x41 x42 x43 x44 x45 x46 x47 x48 x49 x50 x51 x52 x53 x54 x55 x56 x57 x58 x59 x60 x61 x62 x63 x64 x65 x66 x67 x68 x69 x70 x71 x72 x73 x74 x75 x76 x77 x78 x79 x80 x81 x82 x83 x84 x85 x86 x87 x88 x89 x90 x91 x92 x93 x94 x95 x96 x97 x98 x99 x100 x101 x102 x103 x104 x105 x106 x107 x108 x109 x110 x111 x112 x113 x114 x115 x116 x117 x118 x119 x120 x121 x122 x123 x124 x125 x126 x127 x128 x129 x130 x131 x132 x133 x134 x135 x136 x137 x138 x139 x140 x141 x142 x143 x144 x145 x146 x147 x148 x149 x150 x151 x152 x153 x154 x155 x156 x157 x158 x159 x160 x161 x162 x163 x164 x165 x166 x167 x168 x169 x170 x171 x172 x173 x174 x175 x176 x177 x178 x179 x180 x181 x182 x183 x184 x185 x186 x187 x188 x189 x190 x191 x192 x193 x194 x195 x196 x197 x198 x199 x200 x201 x202 x203 x204 x205 x206 x207 x208 x209 x210 x211 x212 x213 x214 x215 x216 x217 x218 x219 x220 x221 x222 x223 x224 x225 x226 x227 x228 x229 x230 x231 x232 x233 x234 x235 x236 x237 x238 x239 x240 x241 x242 x243 x244 x245 x246 x247 x248 x249 x250 x251 x252 x253 x254 x255 x256 x257 x258 x259 x260 x261 x262 x263 x264 x265 x266 x267 x268 x269 x270 x271 x272 x273 x274 x275 x276 x277 x278 x279 x280 x281 x282 x283 x284 x285 x286 x287 x288 x289 x290 x291 x292 x293 x294 x295 x296 x297 x298 x299 x300 x301 x302 x303 x304 x305 x306 x307 x308 x309 x310 x311 x312 x313 x314 x315 x316 x317 x318 x319 x320 x321 x322 x323 x324 x325 x326 x327 x328 x329 x330 x331 x332 x333 x334 x335 x336 x337 x338 x339 x340 x341 x342 x343 x344 x345 x346 x347 x348 x349 x350 x351 x352 x353 x354 x355 x356 x357 x358 x359 x360 x361 x362 x363 x364 x365 x366 x367 x368 x369 x370 x371 x372 x373 x374 x375 x376 x377 x378 x379 x380 x381 x382 x383 x384 x385 x386 x387 x388 x389 x390 x391 x392 x393 x394 x395 x396 x397 x398 x399 x400 x401 x402 x403 x404 x405 x406 x407 x408 x409 x410 x411 x412 x413 x414 x415 x416 x417 x418 x419 x420 x421 x422 x423 x424 x425 x426 x427 x428 x429 x430 x431 x432 x433 x434 x435 x436 x437 x438 x439 x440 x441 x442 x443 x444 x445 x446 x447 x448 x449 x450 x451 x452 x453 x454 x455 x456 x457 x458 x459 x460 x461 x462 x463 x464 x465 x466 x467 x468 x469 x470 x471 x472 x473 x474 x475 x476 x477 x478 x479 x480 x481 x482 x483 x484 x485 x486 x487 x488 x489 x490 x491 x492 x493 x494 x495 x496 x497 x498 x499 x500
