maximize
OBJ: + 1 x1 + 1 x2 + 1 x3 + 1 x4 + 1 x5 + 1 x6 + 1 x7 + 1 x8 + 1 x9 + 1 x10 + 1 x11 + 1 x12 + 1 x13 + 1 x14 + 1 x15 + 1 x16 + 1 x17 + 1 x18 + 1 x19 + 1 x20 + 1 x21 + 1 x22 + 1 x23 + 1 x24 + 1 x25 + 1 x26 + 1 x27 + 1 x28 + 1 x29 + 1 x30 + 1 x31 + 1 x32 + 1 x33 + 1 x34 + 1 x35 + 1 x36 + 1 x37 + 1 x38 + 1 x39 + 1 x40 + 1 x41 + 1 x42 + 1 x43 + 1 x44 + 1 x45 + 1 x46 + 1 x47 + 1 x48 + 1 x49 + 1 x50 + 1 x51 + 1 x52 + 1 x53 + 1 x54 + 1 x55 + 1 x56 + 1 x57 + 1 x58 + 1 x59 + 1 x60 + 1 x61 + 1 x62 + 1 x63 + 1 x64 + 1 x65 + 1 x66 + 1 x67 + 1 x68 + 1 x69 + 1 x70 + 1 x71 + 1 x72 + 1 x73 + 1 x74 + 1 x75 + 1 x76 + 1 x77 + 1 x78 + 1 x79 + 1 x80 + 1 x81 + 1 x82 + 1 x83 + 1 x84 + 1 x85 + 1 x86 + 1 x87 + 1 x88 + 1 x89 + 1 x90 + 1 x91 + 1 x92 + 1 x93 + 1 x94 + 1 x95 + 1 x96 + 1 x97 + 1 x98 + 1 x99 + 1 x100 + 1 x101 + 1 x102 + 1 x103 + 1 x104 + 1 x105 + 1 x106 + 1 x107 + 1 x108 + 1 x109 + 1 x110 + 1 x111 + 1 x112 + 1 x113 + 1 x114 + 1 x115 + 1 x116 + 1 x117 + 1 x118 + 1 x119 + 1 x120 + 1 x121 + 1 x122 + 1 x123 + 1 x124 + 1 x125 + 1 x126 + 1 x127 + 1 x128 + 1 x129 + 1 x130 + 1 x131 + 1 x132 + 1 x133 + 1 x134 + 1 x135 + 1 x136 + 1 x137 + 1 x138 + 1 x139 + 1 x140 + 1 x141 + 1 x142 + 1 x143 + 1 x144 + 1 x145 + 1 x146 + 1 x147 + 1 x148 + 1 x149 + 1 x150 + 1 x151 + 1 x152 + 1 x153 + 1 x154 + 1 x155 + 1 x156 + 1 x157 + 1 x158 + 1 x159 + 1 x160 + 1 x161 + 1 x162 + 1 x163 + 1 x164 + 1 x165 + 1 x166 + 1 x167 + 1 x168 + 1 x169 + 1 x170 + 1 x171 + 1 x172 + 1 x173 + 1 x174 + 1 x175 + 1 x176 + 1 x177 + 1 x178 + 1 x179 + 1 x180 + 1 x181 + 1 x182 + 1 x183 + 1 x184 + 1 x185 + 1 x186 + 1 x187 + 1 x188 + 1 x189 + 1 x190 + 1 x191 + 1 x192 + 1 x193 + 1 x194 + 1 x195 + 1 x196 + 1 x197 + 1 x198 + 1 x199 + 1 x200 + 1 x201 + 1 x202 + 1 x203 + 1 x204 + 1 x205 + 1 x206 + 1 x207 + 1 x208 + 1 x209 + 1 x210 + 1 x211 + 1 x212 + 1 x213 + 1 x214 + 1 x215 + 1 x216 + 1 x217 + 1 x218 + 1 x219 + 1 x220 + 1 x221 + 1 x222 + 1 x223 + 1 x224 + 1 x225 + 1 x226 + 1 x227 + 1 x228 + 1 x229 + 1 x230 + 1 x231 + 1 x232 + 1 x233 + 1 x234 + 1 x235 + 1 x236 + 1 x237 + 1 x238 + 1 x239 + 1 x240 + 1 x241 + 1 x242 + 1 x243 + 1 x244 + 1 x245 + 1 x246 + 1 x247 + 1 x248 + 1 x249 + 1 x250 + 1 x251 + 1 x252 + 1 x253 + 1 x254 + 1 x255 + 1 x256 + 1 x257 + 1 x258 + 1 x259 + 1 x260 + 1 x261 + 1 x262 + 1 x263 + 1 x264 + 1 x265 + 1 x266 + 1 x267 + 1 x268 + 1 x269 + 1 x270 + 1 x271 + 1 x272 + 1 x273 + 1 x274 + 1 x275 + 1 x276 + 1 x277 + 1 x278 + 1 x279 + 1 x280 + 1 x281 + 1 x282 + 1 x283 + 1 x284 + 1 x285 + 1 x286 + 1 x287 + 1 x288 + 1 x289 + 1 x290 + 1 x291 + 1 x292 + 1 x293 + 1 x294 + 1 x295 + 1 x296 + 1 x297 + 1 x298 + 1 x299 + 1 x300 + 1 x301 + 1 x302 + 1 x303 + 1 x304 + 1 x305 + 1 x306 + 1 x307 + 1 x308 + 1 x309 + 1 x310 + 1 x311 + 1 x312 + 1 x313 + 1 x314 + 1 x315 + 1 x316 + 1 x317 + 1 x318 + 1 x319 + 1 x320 + 1 x321 + 1 x322 + 1 x323 + 1 x324 + 1 x325 + 1 x326 + 1 x327 + 1 x328 + 1 x329 + 1 x330 + 1 x331 + 1 x332 + 1 x333 + 1 x334 + 1 x335 + 1 x336 + 1 x337 + 1 x338 + 1 x339 + 1 x340 + 1 x341 + 1 x342 + 1 x343 + 1 x344 + 1 x345 + 1 x346 + 1 x347 + 1 x348 + 1 x349 + 1 x350 + 1 x351 + 1 x352 + 1 x353 + 1 x354 + 1 x355 + 1 x356 + 1 x357 + 1 x358 + 1 x359 + 1 x360 + 1 x361 + 1 x362 + 1 x363 + 1 x364 + 1 x365 + 1 x366 + 1 x367 + 1 x368 + 1 x369 + 1 x370 + 1 x371 + 1 x372 + 1 x373 + 1 x374 + 1 x375 + 1 x376 + 1 x377 + 1 x378 + 1 x379 + 1 x380 + 1 x381 + 1 x382 + 1 x383 + 1 x384 + 1 x385 + 1 x386 + 1 x387 + 1 x388 + 1 x389 + 1 x390 + 1 x391 + 1 x392 + 1 x393 + 1 x394 + 1 x395 + 1 x396 + 1 x397 + 1 x398 + 1 x399 + 1 x400 + 1 x401 + 1 x402 + 1 x403 + 1 x404 + 1 x405 + 1 x406 + 1 x407 + 1 x408 + 1 x409 + 1 x410 + 1 x411 + 1 x412 + 1 x413 + 1 x414 + 1 x415 + 1 x416 + 1 x417 + 1 x418 + 1 x419 + 1 x420 + 1 x421 + 1 x422 + 1 x423 + 1 x424 + 1 x425 + 1 x426 + 1 x427 + 1 x428 + 1 x429 + 1 x430 + 1 x431 + 1 x432 + 1 x433 + 1 x434 + 1 x435 + 1 x436 + 1 x437 + 1 x438 + 1 x439 + 1 x440 + 1 x441 + 1 x442 + 1 x443 + 1 x444 + 1 x445 + 1 x446 + 1 x447 + 1 x448 + 1 x449 + 1 x450 + 1 x451 + 1 x452 + 1 x453 + 1 x454 + 1 x455 + 1 x456 + 1 x457 + 1 x458 + 1 x459 + 1 x460 + 1 x461 + 1 x462 + 1 x463 + 1 x464 + 1 x465 + 1 x466 + 1 x467 + 1 x468 + 1 x469 + 1 x470 + 1 x471 + 1 x472 + 1 x473 + 1 x474 + 1 x475 + 1 x476 + 1 x477 + 1 x478 + 1 x479 + 1 x480 + 1 x481 + 1 x482 + 1 x483 + 1 x484 + 1 x485 + 1 x486 + 1 x487 + 1 x488 + 1 x489 + 1 x490 + 1 x491 + 1 x492 + 1 x493 + 1 x494 + 1 x495 + 1 x496 + 1 x497 + 1 x498 + 1 x499 + 1 x500

subject to
C1: + x106 + x334 <= 1
C2: + x177 + x191 <= 1
C3: + x15 + x345 <= 1
C4: + x7 + x406 <= 1
C5: + x128 + x242 <= 1
C6: + x30 + x45 <= 1
C7: + x77 + x101 <= 1
C8: + x129 + x223 <= 1
C9: + x2 + x65 <= 1
C10: + x136 + x140 <= 1
C11: + x21 + x274 <= 1
C12: + x67 + x143 <= 1
C13: + x23 + x118 <= 1
C14: + x30 + x315 <= 1
C15: + x100 + x313 <= 1
C16: + x14 + x33 <= 1
C17: + x173 + x240 <= 1
C18: + x103 + x296 <= 1
C19: + x50 + x426 <= 1
C20: + x56 + x81 <= 1
C21: + x3 + x276 <= 1
C22: + x171 + x369 <= 1
C23: + x63 + x163 <= 1
C24: + x239 + x281 <= 1
C25: + x77 + x89 <= 1
C26: + x5 + x347 <= 1
C27: + x6 + x85 <= 1
C28: + x81 + x156 <= 1
C29: + x137 + x158 <= 1
C30: + x10 + x479 <= 1
C31: + x127 + x267 <= 1
C32: + x75 + x277 <= 1
C33: + x14 + x21 <= 1
C34: + x126 + x272 <= 1
C35: + x90 + x343 <= 1
C36: + x118 + x206 <= 1
C37: + x8 + x99 <= 1
C38: + x7 + x337 <= 1
C39: + x29 + x230 <= 1
C40: + x39 + x229 <= 1
C41: + x35 + x221 <= 1
C42: + x281 + x296 <= 1
C43: + x3 + x54 <= 1
C44: + x142 + x177 <= 1
C45: + x6 + x25 <= 1
C46: + x173 + x179 <= 1
C47: + x11 + x86 <= 1
C48: + x4 + x148 <= 1
C49: + x13 + x255 <= 1
C50: + x207 + x431 <= 1
C51: + x26 + x163 <= 1
C52: + x100 + x104 <= 1
C53: + x14 + x201 <= 1
C54: + x121 + x225 <= 1
C55: + x90 + x176 <= 1
C56: + x96 + x244 <= 1
C57: + x70 + x306 <= 1
C58: + x82 + x140 <= 1
C59: + x33 + x359 <= 1
C60: + x297 + x415 <= 1
C61: + x125 + x213 <= 1
C62: + x227 + x269 <= 1
C63: + x240 + x404 <= 1
C64: + x58 + x113 <= 1
C65: + x34 + x474 <= 1
C66: + x153 + x232 <= 1
C67: + x44 + x70 <= 1
C68: + x189 + x268 <= 1
C69: + x30 + x235 <= 1
C70: + x132 + x149 + x208 <= 1
C71: + x151 + x276 <= 1
C72: + x27 + x169 <= 1
C73: + x2 + x468 <= 1
C74: + x3 + x13 <= 1
C75: + x72 + x94 <= 1
C76: + x101 + x130 <= 1
C77: + x206 + x258 <= 1
C78: + x125 + x339 <= 1
C79: + x345 + x372 <= 1
C80: + x16 + x89 <= 1
C81: + x8 + x16 <= 1
C82: + x5 + x261 <= 1
C83: + x15 + x456 <= 1
C84: + x63 + x222 <= 1
C85: + x2 + x496 <= 1
C86: + x75 + x240 <= 1
C87: + x318 + x385 <= 1
C88: + x41 + x404 <= 1
C89: + x105 + x340 <= 1
C90: + x44 + x316 <= 1
C91: + x10 + x51 <= 1
C92: + x373 + x390 <= 1
C93: + x47 + x394 <= 1
C94: + x92 + x137 <= 1
C95: + x1 + x202 <= 1
C96: + x269 + x375 <= 1
C97: + x199 + x244 <= 1
C98: + x154 + x427 <= 1
C99: + x6 + x71 <= 1
C100: + x27 + x257 <= 1
C101: + x180 + x465 <= 1
C102: + x2 + x444 <= 1
C103: + x138 + x215 <= 1
C104: + x30 + x321 <= 1
C105: + x31 + x87 <= 1
C106: + x100 + x170 <= 1
C107: + x1 + x6 <= 1
C108: + x48 + x74 <= 1
C109: + x30 + x228 <= 1
C110: + x4 + x456 <= 1
C111: + x252 + x483 <= 1
C112: + x10 + x346 <= 1
C113: + x102 + x489 <= 1
C114: + x38 + x447 <= 1
C115: + x10 + x20 + x23 <= 1
C116: + x5 + x381 <= 1
C117: + x128 + x498 <= 1
C118: + x228 + x334 <= 1
C119: + x120 + x125 <= 1
C120: + x13 + x237 <= 1
C121: + x5 + x18 <= 1
C122: + x81 + x99 <= 1
C123: + x17 + x291 <= 1
C124: + x109 + x185 <= 1
C125: + x2 + x326 <= 1
C126: + x171 + x475 <= 1
C127: + x36 + x305 <= 1
C128: + x199 + x348 <= 1
C129: + x109 + x478 <= 1
C130: + x311 + x363 <= 1
C131: + x38 + x483 <= 1
C132: + x8 + x428 <= 1
C133: + x42 + x45 <= 1
C134: + x4 + x303 <= 1
C135: + x29 + x45 <= 1
C136: + x154 + x222 <= 1
C137: + x15 + x108 <= 1
C138: + x75 + x76 <= 1
C139: + x233 + x376 <= 1
C140: + x114 + x157 <= 1
C141: + x125 + x318 <= 1
C142: + x6 + x301 <= 1
C143: + x391 + x449 <= 1
C144: + x158 + x460 <= 1
C145: + x331 + x464 <= 1
C146: + x4 + x448 <= 1
C147: + x340 + x409 <= 1
C148: + x109 + x402 <= 1
C149: + x64 + x131 <= 1
C150: + x2 + x445 <= 1
C151: + x104 + x247 <= 1
C152: + x215 + x299 <= 1
C153: + x280 + x378 <= 1
C154: + x120 + x197 <= 1
C155: + x141 + x405 <= 1
C156: + x33 + x246 <= 1
C157: + x13 + x418 <= 1
C158: + x20 + x59 <= 1
C159: + x3 + x31 <= 1
C160: + x81 + x189 <= 1
C161: + x7 + x132 <= 1
C162: + x74 + x254 <= 1
C163: + x30 + x366 <= 1
C164: + x6 + x151 <= 1
C165: + x8 + x126 <= 1
C166: + x137 + x401 <= 1
C167: + x20 + x172 <= 1
C168: + x48 + x155 <= 1
C169: + x205 + x265 <= 1
C170: + x28 + x137 + x403 <= 1
C171: + x5 + x267 <= 1
C172: + x73 + x121 <= 1
C173: + x7 + x19 <= 1
C174: + x352 + x422 <= 1
C175: + x8 + x147 <= 1
C176: + x175 + x205 <= 1
C177: + x285 + x483 <= 1
C178: + x333 + x370 <= 1
C179: + x254 + x409 <= 1
C180: + x91 + x434 <= 1
C181: + x93 + x430 <= 1
C182: + x7 + x430 <= 1
C183: + x8 + x50 <= 1
C184: + x46 + x255 <= 1
C185: + x42 + x167 <= 1
C186: + x342 + x398 <= 1
C187: + x79 + x222 <= 1
C188: + x15 + x30 <= 1
C189: + x82 + x171 <= 1
C190: + x7 + x236 <= 1
C191: + x137 + x428 <= 1
C192: + x158 + x374 <= 1
C193: + x14 + x156 <= 1
C194: + x263 + x291 <= 1
C195: + x47 + x193 <= 1
C196: + x9 + x465 <= 1
C197: + x155 + x276 <= 1
C198: + x348 + x382 <= 1
C199: + x13 + x227 <= 1
C200: + x244 + x445 <= 1
C201: + x15 + x320 <= 1
C202: + x156 + x406 <= 1
C203: + x457 + x493 <= 1
C204: + x187 + x279 <= 1
C205: + x165 + x462 <= 1
C206: + x284 + x299 <= 1
C207: + x41 + x393 <= 1
C208: + x8 + x317 <= 1
C209: + x72 + x125 <= 1
C210: + x25 + x288 <= 1
C211: + x7 + x421 <= 1
C212: + x8 + x47 <= 1
C213: + x28 + x251 <= 1
C214: + x123 + x181 <= 1
C215: + x68 + x151 <= 1
C216: + x38 + x473 <= 1
C217: + x30 + x300 <= 1
C218: + x370 + x419 <= 1
C219: + x218 + x495 <= 1
C220: + x45 + x50 <= 1
C221: + x8 + x192 <= 1
C222: + x49 + x53 <= 1
C223: + x44 + x205 <= 1
C224: + x20 + x73 <= 1
C225: + x203 + x224 <= 1
C226: + x119 + x407 <= 1
C227: + x8 + x205 <= 1
C228: + x2 + x14 <= 1
C229: + x155 + x216 <= 1
C230: + x22 + x67 <= 1
C231: + x13 + x154 <= 1
C232: + x87 + x113 <= 1
C233: + x24 + x234 <= 1
C234: + x63 + x285 <= 1
C235: + x74 + x414 <= 1
C236: + x111 + x194 <= 1
C237: + x241 + x289 <= 1
C238: + x29 + x41 + x52 <= 1
C239: + x160 + x309 <= 1
C240: + x7 + x13 <= 1
C241: + x28 + x323 <= 1
C242: + x1 + x214 <= 1
C243: + x265 + x291 <= 1
C244: + x30 + x180 <= 1
C245: + x21 + x153 <= 1
C246: + x297 + x354 <= 1
C247: + x5 + x51 <= 1
C248: + x96 + x116 <= 1
C249: + x9 + x54 <= 1
C250: + x8 + x40 <= 1
C251: + x113 + x157 <= 1
C252: + x122 + x200 <= 1
C253: + x70 + x176 <= 1
C254: + x7 + x57 <= 1
C255: + x74 + x165 <= 1
C256: + x138 + x320 <= 1
C257: + x55 + x71 <= 1
C258: + x14 + x43 <= 1
C259: + x24 + x360 <= 1
C260: + x73 + x144 <= 1
C261: + x154 + x253 <= 1
C262: + x102 + x170 <= 1
C263: + x230 + x485 <= 1
C264: + x5 + x103 <= 1
C265: + x38 + x81 + x388 <= 1
C266: + x88 + x306 <= 1
C267: + x121 + x156 <= 1
C268: + x12 + x420 <= 1
C269: + x61 + x233 <= 1
C270: + x1 + x300 <= 1
C271: + x232 + x338 <= 1
C272: + x287 + x308 <= 1
C273: + x6 + x130 <= 1
C274: + x417 + x447 <= 1
C275: + x17 + x212 <= 1
C276: + x148 + x319 <= 1
C277: + x1 + x475 <= 1
C278: + x203 + x328 <= 1
C279: + x204 + x352 <= 1
C280: + x20 + x465 <= 1
C281: + x85 + x86 <= 1
C282: + x57 + x442 <= 1
C283: + x17 + x315 <= 1
C284: + x8 + x29 <= 1
C285: + x222 + x368 <= 1
C286: + x99 + x475 <= 1
C287: + x7 + x52 <= 1
C288: + x9 + x410 <= 1
C289: + x136 + x342 <= 1
C290: + x121 + x489 <= 1
C291: + x79 + x84 <= 1
C292: + x13 + x57 <= 1
C293: + x25 + x314 <= 1
C294: + x270 + x384 <= 1
C295: + x143 + x248 <= 1
C296: + x54 + x473 <= 1
C297: + x36 + x119 <= 1
C298: + x8 + x98 <= 1
C299: + x28 + x182 <= 1
C300: + x320 + x340 <= 1
C301: + x301 + x494 <= 1
C302: + x129 + x135 <= 1
C303: + x313 + x484 <= 1
C304: + x85 + x93 <= 1
C305: + x350 + x494 <= 1
C306: + x31 + x497 <= 1
C307: + x6 + x28 <= 1
C308: + x197 + x452 <= 1
C309: + x15 + x79 <= 1
C310: + x28 + x35 <= 1
C311: + x11 + x87 <= 1
C312: + x201 + x476 <= 1
C313: + x171 + x256 <= 1
C314: + x41 + x269 <= 1
C315: + x323 + x416 <= 1
C316: + x34 + x46 <= 1
C317: + x2 + x69 <= 1
C318: + x202 + x445 <= 1
C319: + x279 + x435 <= 1
C320: + x73 + x190 <= 1
C321: + x1 + x256 <= 1
C322: + x11 + x155 <= 1
C323: + x211 + x307 <= 1
C324: + x213 + x435 <= 1
C325: + x4 + x91 <= 1
C326: + x5 + x85 <= 1
C327: + x13 + x56 <= 1
C328: + x26 + x234 <= 1
C329: + x161 + x169 <= 1
C330: + x57 + x106 <= 1
C331: + x86 + x469 <= 1
C332: + x124 + x437 <= 1
C333: + x178 + x487 <= 1
C334: + x4 + x333 <= 1
C335: + x144 + x245 <= 1
C336: + x8 + x365 <= 1
C337: + x2 + x17 <= 1
C338: + x11 + x110 <= 1
C339: + x87 + x134 <= 1
C340: + x1 + x12 <= 1
C341: + x166 + x283 <= 1
C342: + x13 + x108 <= 1
C343: + x87 + x428 <= 1
C344: + x15 + x437 <= 1
C345: + x187 + x299 <= 1
C346: + x226 + x350 <= 1
C347: + x46 + x75 <= 1
C348: + x56 + x136 <= 1
C349: + x56 + x371 <= 1
C350: + x66 + x159 <= 1
C351: + x11 + x420 <= 1
C352: + x198 + x453 <= 1
C353: + x82 + x212 <= 1
C354: + x72 + x97 <= 1
C355: + x1 + x374 <= 1
C356: + x223 + x469 <= 1
C357: + x180 + x306 <= 1
C358: + x15 + x296 <= 1
C359: + x8 + x19 <= 1
C360: + x75 + x499 <= 1
C361: + x58 + x411 <= 1
C362: + x48 + x140 <= 1
C363: + x379 + x390 <= 1
C364: + x134 + x225 <= 1
C365: + x136 + x253 <= 1
C366: + x84 + x184 <= 1
C367: + x165 + x470 <= 1
C368: + x4 + x293 <= 1
C369: + x54 + x442 <= 1
C370: + x2 + x249 <= 1
C371: + x13 + x47 <= 1
C372: + x5 + x425 <= 1
C373: + x26 + x243 <= 1
C374: + x298 + x419 <= 1
C375: + x101 + x432 <= 1
C376: + x52 + x126 <= 1
C377: + x38 + x51 <= 1
C378: + x323 + x427 <= 1
C379: + x16 + x145 <= 1
C380: + x63 + x313 <= 1
C381: + x102 + x137 <= 1
C382: + x56 + x122 <= 1
C383: + x30 + x231 <= 1
C384: + x213 + x398 <= 1
C385: + x226 + x343 <= 1
C386: + x36 + x196 <= 1
C387: + x298 + x367 <= 1
C388: + x46 + x68 <= 1
C389: + x38 + x103 <= 1
C390: + x124 + x410 <= 1
C391: + x150 + x259 <= 1
C392: + x6 + x14 <= 1
C393: + x92 + x270 <= 1
C394: + x92 + x241 <= 1
C395: + x75 + x153 <= 1
C396: + x103 + x154 <= 1
C397: + x49 + x412 <= 1
C398: + x56 + x495 <= 1
C399: + x269 + x319 <= 1
C400: + x17 + x304 <= 1
C401: + x52 + x452 <= 1
C402: + x218 + x419 <= 1
C403: + x72 + x332 <= 1
C404: + x237 + x395 <= 1
C405: + x297 + x350 <= 1
C406: + x317 + x334 <= 1
C407: + x8 + x12 <= 1
C408: + x30 + x59 <= 1
C409: + x24 + x37 <= 1
C410: + x92 + x443 <= 1
C411: + x84 + x266 <= 1
C412: + x11 + x44 <= 1
C413: + x13 + x321 <= 1
C414: + x5 + x166 <= 1
C415: + x53 + x355 <= 1
C416: + x6 + x304 <= 1
C417: + x7 + x440 <= 1
C418: + x36 + x157 <= 1
C419: + x138 + x421 <= 1
C420: + x230 + x380 <= 1
C421: + x43 + x55 <= 1
C422: + x1 + x312 <= 1
C423: + x328 + x362 <= 1
C424: + x75 + x224 <= 1
C425: + x38 + x298 <= 1
C426: + x11 + x32 <= 1
C427: + x29 + x339 <= 1
C428: + x296 + x321 <= 1
C429: + x17 + x363 <= 1
C430: + x219 + x280 <= 1
C431: + x29 + x248 <= 1
C432: + x51 + x284 <= 1
C433: + x31 + x329 <= 1
C434: + x61 + x100 <= 1
C435: + x16 + x61 <= 1
C436: + x2 + x297 <= 1
C437: + x49 + x310 <= 1
C438: + x12 + x444 <= 1
C439: + x106 + x293 <= 1
C440: + x34 + x72 <= 1
C441: + x6 + x119 <= 1
C442: + x180 + x481 <= 1
C443: + x164 + x379 <= 1
C444: + x155 + x199 <= 1
C445: + x83 + x287 <= 1
C446: + x5 + x30 <= 1
C447: + x90 + x190 <= 1
C448: + x17 + x236 <= 1
C449: + x25 + x330 <= 1
C450: + x6 + x357 <= 1
C451: + x100 + x154 <= 1
C452: + x84 + x436 <= 1
C453: + x21 + x25 <= 1
C454: + x250 + x357 <= 1
C455: + x6 + x392 <= 1
C456: + x7 + x32 <= 1
C457: + x63 + x201 <= 1
C458: + x8 + x424 <= 1
C459: + x3 + x88 <= 1
C460: + x258 + x454 <= 1
C461: + x31 + x402 <= 1
C462: + x43 + x431 <= 1
C463: + x154 + x277 <= 1
C464: + x1 + x197 <= 1
C465: + x5 + x66 <= 1
C466: + x171 + x362 <= 1
C467: + x17 + x168 <= 1
C468: + x237 + x438 <= 1
C469: + x21 + x109 <= 1
C470: + x5 + x308 <= 1
C471: + x79 + x223 <= 1
C472: + x18 + x459 <= 1
C473: + x8 + x348 <= 1
C474: + x2 + x124 <= 1
C475: + x138 + x196 <= 1
C476: + x33 + x488 <= 1
C477: + x14 + x60 <= 1
C478: + x6 + x239 <= 1
C479: + x248 + x400 <= 1
C480: + x56 + x80 <= 1
C481: + x107 + x184 <= 1
C482: + x1 + x446 <= 1
C483: + x57 + x75 <= 1
C484: + x3 + x27 <= 1
C485: + x41 + x346 <= 1
C486: + x252 + x347 <= 1
C487: + x53 + x301 <= 1
C488: + x1 + x347 <= 1
C489: + x301 + x353 <= 1
C490: + x77 + x155 <= 1
C491: + x13 + x232 <= 1
C492: + x113 + x183 <= 1
C493: + x29 + x131 <= 1
C494: + x103 + x373 <= 1
C495: + x60 + x69 <= 1
C496: + x51 + x327 <= 1
C497: + x323 + x484 <= 1
C498: + x7 + x23 <= 1
C499: + x53 + x212 <= 1
C500: + x62 + x71 <= 1
C501: + x152 + x197 <= 1
C502: + x1 + x220 <= 1
C503: + x157 + x178 <= 1
C504: + x52 + x81 <= 1
C505: + x6 + x274 <= 1
C506: + x8 + x46 <= 1
C507: + x228 + x386 <= 1
C508: + x156 + x429 <= 1
C509: + x18 + x452 <= 1
C510: + x54 + x75 <= 1
C511: + x155 + x332 <= 1
C512: + x22 + x114 <= 1
C513: + x214 + x434 <= 1
C514: + x2 + x160 <= 1
C515: + x47 + x108 <= 1
C516: + x13 + x16 <= 1
C517: + x217 + x489 <= 1
C518: + x188 + x258 <= 1
C519: + x27 + x130 <= 1
C520: + x174 + x303 <= 1
C521: + x241 + x479 <= 1
C522: + x67 + x214 <= 1
C523: + x150 + x286 <= 1
C524: + x32 + x496 <= 1
C525: + x2 + x9 <= 1
C526: + x13 + x159 <= 1
C527: + x27 + x49 <= 1
C528: + x100 + x136 <= 1
C529: + x157 + x282 <= 1
C530: + x12 + x116 <= 1
C531: + x33 + x280 <= 1
C532: + x49 + x203 <= 1
C533: + x359 + x492 <= 1
C534: + x14 + x122 <= 1
C535: + x243 + x249 <= 1
C536: + x237 + x263 <= 1
C537: + x146 + x322 <= 1
C538: + x8 + x136 <= 1
C539: + x41 + x42 <= 1
C540: + x284 + x462 <= 1
C541: + x243 + x487 <= 1
C542: + x34 + x180 <= 1
C543: + x20 + x129 <= 1
C544: + x21 + x115 <= 1
C545: + x165 + x446 <= 1
C546: + x57 + x287 <= 1
C547: + x247 + x260 <= 1
C548: + x39 + x467 <= 1
C549: + x265 + x399 <= 1
C550: + x139 + x198 <= 1
C551: + x6 + x209 <= 1
C552: + x47 + x274 <= 1
C553: + x212 + x339 <= 1
C554: + x8 + x188 <= 1
C555: + x47 + x115 <= 1
C556: + x39 + x64 <= 1
C557: + x197 + x241 <= 1
C558: + x79 + x348 <= 1
C559: + x202 + x204 <= 1
C560: + x43 + x88 <= 1
C561: + x193 + x387 <= 1
C562: + x4 + x249 <= 1
C563: + x5 + x11 <= 1
C564: + x88 + x127 <= 1
C565: + x6 + x133 <= 1
C566: + x151 + x272 <= 1
C567: + x235 + x372 <= 1
C568: + x183 + x399 <= 1
C569: + x58 + x283 <= 1
C570: + x6 + x22 <= 1
C571: + x36 + x391 <= 1
C572: + x137 + x221 <= 1
C573: + x10 + x83 <= 1
C574: + x276 + x482 <= 1
C575: + x31 + x40 <= 1
C576: + x69 + x290 <= 1
C577: + x470 + x500 <= 1
C578: + x27 + x208 <= 1
C579: + x8 + x36 <= 1
C580: + x4 + x407 <= 1
C581: + x98 + x472 <= 1
C582: + x17 + x42 <= 1
C583: + x7 + x61 <= 1
C584: + x9 + x407 <= 1
C585: + x102 + x115 <= 1
C586: + x20 + x412 <= 1
C587: + x27 + x127 <= 1
C588: + x74 + x351 <= 1
C589: + x29 + x220 <= 1
C590: + x293 + x484 <= 1
C591: + x214 + x295 <= 1
C592: + x14 + x138 <= 1
C593: + x55 + x246 <= 1
C594: + x310 + x441 <= 1
C595: + x204 + x209 <= 1
C596: + x7 + x105 <= 1
C597: + x15 + x217 <= 1
C598: + x279 + x497 <= 1
C599: + x81 + x408 <= 1
C600: + x205 + x255 <= 1
C601: + x9 + x82 <= 1
C602: + x6 + x31 <= 1
C603: + x100 + x336 <= 1
C604: + x173 + x181 <= 1
C605: + x13 + x193 <= 1
C606: + x34 + x283 <= 1
C607: + x153 + x167 <= 1
C608: + x6 + x269 <= 1
C609: + x27 + x215 <= 1
C610: + x149 + x385 <= 1
C611: + x50 + x227 <= 1
C612: + x13 + x499 <= 1
C613: + x52 + x195 <= 1
C614: + x4 + x416 <= 1
C615: + x26 + x124 <= 1
C616: + x257 + x458 <= 1
C617: + x47 + x292 <= 1
C618: + x87 + x203 <= 1
C619: + x6 + x195 <= 1
C620: + x154 + x317 <= 1
C621: + x8 + x170 <= 1
C622: + x4 + x90 <= 1
C623: + x125 + x223 <= 1
C624: + x7 + x455 <= 1
C625: + x8 + x461 <= 1
C626: + x2 + x270 <= 1
C627: + x392 + x487 <= 1
C628: + x39 + x139 <= 1
C629: + x78 + x166 <= 1
C630: + x5 + x348 <= 1
C631: + x6 + x84 <= 1
C632: + x400 + x423 <= 1
C633: + x136 + x262 <= 1
C634: + x58 + x111 <= 1
C635: + x52 + x302 <= 1
C636: + x6 + x247 <= 1
C637: + x18 + x209 <= 1
C638: + x25 + x191 <= 1
C639: + x74 + x111 <= 1
C640: + x11 + x421 <= 1
C641: + x9 + x310 <= 1
C642: + x213 + x491 <= 1
C643: + x45 + x140 <= 1
C644: + x8 + x18 <= 1
C645: + x7 + x398 <= 1
C646: + x199 + x206 <= 1
C647: + x1 + x69 <= 1
C648: + x56 + x60 <= 1
C649: + x78 + x480 <= 1
C650: + x62 + x220 <= 1
C651: + x39 + x456 <= 1
C652: + x13 + x335 <= 1
C653: + x269 + x377 <= 1
C654: + x12 + x15 <= 1
C655: + x243 + x297 <= 1
C656: + x52 + x152 <= 1
C657: + x105 + x282 <= 1
C658: + x77 + x182 <= 1
C659: + x1 + x34 + x73 <= 1
C660: + x299 + x453 <= 1
C661: + x4 + x11 <= 1
C662: + x154 + x493 <= 1
C663: + x16 + x43 <= 1
C664: + x29 + x464 <= 1
C665: + x86 + x96 <= 1
C666: + x124 + x389 <= 1
C667: + x34 + x74 <= 1
C668: + x155 + x264 <= 1
C669: + x5 + x44 <= 1
C670: + x6 + x164 <= 1
C671: + x6 + x383 <= 1
C672: + x79 + x492 <= 1
C673: + x8 + x15 <= 1
C674: + x247 + x451 <= 1
C675: + x52 + x209 <= 1
C676: + x62 + x213 <= 1
C677: + x255 + x387 <= 1
C678: + x190 + x341 <= 1
C679: + x52 + x368 <= 1
C680: + x6 + x53 <= 1
C681: + x270 + x285 <= 1
C682: + x381 + x482 <= 1
C683: + x46 + x361 <= 1
C684: + x183 + x190 <= 1
C685: + x4 + x72 <= 1
C686: + x98 + x364 <= 1
C687: + x9 + x27 <= 1
C688: + x93 + x473 <= 1
C689: + x26 + x402 <= 1
C690: + x145 + x189 <= 1
C691: + x82 + x259 <= 1
C692: + x1 + x7 <= 1
C693: + x219 + x265 <= 1
C694: + x13 + x31 <= 1
C695: + x206 + x244 <= 1
C696: + x143 + x373 <= 1
C697: + x3 + x5 <= 1
C698: + x56 + x328 <= 1
C699: + x52 + x169 <= 1
C700: + x5 + x382 <= 1
C701: + x6 + x10 <= 1
C702: + x8 + x278 <= 1
C703: + x8 + x225 <= 1
C704: + x17 + x292 <= 1
C705: + x35 + x95 <= 1
C706: + x233 + x490 <= 1
C707: + x88 + x353 <= 1
C708: + x54 + x177 <= 1
C709: + x57 + x141 <= 1
C710: + x19 + x298 <= 1
C711: + x3 + x89 <= 1
C712: + x86 + x173 <= 1
C713: + x12 + x371 <= 1
C714: + x20 + x275 <= 1
C715: + x24 + x146 <= 1
C716: + x7 + x428 <= 1
C717: + x8 + x60 <= 1
C718: + x2 + x273 <= 1
C719: + x312 + x393 <= 1
C720: + x17 + x450 <= 1
C721: + x71 + x149 <= 1
C722: + x8 + x351 <= 1
C723: + x57 + x217 <= 1
C724: + x38 + x470 <= 1
C725: + x128 + x161 <= 1
C726: + x47 + x94 <= 1
C727: + x305 + x333 <= 1
C728: + x78 + x407 <= 1
C729: + x13 + x22 <= 1
C730: + x377 + x480 <= 1
C731: + x20 + x62 <= 1
C732: + x30 + x458 <= 1
C733: + x16 + x352 <= 1
C734: + x1 + x141 <= 1
C735: + x8 + x218 <= 1
C736: + x194 + x294 <= 1
C737: + x22 + x64 <= 1
C738: + x5 + x26 <= 1
C739: + x117 + x263 <= 1
C740: + x43 + x284 <= 1
C741: + x124 + x260 <= 1
C742: + x7 + x20 <= 1
C743: + x136 + x239 <= 1
C744: + x38 + x491 <= 1
C745: + x446 + x491 <= 1
C746: + x277 + x449 <= 1
C747: + x52 + x80 <= 1
C748: + x154 + x444 <= 1
C749: + x26 + x100 <= 1
C750: + x1 + x259 <= 1
C751: + x64 + x322 <= 1
C752: + x77 + x163 <= 1
C753: + x31 + x66 <= 1
C754: + x9 + x323 <= 1
C755: + x27 + x98 <= 1
C756: + x27 + x437 <= 1
C757: + x57 + x498 <= 1
C758: + x67 + x457 <= 1
C759: + x158 + x373 <= 1
C760: + x17 + x88 <= 1
C761: + x156 + x488 <= 1
C762: + x21 + x490 <= 1
C763: + x22 + x486 <= 1
C764: + x19 + x86 <= 1
C765: + x2 + x12 <= 1
C766: + x10 + x121 <= 1
C767: + x21 + x335 <= 1
C768: + x8 + x215 <= 1
C769: + x141 + x356 <= 1
C770: + x161 + x253 <= 1
C771: + x268 + x423 <= 1
C772: + x145 + x300 <= 1
C773: + x47 + x49 <= 1
C774: + x50 + x381 <= 1
C775: + x13 + x398 <= 1
C776: + x107 + x305 <= 1
C777: + x7 + x11 <= 1
C778: + x10 + x311 <= 1
C779: + x6 + x48 <= 1
C780: + x301 + x401 <= 1
C781: + x47 + x420 <= 1
C782: + x446 + x484 <= 1
C783: + x59 + x401 <= 1
C784: + x14 + x224 <= 1
C785: + x42 + x441 <= 1
C786: + x18 + x37 <= 1
C787: + x7 + x422 <= 1
C788: + x8 + x42 <= 1
C789: + x177 + x433 <= 1
C790: + x11 + x497 <= 1
C791: + x93 + x331 <= 1
C792: + x21 + x258 <= 1
C793: + x41 + x438 <= 1
C794: + x14 + x49 <= 1
C795: + x52 + x271 <= 1
C796: + x9 + x159 <= 1
C797: + x2 + x148 <= 1
C798: + x122 + x175 <= 1
C799: + x41 + x83 <= 1
C800: + x48 + x104 <= 1
C801: + x213 + x423 <= 1
C802: + x125 + x257 <= 1
C803: + x87 + x413 <= 1
C804: + x21 + x497 <= 1
C805: + x13 + x310 <= 1
C806: + x34 + x86 <= 1
C807: + x142 + x205 <= 1
C808: + x42 + x91 <= 1
C809: + x63 + x112 <= 1
C810: + x5 + x16 <= 1
C811: + x11 + x211 <= 1
C812: + x47 + x60 <= 1
C813: + x29 + x150 <= 1
C814: + x67 + x408 <= 1
C815: + x39 + x245 <= 1
C816: + x70 + x123 <= 1
C817: + x170 + x319 <= 1
C818: + x344 + x443 <= 1
C819: + x26 + x34 <= 1
C820: + x9 + x424 <= 1
C821: + x20 + x24 <= 1
C822: + x3 + x38 <= 1
C823: + x122 + x393 <= 1
C824: + x133 + x287 <= 1
C825: + x63 + x92 <= 1
C826: + x382 + x498 <= 1
C827: + x29 + x261 <= 1
C828: + x81 + x458 <= 1
C829: + x218 + x326 <= 1
C830: + x33 + x173 <= 1
C831: + x17 + x55 <= 1
C832: + x66 + x199 <= 1
C833: + x27 + x116 <= 1
C834: + x217 + x500 <= 1
C835: + x17 + x70 <= 1
C836: + x235 + x237 <= 1
C837: + x54 + x479 <= 1
C838: + x2 + x6 <= 1
C839: + x56 + x463 <= 1
C840: + x89 + x227 <= 1
C841: + x219 + x305 <= 1
C842: + x272 + x303 <= 1
C843: + x320 + x342 <= 1
C844: + x202 + x345 <= 1
C845: + x41 + x134 <= 1
C846: + x4 + x28 <= 1
C847: + x350 + x369 <= 1
C848: + x36 + x304 <= 1
C849: + x113 + x459 <= 1
C850: + x69 + x137 <= 1
C851: + x25 + x466 <= 1
C852: + x7 + x162 <= 1
C853: + x63 + x67 <= 1
C854: + x92 + x314 <= 1
C855: + x74 + x279 <= 1
C856: + x8 + x32 <= 1
C857: + x12 + x89 <= 1
C858: + x78 + x117 <= 1
C859: + x6 + x419 <= 1
C860: + x118 + x430 <= 1
C861: + x129 + x258 <= 1
C862: + x202 + x443 <= 1
C863: + x22 + x400 <= 1
C864: + x152 + x171 <= 1
C865: + x9 + x141 <= 1
C866: + x27 + x386 <= 1
C867: + x25 + x315 <= 1
C868: + x371 + x389 <= 1
C869: + x322 + x436 <= 1
C870: + x3 + x439 <= 1
C871: + x270 + x383 <= 1
C872: + x104 + x202 <= 1
C873: + x6 + x138 <= 1
C874: + x180 + x288 <= 1
C875: + x11 + x197 <= 1
C876: + x301 + x495 <= 1
C877: + x31 + x132 <= 1
C878: + x78 + x495 <= 1
C879: + x248 + x330 <= 1
C880: + x13 + x288 <= 1
C881: + x152 + x240 <= 1
C882: + x63 + x70 <= 1
C883: + x194 + x350 <= 1
C884: + x17 + x307 <= 1
C885: + x198 + x382 <= 1
C886: + x171 + x330 <= 1
C887: + x1 + x66 <= 1
C888: + x8 + x21 <= 1
C889: + x358 + x363 <= 1
C890: + x22 + x310 <= 1
C891: + x27 + x376 <= 1
C892: + x318 + x394 <= 1
C893: + x64 + x175 <= 1
C894: + x11 + x39 <= 1
C895: + x55 + x82 <= 1
C896: + x1 + x241 <= 1
C897: + x211 + x308 <= 1
C898: + x22 + x236 <= 1
C899: + x13 + x49 <= 1
C900: + x107 + x353 <= 1
C901: + x53 + x112 <= 1
C902: + x68 + x358 <= 1
C903: + x81 + x145 <= 1
C904: + x45 + x354 <= 1
C905: + x208 + x377 <= 1
C906: + x11 + x466 <= 1
C907: + x11 + x107 <= 1
C908: + x185 + x306 <= 1
C909: + x203 + x488 <= 1
C910: + x31 + x106 <= 1
C911: + x6 + x243 <= 1
C912: + x151 + x433 <= 1
C913: + x4 + x10 <= 1
C914: + x22 + x363 <= 1
C915: + x5 + x471 <= 1
C916: + x226 + x349 <= 1
C917: + x27 + x171 <= 1
C918: + x92 + x489 <= 1
C919: + x4 + x477 <= 1
C920: + x76 + x186 <= 1
C921: + x141 + x151 <= 1
C922: + x63 + x77 <= 1
C923: + x11 + x95 <= 1
C924: + x12 + x236 <= 1
C925: + x13 + x252 <= 1
C926: + x68 + x388 <= 1
C927: + x162 + x219 <= 1
C928: + x8 + x14 <= 1
C929: + x63 + x355 <= 1
C930: + x29 + x183 <= 1
C931: + x41 + x192 <= 1
C932: + x30 + x33 <= 1
C933: + x386 + x403 <= 1
C934: + x351 + x413 <= 1
C935: + x139 + x461 <= 1
C936: + x118 + x448 <= 1
C937: + x15 + x450 <= 1
C938: + x149 + x166 <= 1
C939: + x167 + x269 <= 1
C940: + x5 + x192 <= 1
C941: + x6 + x56 <= 1
C942: + x13 + x48 <= 1
C943: + x179 + x247 <= 1
C944: + x125 + x293 <= 1
C945: + x52 + x394 <= 1
C946: + x111 + x372 <= 1
C947: + x30 + x117 <= 1
C948: + x338 + x483 <= 1
C949: + x194 + x276 <= 1
C950: + x4 + x212 <= 1
C951: + x13 + x191 <= 1
C952: + x7 + x333 <= 1
C953: + x8 + x87 <= 1
C954: + x69 + x396 <= 1
C955: + x104 + x490 <= 1
C956: + x161 + x290 <= 1
C957: + x97 + x120 <= 1
C958: + x115 + x162 <= 1
C959: + x1 + x417 <= 1
C960: + x132 + x399 <= 1
C961: + x245 + x440 <= 1
C962: + x119 + x355 <= 1
C963: + x40 + x397 <= 1
C964: + x176 + x277 <= 1
C965: + x6 + x13 <= 1
C966: + x7 + x139 <= 1
C967: + x82 + x204 <= 1
C968: + x9 + x289 <= 1
C969: + x47 + x455 <= 1
C970: + x180 + x409 + x457 <= 1
C971: + x6 + x379 <= 1
C972: + x151 + x392 <= 1
C973: + x146 + x461 <= 1
C974: + x41 + x167 <= 1
C975: + x30 + x58 <= 1
C976: + x209 + x211 <= 1
C977: + x17 + x19 <= 1
C978: + x8 + x426 <= 1
C979: + x102 + x479 <= 1
C980: + x11 + x41 <= 1
C981: + x287 + x353 <= 1
C982: + x15 + x102 <= 1
C983: + x368 + x384 <= 1
C984: + x116 + x207 <= 1
C985: + x17 + x463 <= 1
C986: + x7 + x82 <= 1
C987: + x101 + x309 <= 1
C988: + x11 + x29 <= 1
C989: + x9 + x75 <= 1
C990: + x182 + x361 <= 1
C991: + x7 + x481 <= 1
C992: + x25 + x46 <= 1
C993: + x72 + x413 <= 1
C994: + x112 + x262 <= 1
C995: + x39 + x411 <= 1
C996: + x15 + x311 <= 1
C997: + x105 + x110 <= 1
C998: + x22 + x30 + x134 <= 1
C999: + x25 + x93 <= 1
C1000: + x114 + x309 <= 1
C1001: + x51 + x123 <= 1
C1002: + x14 + x71 <= 1
C1003: + x100 + x234 <= 1
C1004: + x10 + x63 <= 1
C1005: + x220 + x460 <= 1
C1006: + x68 + x446 <= 1
C1007: + x50 + x472 <= 1
C1008: + x25 + x279 <= 1
C1009: + x27 + x244 <= 1
C1010: + x110 + x118 <= 1
C1011: + x74 + x474 <= 1
C1012: + x68 + x345 <= 1
C1013: + x5 + x317 <= 1
C1014: + x7 + x73 <= 1
C1015: + x2 + x440 <= 1
C1016: + x75 + x200 <= 1
C1017: + x12 + x291 <= 1
C1018: + x27 + x99 <= 1
C1019: + x1 + x18 <= 1
C1020: + x182 + x223 <= 1
C1021: + x38 + x181 <= 1
C1022: + x269 + x351 <= 1
C1023: + x9 + x114 <= 1
C1024: + x135 + x173 <= 1
C1025: + x13 + x260 <= 1
C1026: + x25 + x53 <= 1
C1027: + x63 + x98 <= 1
C1028: + x72 + x79 <= 1
C1029: + x68 + x119 <= 1
C1030: + x161 + x250 <= 1
C1031: + x201 + x342 <= 1
C1032: + x21 + x33 <= 1
C1033: + x4 + x41 <= 1
C1034: + x124 + x264 <= 1
C1035: + x43 + x246 <= 1
C1036: + x110 + x478 <= 1
C1037: + x41 + x391 <= 1
C1038: + x13 + x376 <= 1
C1039: + x33 + x385 <= 1
C1040: + x161 + x379 <= 1
C1041: + x53 + x68 <= 1
C1042: + x64 + x84 <= 1
C1043: + x47 + x250 <= 1
C1044: + x203 + x238 <= 1
C1045: + x396 + x471 <= 1
C1046: + x92 + x328 <= 1
C1047: + x46 + x488 <= 1
C1048: + x51 + x426 <= 1
C1049: + x27 + x110 <= 1
C1050: + x45 + x213 <= 1
C1051: + x63 + x144 <= 1
C1052: + x367 + x372 <= 1
C1053: + x4 + x344 <= 1
C1054: + x315 + x350 <= 1
C1055: + x5 + x368 <= 1
C1056: + x175 + x436 <= 1
C1057: + x127 + x280 <= 1
C1058: + x8 + x211 <= 1
C1059: + x29 + x374 <= 1
C1060: + x13 + x160 <= 1
C1061: + x139 + x481 <= 1
C1062: + x213 + x368 <= 1
C1063: + x97 + x105 <= 1
C1064: + x42 + x231 <= 1
C1065: + x4 + x485 <= 1
C1066: + x31 + x147 <= 1
C1067: + x70 + x126 <= 1
C1068: + x296 + x315 <= 1
C1069: + x28 + x83 <= 1
C1070: + x25 + x218 <= 1
C1071: + x15 + x333 <= 1
C1072: + x27 + x198 <= 1
C1073: + x119 + x179 <= 1
C1074: + x237 + x421 <= 1
C1075: + x42 + x147 <= 1
C1076: + x15 + x139 <= 1
C1077: + x11 + x235 <= 1
C1078: + x33 + x340 <= 1
C1079: + x88 + x312 <= 1
C1080: + x171 + x397 <= 1
C1081: + x6 + x462 <= 1
C1082: + x70 + x214 <= 1
C1083: + x7 + x119 <= 1
C1084: + x208 + x362 <= 1
C1085: + x10 + x102 <= 1
C1086: + x12 + x21 + x389 <= 1
C1087: + x41 + x486 <= 1
C1088: + x5 + x12 <= 1
C1089: + x180 + x278 <= 1
C1090: + x6 + x132 <= 1
C1091: + x45 + x99 <= 1
C1092: + x120 + x230 <= 1
C1093: + x13 + x124 <= 1
C1094: + x46 + x91 <= 1
C1095: + x330 + x439 <= 1
C1096: + x4 + x265 <= 1
C1097: + x89 + x143 <= 1
C1098: + x88 + x239 <= 1
C1099: + x13 + x203 <= 1
C1100: + x24 + x185 <= 1
C1101: + x254 + x422 <= 1
C1102: + x8 + x35 <= 1
C1103: + x1 + x120 <= 1
C1104: + x29 + x166 <= 1
C1105: + x158 + x466 <= 1
C1106: + x17 + x43 <= 1
C1107: + x64 + x165 <= 1
C1108: + x15 + x142 <= 1
C1109: + x18 + x352 <= 1
C1110: + x9 + x138 <= 1
C1111: + x211 + x318 <= 1
C1112: + x67 + x471 <= 1
C1113: + x52 + x439 <= 1
C1114: + x72 + x151 <= 1
C1115: + x349 + x468 <= 1
C1116: + x13 + x297 <= 1
C1117: + x24 + x468 <= 1
C1118: + x10 + x476 <= 1
C1119: + x4 + x225 <= 1
C1120: + x2 + x165 <= 1
C1121: + x12 + x97 <= 1
C1122: + x13 + x115 <= 1
C1123: + x123 + x256 <= 1
C1124: + x8 + x395 <= 1
C1125: + x54 + x145 <= 1
C1126: + x59 + x206 <= 1
C1127: + x9 + x272 <= 1
C1128: + x8 + x298 <= 1
C1129: + x144 + x365 <= 1
C1130: + x165 + x235 <= 1
C1131: + x228 + x345 <= 1
C1132: + x59 + x431 <= 1
C1133: + x171 + x242 <= 1
C1134: + x139 + x455 <= 1
C1135: + x128 + x343 <= 1
C1136: + x64 + x377 <= 1
C1137: + x3 + x77 <= 1
C1138: + x39 + x462 <= 1
C1139: + x40 + x466 <= 1
C1140: + x50 + x77 <= 1
C1141: + x7 + x210 <= 1
C1142: + x73 + x188 <= 1
C1143: + x13 + x17 + x85 <= 1
C1144: + x303 + x311 <= 1
C1145: + x5 + x107 <= 1
C1146: + x6 + x320 <= 1
C1147: + x9 + x110 <= 1
C1148: + x63 + x161 <= 1
C1149: + x6 + x83 <= 1
C1150: + x7 + x97 <= 1
C1151: + x127 + x265 <= 1
C1152: + x122 + x302 <= 1
C1153: + x284 + x392 <= 1
C1154: + x3 + x129 <= 1
C1155: + x149 + x232 <= 1
C1156: + x26 + x149 <= 1
C1157: + x300 + x473 <= 1
C1158: + x285 + x429 <= 1
C1159: + x24 + x90 <= 1
C1160: + x36 + x217 <= 1
C1161: + x197 + x366 <= 1
C1162: + x17 + x311 <= 1
C1163: + x226 + x457 <= 1
C1164: + x7 + x387 <= 1
C1165: + x8 + x17 <= 1
C1166: + x30 + x36 <= 1
C1167: + x105 + x125 <= 1
C1168: + x187 + x200 <= 1
C1169: + x32 + x415 <= 1
C1170: + x6 + x408 <= 1
C1171: + x11 + x490 <= 1
C1172: + x261 + x266 <= 1
C1173: + x180 + x349 <= 1
C1174: + x154 + x261 <= 1
C1175: + x124 + x186 <= 1
C1176: + x161 + x174 <= 1
C1177: + x34 + x367 <= 1
C1178: + x17 + x184 <= 1
C1179: + x9 + x21 <= 1
C1180: + x203 + x246 <= 1
C1181: + x351 + x454 <= 1
C1182: + x6 + x92 <= 1
C1183: + x27 + x264 <= 1
C1184: + x301 + x317 <= 1
C1185: + x2 + x108 <= 1
C1186: + x57 + x257 <= 1
C1187: + x4 + x239 <= 1
C1188: + x6 + x255 <= 1
C1189: + x180 + x224 <= 1
C1190: + x73 + x292 <= 1
C1191: + x72 + x278 <= 1
C1192: + x2 + x183 <= 1
C1193: + x183 + x248 <= 1
C1194: + x41 + x120 <= 1
C1195: + x97 + x117 <= 1
C1196: + x167 + x492 <= 1
C1197: + x250 + x274 <= 1
C1198: + x62 + x288 <= 1
C1199: + x27 + x183 <= 1
C1200: + x75 + x365 <= 1
C1201: + x76 + x190 <= 1
C1202: + x216 + x374 <= 1
C1203: + x6 + x16 <= 1
C1204: + x38 + x279 <= 1
C1205: + x34 + x300 <= 1
C1206: + x6 + x382 <= 1
C1207: + x8 + x10 <= 1
C1208: + x58 + x414 <= 1
C1209: + x187 + x380 <= 1
C1210: + x107 + x453 <= 1
C1211: + x96 + x328 <= 1
C1212: + x73 + x77 <= 1
C1213: + x75 + x337 <= 1
C1214: + x11 + x401 <= 1
C1215: + x13 + x327 <= 1
C1216: + x117 + x417 <= 1
C1217: + x35 + x267 <= 1
C1218: + x134 + x474 <= 1
C1219: + x8 + x159 <= 1
C1220: + x193 + x369 <= 1
C1221: + x30 + x174 <= 1
C1222: + x98 + x168 <= 1
C1223: + x4 + x441 <= 1
C1224: + x5 + x331 <= 1
C1225: + x34 + x118 <= 1
C1226: + x15 + x18 <= 1
C1227: + x173 + x290 <= 1
C1228: + x18 + x194 <= 1
C1229: + x213 + x395 <= 1
C1230: + x13 + x32 <= 1
C1231: + x8 + x498 <= 1
C1232: + x57 + x66 <= 1
C1233: + x68 + x210 <= 1
C1234: + x15 + x94 <= 1
C1235: + x6 + x9 <= 1
C1236: + x8 + x277 <= 1
C1237: + x300 + x360 <= 1
C1238: + x112 + x249 <= 1
C1239: + x5 + x20 <= 1
C1240: + x16 + x164 <= 1
C1241: + x109 + x187 <= 1
C1242: + x11 + x295 <= 1
C1243: + x467 + x476 <= 1
C1244: + x123 + x221 <= 1
C1245: + x13 + x84 <= 1
C1246: + x60 + x78 <= 1
C1247: + x7 + x26 <= 1
C1248: + x172 + x475 <= 1
C1249: + x220 + x229 <= 1
C1250: + x3 + x90 <= 1
C1251: + x287 + x357 <= 1
C1252: + x118 + x147 <= 1
C1253: + x36 + x37 <= 1
C1254: + x1 + x195 <= 1
C1255: + x13 + x35 <= 1
C1256: + x151 + x472 <= 1
C1257: + x214 + x216 <= 1
C1258: + x124 + x346 <= 1
C1259: + x11 + x25 <= 1
C1260: + x199 + x439 <= 1
C1261: + x8 + x76 <= 1
C1262: + x183 + x194 <= 1
C1263: + x68 + x485 <= 1
C1264: + x42 + x378 <= 1
C1265: + x52 + x56 <= 1
C1266: + x47 + x192 <= 1
C1267: + x34 + x91 <= 1
C1268: + x6 + x114 <= 1
C1269: + x145 + x196 <= 1
C1270: + x36 + x427 <= 1
C1271: + x128 + x486 <= 1
C1272: + x2 + x50 <= 1
C1273: + x7 + x130 <= 1
C1274: + x194 + x293 <= 1
C1275: + x5 + x27 <= 1
C1276: + x133 + x411 <= 1
C1277: + x36 + x93 <= 1
C1278: + x8 + x128 <= 1
C1279: + x1 + x43 <= 1
C1280: + x12 + x121 <= 1
C1281: + x21 + x38 <= 1
C1282: + x41 + x146 <= 1
C1283: + x44 + x141 <= 1
C1284: + x316 + x445 <= 1
C1285: + x72 + x227 <= 1
C1286: + x23 + x24 <= 1
C1287: + x53 + x375 <= 1
C1288: + x7 + x263 <= 1
C1289: + x135 + x460 <= 1
C1290: + x4 + x181 <= 1
C1291: + x34 + x165 <= 1
C1292: + x226 + x432 <= 1
C1293: + x8 + x52 <= 1
C1294: + x38 + x48 <= 1
C1295: + x68 + x349 <= 1
C1296: + x41 + x275 <= 1
C1297: + x284 + x356 <= 1
C1298: + x154 + x241 <= 1
C1299: + x7 + x307 <= 1
C1300: + x8 + x65 <= 1
C1301: + x4 + x97 <= 1
C1302: + x15 + x403 <= 1
C1303: + x210 + x226 <= 1
C1304: + x399 + x441 <= 1
C1305: + x15 + x48 <= 1
C1306: + x8 + x267 <= 1
C1307: + x2 + x11 <= 1
C1308: + x358 + x413 <= 1
C1309: + x99 + x229 <= 1
C1310: + x7 + x367 <= 1
C1311: + x145 + x301 <= 1
C1312: + x13 + x399 <= 1
C1313: + x26 + x96 <= 1
C1314: + x183 + x434 <= 1
C1315: + x22 + x425 <= 1
C1316: + x40 + x499 <= 1
C1317: + x100 + x352 <= 1
C1318: + x47 + x417 <= 1
C1319: + x104 + x146 <= 1
C1320: + x42 + x72 + x323 <= 1
C1321: + x54 + x307 <= 1
C1322: + x130 + x341 <= 1
C1323: + x50 + x243 <= 1
C1324: + x13 + x451 <= 1
C1325: + x284 + x377 <= 1
C1326: + x201 + x405 <= 1
C1327: + x3 + x257 <= 1
C1328: + x268 + x322 <= 1
C1329: + x52 + x429 <= 1
C1330: + x243 + x477 <= 1
C1331: + x252 + x396 <= 1
C1332: + x90 + x120 <= 1
C1333: + x62 + x135 <= 1
C1334: + x144 + x343 <= 1
C1335: + x8 + x207 <= 1
C1336: + x11 + x127 <= 1
C1337: + x155 + x214 <= 1
C1338: + x85 + x218 <= 1
C1339: + x117 + x195 <= 1
C1340: + x4 + x22 <= 1
C1341: + x97 + x109 <= 1
C1342: + x24 + x79 <= 1
C1343: + x81 + x316 <= 1
C1344: + x47 + x150 <= 1
C1345: + x284 + x294 <= 1
C1346: + x6 + x24 <= 1
C1347: + x127 + x456 <= 1
C1348: + x13 + x208 <= 1
C1349: + x14 + x216 <= 1
C1350: + x52 + x93 <= 1
C1351: + x226 + x442 <= 1
C1352: + x8 + x34 <= 1
C1353: + x319 + x388 <= 1
C1354: + x58 + x390 <= 1
C1355: + x21 + x128 <= 1
C1356: + x213 + x320 <= 1
C1357: + x169 + x470 <= 1
C1358: + x161 + x467 <= 1
C1359: + x54 + x95 <= 1
C1360: + x129 + x268 <= 1
C1361: + x109 + x286 <= 1
C1362: + x27 + x392 <= 1
C1363: + x248 + x409 <= 1
C1364: + x197 + x254 <= 1
C1365: + x6 + x109 <= 1
C1366: + x228 + x364 <= 1
C1367: + x2 + x5 <= 1
C1368: + x68 + x105 <= 1
C1369: + x25 + x420 <= 1
C1370: + x16 + x136 <= 1
C1371: + x383 + x415 <= 1
C1372: + x292 + x478 <= 1
C1373: + x39 + x237 <= 1
C1374: + x187 + x238 <= 1
C1375: + x87 + x416 <= 1
C1376: + x15 + x425 <= 1
C1377: + x208 + x283 <= 1
C1378: + x63 + x231 <= 1
C1379: + x6 + x17 <= 1
C1380: + x7 + x167 <= 1
C1381: + x173 + x187 <= 1
C1382: + x184 + x201 <= 1
C1383: + x4 + x172 <= 1
C1384: + x6 + x180 <= 1
C1385: + x198 + x207 <= 1
C1386: + x1 + x76 <= 1
C1387: + x65 + x396 <= 1
C1388: + x29 + x162 <= 1
C1389: + x27 + x366 <= 1
C1390: + x40 + x469 <= 1
C1391: + x39 + x44 <= 1
C1392: + x14 + x336 <= 1
C1393: + x8 + x467 <= 1
C1394: + x55 + x207 <= 1
C1395: + x47 + x220 <= 1
C1396: + x8 + x370 <= 1
C1397: + x156 + x361 <= 1
C1398: + x15 + x222 <= 1
C1399: + x108 + x270 <= 1
C1400: + x8 + x100 <= 1
C1401: + x1 + x55 <= 1
C1402: + x21 + x58 <= 1
C1403: + x97 + x432 <= 1
C1404: + x37 + x101 <= 1
C1405: + x156 + x282 <= 1
C1406: + x58 + x218 <= 1
C1407: + x6 + x26 <= 1
C1408: + x100 + x371 <= 1
C1409: + x291 + x324 <= 1
C1410: + x104 + x189 <= 1
C1411: + x22 + x39 <= 1
C1412: + x9 + x38 <= 1
C1413: + x250 + x344 <= 1
C1414: + x3 + x9 + x63 <= 1
C1415: + x340 + x448 <= 1
C1416: + x394 + x494 <= 1
C1417: + x17 + x38 <= 1
C1418: + x57 + x253 <= 1
C1419: + x84 + x177 <= 1
C1420: + x107 + x116 <= 1
C1421: + x25 + x486 <= 1
C1422: + x375 + x426 <= 1
C1423: + x13 + x50 <= 1
C1424: + x84 + x491 <= 1
C1425: + x12 + x13 <= 1
C1426: + x150 + x402 <= 1
C1427: + x7 + x101 <= 1
C1428: + x84 + x330 <= 1
C1429: + x156 + x213 <= 1
C1430: + x64 + x297 <= 1
C1431: + x59 + x90 + x106 <= 1
C1432: + x169 + x173 <= 1
C1433: + x13 + x129 <= 1
C1434: + x417 + x463 <= 1
C1435: + x13 + x102 <= 1
C1436: + x207 + x251 <= 1
C1437: + x45 + x242 <= 1
C1438: + x250 + x496 <= 1
C1439: + x50 + x142 <= 1
C1440: + x5 + x373 <= 1
C1441: + x11 + x96 <= 1
C1442: + x2 + x35 <= 1
C1443: + x76 + x104 <= 1
C1444: + x38 + x362 <= 1
C1445: + x14 + x47 + x54 <= 1
C1446: + x153 + x360 <= 1
C1447: + x143 + x287 <= 1
C1448: + x244 + x423 <= 1
C1449: + x20 + x155 <= 1
C1450: + x12 + x74 <= 1
C1451: + x34 + x37 <= 1
C1452: + x81 + x349 <= 1
C1453: + x8 + x436 <= 1
C1454: + x50 + x122 <= 1
C1455: + x4 + x295 <= 1
C1456: + x52 + x366 <= 1
C1457: + x343 + x396 <= 1
C1458: + x6 + x55 <= 1
C1459: + x208 + x468 <= 1
C1460: + x8 + x158 <= 1
C1461: + x37 + x322 <= 1
C1462: + x11 + x132 <= 1
C1463: + x283 + x500 <= 1
C1464: + x177 + x232 <= 1
C1465: + x303 + x318 <= 1
C1466: + x107 + x160 <= 1
C1467: + x46 + x142 <= 1
C1468: + x76 + x319 <= 1
C1469: + x77 + x78 <= 1
C1470: + x167 + x250 <= 1
C1471: + x33 + x492 <= 1
C1472: + x36 + x103 <= 1
C1473: + x8 + x82 <= 1
C1474: + x1 + x5 <= 1
C1475: + x29 + x251 <= 1
C1476: + x128 + x186 <= 1
C1477: + x35 + x210 <= 1
C1478: + x18 + x112 <= 1
C1479: + x329 + x346 <= 1
C1480: + x13 + x271 <= 1
C1481: + x61 + x204 <= 1
C1482: + x107 + x434 <= 1
C1483: + x301 + x365 <= 1
C1484: + x30 + x150 <= 1
C1485: + x12 + x228 <= 1
C1486: + x296 + x442 <= 1
C1487: + x1 + x81 <= 1
C1488: + x123 + x210 <= 1
C1489: + x4 + x62 <= 1
C1490: + x69 + x118 <= 1
C1491: + x102 + x105 <= 1
C1492: + x56 + x282 <= 1
C1493: + x60 + x152 <= 1
C1494: + x152 + x177 <= 1
C1495: + x7 + x200 <= 1
C1496: + x118 + x347 <= 1
C1497: + x2 + x248 <= 1
C1498: + x264 + x301 <= 1
C1499: + x21 + x131 <= 1
C1500: + x49 + x458 <= 1
C1501: + x304 + x447 <= 1
C1502: + x107 + x135 <= 1
C1503: + x235 + x429 <= 1
C1504: + x8 + x58 <= 1
C1505: + x46 + x135 <= 1
C1506: + x248 + x260 <= 1
C1507: + x247 + x404 <= 1
C1508: + x228 + x406 <= 1
C1509: + x161 + x459 <= 1
C1510: + x6 + x65 <= 1
C1511: + x185 + x449 <= 1
C1512: + x6 + x228 <= 1
C1513: + x127 + x412 <= 1
C1514: + x17 + x95 <= 1
C1515: + x212 + x252 <= 1
C1516: + x331 + x435 <= 1
C1517: + x301 + x364 <= 1
C1518: + x2 + x61 <= 1
C1519: + x68 + x113 <= 1
C1520: + x58 + x80 <= 1
C1521: + x132 + x264 <= 1
C1522: + x288 + x470 <= 1
C1523: + x207 + x387 <= 1
C1524: + x99 + x284 <= 1
C1525: + x4 + x5 + x6 + x7 + x8 <= 1
C1526: + x52 + x221 <= 1
C1527: + x118 + x385 <= 1
C1528: + x344 + x427 <= 1
C1529: + x93 + x318 <= 1
C1530: + x183 + x444 <= 1
C1531: + x52 + x380 <= 1
C1532: + x151 + x198 <= 1
C1533: + x1 + x199 <= 1
C1534: + x8 + x148 <= 1
C1535: + x11 + x182 <= 1
C1536: + x41 + x62 <= 1
C1537: + x225 + x331 <= 1
C1538: + x5 + x68 <= 1
C1539: + x52 + x78 <= 1
C1540: + x58 + x375 <= 1
C1541: + x89 + x298 <= 1
C1542: + x45 + x336 <= 1
C1543: + x164 + x314 <= 1
C1544: + x28 + x386 <= 1
C1545: + x96 + x148 <= 1
C1546: + x14 + x58 <= 1
C1547: + x363 + x494 <= 1
C1548: + x8 + x72 <= 1
C1549: + x2 + x133 <= 1
C1550: + x4 + x128 <= 1
C1551: + x289 + x358 <= 1
C1552: + x134 + x278 <= 1
C1553: + x183 + x359 <= 1
C1554: + x20 + x65 <= 1
C1555: + x3 + x25 <= 1
C1556: + x15 + x41 <= 1
C1557: + x109 + x324 <= 1
C1558: + x10 + x123 <= 1
C1559: + x29 + x384 <= 1
C1560: + x223 + x464 <= 1
C1561: + x26 + x325 <= 1
C1562: + x109 + x174 <= 1
C1563: + x28 + x176 <= 1
C1564: + x119 + x237 <= 1
C1565: + x22 + x158 <= 1
C1566: + x28 + x331 <= 1
C1567: + x390 + x405 <= 1
C1568: + x29 + x34 <= 1
C1569: + x47 + x144 <= 1
C1570: + x4 + x286 <= 1
C1571: + x243 + x256 <= 1
C1572: + x146 + x252 <= 1
C1573: + x10 + x39 <= 1
C1574: + x11 + x189 <= 1
C1575: + x52 + x416 <= 1
C1576: + x9 + x14 <= 1
C1577: + x18 + x39 <= 1
C1578: + x111 + x262 <= 1
C1579: + x67 + x339 <= 1
C1580: + x20 + x126 <= 1
C1581: + x68 + x152 <= 1
C1582: + x41 + x194 <= 1
C1583: + x25 + x113 <= 1
C1584: + x83 + x146 <= 1
C1585: + x4 + x202 <= 1
C1586: + x180 + x324 <= 1
C1587: + x154 + x245 <= 1
C1588: + x228 + x273 <= 1
C1589: + x89 + x107 <= 1
C1590: + x61 + x455 <= 1
C1591: + x388 + x454 <= 1
C1592: + x128 + x268 <= 1
C1593: + x29 + x101 <= 1
C1594: + x56 + x337 <= 1
C1595: + x78 + x185 <= 1
C1596: + x89 + x381 <= 1
C1597: + x29 + x375 <= 1
C1598: + x254 + x344 <= 1
C1599: + x137 + x414 <= 1
C1600: + x259 + x313 <= 1
C1601: + x26 + x36 <= 1
C1602: + x8 + x408 <= 1
C1603: + x11 + x394 <= 1
C1604: + x318 + x422 <= 1
C1605: + x47 + x332 <= 1
C1606: + x43 + x415 <= 1
C1607: + x209 + x358 <= 1
C1608: + x62 + x94 <= 1
C1609: + x92 + x303 <= 1
C1610: + x7 + x169 <= 1
C1611: + x154 + x178 <= 1
C1612: + x197 + x370 <= 1
C1613: + x6 + x281 <= 1
C1614: + x22 + x294 <= 1
C1615: + x44 + x182 <= 1
C1616: + x8 + x332 <= 1
C1617: + x57 + x289 <= 1
C1618: + x21 + x271 <= 1
C1619: + x97 + x184 <= 1
C1620: + x167 + x230 <= 1
C1621: + x31 + x78 <= 1
C1622: + x13 + x164 <= 1
C1623: + x28 + x98 <= 1
C1624: + x102 + x171 <= 1
C1625: + x3 + x285 <= 1
C1626: + x52 + x104 <= 1
C1627: + x17 + x68 <= 1
C1628: + x18 + x76 <= 1
C1629: + x36 + x226 <= 1
C1630: + x141 + x179 <= 1
C1631: + x246 + x273 <= 1
C1632: + x84 + x238 <= 1
C1633: + x214 + x397 <= 1
C1634: + x73 + x272 <= 1
C1635: + x22 + x176 <= 1
C1636: + x199 + x327 <= 1
C1637: + x4 + x268 <= 1
C1638: + x188 + x487 <= 1
C1639: + x6 + x20 <= 1
C1640: + x145 + x226 <= 1
C1641: + x230 + x414 <= 1
C1642: + x50 + x240 <= 1
C1643: + x340 + x438 <= 1
C1644: + x24 + x31 <= 1
C1645: + x7 + x51 <= 1
C1646: + x226 + x281 <= 1
C1647: + x100 + x474 <= 1
C1648: + x29 + x433 <= 1
C1649: + x31 + x437 <= 1
C1650: + x121 + x325 <= 1
C1651: + x16 + x19 <= 1
C1652: + x71 + x270 <= 1
C1653: + x202 + x243 <= 1
C1654: + x73 + x424 <= 1
C1655: + x29 + x123 <= 1
C1656: + x112 + x454 <= 1
C1657: + x320 + x452 <= 1
C1658: + x9 + x453 <= 1
C1659: + x54 + x111 <= 1
C1660: + x229 + x360 <= 1
C1661: + x29 + x325 <= 1
C1662: + x13 + x143 <= 1
C1663: + x132 + x356 <= 1
C1664: + x128 + x143 <= 1
C1665: + x21 + x63 <= 1
C1666: + x35 + x193 <= 1
C1667: + x174 + x467 <= 1
C1668: + x250 + x482 <= 1
C1669: + x20 + x471 <= 1
C1670: + x95 + x127 <= 1
C1671: + x6 + x29 <= 1
C1672: + x127 + x499 <= 1
C1673: + x1 + x163 <= 1
C1674: + x135 + x433 <= 1
C1675: + x166 + x228 <= 1
C1676: + x56 + x410 <= 1
C1677: + x223 + x493 <= 1
C1678: + x11 + x170 <= 1
C1679: + x287 + x482 <= 1
C1680: + x193 + x245 <= 1
C1681: + x30 + x42 <= 1
C1682: + x13 + x493 <= 1
C1683: + x34 + x47 <= 1
C1684: + x25 + x70 <= 1
C1685: + x229 + x238 <= 1
C1686: + x93 + x131 <= 1
C1687: + x11 + x57 <= 1
C1688: + x78 + x211 <= 1
C1689: + x73 + x370 <= 1
C1690: + x8 + x172 <= 1
C1691: + x4 + x92 <= 1
C1692: + x24 + x133 <= 1
C1693: + x314 + x384 <= 1
C1694: + x13 + x289 <= 1
C1695: + x207 + x325 <= 1
C1696: + x14 + x431 <= 1
C1697: + x415 + x469 <= 1
C1698: + x136 + x185 <= 1
C1699: + x179 + x496 <= 1
C1700: + x111 + x121 <= 1
C1701: + x6 + x336 <= 1
C1702: + x8 + x96 <= 1
C1703: + x48 + x69 <= 1
C1704: + x53 + x178 <= 1
C1705: + x45 + x247 <= 1
C1706: + x235 + x356 <= 1
C1707: + x20 + x480 <= 1
C1708: + x39 + x266 <= 1
C1709: + x106 + x316 <= 1
C1710: + x5 + x138 <= 1
C1711: + x1 + x186 <= 1
C1712: + x303 + x371 <= 1
C1713: + x96 + x112 <= 1
C1714: + x39 + x216 <= 1
C1715: + x34 + x40 <= 1
C1716: + x17 + x26 <= 1
C1717: + x135 + x242 <= 1
C1718: + x430 + x481 <= 1
C1719: + x17 + x327 <= 1
C1720: + x10 + x15 <= 1
C1721: + x47 + x390 <= 1
C1722: + x104 + x109 <= 1
C1723: + x33 + x378 <= 1
C1724: + x34 + x145 <= 1
C1725: + x43 + x174 <= 1
C1726: + x9 + x22 <= 1
C1727: + x11 + x378 <= 1
C1728: + x239 + x295 <= 1
C1729: + x39 + x341 <= 1
C1730: + x2 + x424 <= 1
C1731: + x3 + x153 <= 1
C1732: + x153 + x235 <= 1
C1733: + x7 + x335 <= 1
C1734: + x299 + x451 <= 1
C1735: + x15 + x27 + x161 <= 1
C1736: + x31 + x321 <= 1
C1737: + x14 + x313 <= 1
C1738: + x15 + x447 <= 1
C1739: + x173 + x443 <= 1
C1740: + x57 + x188 <= 1
C1741: + x2 + x465 <= 1
C1742: + x5 + x369 <= 1
C1743: + x17 + x386 <= 1
C1744: + x6 + x15 <= 1
C1745: + x11 + x92 <= 1
C1746: + x20 + x324 <= 1
C1747: + x95 + x262 <= 1
C1748: + x156 + x229 <= 1
C1749: + x46 + x435 <= 1
C1750: + x81 + x111 <= 1
C1751: + x52 + x449 <= 1
C1752: + x198 + x354 <= 1
C1753: + x8 + x9 <= 1
C1754: + x230 + x393 <= 1
C1755: + x68 + x294 <= 1
C1756: + x458 + x461 <= 1
C1757: + x4 + x57 <= 1
C1758: + x47 + x308 <= 1
C1759: + x206 + x400 <= 1
C1760: + x7 + x193 <= 1
C1761: + x11 + x144 <= 1
C1762: + x46 + x359 <= 1
C1763: + x4 + x74 <= 1
C1764: + x18 + x56 <= 1
C1765: + x8 + x61 <= 1
C1766: + x135 + x380 <= 1
C1767: + x67 + x326 <= 1
C1768: + x294 + x376 <= 1
C1769: + x29 + x338 <= 1
C1770: + x175 + x305 <= 1
C1771: + x13 + x188 <= 1
C1772: + x34 + x472 <= 1
C1773: + x60 + x367 <= 1
C1774: + x99 + x160 <= 1
C1775: + x6 + x231 <= 1
C1776: + x40 + x154 <= 1
C1777: + x92 + x485 <= 1
C1778: + x145 + x206 <= 1
C1779: + x300 + x359 <= 1
C1780: + x2 + x64 <= 1
C1781: + x3 + x168 <= 1
C1782: + x21 + x187 <= 1
C1783: + x148 + x201 <= 1
C1784: + x5 + x29 <= 1
C1785: + x97 + x252 <= 1
C1786: + x25 + x329 <= 1
C1787: + x303 + x381 <= 1
C1788: + x20 + x168 <= 1
C1789: + x5 + x271 <= 1
C1790: + x81 + x344 <= 1
C1791: + x151 + x358 <= 1
C1792: + x156 + x296 <= 1
C1793: + x53 + x361 <= 1
C1794: + x36 + x40 <= 1
C1795: + x29 + x314 <= 1
C1796: + x13 + x36 <= 1
C1797: + x4 + x79 <= 1
C1798: + x179 + x312 <= 1
C1799: + x225 + x440 <= 1
C1800: + x26 + x254 <= 1
C1801: + x54 + x304 <= 1
C1802: + x298 + x430 <= 1
C1803: + x103 + x425 <= 1
C1804: + x270 + x357 <= 1
C1805: + x16 + x406 <= 1
C1806: + x119 + x464 <= 1
C1807: + x57 + x219 <= 1
C1808: + x158 + x215 <= 1
C1809: + x15 + x187 <= 1
C1810: + x171 + x175 <= 1
C1811: + x209 + x417 <= 1
C1812: + x19 + x202 <= 1
C1813: + x47 + x100 <= 1
C1814: + x13 + x24 <= 1
C1815: + x5 + x450 <= 1
C1816: + x208 + x251 <= 1
C1817: + x227 + x338 <= 1
C1818: + x138 + x411 <= 1
C1819: + x29 + x480 <= 1
C1820: + x257 + x412 <= 1
C1821: + x169 + x302 <= 1
C1822: + x52 + x180 <= 1
C1823: + x24 + x459 <= 1
C1824: + x19 + x400 <= 1
C1825: + x265 + x460 <= 1
C1826: + x3 + x191 <= 1
C1827: + x20 + x338 <= 1
C1828: + x68 + x117 <= 1
C1829: + x5 + x28 <= 1
C1830: + x1 + x44 <= 1
C1831: + x2 + x340 <= 1
C1832: + x81 + x335 <= 1
C1833: + x7 + x179 <= 1
C1834: + x36 + x410 <= 1
C1835: + x1 + x219 <= 1
C1836: + x66 + x397 <= 1
C1837: + x21 + x150 <= 1
C1838: + x81 + x478 <= 1
C1839: + x281 + x379 <= 1
C1840: + x11 + x275 <= 1
C1841: + x49 + x162 <= 1
C1842: + x17 + x59 <= 1
C1843: + x71 + x142 <= 1
C1844: + x3 + x102 <= 1
C1845: + x89 + x203 <= 1
C1846: + x6 + x233 <= 1
C1847: + x128 + x172 <= 1
C1848: + x2 + x153 <= 1
C1849: + x129 + x476 <= 1
C1850: + x11 + x230 <= 1
C1851: + x42 + x354 <= 1
C1852: + x47 + x107 <= 1
C1853: + x50 + x391 <= 1
C1854: + x151 + x316 <= 1
C1855: + x7 + x477 <= 1
C1856: + x10 + x329 <= 1
C1857: + x14 + x292 <= 1
C1858: + x49 + x158 <= 1
C1859: + x165 + x261 <= 1
C1860: + x42 + x88 <= 1
C1861: + x217 + x250 <= 1
C1862: + x14 + x391 <= 1
C1863: + x4 + x342 <= 1
C1864: + x155 + x204 <= 1
C1865: + x64 + x312 <= 1
C1866: + x67 + x122 <= 1
C1867: + x6 + x157 <= 1
C1868: + x17 + x217 <= 1
C1869: + x28 + x164 <= 1
C1870: + x13 + x67 <= 1
C1871: + x125 + x133 <= 1
C1872: + x96 + x446 <= 1
C1873: + x6 + x395 <= 1
C1874: + x101 + x500 <= 1
C1875: + x12 + x355 <= 1
C1876: + x16 + x125 + x383 <= 1
C1877: + x6 + x46 <= 1
C1878: + x144 + x285 <= 1
C1879: + x47 + x418 <= 1
C1880: + x105 + x233 <= 1
C1881: + x39 + x67 <= 1
C1882: + x52 + x87 <= 1
C1883: + x11 + x286 <= 1
C1884: + x41 + x198 <= 1
C1885: + x12 + x45 <= 1
C1886: + x1 + x284 <= 1
C1887: + x64 + x329 <= 1
C1888: + x52 + x273 <= 1
C1889: + x17 + x351 <= 1
C1890: + x381 + x477 <= 1
C1891: + x7 + x226 <= 1
C1892: + x172 + x234 <= 1
C1893: + x91 + x254 <= 1
C1894: + x7 + x299 <= 1
C1895: + x125 + x259 <= 1
C1896: + x71 + x280 <= 1
C1897: + x182 + x326 <= 1
C1898: + x49 + x149 <= 1
C1899: + x248 + x290 <= 1
C1900: + x14 + x448 <= 1
C1901: + x345 + x438 <= 1
C1902: + x5 + x341 <= 1
C1903: + x261 + x418 <= 1
C1904: + x28 + x30 <= 1
C1905: + x11 + x128 <= 1
C1906: + x97 + x129 <= 1
C1907: + x5 + x10 <= 1
C1908: + x326 + x364 <= 1
C1909: + x29 + x152 <= 1
C1910: + x259 + x309 <= 1
C1911: + x306 + x405 <= 1
C1912: + x29 + x53 <= 1
C1913: + x4 + x263 <= 1
C1914: + x6 + x23 <= 1
C1915: + x26 + x451 <= 1
C1916: + x18 + x302 <= 1
C1917: + x21 + x156 <= 1
C1918: + x5 + x62 <= 1
C1919: + x8 + x33 <= 1
C1920: + x138 + x450 <= 1
C1921: + x293 + x404 <= 1
C1922: + x68 + x334 <= 1
C1923: + x33 + x175 <= 1
C1924: + x25 + x124 <= 1
C1925: + x7 + x64 <= 1
C1926: + x1 + x275 <= 1
C1927: + x128 + x432 <= 1
C1928: + x2 + x80 <= 1
C1929: + x6 + x219 <= 1
C1930: + x27 + x114 <= 1
C1931: + x8 + x178 <= 1
C1932: + x100 + x199 <= 1
C1933: + x3 + x281 <= 1
C1934: + x14 + x139 <= 1
C1935: + x58 + x337 <= 1
C1936: + x211 + x463 <= 1
C1937: + x95 + x233 <= 1
C1938: + x14 + x28 <= 1
C1939: + x20 + x196 <= 1
C1940: + x14 + x266 <= 1
C1941: + x308 + x418 <= 1
C1942: + x74 + x103 <= 1
C1943: + x3 + x59 <= 1

binary
x1 x2 x3 x4 x5 x6 x7 x8 x9 x10 x11 x12 x13 x14 x15 x16 x17 x18 x19 x20 x21 x22 x23 x24 x25 x26 x27 x28 x29 x30 x31 x32 x33 x34 x35 x36 x37 x38 x39 x40 x41 x42 x43 x44 x45 x46 x47 x48 x49 x50 x51 x52 x53 x54 x55 x56 x57 x58 x59 x60 x61 x62 x63 x64 x65 x66 x67 x68 x69 x70 x71 x72 x73 x74 x75 x76 x77 x78 x79 x80 x81 x82 x83 x84 x85 x86 x87 x88 x89 x90 x91 x92 x93 x94 x95 x96 x97 x98 x99 x100 x101 x102 x103 x104 x105 x106 x107 x108 x109 x110 x111 x112 x113 x114 x115 x116 x117 x118 x119 x120 x121 x122 x123 x124 x125 x126 x127 x128 x129 x130 x131 x132 x133 x134 x135 x136 x137 x138 x139 x140 x141 x142 x143 x144 x145 x146 x147 x148 x149 x150 x151 x152 x153 x154 x155 x156 x157 x158 x159 x160 x161 x162 x163 x164 x165 x166 x167 x168 x169 x170 x171 x172 x173 x174 x175 x176 x177 x178 x179 x180 x181 x182 x183 x184 x185 x186 x187 x188 x189 x190 x191 x192 x193 x194 x195 x196 x197 x198 x199 x200 x201 x202 x203 x204 x205 x206 x207 x208 x209 x210 x211 x212 x213 x214 x215 x216 x217 x218 x219 x220 x221 x222 x223 x224 x225 x226 x227 x228 x229 x230 x231 x232 x233 x234 x235 x236 x237 x238 x239 x240 x241 x242 x243 x244 x245 x246 x247 x248 x249 x250 x251 x252 x253 x254 x255 x256 x257 x258 x259 x260 x261 x262 x263 x264 x265 x266 x267 x268 x269 x270 x271 x272 x273 x274 x275 x276 x277 x278 x279 x280 x281 x282 x283 x284 x285 x286 x287 x288 x289 x290 x291 x292 x293 x294 x295 x296 x297 x298 x299 x300 x301 x302 x303 x304 x305 x306 x307 x308 x309 x310 x311 x312 x313 x314 x315 x316 x317 x318 x319 x320 x321 x322 x323 x324 x325 x326 x327 x328 x329 x330 x331 x332 x333 x334 x335 x336 x337 x338 x339 x340 x341 x342 x343 x344 x345 x346 x347 x348 x349 x350 x351 x352 x353 x354 x355 x356 x357 x358 x359 x360 x361 x362 x363 x364 x365 x366 x367 x368 x369 x370 x371 x372 x373 x374 x375 x376 x377 x378 x379 x380 x381 x382 x383 x384 x385 x386 x387 x388 x389 x390 x391 x392 x393 x394 x395 x396 x397 x398 x399 x400 x401 x402 x403 x404 x405 x406 x407 x408 x409 x410 x411 x412 x413 x414 x415 x416 x417 x418 x419 x420 x421 x422 x423 x424 x425 x426 x427 x428 x429 x430 x431 x432 x433 x434 x435 x436 x437 x438 x439 x440 x441 x442 x443 x444 x445 x446 x447 x448 x449 x450 x451 x452 x453 x454 x455 x456 x457 x458 x459 x460 x461 x462 x463 x464 x465 x466 x467 x468 x469 x470 x471 x472 x473 x474 x475 x476 x477 x478 x479 x480 x481 x482 x483 x484 x485 x486 x487 x488 x489 x490 x491 x492 x493 x494 x495 x496 x497 x498 x499 x500
