maximize
OBJ: + 1 x1 + 1 x2 + 1 x3 + 1 x4 + 1 x5 + 1 x6 + 1 x7 + 1 x8 + 1 x9 + 1 x10 + 1 x11 + 1 x12 + 1 x13 + 1 x14 + 1 x15 + 1 x16 + 1 x17 + 1 x18 + 1 x19 + 1 x20 + 1 x21 + 1 x22 + 1 x23 + 1 x24 + 1 x25 + 1 x26 + 1 x27 + 1 x28 + 1 x29 + 1 x30 + 1 x31 + 1 x32 + 1 x33 + 1 x34 + 1 x35 + 1 x36 + 1 x37 + 1 x38 + 1 x39 + 1 x40 + 1 x41 + 1 x42 + 1 x43 + 1 x44 + 1 x45 + 1 x46 + 1 x47 + 1 x48 + 1 x49 + 1 x50 + 1 x51 + 1 x52 + 1 x53 + 1 x54 + 1 x55 + 1 x56 + 1 x57 + 1 x58 + 1 x59 + 1 x60 + 1 x61 + 1 x62 + 1 x63 + 1 x64 + 1 x65 + 1 x66 + 1 x67 + 1 x68 + 1 x69 + 1 x70 + 1 x71 + 1 x72 + 1 x73 + 1 x74 + 1 x75 + 1 x76 + 1 x77 + 1 x78 + 1 x79 + 1 x80 + 1 x81 + 1 x82 + 1 x83 + 1 x84 + 1 x85 + 1 x86 + 1 x87 + 1 x88 + 1 x89 + 1 x90 + 1 x91 + 1 x92 + 1 x93 + 1 x94 + 1 x95 + 1 x96 + 1 x97 + 1 x98 + 1 x99 + 1 x100 + 1 x101 + 1 x102 + 1 x103 + 1 x104 + 1 x105 + 1 x106 + 1 x107 + 1 x108 + 1 x109 + 1 x110 + 1 x111 + 1 x112 + 1 x113 + 1 x114 + 1 x115 + 1 x116 + 1 x117 + 1 x118 + 1 x119 + 1 x120 + 1 x121 + 1 x122 + 1 x123 + 1 x124 + 1 x125 + 1 x126 + 1 x127 + 1 x128 + 1 x129 + 1 x130 + 1 x131 + 1 x132 + 1 x133 + 1 x134 + 1 x135 + 1 x136 + 1 x137 + 1 x138 + 1 x139 + 1 x140 + 1 x141 + 1 x142 + 1 x143 + 1 x144 + 1 x145 + 1 x146 + 1 x147 + 1 x148 + 1 x149 + 1 x150 + 1 x151 + 1 x152 + 1 x153 + 1 x154 + 1 x155 + 1 x156 + 1 x157 + 1 x158 + 1 x159 + 1 x160 + 1 x161 + 1 x162 + 1 x163 + 1 x164 + 1 x165 + 1 x166 + 1 x167 + 1 x168 + 1 x169 + 1 x170 + 1 x171 + 1 x172 + 1 x173 + 1 x174 + 1 x175 + 1 x176 + 1 x177 + 1 x178 + 1 x179 + 1 x180 + 1 x181 + 1 x182 + 1 x183 + 1 x184 + 1 x185 + 1 x186 + 1 x187 + 1 x188 + 1 x189 + 1 x190 + 1 x191 + 1 x192 + 1 x193 + 1 x194 + 1 x195 + 1 x196 + 1 x197 + 1 x198 + 1 x199 + 1 x200 + 1 x201 + 1 x202 + 1 x203 + 1 x204 + 1 x205 + 1 x206 + 1 x207 + 1 x208 + 1 x209 + 1 x210 + 1 x211 + 1 x212 + 1 x213 + 1 x214 + 1 x215 + 1 x216 + 1 x217 + 1 x218 + 1 x219 + 1 x220 + 1 x221 + 1 x222 + 1 x223 + 1 x224 + 1 x225 + 1 x226 + 1 x227 + 1 x228 + 1 x229 + 1 x230 + 1 x231 + 1 x232 + 1 x233 + 1 x234 + 1 x235 + 1 x236 + 1 x237 + 1 x238 + 1 x239 + 1 x240 + 1 x241 + 1 x242 + 1 x243 + 1 x244 + 1 x245 + 1 x246 + 1 x247 + 1 x248 + 1 x249 + 1 x250 + 1 x251 + 1 x252 + 1 x253 + 1 x254 + 1 x255 + 1 x256 + 1 x257 + 1 x258 + 1 x259 + 1 x260 + 1 x261 + 1 x262 + 1 x263 + 1 x264 + 1 x265 + 1 x266 + 1 x267 + 1 x268 + 1 x269 + 1 x270 + 1 x271 + 1 x272 + 1 x273 + 1 x274 + 1 x275 + 1 x276 + 1 x277 + 1 x278 + 1 x279 + 1 x280 + 1 x281 + 1 x282 + 1 x283 + 1 x284 + 1 x285 + 1 x286 + 1 x287 + 1 x288 + 1 x289 + 1 x290 + 1 x291 + 1 x292 + 1 x293 + 1 x294 + 1 x295 + 1 x296 + 1 x297 + 1 x298 + 1 x299 + 1 x300 + 1 x301 + 1 x302 + 1 x303 + 1 x304 + 1 x305 + 1 x306 + 1 x307 + 1 x308 + 1 x309 + 1 x310 + 1 x311 + 1 x312 + 1 x313 + 1 x314 + 1 x315 + 1 x316 + 1 x317 + 1 x318 + 1 x319 + 1 x320 + 1 x321 + 1 x322 + 1 x323 + 1 x324 + 1 x325 + 1 x326 + 1 x327 + 1 x328 + 1 x329 + 1 x330 + 1 x331 + 1 x332 + 1 x333 + 1 x334 + 1 x335 + 1 x336 + 1 x337 + 1 x338 + 1 x339 + 1 x340 + 1 x341 + 1 x342 + 1 x343 + 1 x344 + 1 x345 + 1 x346 + 1 x347 + 1 x348 + 1 x349 + 1 x350 + 1 x351 + 1 x352 + 1 x353 + 1 x354 + 1 x355 + 1 x356 + 1 x357 + 1 x358 + 1 x359 + 1 x360 + 1 x361 + 1 x362 + 1 x363 + 1 x364 + 1 x365 + 1 x366 + 1 x367 + 1 x368 + 1 x369 + 1 x370 + 1 x371 + 1 x372 + 1 x373 + 1 x374 + 1 x375 + 1 x376 + 1 x377 + 1 x378 + 1 x379 + 1 x380 + 1 x381 + 1 x382 + 1 x383 + 1 x384 + 1 x385 + 1 x386 + 1 x387 + 1 x388 + 1 x389 + 1 x390 + 1 x391 + 1 x392 + 1 x393 + 1 x394 + 1 x395 + 1 x396 + 1 x397 + 1 x398 + 1 x399 + 1 x400 + 1 x401 + 1 x402 + 1 x403 + 1 x404 + 1 x405 + 1 x406 + 1 x407 + 1 x408 + 1 x409 + 1 x410 + 1 x411 + 1 x412 + 1 x413 + 1 x414 + 1 x415 + 1 x416 + 1 x417 + 1 x418 + 1 x419 + 1 x420 + 1 x421 + 1 x422 + 1 x423 + 1 x424 + 1 x425 + 1 x426 + 1 x427 + 1 x428 + 1 x429 + 1 x430 + 1 x431 + 1 x432 + 1 x433 + 1 x434 + 1 x435 + 1 x436 + 1 x437 + 1 x438 + 1 x439 + 1 x440 + 1 x441 + 1 x442 + 1 x443 + 1 x444 + 1 x445 + 1 x446 + 1 x447 + 1 x448 + 1 x449 + 1 x450 + 1 x451 + 1 x452 + 1 x453 + 1 x454 + 1 x455 + 1 x456 + 1 x457 + 1 x458 + 1 x459 + 1 x460 + 1 x461 + 1 x462 + 1 x463 + 1 x464 + 1 x465 + 1 x466 + 1 x467 + 1 x468 + 1 x469 + 1 x470 + 1 x471 + 1 x472 + 1 x473 + 1 x474 + 1 x475 + 1 x476 + 1 x477 + 1 x478 + 1 x479 + 1 x480 + 1 x481 + 1 x482 + 1 x483 + 1 x484 + 1 x485 + 1 x486 + 1 x487 + 1 x488 + 1 x489 + 1 x490 + 1 x491 + 1 x492 + 1 x493 + 1 x494 + 1 x495 + 1 x496 + 1 x497 + 1 x498 + 1 x499 + 1 x500

subject to
C1: + x151 + x227 <= 1
C2: + x10 + x85 <= 1
C3: + x120 + x146 <= 1
C4: + x378 + x422 <= 1
C5: + x4 + x171 <= 1
C6: + x170 + x228 <= 1
C7: + x223 + x490 <= 1
C8: + x26 + x218 <= 1
C9: + x227 + x290 <= 1
C10: + x120 + x309 <= 1
C11: + x143 + x270 <= 1
C12: + x32 + x166 <= 1
C13: + x68 + x138 <= 1
C14: + x33 + x166 <= 1
C15: + x106 + x479 <= 1
C16: + x2 + x65 <= 1
C17: + x20 + x418 <= 1
C18: + x84 + x171 <= 1
C19: + x29 + x397 <= 1
C20: + x27 + x121 <= 1
C21: + x18 + x166 <= 1
C22: + x179 + x195 <= 1
C23: + x5 + x105 <= 1
C24: + x5 + x422 <= 1
C25: + x336 + x406 <= 1
C26: + x396 + x440 <= 1
C27: + x102 + x406 <= 1
C28: + x85 + x233 <= 1
C29: + x221 + x385 <= 1
C30: + x33 + x63 + x151 <= 1
C31: + x5 + x256 <= 1
C32: + x26 + x292 <= 1
C33: + x7 + x337 <= 1
C34: + x10 + x205 <= 1
C35: + x4 + x474 <= 1
C36: + x341 + x365 <= 1
C37: + x119 + x279 <= 1
C38: + x92 + x406 <= 1
C39: + x111 + x436 <= 1
C40: + x27 + x451 <= 1
C41: + x63 + x76 <= 1
C42: + x10 + x94 <= 1
C43: + x265 + x468 <= 1
C44: + x5 + x36 <= 1
C45: + x191 + x250 <= 1
C46: + x20 + x149 <= 1
C47: + x105 + x123 <= 1
C48: + x79 + x317 <= 1
C49: + x120 + x465 <= 1
C50: + x186 + x480 <= 1
C51: + x152 + x190 <= 1
C52: + x7 + x288 <= 1
C53: + x31 + x221 <= 1
C54: + x178 + x246 <= 1
C55: + x132 + x480 <= 1
C56: + x5 + x88 <= 1
C57: + x5 + x429 <= 1
C58: + x41 + x231 <= 1
C59: + x133 + x194 <= 1
C60: + x5 + x322 <= 1
C61: + x7 + x102 <= 1
C62: + x1 + x317 <= 1
C63: + x375 + x474 <= 1
C64: + x13 + x130 <= 1
C65: + x297 + x302 <= 1
C66: + x5 + x231 <= 1
C67: + x26 + x293 <= 1
C68: + x281 + x402 <= 1
C69: + x128 + x180 <= 1
C70: + x11 + x206 <= 1
C71: + x225 + x499 <= 1
C72: + x136 + x198 <= 1
C73: + x288 + x324 <= 1
C74: + x180 + x408 <= 1
C75: + x85 + x188 <= 1
C76: + x44 + x114 <= 1
C77: + x6 + x384 <= 1
C78: + x72 + x336 <= 1
C79: + x120 + x267 <= 1
C80: + x111 + x294 <= 1
C81: + x38 + x204 <= 1
C82: + x196 + x248 <= 1
C83: + x2 + x333 <= 1
C84: + x115 + x153 <= 1
C85: + x40 + x220 <= 1
C86: + x26 + x71 <= 1
C87: + x164 + x479 <= 1
C88: + x203 + x313 <= 1
C89: + x61 + x258 <= 1
C90: + x79 + x161 <= 1
C91: + x425 + x446 <= 1
C92: + x10 + x51 <= 1
C93: + x8 + x157 <= 1
C94: + x275 + x438 <= 1
C95: + x70 + x478 <= 1
C96: + x10 + x366 <= 1
C97: + x165 + x296 <= 1
C98: + x48 + x280 <= 1
C99: + x5 + x329 <= 1
C100: + x8 + x359 <= 1
C101: + x10 + x457 <= 1
C102: + x84 + x133 <= 1
C103: + x1 + x308 <= 1
C104: + x27 + x31 <= 1
C105: + x1 + x6 <= 1
C106: + x128 + x185 <= 1
C107: + x121 + x291 <= 1
C108: + x177 + x213 <= 1
C109: + x442 + x451 <= 1
C110: + x5 + x480 <= 1
C111: + x62 + x283 <= 1
C112: + x10 + x346 <= 1
C113: + x392 + x394 <= 1
C114: + x85 + x110 <= 1
C115: + x105 + x431 <= 1
C116: + x251 + x342 <= 1
C117: + x20 + x54 <= 1
C118: + x5 + x381 <= 1
C119: + x6 + x11 <= 1
C120: + x56 + x492 <= 1
C121: + x284 + x432 <= 1
C122: + x4 + x130 <= 1
C123: + x97 + x249 <= 1
C124: + x123 + x126 <= 1
C125: + x24 + x195 <= 1
C126: + x6 + x377 <= 1
C127: + x87 + x112 <= 1
C128: + x36 + x86 <= 1
C129: + x20 + x163 <= 1
C130: + x7 + x28 <= 1
C131: + x129 + x164 <= 1
C132: + x112 + x368 <= 1
C133: + x27 + x86 <= 1
C134: + x7 + x266 <= 1
C135: + x152 + x383 <= 1
C136: + x56 + x448 <= 1
C137: + x303 + x326 <= 1
C138: + x5 + x70 <= 1
C139: + x19 + x188 <= 1
C140: + x2 + x274 <= 1
C141: + x48 + x226 <= 1
C142: + x51 + x209 <= 1
C143: + x5 + x312 <= 1
C144: + x6 + x80 <= 1
C145: + x28 + x396 <= 1
C146: + x247 + x318 <= 1
C147: + x31 + x90 <= 1
C148: + x4 + x219 <= 1
C149: + x132 + x347 <= 1
C150: + x20 + x224 <= 1
C151: + x48 + x87 <= 1
C152: + x50 + x393 <= 1
C153: + x33 + x246 <= 1
C154: + x61 + x127 <= 1
C155: + x16 + x58 <= 1
C156: + x86 + x99 <= 1
C157: + x22 + x478 <= 1
C158: + x5 + x380 <= 1
C159: + x418 + x435 <= 1
C160: + x5 + x25 <= 1
C161: + x6 + x151 <= 1
C162: + x61 + x417 <= 1
C163: + x317 + x328 <= 1
C164: + x1 + x41 <= 1
C165: + x248 + x456 <= 1
C166: + x286 + x380 <= 1
C167: + x4 + x38 <= 1
C168: + x42 + x251 <= 1
C169: + x7 + x19 <= 1
C170: + x95 + x132 <= 1
C171: + x158 + x159 <= 1
C172: + x208 + x417 <= 1
C173: + x7 + x257 <= 1
C174: + x10 + x61 <= 1
C175: + x368 + x391 <= 1
C176: + x5 + x77 <= 1
C177: + x55 + x442 <= 1
C178: + x133 + x340 <= 1
C179: + x35 + x467 <= 1
C180: + x56 + x73 <= 1
C181: + x31 + x254 <= 1
C182: + x286 + x289 <= 1
C183: + x17 + x87 <= 1
C184: + x97 + x298 <= 1
C185: + x6 + x125 <= 1
C186: + x7 + x123 <= 1
C187: + x155 + x276 <= 1
C188: + x237 + x343 <= 1
C189: + x191 + x488 <= 1
C190: + x11 + x74 <= 1
C191: + x157 + x249 <= 1
C192: + x268 + x424 <= 1
C193: + x5 + x8 <= 1
C194: + x43 + x262 <= 1
C195: + x26 + x191 <= 1
C196: + x6 + x363 <= 1
C197: + x109 + x175 <= 1
C198: + x131 + x265 <= 1
C199: + x205 + x264 <= 1
C200: + x277 + x352 <= 1
C201: + x35 + x181 <= 1
C202: + x71 + x214 <= 1
C203: + x216 + x248 <= 1
C204: + x37 + x78 <= 1
C205: + x83 + x91 <= 1
C206: + x46 + x103 <= 1
C207: + x33 + x38 <= 1
C208: + x144 + x165 <= 1
C209: + x2 + x193 <= 1
C210: + x29 + x269 <= 1
C211: + x40 + x88 <= 1
C212: + x43 + x330 <= 1
C213: + x258 + x333 <= 1
C214: + x11 + x13 <= 1
C215: + x20 + x399 <= 1
C216: + x22 + x127 <= 1
C217: + x26 + x257 <= 1
C218: + x10 + x18 <= 1
C219: + x122 + x176 <= 1
C220: + x59 + x488 <= 1
C221: + x140 + x313 <= 1
C222: + x285 + x398 <= 1
C223: + x45 + x215 <= 1
C224: + x63 + x142 <= 1
C225: + x7 + x465 <= 1
C226: + x230 + x234 <= 1
C227: + x142 + x206 <= 1
C228: + x216 + x288 <= 1
C229: + x10 + x99 <= 1
C230: + x84 + x232 <= 1
C231: + x177 + x329 <= 1
C232: + x106 + x183 <= 1
C233: + x5 + x15 <= 1
C234: + x24 + x291 <= 1
C235: + x26 + x136 <= 1
C236: + x1 + x39 <= 1
C237: + x94 + x280 <= 1
C238: + x176 + x403 <= 1
C239: + x170 + x320 <= 1
C240: + x29 + x487 <= 1
C241: + x5 + x158 <= 1
C242: + x260 + x473 <= 1
C243: + x83 + x247 <= 1
C244: + x10 + x47 <= 1
C245: + x28 + x85 <= 1
C246: + x16 + x375 <= 1
C247: + x126 + x466 <= 1
C248: + x31 + x36 <= 1
C249: + x5 + x51 <= 1
C250: + x5 + x400 <= 1
C251: + x10 + x138 <= 1
C252: + x11 + x282 <= 1
C253: + x41 + x287 <= 1
C254: + x78 + x125 <= 1
C255: + x15 + x496 <= 1
C256: + x11 + x56 <= 1
C257: + x49 + x335 <= 1
C258: + x55 + x396 <= 1
C259: + x56 + x316 <= 1
C260: + x274 + x411 <= 1
C261: + x5 + x194 <= 1
C262: + x10 + x27 <= 1
C263: + x166 + x293 <= 1
C264: + x115 + x196 <= 1
C265: + x43 + x357 <= 1
C266: + x5 + x436 <= 1
C267: + x89 + x424 <= 1
C268: + x7 + x460 <= 1
C269: + x17 + x69 <= 1
C270: + x218 + x275 <= 1
C271: + x183 + x370 <= 1
C272: + x15 + x60 <= 1
C273: + x6 + x111 <= 1
C274: + x37 + x442 <= 1
C275: + x22 + x76 <= 1
C276: + x33 + x453 <= 1
C277: + x6 + x130 <= 1
C278: + x15 + x213 <= 1
C279: + x73 + x305 <= 1
C280: + x91 + x327 <= 1
C281: + x31 + x156 <= 1
C282: + x4 + x25 <= 1
C283: + x97 + x98 <= 1
C284: + x226 + x324 <= 1
C285: + x337 + x390 <= 1
C286: + x63 + x225 <= 1
C287: + x10 + x290 <= 1
C288: + x39 + x285 <= 1
C289: + x68 + x248 <= 1
C290: + x336 + x363 <= 1
C291: + x17 + x315 <= 1
C292: + x18 + x24 <= 1
C293: + x20 + x139 <= 1
C294: + x114 + x431 <= 1
C295: + x5 + x300 <= 1
C296: + x80 + x173 <= 1
C297: + x37 + x40 <= 1
C298: + x158 + x190 <= 1
C299: + x234 + x245 <= 1
C300: + x206 + x484 <= 1
C301: + x18 + x161 <= 1
C302: + x110 + x240 <= 1
C303: + x9 + x140 <= 1
C304: + x28 + x122 <= 1
C305: + x48 + x107 <= 1
C306: + x115 + x251 <= 1
C307: + x5 + x110 <= 1
C308: + x13 + x299 <= 1
C309: + x6 + x88 <= 1
C310: + x146 + x178 <= 1
C311: + x56 + x453 <= 1
C312: + x14 + x24 <= 1
C313: + x11 + x200 <= 1
C314: + x93 + x126 <= 1
C315: + x131 + x278 <= 1
C316: + x141 + x493 <= 1
C317: + x235 + x378 <= 1
C318: + x20 + x35 <= 1
C319: + x20 + x474 <= 1
C320: + x284 + x306 <= 1
C321: + x341 + x455 <= 1
C322: + x9 + x306 <= 1
C323: + x83 + x233 <= 1
C324: + x173 + x184 <= 1
C325: + x128 + x254 <= 1
C326: + x309 + x461 <= 1
C327: + x56 + x64 <= 1
C328: + x5 + x275 <= 1
C329: + x17 + x36 <= 1
C330: + x181 + x437 <= 1
C331: + x400 + x416 <= 1
C332: + x11 + x58 <= 1
C333: + x93 + x132 <= 1
C334: + x140 + x193 <= 1
C335: + x4 + x320 <= 1
C336: + x6 + x208 <= 1
C337: + x19 + x42 <= 1
C338: + x39 + x45 <= 1
C339: + x104 + x119 <= 1
C340: + x5 + x85 <= 1
C341: + x17 + x179 <= 1
C342: + x317 + x500 <= 1
C343: + x15 + x361 <= 1
C344: + x327 + x463 <= 1
C345: + x59 + x143 <= 1
C346: + x176 + x313 <= 1
C347: + x159 + x257 <= 1
C348: + x6 + x81 <= 1
C349: + x26 + x389 <= 1
C350: + x57 + x199 <= 1
C351: + x20 + x370 <= 1
C352: + x68 + x85 <= 1
C353: + x5 + x252 <= 1
C354: + x7 + x341 <= 1
C355: + x290 + x486 <= 1
C356: + x34 + x111 + x469 <= 1
C357: + x30 + x238 <= 1
C358: + x13 + x108 <= 1
C359: + x51 + x179 <= 1
C360: + x10 + x340 <= 1
C361: + x120 + x409 <= 1
C362: + x177 + x461 <= 1
C363: + x8 + x289 <= 1
C364: + x10 + x66 <= 1
C365: + x173 + x175 <= 1
C366: + x29 + x273 <= 1
C367: + x1 + x374 <= 1
C368: + x56 + x402 <= 1
C369: + x39 + x108 <= 1
C370: + x6 + x168 <= 1
C371: + x162 + x271 <= 1
C372: + x8 + x19 <= 1
C373: + x37 + x241 <= 1
C374: + x5 + x282 <= 1
C375: + x11 + x33 <= 1
C376: + x95 + x147 <= 1
C377: + x21 + x293 <= 1
C378: + x97 + x350 <= 1
C379: + x6 + x201 <= 1
C380: + x16 + x274 <= 1
C381: + x22 + x403 <= 1
C382: + x10 + x14 <= 1
C383: + x234 + x386 <= 1
C384: + x179 + x259 <= 1
C385: + x18 + x62 <= 1
C386: + x218 + x358 <= 1
C387: + x73 + x471 <= 1
C388: + x56 + x201 <= 1
C389: + x5 + x334 <= 1
C390: + x11 + x21 <= 1
C391: + x203 + x482 <= 1
C392: + x115 + x128 <= 1
C393: + x277 + x422 <= 1
C394: + x70 + x354 <= 1
C395: + x2 + x181 <= 1
C396: + x114 + x211 <= 1
C397: + x6 + x491 <= 1
C398: + x7 + x489 <= 1
C399: + x263 + x318 <= 1
C400: + x93 + x273 <= 1
C401: + x58 + x307 <= 1
C402: + x130 + x206 <= 1
C403: + x264 + x476 <= 1
C404: + x168 + x345 <= 1
C405: + x6 + x14 <= 1
C406: + x89 + x358 <= 1
C407: + x31 + x32 <= 1
C408: + x5 + x23 <= 1
C409: + x81 + x112 <= 1
C410: + x7 + x380 <= 1
C411: + x1 + x95 <= 1
C412: + x165 + x384 <= 1
C413: + x8 + x12 <= 1
C414: + x156 + x387 <= 1
C415: + x22 + x142 <= 1
C416: + x31 + x185 <= 1
C417: + x33 + x259 <= 1
C418: + x7 + x37 <= 1
C419: + x11 + x44 <= 1
C420: + x32 + x37 <= 1
C421: + x6 + x50 <= 1
C422: + x10 + x55 <= 1
C423: + x101 + x242 <= 1
C424: + x291 + x397 <= 1
C425: + x223 + x250 <= 1
C426: + x342 + x392 <= 1
C427: + x15 + x24 <= 1
C428: + x17 + x462 <= 1
C429: + x180 + x469 <= 1
C430: + x2 + x448 <= 1
C431: + x6 + x67 <= 1
C432: + x59 + x118 <= 1
C433: + x40 + x54 <= 1
C434: + x32 + x105 <= 1
C435: + x16 + x154 <= 1
C436: + x58 + x473 <= 1
C437: + x50 + x396 <= 1
C438: + x41 + x97 <= 1
C439: + x65 + x103 <= 1
C440: + x40 + x395 <= 1
C441: + x15 + x36 <= 1
C442: + x10 + x116 <= 1
C443: + x11 + x68 <= 1
C444: + x155 + x199 <= 1
C445: + x8 + x222 <= 1
C446: + x63 + x435 <= 1
C447: + x39 + x102 <= 1
C448: + x5 + x30 <= 1
C449: + x93 + x415 <= 1
C450: + x213 + x345 <= 1
C451: + x4 + x33 <= 1
C452: + x286 + x383 <= 1
C453: + x5 + x173 <= 1
C454: + x27 + x485 <= 1
C455: + x92 + x134 <= 1
C456: + x447 + x453 <= 1
C457: + x20 + x115 <= 1
C458: + x143 + x212 <= 1
C459: + x11 + x462 <= 1
C460: + x96 + x146 <= 1
C461: + x56 + x80 <= 1
C462: + x31 + x255 <= 1
C463: + x14 + x298 <= 1
C464: + x142 + x373 <= 1
C465: + x91 + x455 <= 1
C466: + x54 + x243 <= 1
C467: + x152 + x430 <= 1
C468: + x350 + x498 <= 1
C469: + x5 + x360 <= 1
C470: + x101 + x359 <= 1
C471: + x11 + x75 <= 1
C472: + x58 + x83 <= 1
C473: + x33 + x436 <= 1
C474: + x4 + x139 <= 1
C475: + x126 + x363 <= 1
C476: + x108 + x292 <= 1
C477: + x26 + x186 <= 1
C478: + x183 + x276 <= 1
C479: + x185 + x239 <= 1
C480: + x111 + x316 <= 1
C481: + x1 + x458 <= 1
C482: + x75 + x321 <= 1
C483: + x149 + x178 <= 1
C484: + x4 + x284 <= 1
C485: + x26 + x198 <= 1
C486: + x6 + x274 <= 1
C487: + x299 + x302 <= 1
C488: + x35 + x41 <= 1
C489: + x1 + x121 <= 1
C490: + x71 + x131 <= 1
C491: + x177 + x282 <= 1
C492: + x268 + x496 <= 1
C493: + x354 + x492 <= 1
C494: + x62 + x454 <= 1
C495: + x10 + x237 <= 1
C496: + x47 + x108 <= 1
C497: + x148 + x361 <= 1
C498: + x226 + x378 <= 1
C499: + x37 + x134 <= 1
C500: + x420 + x427 <= 1
C501: + x6 + x121 <= 1
C502: + x81 + x184 <= 1
C503: + x9 + x469 <= 1
C504: + x2 + x9 <= 1
C505: + x33 + x280 <= 1
C506: + x73 + x100 <= 1
C507: + x255 + x443 <= 1
C508: + x76 + x332 <= 1
C509: + x284 + x303 <= 1
C510: + x4 + x257 <= 1
C511: + x28 + x493 <= 1
C512: + x10 + x42 <= 1
C513: + x75 + x122 <= 1
C514: + x155 + x157 <= 1
C515: + x31 + x61 <= 1
C516: + x43 + x310 <= 1
C517: + x7 + x409 <= 1
C518: + x8 + x43 <= 1
C519: + x16 + x72 <= 1
C520: + x73 + x499 <= 1
C521: + x4 + x402 <= 1
C522: + x70 + x163 <= 1
C523: + x36 + x367 <= 1
C524: + x1 + x285 <= 1
C525: + x75 + x201 <= 1
C526: + x56 + x319 <= 1
C527: + x28 + x112 <= 1
C528: + x164 + x216 <= 1
C529: + x12 + x189 <= 1
C530: + x26 + x27 <= 1
C531: + x27 + x137 <= 1
C532: + x28 + x267 <= 1
C533: + x48 + x200 <= 1
C534: + x258 + x285 <= 1
C535: + x271 + x362 <= 1
C536: + x8 + x382 <= 1
C537: + x28 + x426 <= 1
C538: + x48 + x466 <= 1
C539: + x5 + x11 <= 1
C540: + x53 + x472 <= 1
C541: + x88 + x422 <= 1
C542: + x42 + x278 <= 1
C543: + x205 + x315 <= 1
C544: + x4 + x491 <= 1
C545: + x268 + x320 <= 1
C546: + x53 + x162 <= 1
C547: + x6 + x22 <= 1
C548: + x79 + x129 <= 1
C549: + x10 + x416 <= 1
C550: + x165 + x227 <= 1
C551: + x5 + x63 <= 1
C552: + x6 + x260 <= 1
C553: + x7 + x404 <= 1
C554: + x228 + x400 <= 1
C555: + x8 + x327 <= 1
C556: + x362 + x459 <= 1
C557: + x15 + x141 <= 1
C558: + x7 + x218 <= 1
C559: + x145 + x156 <= 1
C560: + x8 + x177 <= 1
C561: + x11 + x149 <= 1
C562: + x90 + x206 <= 1
C563: + x177 + x245 <= 1
C564: + x16 + x263 <= 1
C565: + x87 + x450 <= 1
C566: + x5 + x448 <= 1
C567: + x115 + x494 <= 1
C568: + x8 + x194 <= 1
C569: + x11 + x104 <= 1
C570: + x345 + x347 <= 1
C571: + x4 + x29 <= 1
C572: + x323 + x461 <= 1
C573: + x16 + x37 <= 1
C574: + x87 + x255 <= 1
C575: + x15 + x76 <= 1
C576: + x5 + x129 <= 1
C577: + x152 + x212 <= 1
C578: + x336 + x375 <= 1
C579: + x64 + x489 <= 1
C580: + x166 + x230 <= 1
C581: + x39 + x126 <= 1
C582: + x90 + x281 <= 1
C583: + x7 + x395 <= 1
C584: + x48 + x130 <= 1
C585: + x48 + x317 <= 1
C586: + x39 + x356 <= 1
C587: + x238 + x276 <= 1
C588: + x46 + x468 <= 1
C589: + x14 + x96 <= 1
C590: + x162 + x191 <= 1
C591: + x80 + x443 <= 1
C592: + x8 + x170 <= 1
C593: + x5 + x106 <= 1
C594: + x173 + x398 <= 1
C595: + x248 + x311 <= 1
C596: + x50 + x223 <= 1
C597: + x323 + x341 <= 1
C598: + x52 + x143 <= 1
C599: + x6 + x84 <= 1
C600: + x7 + x100 <= 1
C601: + x173 + x307 <= 1
C602: + x324 + x351 <= 1
C603: + x31 + x457 <= 1
C604: + x59 + x101 <= 1
C605: + x279 + x396 <= 1
C606: + x39 + x230 <= 1
C607: + x214 + x372 <= 1
C608: + x26 + x49 <= 1
C609: + x15 + x434 <= 1
C610: + x66 + x154 <= 1
C611: + x48 + x341 <= 1
C612: + x34 + x433 <= 1
C613: + x15 + x83 <= 1
C614: + x6 + x8 <= 1
C615: + x12 + x248 <= 1
C616: + x5 + x45 <= 1
C617: + x1 + x69 <= 1
C618: + x46 + x223 <= 1
C619: + x19 + x147 <= 1
C620: + x115 + x159 <= 1
C621: + x416 + x418 <= 1
C622: + x128 + x349 <= 1
C623: + x27 + x408 <= 1
C624: + x8 + x167 <= 1
C625: + x11 + x135 <= 1
C626: + x136 + x494 <= 1
C627: + x14 + x188 <= 1
C628: + x5 + x81 <= 1
C629: + x25 + x250 <= 1
C630: + x24 + x132 <= 1
C631: + x6 + x314 <= 1
C632: + x11 + x380 <= 1
C633: + x22 + x90 <= 1
C634: + x5 + x232 <= 1
C635: + x151 + x440 <= 1
C636: + x7 + x329 <= 1
C637: + x4 + x11 <= 1
C638: + x97 + x441 <= 1
C639: + x31 + x138 <= 1
C640: + x16 + x43 <= 1
C641: + x36 + x223 <= 1
C642: + x87 + x265 <= 1
C643: + x22 + x46 <= 1
C644: + x81 + x109 <= 1
C645: + x11 + x319 <= 1
C646: + x48 + x152 <= 1
C647: + x358 + x500 <= 1
C648: + x97 + x338 <= 1
C649: + x5 + x187 <= 1
C650: + x10 + x50 <= 1
C651: + x54 + x390 <= 1
C652: + x5 + x96 <= 1
C653: + x23 + x299 <= 1
C654: + x5 + x405 <= 1
C655: + x8 + x451 <= 1
C656: + x247 + x415 <= 1
C657: + x30 + x114 <= 1
C658: + x34 + x119 <= 1
C659: + x134 + x145 <= 1
C660: + x11 + x17 <= 1
C661: + x35 + x450 <= 1
C662: + x134 + x399 <= 1
C663: + x1 + x7 <= 1
C664: + x8 + x84 <= 1
C665: + x114 + x215 <= 1
C666: + x22 + x198 <= 1
C667: + x48 + x73 <= 1
C668: + x63 + x154 <= 1
C669: + x256 + x470 <= 1
C670: + x320 + x417 <= 1
C671: + x3 + x5 <= 1
C672: + x65 + x374 <= 1
C673: + x147 + x173 <= 1
C674: + x11 + x69 <= 1
C675: + x5 + x19 <= 1
C676: + x6 + x360 <= 1
C677: + x11 + x314 <= 1
C678: + x322 + x336 <= 1
C679: + x31 + x189 <= 1
C680: + x26 + x79 <= 1
C681: + x100 + x500 <= 1
C682: + x28 + x383 <= 1
C683: + x37 + x89 <= 1
C684: + x266 + x385 <= 1
C685: + x95 + x315 <= 1
C686: + x289 + x405 <= 1
C687: + x19 + x185 <= 1
C688: + x8 + x60 <= 1
C689: + x228 + x408 <= 1
C690: + x52 + x230 <= 1
C691: + x149 + x337 <= 1
C692: + x59 + x467 <= 1
C693: + x13 + x22 <= 1
C694: + x227 + x340 <= 1
C695: + x263 + x297 <= 1
C696: + x16 + x57 <= 1
C697: + x322 + x472 <= 1
C698: + x55 + x238 <= 1
C699: + x61 + x221 <= 1
C700: + x170 + x420 <= 1
C701: + x36 + x428 <= 1
C702: + x180 + x260 <= 1
C703: + x82 + x312 <= 1
C704: + x8 + x125 <= 1
C705: + x62 + x388 <= 1
C706: + x65 + x490 <= 1
C707: + x48 + x166 <= 1
C708: + x13 + x74 <= 1
C709: + x116 + x415 <= 1
C710: + x7 + x20 <= 1
C711: + x136 + x239 <= 1
C712: + x139 + x236 <= 1
C713: + x32 + x42 <= 1
C714: + x14 + x68 <= 1
C715: + x208 + x420 <= 1
C716: + x36 + x43 <= 1
C717: + x41 + x64 <= 1
C718: + x169 + x245 <= 1
C719: + x8 + x49 <= 1
C720: + x203 + x226 <= 1
C721: + x67 + x346 <= 1
C722: + x12 + x54 <= 1
C723: + x150 + x333 <= 1
C724: + x119 + x449 <= 1
C725: + x84 + x150 <= 1
C726: + x38 + x479 <= 1
C727: + x361 + x452 <= 1
C728: + x40 + x47 <= 1
C729: + x277 + x440 <= 1
C730: + x26 + x319 <= 1
C731: + x218 + x485 <= 1
C732: + x56 + x76 <= 1
C733: + x206 + x347 <= 1
C734: + x34 + x335 <= 1
C735: + x24 + x99 <= 1
C736: + x70 + x78 <= 1
C737: + x125 + x183 <= 1
C738: + x11 + x345 <= 1
C739: + x34 + x242 <= 1
C740: + x348 + x466 <= 1
C741: + x70 + x225 <= 1
C742: + x5 + x356 <= 1
C743: + x62 + x143 <= 1
C744: + x144 + x494 <= 1
C745: + x313 + x371 <= 1
C746: + x31 + x175 <= 1
C747: + x39 + x484 <= 1
C748: + x6 + x48 <= 1
C749: + x24 + x406 <= 1
C750: + x101 + x343 <= 1
C751: + x165 + x249 <= 1
C752: + x30 + x186 <= 1
C753: + x12 + x208 <= 1
C754: + x269 + x285 <= 1
C755: + x5 + x53 <= 1
C756: + x28 + x254 <= 1
C757: + x39 + x170 <= 1
C758: + x41 + x196 <= 1
C759: + x40 + x321 <= 1
C760: + x8 + x333 <= 1
C761: + x55 + x77 <= 1
C762: + x84 + x155 <= 1
C763: + x67 + x191 <= 1
C764: + x4 + x5 + x6 + x7 + x10 <= 1
C765: + x10 + x17 <= 1
C766: + x102 + x176 <= 1
C767: + x46 + x264 <= 1
C768: + x170 + x192 <= 1
C769: + x62 + x293 <= 1
C770: + x142 + x205 <= 1
C771: + x6 + x101 <= 1
C772: + x10 + x98 <= 1
C773: + x220 + x271 <= 1
C774: + x8 + x208 <= 1
C775: + x186 + x403 <= 1
C776: + x5 + x16 <= 1
C777: + x24 + x318 <= 1
C778: + x26 + x135 <= 1
C779: + x273 + x376 <= 1
C780: + x37 + x273 <= 1
C781: + x332 + x386 <= 1
C782: + x79 + x353 <= 1
C783: + x19 + x275 <= 1
C784: + x93 + x270 <= 1
C785: + x128 + x378 <= 1
C786: + x67 + x313 <= 1
C787: + x13 + x362 <= 1
C788: + x62 + x92 <= 1
C789: + x10 + x46 <= 1
C790: + x164 + x240 <= 1
C791: + x54 + x410 <= 1
C792: + x166 + x256 <= 1
C793: + x31 + x33 <= 1
C794: + x117 + x150 <= 1
C795: + x36 + x184 <= 1
C796: + x191 + x202 <= 1
C797: + x31 + x279 <= 1
C798: + x7 + x58 <= 1
C799: + x283 + x325 <= 1
C800: + x136 + x352 <= 1
C801: + x134 + x483 <= 1
C802: + x19 + x53 <= 1
C803: + x144 + x304 <= 1
C804: + x56 + x90 <= 1
C805: + x10 + x26 <= 1
C806: + x119 + x334 <= 1
C807: + x66 + x120 <= 1
C808: + x138 + x400 <= 1
C809: + x165 + x265 <= 1
C810: + x6 + x110 <= 1
C811: + x7 + x118 <= 1
C812: + x273 + x450 <= 1
C813: + x2 + x6 <= 1
C814: + x8 + x197 <= 1
C815: + x246 + x287 <= 1
C816: + x14 + x30 <= 1
C817: + x209 + x464 <= 1
C818: + x217 + x355 <= 1
C819: + x7 + x348 <= 1
C820: + x15 + x271 <= 1
C821: + x435 + x490 <= 1
C822: + x140 + x493 <= 1
C823: + x37 + x125 <= 1
C824: + x29 + x50 <= 1
C825: + x56 + x384 <= 1
C826: + x204 + x351 <= 1
C827: + x4 + x270 <= 1
C828: + x43 + x392 <= 1
C829: + x6 + x18 <= 1
C830: + x40 + x482 <= 1
C831: + x48 + x323 <= 1
C832: + x11 + x173 <= 1
C833: + x122 + x365 <= 1
C834: + x242 + x320 <= 1
C835: + x70 + x442 <= 1
C836: + x116 + x176 <= 1
C837: + x171 + x246 <= 1
C838: + x71 + x344 <= 1
C839: + x165 + x324 <= 1
C840: + x166 + x348 <= 1
C841: + x11 + x258 <= 1
C842: + x78 + x117 <= 1
C843: + x4 + x411 <= 1
C844: + x33 + x164 <= 1
C845: + x87 + x363 <= 1
C846: + x17 + x46 <= 1
C847: + x50 + x73 <= 1
C848: + x140 + x203 <= 1
C849: + x197 + x394 <= 1
C850: + x90 + x210 <= 1
C851: + x4 + x314 <= 1
C852: + x62 + x468 <= 1
C853: + x11 + x145 <= 1
C854: + x22 + x227 <= 1
C855: + x189 + x201 <= 1
C856: + x99 + x331 <= 1
C857: + x16 + x29 <= 1
C858: + x84 + x483 <= 1
C859: + x213 + x266 <= 1
C860: + x23 + x487 <= 1
C861: + x142 + x255 <= 1
C862: + x16 + x436 <= 1
C863: + x6 + x87 <= 1
C864: + x338 + x497 <= 1
C865: + x12 + x263 <= 1
C866: + x31 + x103 <= 1
C867: + x89 + x234 <= 1
C868: + x8 + x97 <= 1
C869: + x136 + x432 <= 1
C870: + x86 + x444 <= 1
C871: + x341 + x355 <= 1
C872: + x60 + x112 <= 1
C873: + x243 + x390 <= 1
C874: + x5 + x496 <= 1
C875: + x173 + x455 <= 1
C876: + x93 + x260 <= 1
C877: + x20 + x38 <= 1
C878: + x56 + x138 <= 1
C879: + x207 + x272 <= 1
C880: + x118 + x262 <= 1
C881: + x291 + x323 <= 1
C882: + x237 + x369 <= 1
C883: + x30 + x133 <= 1
C884: + x114 + x177 <= 1
C885: + x294 + x445 <= 1
C886: + x27 + x211 <= 1
C887: + x54 + x271 <= 1
C888: + x119 + x132 <= 1
C889: + x13 + x495 <= 1
C890: + x165 + x432 <= 1
C891: + x29 + x394 <= 1
C892: + x141 + x212 <= 1
C893: + x70 + x308 <= 1
C894: + x164 + x202 <= 1
C895: + x101 + x205 <= 1
C896: + x95 + x326 <= 1
C897: + x5 + x419 <= 1
C898: + x15 + x362 <= 1
C899: + x63 + x168 <= 1
C900: + x121 + x171 <= 1
C901: + x3 + x434 <= 1
C902: + x6 + x96 <= 1
C903: + x7 + x104 <= 1
C904: + x101 + x263 <= 1
C905: + x11 + x107 <= 1
C906: + x8 + x368 <= 1
C907: + x155 + x373 <= 1
C908: + x4 + x235 <= 1
C909: + x11 + x208 <= 1
C910: + x122 + x142 <= 1
C911: + x54 + x231 <= 1
C912: + x203 + x375 <= 1
C913: + x59 + x212 <= 1
C914: + x48 + x337 <= 1
C915: + x13 + x279 <= 1
C916: + x128 + x460 <= 1
C917: + x10 + x65 <= 1
C918: + x11 + x95 <= 1
C919: + x140 + x364 <= 1
C920: + x35 + x416 <= 1
C921: + x6 + x167 <= 1
C922: + x237 + x397 <= 1
C923: + x10 + x164 <= 1
C924: + x166 + x334 <= 1
C925: + x48 + x139 <= 1
C926: + x31 + x183 <= 1
C927: + x13 + x486 <= 1
C928: + x63 + x224 <= 1
C929: + x28 + x357 <= 1
C930: + x11 + x34 <= 1
C931: + x6 + x56 <= 1
C932: + x10 + x13 <= 1
C933: + x48 + x124 <= 1
C934: + x4 + x67 <= 1
C935: + x70 + x480 <= 1
C936: + x24 + x160 <= 1
C937: + x9 + x24 <= 1
C938: + x10 + x368 <= 1
C939: + x244 + x500 <= 1
C940: + x198 + x230 <= 1
C941: + x5 + x335 <= 1
C942: + x84 + x336 <= 1
C943: + x11 + x22 <= 1
C944: + x40 + x64 <= 1
C945: + x96 + x163 <= 1
C946: + x409 + x418 <= 1
C947: + x16 + x148 <= 1
C948: + x46 + x288 <= 1
C949: + x114 + x210 <= 1
C950: + x36 + x195 <= 1
C951: + x56 + x160 <= 1
C952: + x56 + x331 <= 1
C953: + x87 + x269 <= 1
C954: + x26 + x473 <= 1
C955: + x2 + x12 + x136 <= 1
C956: + x84 + x207 <= 1
C957: + x93 + x228 <= 1
C958: + x34 + x297 <= 1
C959: + x345 + x377 <= 1
C960: + x84 + x430 <= 1
C961: + x38 + x247 <= 1
C962: + x48 + x148 <= 1
C963: + x132 + x443 <= 1
C964: + x4 + x498 <= 1
C965: + x150 + x371 <= 1
C966: + x81 + x339 <= 1
C967: + x31 + x186 <= 1
C968: + x196 + x306 <= 1
C969: + x178 + x348 <= 1
C970: + x176 + x390 <= 1
C971: + x61 + x79 + x91 <= 1
C972: + x48 + x430 <= 1
C973: + x359 + x456 <= 1
C974: + x5 + x167 <= 1
C975: + x133 + x295 <= 1
C976: + x146 + x350 <= 1
C977: + x10 + x54 <= 1
C978: + x173 + x219 <= 1
C979: + x40 + x168 <= 1
C980: + x5 + x92 <= 1
C981: + x6 + x303 <= 1
C982: + x81 + x482 <= 1
C983: + x135 + x378 <= 1
C984: + x11 + x367 <= 1
C985: + x142 + x391 <= 1
C986: + x56 + x193 <= 1
C987: + x78 + x84 <= 1
C988: + x42 + x192 <= 1
C989: + x347 + x391 <= 1
C990: + x191 + x435 <= 1
C991: + x136 + x376 <= 1
C992: + x59 + x115 <= 1
C993: + x30 + x348 <= 1
C994: + x96 + x172 <= 1
C995: + x13 + x182 <= 1
C996: + x89 + x255 <= 1
C997: + x27 + x28 <= 1
C998: + x127 + x411 <= 1
C999: + x129 + x464 <= 1
C1000: + x29 + x241 <= 1
C1001: + x12 + x137 <= 1
C1002: + x20 + x222 <= 1
C1003: + x10 + x295 <= 1
C1004: + x308 + x444 <= 1
C1005: + x62 + x278 <= 1
C1006: + x148 + x441 <= 1
C1007: + x203 + x377 <= 1
C1008: + x20 + x496 <= 1
C1009: + x23 + x456 <= 1
C1010: + x72 + x82 <= 1
C1011: + x144 + x325 <= 1
C1012: + x11 + x65 <= 1
C1013: + x229 + x323 <= 1
C1014: + x48 + x454 <= 1
C1015: + x33 + x446 <= 1
C1016: + x149 + x197 <= 1
C1017: + x5 + x31 <= 1
C1018: + x10 + x174 <= 1
C1019: + x13 + x412 <= 1
C1020: + x83 + x102 <= 1
C1021: + x14 + x71 <= 1
C1022: + x100 + x339 <= 1
C1023: + x154 + x284 <= 1
C1024: + x227 + x439 <= 1
C1025: + x113 + x272 <= 1
C1026: + x443 + x497 <= 1
C1027: + x52 + x75 <= 1
C1028: + x35 + x47 <= 1
C1029: + x245 + x498 <= 1
C1030: + x55 + x214 <= 1
C1031: + x114 + x115 <= 1
C1032: + x33 + x156 <= 1
C1033: + x6 + x75 <= 1
C1034: + x227 + x253 <= 1
C1035: + x56 + x300 <= 1
C1036: + x149 + x256 <= 1
C1037: + x22 + x120 <= 1
C1038: + x29 + x427 <= 1
C1039: + x28 + x145 <= 1
C1040: + x11 + x249 <= 1
C1041: + x48 + x94 <= 1
C1042: + x13 + x18 <= 1
C1043: + x87 + x446 <= 1
C1044: + x15 + x44 <= 1
C1045: + x7 + x133 <= 1
C1046: + x10 + x417 <= 1
C1047: + x8 + x214 <= 1
C1048: + x83 + x279 <= 1
C1049: + x144 + x334 <= 1
C1050: + x20 + x340 <= 1
C1051: + x130 + x389 <= 1
C1052: + x60 + x401 <= 1
C1053: + x170 + x305 <= 1
C1054: + x153 + x409 <= 1
C1055: + x135 + x217 <= 1
C1056: + x20 + x449 <= 1
C1057: + x41 + x391 <= 1
C1058: + x6 + x35 <= 1
C1059: + x10 + x40 <= 1
C1060: + x101 + x225 <= 1
C1061: + x52 + x413 <= 1
C1062: + x17 + x160 <= 1
C1063: + x193 + x239 <= 1
C1064: + x38 + x45 <= 1
C1065: + x305 + x489 <= 1
C1066: + x7 + x68 <= 1
C1067: + x134 + x143 <= 1
C1068: + x11 + x15 <= 1
C1069: + x13 + x172 <= 1
C1070: + x5 + x217 <= 1
C1071: + x6 + x215 <= 1
C1072: + x10 + x20 <= 1
C1073: + x94 + x326 <= 1
C1074: + x32 + x332 <= 1
C1075: + x164 + x397 <= 1
C1076: + x357 + x425 <= 1
C1077: + x48 + x373 <= 1
C1078: + x51 + x57 <= 1
C1079: + x96 + x303 <= 1
C1080: + x7 + x128 <= 1
C1081: + x262 + x307 <= 1
C1082: + x140 + x152 <= 1
C1083: + x59 + x73 <= 1
C1084: + x5 + x13 <= 1
C1085: + x117 + x266 <= 1
C1086: + x67 + x409 <= 1
C1087: + x242 + x433 <= 1
C1088: + x196 + x210 <= 1
C1089: + x252 + x452 <= 1
C1090: + x103 + x458 <= 1
C1091: + x113 + x465 <= 1
C1092: + x59 + x60 <= 1
C1093: + x78 + x238 <= 1
C1094: + x10 + x41 <= 1
C1095: + x38 + x371 <= 1
C1096: + x41 + x43 <= 1
C1097: + x31 + x62 <= 1
C1098: + x9 + x52 <= 1
C1099: + x10 + x140 <= 1
C1100: + x18 + x25 <= 1
C1101: + x122 + x194 <= 1
C1102: + x267 + x315 <= 1
C1103: + x224 + x228 <= 1
C1104: + x73 + x81 <= 1
C1105: + x7 + x59 <= 1
C1106: + x64 + x331 <= 1
C1107: + x60 + x376 <= 1
C1108: + x6 + x224 <= 1
C1109: + x18 + x170 <= 1
C1110: + x280 + x395 <= 1
C1111: + x56 + x93 <= 1
C1112: + x48 + x100 <= 1
C1113: + x141 + x392 <= 1
C1114: + x14 + x144 <= 1
C1115: + x87 + x464 <= 1
C1116: + x61 + x477 <= 1
C1117: + x236 + x343 <= 1
C1118: + x6 + x462 <= 1
C1119: + x62 + x289 <= 1
C1120: + x67 + x353 <= 1
C1121: + x34 + x106 <= 1
C1122: + x262 + x316 <= 1
C1123: + x143 + x239 <= 1
C1124: + x1 + x159 <= 1
C1125: + x11 + x126 <= 1
C1126: + x86 + x211 <= 1
C1127: + x106 + x186 <= 1
C1128: + x5 + x12 <= 1
C1129: + x188 + x375 <= 1
C1130: + x300 + x491 <= 1
C1131: + x220 + x418 <= 1
C1132: + x20 + x189 <= 1
C1133: + x31 + x367 <= 1
C1134: + x36 + x299 <= 1
C1135: + x46 + x91 <= 1
C1136: + x130 + x229 <= 1
C1137: + x6 + x21 <= 1
C1138: + x8 + x305 <= 1
C1139: + x10 + x82 <= 1
C1140: + x166 + x252 <= 1
C1141: + x368 + x404 <= 1
C1142: + x361 + x423 <= 1
C1143: + x6 + x184 <= 1
C1144: + x14 + x213 <= 1
C1145: + x9 + x59 <= 1
C1146: + x15 + x344 <= 1
C1147: + x11 + x259 <= 1
C1148: + x20 + x137 <= 1
C1149: + x12 + x40 <= 1
C1150: + x48 + x252 <= 1
C1151: + x186 + x190 <= 1
C1152: + x179 + x388 <= 1
C1153: + x131 + x158 <= 1
C1154: + x37 + x38 <= 1
C1155: + x343 + x358 <= 1
C1156: + x172 + x286 <= 1
C1157: + x109 + x281 <= 1
C1158: + x11 + x150 <= 1
C1159: + x4 + x84 <= 1
C1160: + x197 + x292 <= 1
C1161: + x98 + x157 <= 1
C1162: + x26 + x227 <= 1
C1163: + x152 + x444 <= 1
C1164: + x164 + x443 <= 1
C1165: + x79 + x253 <= 1
C1166: + x337 + x492 <= 1
C1167: + x84 + x244 <= 1
C1168: + x5 + x243 <= 1
C1169: + x10 + x202 <= 1
C1170: + x115 + x382 <= 1
C1171: + x4 + x467 <= 1
C1172: + x51 + x190 <= 1
C1173: + x128 + x355 <= 1
C1174: + x12 + x403 <= 1
C1175: + x217 + x278 <= 1
C1176: + x82 + x229 <= 1
C1177: + x11 + x169 <= 1
C1178: + x5 + x39 <= 1
C1179: + x380 + x412 <= 1
C1180: + x186 + x199 <= 1
C1181: + x70 + x148 <= 1
C1182: + x163 + x449 <= 1
C1183: + x194 + x458 <= 1
C1184: + x5 + x182 <= 1
C1185: + x343 + x381 <= 1
C1186: + x92 + x189 <= 1
C1187: + x165 + x223 <= 1
C1188: + x220 + x484 <= 1
C1189: + x34 + x342 <= 1
C1190: + x41 + x311 <= 1
C1191: + x6 + x83 <= 1
C1192: + x92 + x359 <= 1
C1193: + x120 + x490 <= 1
C1194: + x55 + x111 <= 1
C1195: + x260 + x445 <= 1
C1196: + x15 + x161 <= 1
C1197: + x182 + x199 <= 1
C1198: + x20 + x203 <= 1
C1199: + x22 + x179 <= 1
C1200: + x170 + x301 <= 1
C1201: + x5 + x492 <= 1
C1202: + x16 + x45 <= 1
C1203: + x20 + x42 <= 1
C1204: + x148 + x426 <= 1
C1205: + x13 + x284 <= 1
C1206: + x228 + x322 <= 1
C1207: + x138 + x151 <= 1
C1208: + x304 + x354 <= 1
C1209: + x16 + x94 <= 1
C1210: + x1 + x70 <= 1
C1211: + x193 + x203 <= 1
C1212: + x11 + x309 <= 1
C1213: + x2 + x330 <= 1
C1214: + x31 + x180 <= 1
C1215: + x232 + x413 <= 1
C1216: + x4 + x49 <= 1
C1217: + x7 + x48 <= 1
C1218: + x319 + x366 <= 1
C1219: + x11 + x35 <= 1
C1220: + x184 + x372 <= 1
C1221: + x421 + x459 <= 1
C1222: + x106 + x353 <= 1
C1223: + x89 + x169 <= 1
C1224: + x100 + x292 <= 1
C1225: + x8 + x162 <= 1
C1226: + x238 + x431 <= 1
C1227: + x4 + x66 <= 1
C1228: + x23 + x240 <= 1
C1229: + x19 + x328 <= 1
C1230: + x114 + x407 <= 1
C1231: + x69 + x364 <= 1
C1232: + x116 + x118 <= 1
C1233: + x15 + x172 <= 1
C1234: + x425 + x485 <= 1
C1235: + x109 + x144 <= 1
C1236: + x55 + x376 <= 1
C1237: + x122 + x146 <= 1
C1238: + x4 + x14 <= 1
C1239: + x13 + x430 <= 1
C1240: + x390 + x499 <= 1
C1241: + x102 + x494 <= 1
C1242: + x38 + x121 <= 1
C1243: + x85 + x97 <= 1
C1244: + x29 + x457 <= 1
C1245: + x414 + x493 <= 1
C1246: + x216 + x374 <= 1
C1247: + x10 + x434 <= 1
C1248: + x75 + x155 <= 1
C1249: + x6 + x382 <= 1
C1250: + x71 + x326 <= 1
C1251: + x30 + x61 <= 1
C1252: + x31 + x187 <= 1
C1253: + x140 + x459 <= 1
C1254: + x5 + x263 <= 1
C1255: + x151 + x366 <= 1
C1256: + x6 + x401 <= 1
C1257: + x55 + x402 <= 1
C1258: + x104 + x264 <= 1
C1259: + x30 + x174 <= 1
C1260: + x5 + x89 <= 1
C1261: + x119 + x171 <= 1
C1262: + x104 + x405 <= 1
C1263: + x5 + x331 <= 1
C1264: + x22 + x98 <= 1
C1265: + x23 + x82 <= 1
C1266: + x15 + x179 <= 1
C1267: + x18 + x383 <= 1
C1268: + x79 + x115 <= 1
C1269: + x1 + x8 <= 1
C1270: + x183 + x207 <= 1
C1271: + x4 + x216 <= 1
C1272: + x28 + x135 <= 1
C1273: + x13 + x32 <= 1
C1274: + x5 + x474 <= 1
C1275: + x6 + x470 <= 1
C1276: + x325 + x471 <= 1
C1277: + x73 + x392 <= 1
C1278: + x202 + x211 <= 1
C1279: + x320 + x420 <= 1
C1280: + x75 + x408 <= 1
C1281: + x107 + x445 <= 1
C1282: + x150 + x270 <= 1
C1283: + x127 + x487 <= 1
C1284: + x6 + x9 <= 1
C1285: + x155 + x272 <= 1
C1286: + x11 + x70 <= 1
C1287: + x5 + x20 <= 1
C1288: + x83 + x196 + x419 <= 1
C1289: + x367 + x431 <= 1
C1290: + x61 + x283 <= 1
C1291: + x15 + x106 <= 1
C1292: + x364 + x442 <= 1
C1293: + x19 + x21 <= 1
C1294: + x111 + x158 <= 1
C1295: + x5 + x72 <= 1
C1296: + x6 + x299 <= 1
C1297: + x10 + x149 <= 1
C1298: + x7 + x86 <= 1
C1299: + x11 + x25 <= 1
C1300: + x374 + x426 <= 1
C1301: + x12 + x290 <= 1
C1302: + x31 + x96 <= 1
C1303: + x13 + x178 <= 1
C1304: + x15 + x182 <= 1
C1305: + x26 + x309 <= 1
C1306: + x91 + x296 <= 1
C1307: + x64 + x141 <= 1
C1308: + x4 + x124 <= 1
C1309: + x225 + x387 <= 1
C1310: + x18 + x102 <= 1
C1311: + x135 + x170 <= 1
C1312: + x173 + x432 <= 1
C1313: + x38 + x107 <= 1
C1314: + x176 + x282 <= 1
C1315: + x31 + x495 <= 1
C1316: + x23 + x476 <= 1
C1317: + x8 + x217 <= 1
C1318: + x11 + x77 <= 1
C1319: + x170 + x222 <= 1
C1320: + x111 + x310 <= 1
C1321: + x29 + x129 <= 1
C1322: + x59 + x296 <= 1
C1323: + x70 + x120 <= 1
C1324: + x61 + x77 <= 1
C1325: + x79 + x280 <= 1
C1326: + x51 + x119 <= 1
C1327: + x52 + x381 <= 1
C1328: + x75 + x113 <= 1
C1329: + x194 + x369 <= 1
C1330: + x20 + x283 <= 1
C1331: + x368 + x385 <= 1
C1332: + x26 + x200 <= 1
C1333: + x36 + x137 <= 1
C1334: + x8 + x52 <= 1
C1335: + x63 + x349 <= 1
C1336: + x70 + x188 <= 1
C1337: + x397 + x478 <= 1
C1338: + x37 + x53 <= 1
C1339: + x4 + x198 <= 1
C1340: + x70 + x351 <= 1
C1341: + x16 + x311 <= 1
C1342: + x27 + x111 <= 1
C1343: + x182 + x219 <= 1
C1344: + x90 + x159 + x268 <= 1
C1345: + x230 + x497 <= 1
C1346: + x48 + x90 <= 1
C1347: + x177 + x197 <= 1
C1348: + x9 + x118 <= 1
C1349: + x18 + x95 <= 1
C1350: + x75 + x410 <= 1
C1351: + x258 + x262 <= 1
C1352: + x10 + x128 <= 1
C1353: + x26 + x330 <= 1
C1354: + x6 + x361 <= 1
C1355: + x205 + x207 <= 1
C1356: + x7 + x12 <= 1
C1357: + x1 + x463 <= 1
C1358: + x20 + x453 <= 1
C1359: + x152 + x196 <= 1
C1360: + x237 + x261 <= 1
C1361: + x31 + x63 <= 1
C1362: + x170 + x243 <= 1
C1363: + x165 + x351 <= 1
C1364: + x47 + x254 <= 1
C1365: + x89 + x308 <= 1
C1366: + x227 + x244 <= 1
C1367: + x36 + x365 <= 1
C1368: + x67 + x192 <= 1
C1369: + x31 + x74 <= 1
C1370: + x15 + x136 <= 1
C1371: + x83 + x379 <= 1
C1372: + x39 + x58 <= 1
C1373: + x240 + x295 <= 1
C1374: + x29 + x104 <= 1
C1375: + x132 + x220 <= 1
C1376: + x15 + x55 <= 1
C1377: + x26 + x440 <= 1
C1378: + x63 + x109 <= 1
C1379: + x19 + x78 <= 1
C1380: + x97 + x144 <= 1
C1381: + x5 + x9 <= 1
C1382: + x370 + x413 <= 1
C1383: + x6 + x338 <= 1
C1384: + x104 + x219 <= 1
C1385: + x15 + x261 <= 1
C1386: + x1 + x57 <= 1
C1387: + x2 + x175 <= 1
C1388: + x159 + x445 <= 1
C1389: + x28 + x325 <= 1
C1390: + x8 + x401 <= 1
C1391: + x19 + x437 <= 1
C1392: + x101 + x236 <= 1
C1393: + x2 + x224 <= 1
C1394: + x76 + x113 <= 1
C1395: + x56 + x389 <= 1
C1396: + x25 + x361 <= 1
C1397: + x18 + x29 <= 1
C1398: + x236 + x287 <= 1
C1399: + x227 + x298 <= 1
C1400: + x191 + x207 <= 1
C1401: + x11 + x264 <= 1
C1402: + x150 + x350 <= 1
C1403: + x55 + x69 <= 1
C1404: + x16 + x261 <= 1
C1405: + x109 + x286 <= 1
C1406: + x18 + x347 <= 1
C1407: + x54 + x429 <= 1
C1408: + x7 + x301 <= 1
C1409: + x39 + x49 <= 1
C1410: + x114 + x242 <= 1
C1411: + x29 + x218 <= 1
C1412: + x16 + x23 <= 1
C1413: + x422 + x423 <= 1
C1414: + x70 + x210 <= 1
C1415: + x5 + x339 <= 1
C1416: + x45 + x365 <= 1
C1417: + x410 + x423 <= 1
C1418: + x2 + x5 <= 1
C1419: + x61 + x336 <= 1
C1420: + x152 + x304 <= 1
C1421: + x157 + x366 <= 1
C1422: + x173 + x457 <= 1
C1423: + x66 + x131 <= 1
C1424: + x5 + x135 <= 1
C1425: + x6 + x17 <= 1
C1426: + x142 + x185 <= 1
C1427: + x10 + x387 <= 1
C1428: + x10 + x86 <= 1
C1429: + x146 + x235 <= 1
C1430: + x92 + x240 <= 1
C1431: + x233 + x342 <= 1
C1432: + x382 + x394 <= 1
C1433: + x14 + x209 <= 1
C1434: + x35 + x395 <= 1
C1435: + x153 + x165 <= 1
C1436: + x26 + x360 <= 1
C1437: + x348 + x439 <= 1
C1438: + x50 + x80 <= 1
C1439: + x104 + x277 <= 1
C1440: + x60 + x129 <= 1
C1441: + x22 + x399 <= 1
C1442: + x118 + x187 <= 1
C1443: + x80 + x441 <= 1
C1444: + x5 + x421 <= 1
C1445: + x91 + x477 <= 1
C1446: + x39 + x149 <= 1
C1447: + x352 + x472 <= 1
C1448: + x109 + x428 <= 1
C1449: + x102 + x407 <= 1
C1450: + x55 + x477 <= 1
C1451: + x229 + x355 <= 1
C1452: + x25 + x427 <= 1
C1453: + x16 + x141 <= 1
C1454: + x5 + x35 <= 1
C1455: + x81 + x116 <= 1
C1456: + x10 + x277 <= 1
C1457: + x283 + x344 <= 1
C1458: + x5 + x178 <= 1
C1459: + x73 + x373 <= 1
C1460: + x75 + x89 <= 1
C1461: + x4 + x93 <= 1
C1462: + x52 + x119 <= 1
C1463: + x117 + x169 <= 1
C1464: + x6 + x316 <= 1
C1465: + x32 + x291 <= 1
C1466: + x18 + x59 <= 1
C1467: + x81 + x146 <= 1
C1468: + x7 + x101 <= 1
C1469: + x65 + x252 <= 1
C1470: + x374 + x475 <= 1
C1471: + x47 + x497 <= 1
C1472: + x39 + x446 <= 1
C1473: + x24 + x247 <= 1
C1474: + x4 + x9 <= 1
C1475: + x17 + x97 <= 1
C1476: + x182 + x358 <= 1
C1477: + x93 + x284 <= 1
C1478: + x10 + x338 <= 1
C1479: + x420 + x433 <= 1
C1480: + x212 + x238 <= 1
C1481: + x8 + x15 + x28 <= 1
C1482: + x48 + x55 <= 1
C1483: + x131 + x414 <= 1
C1484: + x117 + x311 <= 1
C1485: + x8 + x13 <= 1
C1486: + x55 + x141 <= 1
C1487: + x302 + x421 <= 1
C1488: + x22 + x131 <= 1
C1489: + x108 + x478 <= 1
C1490: + x15 + x100 <= 1
C1491: + x36 + x59 <= 1
C1492: + x144 + x262 <= 1
C1493: + x154 + x265 <= 1
C1494: + x7 + x274 <= 1
C1495: + x285 + x404 <= 1
C1496: + x43 + x352 <= 1
C1497: + x49 + x192 <= 1
C1498: + x127 + x312 <= 1
C1499: + x10 + x458 <= 1
C1500: + x5 + x237 <= 1
C1501: + x254 + x377 <= 1
C1502: + x1 + x5 <= 1
C1503: + x85 + x339 <= 1
C1504: + x4 + x114 <= 1
C1505: + x34 + x226 <= 1
C1506: + x89 + x459 <= 1
C1507: + x252 + x484 <= 1
C1508: + x5 + x479 <= 1
C1509: + x2 + x470 <= 1
C1510: + x68 + x237 <= 1
C1511: + x61 + x204 <= 1
C1512: + x151 + x247 <= 1
C1513: + x198 + x460 <= 1
C1514: + x10 + x438 <= 1
C1515: + x5 + x17 <= 1
C1516: + x237 + x389 <= 1
C1517: + x37 + x250 <= 1
C1518: + x101 + x109 <= 1
C1519: + x230 + x438 <= 1
C1520: + x4 + x62 <= 1
C1521: + x13 + x81 <= 1
C1522: + x7 + x27 <= 1
C1523: + x9 + x433 <= 1
C1524: + x19 + x26 <= 1
C1525: + x273 + x416 <= 1
C1526: + x10 + x53 <= 1
C1527: + x98 + x367 <= 1
C1528: + x88 + x472 <= 1
C1529: + x41 + x297 <= 1
C1530: + x118 + x460 <= 1
C1531: + x128 + x437 <= 1
C1532: + x10 + x499 <= 1
C1533: + x29 + x429 <= 1
C1534: + x115 + x117 <= 1
C1535: + x4 + x220 <= 1
C1536: + x26 + x312 <= 1
C1537: + x80 + x476 <= 1
C1538: + x273 + x332 <= 1
C1539: + x29 + x242 <= 1
C1540: + x70 + x71 <= 1
C1541: + x42 + x107 <= 1
C1542: + x5 + x379 <= 1
C1543: + x7 + x131 <= 1
C1544: + x10 + x447 <= 1
C1545: + x11 + x66 <= 1
C1546: + x67 + x99 <= 1
C1547: + x157 + x225 <= 1
C1548: + x12 + x281 <= 1
C1549: + x6 + x152 <= 1
C1550: + x35 + x92 <= 1
C1551: + x48 + x156 <= 1
C1552: + x26 + x82 <= 1
C1553: + x10 + x272 <= 1
C1554: + x159 + x233 <= 1
C1555: + x176 + x200 <= 1
C1556: + x11 + x48 + x67 <= 1
C1557: + x10 + x153 <= 1
C1558: + x84 + x386 <= 1
C1559: + x149 + x495 <= 1
C1560: + x48 + x283 <= 1
C1561: + x136 + x368 <= 1
C1562: + x59 + x123 <= 1
C1563: + x177 + x357 <= 1
C1564: + x7 + x235 <= 1
C1565: + x18 + x191 <= 1
C1566: + x8 + x72 <= 1
C1567: + x10 + x234 <= 1
C1568: + x63 + x134 <= 1
C1569: + x322 + x427 <= 1
C1570: + x139 + x161 <= 1
C1571: + x12 + x435 <= 1
C1572: + x87 + x288 <= 1
C1573: + x1 + x349 <= 1
C1574: + x141 + x354 <= 1
C1575: + x6 + x145 <= 1
C1576: + x4 + x44 <= 1
C1577: + x115 + x133 <= 1
C1578: + x42 + x298 <= 1
C1579: + x134 + x218 <= 1
C1580: + x10 + x305 <= 1
C1581: + x19 + x286 <= 1
C1582: + x20 + x452 <= 1
C1583: + x69 + x153 <= 1
C1584: + x169 + x349 <= 1
C1585: + x22 + x428 <= 1
C1586: + x6 + x34 <= 1
C1587: + x63 + x83 <= 1
C1588: + x164 + x229 <= 1
C1589: + x10 + x39 <= 1
C1590: + x50 + x464 <= 1
C1591: + x9 + x14 <= 1
C1592: + x91 + x93 <= 1
C1593: + x36 + x364 <= 1
C1594: + x220 + x369 <= 1
C1595: + x11 + x16 <= 1
C1596: + x97 + x177 <= 1
C1597: + x13 + x165 <= 1
C1598: + x10 + x19 <= 1
C1599: + x130 + x215 <= 1
C1600: + x35 + x352 <= 1
C1601: + x10 + x425 <= 1
C1602: + x74 + x233 <= 1
C1603: + x223 + x439 <= 1
C1604: + x34 + x307 <= 1
C1605: + x57 + x451 <= 1
C1606: + x464 + x488 <= 1
C1607: + x31 + x148 <= 1
C1608: + x96 + x447 <= 1
C1609: + x161 + x260 <= 1
C1610: + x7 + x16 <= 1
C1611: + x111 + x414 <= 1
C1612: + x5 + x157 <= 1
C1613: + x64 + x485 <= 1
C1614: + x88 + x483 <= 1
C1615: + x273 + x290 <= 1
C1616: + x84 + x400 <= 1
C1617: + x219 + x384 <= 1
C1618: + x39 + x163 <= 1
C1619: + x48 + x297 <= 1
C1620: + x10 + x486 <= 1
C1621: + x150 + x180 <= 1
C1622: + x18 + x169 <= 1
C1623: + x242 + x381 <= 1
C1624: + x4 + x110 <= 1
C1625: + x25 + x306 <= 1
C1626: + x173 + x410 <= 1
C1627: + x20 + x79 <= 1
C1628: + x21 + x65 <= 1
C1629: + x7 + x120 <= 1
C1630: + x105 + x295 <= 1
C1631: + x41 + x487 <= 1
C1632: + x14 + x32 <= 1
C1633: + x78 + x277 <= 1
C1634: + x24 + x232 <= 1
C1635: + x145 + x296 <= 1
C1636: + x6 + x350 <= 1
C1637: + x303 + x498 <= 1
C1638: + x134 + x204 <= 1
C1639: + x135 + x204 <= 1
C1640: + x4 + x268 <= 1
C1641: + x6 + x20 <= 1
C1642: + x9 + x266 <= 1
C1643: + x144 + x172 <= 1
C1644: + x10 + x414 <= 1
C1645: + x56 + x385 <= 1
C1646: + x10 + x180 <= 1
C1647: + x140 + x423 <= 1
C1648: + x106 + x475 <= 1
C1649: + x25 + x127 <= 1
C1650: + x81 + x364 <= 1
C1651: + x7 + x51 <= 1
C1652: + x20 + x144 + x174 <= 1
C1653: + x55 + x89 <= 1
C1654: + x26 + x276 <= 1
C1655: + x55 + x303 <= 1
C1656: + x450 + x454 <= 1
C1657: + x13 + x64 <= 1
C1658: + x5 + x109 <= 1
C1659: + x26 + x226 <= 1
C1660: + x36 + x231 <= 1
C1661: + x128 + x314 <= 1
C1662: + x389 + x452 <= 1
C1663: + x6 + x105 <= 1
C1664: + x17 + x488 <= 1
C1665: + x144 + x237 <= 1
C1666: + x92 + x216 <= 1
C1667: + x67 + x71 <= 1
C1668: + x5 + x244 <= 1
C1669: + x6 + x140 <= 1
C1670: + x62 + x426 <= 1
C1671: + x10 + x300 <= 1
C1672: + x330 + x447 <= 1
C1673: + x353 + x447 <= 1
C1674: + x6 + x29 <= 1
C1675: + x7 + x155 <= 1
C1676: + x100 + x370 <= 1
C1677: + x165 + x236 <= 1
C1678: + x39 + x116 <= 1
C1679: + x4 + x176 <= 1
C1680: + x43 + x294 <= 1
C1681: + x5 + x40 <= 1
C1682: + x6 + x267 <= 1
C1683: + x426 + x444 <= 1
C1684: + x8 + x27 <= 1
C1685: + x11 + x267 <= 1
C1686: + x34 + x281 <= 1
C1687: + x35 + x52 <= 1
C1688: + x48 + x319 <= 1
C1689: + x46 + x134 + x162 <= 1
C1690: + x71 + x246 <= 1
C1691: + x45 + x308 <= 1
C1692: + x27 + x362 <= 1
C1693: + x11 + x57 <= 1
C1694: + x20 + x419 <= 1
C1695: + x193 + x455 <= 1
C1696: + x104 + x273 <= 1
C1697: + x52 + x356 <= 1
C1698: + x82 + x152 <= 1
C1699: + x214 + x302 <= 1
C1700: + x1 + x412 <= 1
C1701: + x20 + x93 <= 1
C1702: + x1 + x30 + x31 <= 1
C1703: + x111 + x456 <= 1
C1704: + x12 + x318 <= 1
C1705: + x48 + x482 <= 1
C1706: + x5 + x251 <= 1
C1707: + x79 + x475 <= 1
C1708: + x218 + x399 <= 1
C1709: + x1 + x11 <= 1
C1710: + x93 + x124 <= 1
C1711: + x19 + x221 <= 1
C1712: + x146 + x410 <= 1
C1713: + x4 + x8 <= 1
C1714: + x187 + x302 <= 1
C1715: + x83 + x413 <= 1
C1716: + x51 + x182 <= 1
C1717: + x34 + x236 <= 1
C1718: + x18 + x114 <= 1
C1719: + x122 + x414 <= 1
C1720: + x56 + x372 <= 1
C1721: + x23 + x56 <= 1
C1722: + x43 + x301 <= 1
C1723: + x25 + x379 <= 1
C1724: + x6 + x372 <= 1
C1725: + x242 + x407 <= 1
C1726: + x17 + x26 <= 1
C1727: + x262 + x354 <= 1
C1728: + x93 + x301 <= 1
C1729: + x284 + x324 <= 1
C1730: + x118 + x341 <= 1
C1731: + x132 + x449 <= 1
C1732: + x98 + x337 <= 1
C1733: + x15 + x371 <= 1
C1734: + x18 + x63 <= 1
C1735: + x26 + x244 <= 1
C1736: + x9 + x22 <= 1
C1737: + x22 + x261 <= 1
C1738: + x52 + x154 <= 1
C1739: + x81 + x150 <= 1
C1740: + x15 + x16 <= 1
C1741: + x54 + x113 <= 1
C1742: + x55 + x103 <= 1
C1743: + x30 + x325 <= 1
C1744: + x141 + x317 <= 1
C1745: + x232 + x382 <= 1
C1746: + x48 + x495 <= 1
C1747: + x24 + x243 <= 1
C1748: + x10 + x251 <= 1
C1749: + x31 + x321 <= 1
C1750: + x28 + x304 <= 1
C1751: + x148 + x434 <= 1
C1752: + x56 + x329 <= 1
C1753: + x34 + x80 <= 1
C1754: + x168 + x346 <= 1
C1755: + x6 + x15 <= 1
C1756: + x62 + x98 <= 1
C1757: + x83 + x222 <= 1
C1758: + x272 + x425 <= 1
C1759: + x58 + x66 <= 1
C1760: + x5 + x369 <= 1
C1761: + x48 + x51 <= 1
C1762: + x33 + x421 <= 1
C1763: + x1 + x94 <= 1
C1764: + x256 + x448 <= 1
C1765: + x49 + x72 <= 1
C1766: + x286 + x359 <= 1
C1767: + x63 + x193 <= 1
C1768: + x51 + x70 <= 1
C1769: + x24 + x393 <= 1
C1770: + x100 + x300 <= 1
C1771: + x62 + x481 <= 1
C1772: + x445 + x489 <= 1
C1773: + x144 + x258 <= 1
C1774: + x309 + x321 <= 1
C1775: + x141 + x421 <= 1
C1776: + x6 + x289 <= 1
C1777: + x7 + x439 <= 1
C1778: + x1 + x106 <= 1
C1779: + x128 + x213 <= 1
C1780: + x8 + x61 <= 1
C1781: + x114 + x124 <= 1
C1782: + x13 + x471 <= 1
C1783: + x5 + x332 <= 1
C1784: + x173 + x291 <= 1
C1785: + x55 + x122 <= 1
C1786: + x125 + x401 <= 1
C1787: + x43 + x491 <= 1
C1788: + x99 + x160 <= 1
C1789: + x7 + x253 <= 1
C1790: + x144 + x470 <= 1
C1791: + x261 + x294 <= 1
C1792: + x38 + x142 <= 1
C1793: + x352 + x357 <= 1
C1794: + x5 + x475 <= 1
C1795: + x56 + x322 <= 1
C1796: + x341 + x467 <= 1
C1797: + x22 + x466 <= 1
C1798: + x25 + x44 <= 1
C1799: + x144 + x379 <= 1
C1800: + x17 + x235 <= 1
C1801: + x281 + x424 <= 1
C1802: + x101 + x105 <= 1
C1803: + x90 + x370 <= 1
C1804: + x467 + x473 <= 1
C1805: + x21 + x32 <= 1
C1806: + x4 + x34 <= 1
C1807: + x131 + x310 <= 1
C1808: + x22 + x323 <= 1
C1809: + x15 + x462 <= 1
C1810: + x97 + x398 <= 1
C1811: + x263 + x356 <= 1
C1812: + x29 + x48 <= 1
C1813: + x23 + x30 <= 1
C1814: + x5 + x164 <= 1
C1815: + x143 + x405 <= 1
C1816: + x166 + x195 <= 1
C1817: + x203 + x388 <= 1
C1818: + x4 + x79 <= 1
C1819: + x117 + x187 <= 1
C1820: + x18 + x41 <= 1
C1821: + x227 + x286 <= 1
C1822: + x29 + x95 <= 1
C1823: + x59 + x155 <= 1
C1824: + x61 + x139 <= 1
C1825: + x161 + x463 <= 1
C1826: + x8 + x345 <= 1
C1827: + x75 + x269 <= 1
C1828: + x11 + x26 <= 1
C1829: + x2 + x101 <= 1
C1830: + x40 + x52 <= 1
C1831: + x52 + x259 <= 1
C1832: + x79 + x123 <= 1
C1833: + x9 + x147 <= 1
C1834: + x8 + x75 <= 1
C1835: + x10 + x229 <= 1
C1836: + x50 + x398 <= 1
C1837: + x5 + x117 <= 1
C1838: + x5 + x450 <= 1
C1839: + x15 + x393 <= 1
C1840: + x254 + x465 <= 1
C1841: + x10 + x328 <= 1
C1842: + x57 + x74 <= 1
C1843: + x13 + x258 <= 1
C1844: + x11 + x78 <= 1
C1845: + x49 + x393 <= 1
C1846: + x8 + x127 <= 1
C1847: + x4 + x39 <= 1
C1848: + x163 + x486 <= 1
C1849: + x56 + x168 <= 1
C1850: + x56 + x275 <= 1
C1851: + x348 + x407 <= 1
C1852: + x6 + x37 <= 1
C1853: + x10 + x34 <= 1
C1854: + x2 + x205 <= 1
C1855: + x89 + x92 <= 1
C1856: + x14 + x165 <= 1
C1857: + x27 + x253 <= 1
C1858: + x37 + x209 <= 1
C1859: + x38 + x47 <= 1
C1860: + x248 + x277 <= 1
C1861: + x50 + x310 <= 1
C1862: + x6 + x438 <= 1
C1863: + x15 + x481 <= 1
C1864: + x8 + x338 <= 1
C1865: + x64 + x181 <= 1
C1866: + x127 + x294 <= 1
C1867: + x29 + x424 <= 1
C1868: + x12 + x346 <= 1
C1869: + x8 + x68 <= 1
C1870: + x22 + x214 <= 1
C1871: + x61 + x113 <= 1
C1872: + x32 + x330 <= 1
C1873: + x6 + x122 <= 1
C1874: + x134 + x181 <= 1
C1875: + x11 + x117 <= 1
C1876: + x114 + x344 <= 1
C1877: + x4 + x241 <= 1
C1878: + x13 + x158 <= 1
C1879: + x83 + x437 <= 1
C1880: + x19 + x245 <= 1
C1881: + x21 + x46 <= 1
C1882: + x4 + x483 <= 1
C1883: + x70 + x128 <= 1
C1884: + x179 + x343 <= 1
C1885: + x109 + x463 <= 1
C1886: + x10 + x309 <= 1
C1887: + x8 + x411 <= 1
C1888: + x63 + x87 <= 1
C1889: + x264 + x287 <= 1
C1890: + x59 + x415 <= 1
C1891: + x5 + x55 <= 1
C1892: + x98 + x202 <= 1
C1893: + x108 + x342 <= 1
C1894: + x281 + x322 <= 1
C1895: + x84 + x203 + x327 <= 1
C1896: + x17 + x50 <= 1
C1897: + x8 + x335 <= 1
C1898: + x120 + x454 <= 1
C1899: + x2 + x388 <= 1
C1900: + x20 + x404 <= 1
C1901: + x18 + x353 <= 1
C1902: + x172 + x234 <= 1
C1903: + x19 + x60 <= 1
C1904: + x10 + x23 <= 1
C1905: + x89 + x420 <= 1
C1906: + x27 + x140 <= 1
C1907: + x63 + x177 <= 1
C1908: + x48 + x197 <= 1
C1909: + x15 + x56 <= 1
C1910: + x100 + x412 <= 1
C1911: + x19 + x386 <= 1
C1912: + x10 + x429 <= 1
C1913: + x10 + x104 <= 1
C1914: + x15 + x209 <= 1
C1915: + x305 + x425 <= 1
C1916: + x4 + x21 <= 1
C1917: + x18 + x387 <= 1
C1918: + x248 + x374 <= 1
C1919: + x212 + x269 <= 1
C1920: + x5 + x153 <= 1
C1921: + x6 + x23 <= 1
C1922: + x64 + x481 <= 1
C1923: + x103 + x241 <= 1
C1924: + x106 + x232 <= 1
C1925: + x5 + x62 <= 1
C1926: + x62 + x360 <= 1
C1927: + x8 + x33 <= 1
C1928: + x158 + x468 <= 1
C1929: + x5 + x304 <= 1
C1930: + x8 + x328 <= 1
C1931: + x193 + x461 <= 1
C1932: + x140 + x216 <= 1
C1933: + x162 + x167 <= 1
C1934: + x363 + x476 <= 1
C1935: + x54 + x428 <= 1
C1936: + x75 + x88 <= 1
C1937: + x380 + x477 <= 1
C1938: + x27 + x147 <= 1
C1939: + x16 + x18 <= 1
C1940: + x322 + x441 <= 1
C1941: + x6 + x108 <= 1
C1942: + x93 + x221 <= 1
C1943: + x15 + x220 <= 1
C1944: + x24 + x228 <= 1
C1945: + x18 + x217 <= 1
C1946: + x182 + x256 <= 1
C1947: + x291 + x471 <= 1
C1948: + x25 + x183 <= 1
C1949: + x17 + x116 <= 1
C1950: + x473 + x481 <= 1
C1951: + x19 + x268 <= 1

binary
x1 x2 x3 x4 x5 x6 x7 x8 x9 x10 x11 x12 x13 x14 x15 x16 x17 x18 x19 x20 x21 x22 x23 x24 x25 x26 x27 x28 x29 x30 x31 x32 x33 x34 x35 x36 x37 x38 x39 x40 x41 x42 x43 x44 x45 x46 x47 x48 x49 x50 x51 x52 x53 x54 x55 x56 x57 x58 x59 x60 x61 x62 x63 x64 x65 x66 x67 x68 x69 x70 x71 x72 x73 x74 x75 x76 x77 x78 x79 x80 x81 x82 x83 x84 x85 x86 x87 x88 x89 x90 x91 x92 x93 x94 x95 x96 x97 x98 x99 x100 x101 x102 x103 x104 x105 x106 x107 x108 x109 x110 x111 x112 x113 x114 x115 x116 x117 x118 x119 x120 x121 x122 x123 x124 x125 x126 x127 x128 x129 x130 x131 x132 x133 x134 x135 x136 x137 x138 x139 x140 x141 x142 x143 x144 x145 x146 x147 x148 x149 x150 x151 x152 x153 x154 x155 x156 x157 x158 x159 x160 x161 x162 x163 x164 x165 x166 x167 x168 x169 x170 x171 x172 x173 x174 x175 x176 x177 x178 x179 x180 x181 x182 x183 x184 x185 x186 x187 x188 x189 x190 x191 x192 x193 x194 x195 x196 x197 x198 x199 x200 x201 x202 x203 x204 x205 x206 x207 x208 x209 x210 x211 x212 x213 x214 x215 x216 x217 x218 x219 x220 x221 x222 x223 x224 x225 x226 x227 x228 x229 x230 x231 x232 x233 x234 x235 x236 x237 x238 x239 x240 x241 x242 x243 x244 x245 x246 x247 x248 x249 x250 x251 x252 x253 x254 x255 x256 x257 x258 x259 x260 x261 x262 x263 x264 x265 x266 x267 x268 x269 x270 x271 x272 x273 x274 x275 x276 x277 x278 x279 x280 x281 x282 x283 x284 x285 x286 x287 x288 x289 x290 x291 x292 x293 x294 x295 x296 x297 x298 x299 x300 x301 x302 x303 x304 x305 x306 x307 x308 x309 x310 x311 x312 x313 x314 x315 x316 x317 x318 x319 x320 x321 x322 x323 x324 x325 x326 x327 x328 x329 x330 x331 x332 x333 x334 x335 x336 x337 x338 x339 x340 x341 x342 x343 x344 x345 x346 x347 x348 x349 x350 x351 x352 x353 x354 x355 x356 x357 x358 x359 x360 x361 x362 x363 x364 x365 x366 x367 x368 x369 x370 x371 x372 x373 x374 x375 x376 x377 x378 x379 x380 x381 x382 x383 x384 x385 x386 x387 x388 x389 x390 x391 x392 x393 x394 x395 x396 x397 x398 x399 x400 x401 x402 x403 x404 x405 x406 x407 x408 x409 x410 x411 x412 x413 x414 x415 x416 x417 x418 x419 x420 x421 x422 x423 x424 x425 x426 x427 x428 x429 x430 x431 x432 x433 x434 x435 x436 x437 x438 x439 x440 x441 x442 x443 x444 x445 x446 x447 x448 x449 x450 x451 x452 x453 x454 x455 x456 x457 x458 x459 x460 x461 x462 x463 x464 x465 x466 x467 x468 x469 x470 x471 x472 x473 x474 x475 x476 x477 x478 x479 x480 x481 x482 x483 x484 x485 x486 x487 x488 x489 x490 x491 x492 x493 x494 x495 x496 x497 x498 x499 x500
