maximize
OBJ: + 1 x1 + 1 x2 + 1 x3 + 1 x4 + 1 x5 + 1 x6 + 1 x7 + 1 x8 + 1 x9 + 1 x10 + 1 x11 + 1 x12 + 1 x13 + 1 x14 + 1 x15 + 1 x16 + 1 x17 + 1 x18 + 1 x19 + 1 x20 + 1 x21 + 1 x22 + 1 x23 + 1 x24 + 1 x25 + 1 x26 + 1 x27 + 1 x28 + 1 x29 + 1 x30 + 1 x31 + 1 x32 + 1 x33 + 1 x34 + 1 x35 + 1 x36 + 1 x37 + 1 x38 + 1 x39 + 1 x40 + 1 x41 + 1 x42 + 1 x43 + 1 x44 + 1 x45 + 1 x46 + 1 x47 + 1 x48 + 1 x49 + 1 x50 + 1 x51 + 1 x52 + 1 x53 + 1 x54 + 1 x55 + 1 x56 + 1 x57 + 1 x58 + 1 x59 + 1 x60 + 1 x61 + 1 x62 + 1 x63 + 1 x64 + 1 x65 + 1 x66 + 1 x67 + 1 x68 + 1 x69 + 1 x70 + 1 x71 + 1 x72 + 1 x73 + 1 x74 + 1 x75 + 1 x76 + 1 x77 + 1 x78 + 1 x79 + 1 x80 + 1 x81 + 1 x82 + 1 x83 + 1 x84 + 1 x85 + 1 x86 + 1 x87 + 1 x88 + 1 x89 + 1 x90 + 1 x91 + 1 x92 + 1 x93 + 1 x94 + 1 x95 + 1 x96 + 1 x97 + 1 x98 + 1 x99 + 1 x100 + 1 x101 + 1 x102 + 1 x103 + 1 x104 + 1 x105 + 1 x106 + 1 x107 + 1 x108 + 1 x109 + 1 x110 + 1 x111 + 1 x112 + 1 x113 + 1 x114 + 1 x115 + 1 x116 + 1 x117 + 1 x118 + 1 x119 + 1 x120 + 1 x121 + 1 x122 + 1 x123 + 1 x124 + 1 x125 + 1 x126 + 1 x127 + 1 x128 + 1 x129 + 1 x130 + 1 x131 + 1 x132 + 1 x133 + 1 x134 + 1 x135 + 1 x136 + 1 x137 + 1 x138 + 1 x139 + 1 x140 + 1 x141 + 1 x142 + 1 x143 + 1 x144 + 1 x145 + 1 x146 + 1 x147 + 1 x148 + 1 x149 + 1 x150 + 1 x151 + 1 x152 + 1 x153 + 1 x154 + 1 x155 + 1 x156 + 1 x157 + 1 x158 + 1 x159 + 1 x160 + 1 x161 + 1 x162 + 1 x163 + 1 x164 + 1 x165 + 1 x166 + 1 x167 + 1 x168 + 1 x169 + 1 x170 + 1 x171 + 1 x172 + 1 x173 + 1 x174 + 1 x175 + 1 x176 + 1 x177 + 1 x178 + 1 x179 + 1 x180 + 1 x181 + 1 x182 + 1 x183 + 1 x184 + 1 x185 + 1 x186 + 1 x187 + 1 x188 + 1 x189 + 1 x190 + 1 x191 + 1 x192 + 1 x193 + 1 x194 + 1 x195 + 1 x196 + 1 x197 + 1 x198 + 1 x199 + 1 x200 + 1 x201 + 1 x202 + 1 x203 + 1 x204 + 1 x205 + 1 x206 + 1 x207 + 1 x208 + 1 x209 + 1 x210 + 1 x211 + 1 x212 + 1 x213 + 1 x214 + 1 x215 + 1 x216 + 1 x217 + 1 x218 + 1 x219 + 1 x220 + 1 x221 + 1 x222 + 1 x223 + 1 x224 + 1 x225 + 1 x226 + 1 x227 + 1 x228 + 1 x229 + 1 x230 + 1 x231 + 1 x232 + 1 x233 + 1 x234 + 1 x235 + 1 x236 + 1 x237 + 1 x238 + 1 x239 + 1 x240 + 1 x241 + 1 x242 + 1 x243 + 1 x244 + 1 x245 + 1 x246 + 1 x247 + 1 x248 + 1 x249 + 1 x250 + 1 x251 + 1 x252 + 1 x253 + 1 x254 + 1 x255 + 1 x256 + 1 x257 + 1 x258 + 1 x259 + 1 x260 + 1 x261 + 1 x262 + 1 x263 + 1 x264 + 1 x265 + 1 x266 + 1 x267 + 1 x268 + 1 x269 + 1 x270 + 1 x271 + 1 x272 + 1 x273 + 1 x274 + 1 x275 + 1 x276 + 1 x277 + 1 x278 + 1 x279 + 1 x280 + 1 x281 + 1 x282 + 1 x283 + 1 x284 + 1 x285 + 1 x286 + 1 x287 + 1 x288 + 1 x289 + 1 x290 + 1 x291 + 1 x292 + 1 x293 + 1 x294 + 1 x295 + 1 x296 + 1 x297 + 1 x298 + 1 x299 + 1 x300 + 1 x301 + 1 x302 + 1 x303 + 1 x304 + 1 x305 + 1 x306 + 1 x307 + 1 x308 + 1 x309 + 1 x310 + 1 x311 + 1 x312 + 1 x313 + 1 x314 + 1 x315 + 1 x316 + 1 x317 + 1 x318 + 1 x319 + 1 x320 + 1 x321 + 1 x322 + 1 x323 + 1 x324 + 1 x325 + 1 x326 + 1 x327 + 1 x328 + 1 x329 + 1 x330 + 1 x331 + 1 x332 + 1 x333 + 1 x334 + 1 x335 + 1 x336 + 1 x337 + 1 x338 + 1 x339 + 1 x340 + 1 x341 + 1 x342 + 1 x343 + 1 x344 + 1 x345 + 1 x346 + 1 x347 + 1 x348 + 1 x349 + 1 x350 + 1 x351 + 1 x352 + 1 x353 + 1 x354 + 1 x355 + 1 x356 + 1 x357 + 1 x358 + 1 x359 + 1 x360 + 1 x361 + 1 x362 + 1 x363 + 1 x364 + 1 x365 + 1 x366 + 1 x367 + 1 x368 + 1 x369 + 1 x370 + 1 x371 + 1 x372 + 1 x373 + 1 x374 + 1 x375 + 1 x376 + 1 x377 + 1 x378 + 1 x379 + 1 x380 + 1 x381 + 1 x382 + 1 x383 + 1 x384 + 1 x385 + 1 x386 + 1 x387 + 1 x388 + 1 x389 + 1 x390 + 1 x391 + 1 x392 + 1 x393 + 1 x394 + 1 x395 + 1 x396 + 1 x397 + 1 x398 + 1 x399 + 1 x400 + 1 x401 + 1 x402 + 1 x403 + 1 x404 + 1 x405 + 1 x406 + 1 x407 + 1 x408 + 1 x409 + 1 x410 + 1 x411 + 1 x412 + 1 x413 + 1 x414 + 1 x415 + 1 x416 + 1 x417 + 1 x418 + 1 x419 + 1 x420 + 1 x421 + 1 x422 + 1 x423 + 1 x424 + 1 x425 + 1 x426 + 1 x427 + 1 x428 + 1 x429 + 1 x430 + 1 x431 + 1 x432 + 1 x433 + 1 x434 + 1 x435 + 1 x436 + 1 x437 + 1 x438 + 1 x439 + 1 x440 + 1 x441 + 1 x442 + 1 x443 + 1 x444 + 1 x445 + 1 x446 + 1 x447 + 1 x448 + 1 x449 + 1 x450 + 1 x451 + 1 x452 + 1 x453 + 1 x454 + 1 x455 + 1 x456 + 1 x457 + 1 x458 + 1 x459 + 1 x460 + 1 x461 + 1 x462 + 1 x463 + 1 x464 + 1 x465 + 1 x466 + 1 x467 + 1 x468 + 1 x469 + 1 x470 + 1 x471 + 1 x472 + 1 x473 + 1 x474 + 1 x475 + 1 x476 + 1 x477 + 1 x478 + 1 x479 + 1 x480 + 1 x481 + 1 x482 + 1 x483 + 1 x484 + 1 x485 + 1 x486 + 1 x487 + 1 x488 + 1 x489 + 1 x490 + 1 x491 + 1 x492 + 1 x493 + 1 x494 + 1 x495 + 1 x496 + 1 x497 + 1 x498 + 1 x499 + 1 x500

subject to
C1: + x196 + x464 <= 1
C2: + x36 + x397 <= 1
C3: + x39 + x125 <= 1
C4: + x77 + x379 <= 1
C5: + x5 + x37 <= 1
C6: + x100 + x127 <= 1
C7: + x18 + x21 <= 1
C8: + x120 + x309 <= 1
C9: + x16 + x75 <= 1
C10: + x457 + x458 <= 1
C11: + x17 + x48 <= 1
C12: + x7 + x55 <= 1
C13: + x72 + x253 <= 1
C14: + x393 + x487 <= 1
C15: + x374 + x397 <= 1
C16: + x5 + x204 <= 1
C17: + x6 + x196 <= 1
C18: + x278 + x313 <= 1
C19: + x118 + x186 <= 1
C20: + x210 + x425 <= 1
C21: + x121 + x329 <= 1
C22: + x445 + x480 <= 1
C23: + x14 + x33 <= 1
C24: + x124 + x175 <= 1
C25: + x179 + x195 <= 1
C26: + x144 + x311 <= 1
C27: + x6 + x306 <= 1
C28: + x9 + x108 <= 1
C29: + x230 + x334 <= 1
C30: + x68 + x383 <= 1
C31: + x53 + x264 <= 1
C32: + x7 + x99 <= 1
C33: + x1 + x294 <= 1
C34: + x19 + x500 <= 1
C35: + x2 + x29 <= 1
C36: + x57 + x376 <= 1
C37: + x143 + x457 <= 1
C38: + x1 + x56 <= 1
C39: + x2 + x192 <= 1
C40: + x64 + x386 <= 1
C41: + x138 + x355 <= 1
C42: + x376 + x382 <= 1
C43: + x60 + x205 <= 1
C44: + x260 + x460 <= 1
C45: + x7 + x159 <= 1
C46: + x12 + x245 <= 1
C47: + x167 + x185 <= 1
C48: + x160 + x437 <= 1
C49: + x9 + x39 <= 1
C50: + x8 + x23 <= 1
C51: + x71 + x333 <= 1
C52: + x94 + x315 <= 1
C53: + x34 + x35 <= 1
C54: + x8 + x438 <= 1
C55: + x93 + x159 <= 1
C56: + x39 + x455 <= 1
C57: + x104 + x269 <= 1
C58: + x164 + x204 <= 1
C59: + x214 + x298 <= 1
C60: + x215 + x426 <= 1
C61: + x23 + x275 <= 1
C62: + x6 + x315 <= 1
C63: + x18 + x58 <= 1
C64: + x218 + x354 <= 1
C65: + x183 + x327 <= 1
C66: + x45 + x191 <= 1
C67: + x5 + x429 <= 1
C68: + x12 + x16 <= 1
C69: + x40 + x350 <= 1
C70: + x6 + x94 <= 1
C71: + x110 + x300 <= 1
C72: + x301 + x323 <= 1
C73: + x21 + x365 <= 1
C74: + x31 + x112 <= 1
C75: + x13 + x130 <= 1
C76: + x153 + x232 <= 1
C77: + x6 + x241 <= 1
C78: + x28 + x144 <= 1
C79: + x59 + x452 <= 1
C80: + x6 + x495 <= 1
C81: + x21 + x468 <= 1
C82: + x15 + x85 <= 1
C83: + x18 + x273 <= 1
C84: + x408 + x430 <= 1
C85: + x40 + x117 <= 1
C86: + x5 + x43 <= 1
C87: + x27 + x220 <= 1
C88: + x8 + x16 <= 1
C89: + x12 + x73 <= 1
C90: + x132 + x440 <= 1
C91: + x96 + x326 <= 1
C92: + x72 + x243 <= 1
C93: + x135 + x246 <= 1
C94: + x42 + x44 <= 1
C95: + x73 + x168 <= 1
C96: + x143 + x399 <= 1
C97: + x219 + x456 <= 1
C98: + x37 + x323 <= 1
C99: + x14 + x321 <= 1
C100: + x45 + x182 <= 1
C101: + x303 + x416 <= 1
C102: + x159 + x271 <= 1
C103: + x6 + x71 <= 1
C104: + x54 + x125 <= 1
C105: + x2 + x444 <= 1
C106: + x13 + x185 <= 1
C107: + x69 + x337 <= 1
C108: + x6 + x250 <= 1
C109: + x181 + x360 <= 1
C110: + x91 + x351 <= 1
C111: + x10 + x255 <= 1
C112: + x3 + x314 <= 1
C113: + x157 + x380 <= 1
C114: + x160 + x278 <= 1
C115: + x9 + x70 <= 1
C116: + x3 + x475 <= 1
C117: + x141 + x144 <= 1
C118: + x24 + x433 <= 1
C119: + x300 + x358 <= 1
C120: + x64 + x261 <= 1
C121: + x40 + x110 <= 1
C122: + x23 + x176 <= 1
C123: + x98 + x239 <= 1
C124: + x104 + x174 <= 1
C125: + x12 + x66 <= 1
C126: + x13 + x82 <= 1
C127: + x460 + x469 <= 1
C128: + x170 + x453 <= 1
C129: + x35 + x163 <= 1
C130: + x19 + x297 <= 1
C131: + x69 + x172 <= 1
C132: + x6 + x63 <= 1
C133: + x44 + x305 <= 1
C134: + x24 + x389 <= 1
C135: + x88 + x197 <= 1
C136: + x2 + x247 <= 1
C137: + x34 + x379 <= 1
C138: + x17 + x164 <= 1
C139: + x99 + x342 <= 1
C140: + x300 + x445 <= 1
C141: + x105 + x490 <= 1
C142: + x31 + x317 <= 1
C143: + x13 + x467 <= 1
C144: + x44 + x322 <= 1
C145: + x11 + x27 <= 1
C146: + x2 + x104 <= 1
C147: + x77 + x171 <= 1
C148: + x149 + x243 <= 1
C149: + x14 + x64 <= 1
C150: + x36 + x111 <= 1
C151: + x163 + x178 <= 1
C152: + x7 + x326 <= 1
C153: + x28 + x158 <= 1
C154: + x80 + x475 <= 1
C155: + x22 + x208 <= 1
C156: + x86 + x341 <= 1
C157: + x13 + x21 <= 1
C158: + x171 + x402 <= 1
C159: + x27 + x187 <= 1
C160: + x135 + x172 <= 1
C161: + x87 + x441 <= 1
C162: + x26 + x424 <= 1
C163: + x8 + x223 <= 1
C164: + x69 + x260 <= 1
C165: + x52 + x462 <= 1
C166: + x6 + x151 <= 1
C167: + x108 + x304 <= 1
C168: + x9 + x220 <= 1
C169: + x2 + x351 <= 1
C170: + x176 + x397 <= 1
C171: + x104 + x469 <= 1
C172: + x35 + x190 <= 1
C173: + x216 + x255 <= 1
C174: + x74 + x79 <= 1
C175: + x151 + x378 <= 1
C176: + x62 + x232 <= 1
C177: + x3 + x83 <= 1
C178: + x8 + x417 <= 1
C179: + x33 + x47 <= 1
C180: + x141 + x251 <= 1
C181: + x6 + x40 <= 1
C182: + x30 + x162 <= 1
C183: + x95 + x317 <= 1
C184: + x240 + x332 <= 1
C185: + x83 + x499 <= 1
C186: + x13 + x458 <= 1
C187: + x25 + x107 <= 1
C188: + x123 + x444 <= 1
C189: + x95 + x208 <= 1
C190: + x132 + x324 <= 1
C191: + x90 + x256 <= 1
C192: + x133 + x340 <= 1
C193: + x1 + x20 <= 1
C194: + x153 + x463 <= 1
C195: + x53 + x139 <= 1
C196: + x84 + x461 <= 1
C197: + x33 + x106 <= 1
C198: + x404 + x481 <= 1
C199: + x100 + x402 <= 1
C200: + x19 + x396 <= 1
C201: + x25 + x31 + x76 <= 1
C202: + x123 + x400 <= 1
C203: + x107 + x198 <= 1
C204: + x14 + x237 <= 1
C205: + x35 + x84 <= 1
C206: + x90 + x383 <= 1
C207: + x8 + x123 <= 1
C208: + x14 + x283 <= 1
C209: + x367 + x443 <= 1
C210: + x350 + x387 <= 1
C211: + x72 + x125 <= 1
C212: + x1 + x223 <= 1
C213: + x146 + x334 <= 1
C214: + x85 + x165 <= 1
C215: + x88 + x485 <= 1
C216: + x1 + x124 <= 1
C217: + x9 + x15 <= 1
C218: + x39 + x169 <= 1
C219: + x231 + x361 <= 1
C220: + x229 + x271 <= 1
C221: + x286 + x407 <= 1
C222: + x16 + x233 <= 1
C223: + x19 + x61 <= 1
C224: + x101 + x215 <= 1
C225: + x49 + x53 <= 1
C226: + x14 + x352 <= 1
C227: + x18 + x82 <= 1
C228: + x36 + x252 <= 1
C229: + x176 + x302 <= 1
C230: + x23 + x472 <= 1
C231: + x15 + x49 <= 1
C232: + x27 + x290 <= 1
C233: + x8 + x258 <= 1
C234: + x10 + x99 <= 1
C235: + x45 + x380 <= 1
C236: + x90 + x141 <= 1
C237: + x6 + x340 <= 1
C238: + x7 + x356 <= 1
C239: + x210 + x374 <= 1
C240: + x288 + x475 <= 1
C241: + x97 + x107 <= 1
C242: + x7 + x13 <= 1
C243: + x120 + x398 <= 1
C244: + x149 + x188 <= 1
C245: + x8 + x129 <= 1
C246: + x78 + x335 <= 1
C247: + x6 + x264 <= 1
C248: + x9 + x54 <= 1
C249: + x340 + x432 <= 1
C250: + x22 + x293 <= 1
C251: + x106 + x465 <= 1
C252: + x105 + x380 <= 1
C253: + x18 + x357 <= 1
C254: + x27 + x115 <= 1
C255: + x1 + x226 <= 1
C256: + x111 + x253 <= 1
C257: + x238 + x450 <= 1
C258: + x9 + x133 <= 1
C259: + x42 + x367 <= 1
C260: + x5 + x103 <= 1
C261: + x44 + x198 <= 1
C262: + x207 + x223 <= 1
C263: + x101 + x435 <= 1
C264: + x111 + x346 <= 1
C265: + x90 + x123 <= 1
C266: + x100 + x416 <= 1
C267: + x246 + x288 <= 1
C268: + x2 + x7 <= 1
C269: + x12 + x271 <= 1
C270: + x14 + x31 <= 1
C271: + x12 + x110 <= 1
C272: + x4 + x25 <= 1
C273: + x204 + x352 <= 1
C274: + x9 + x267 <= 1
C275: + x155 + x298 <= 1
C276: + x8 + x250 <= 1
C277: + x20 + x304 <= 1
C278: + x39 + x122 <= 1
C279: + x197 + x378 <= 1
C280: + x90 + x162 <= 1
C281: + x53 + x84 <= 1
C282: + x199 + x215 <= 1
C283: + x15 + x225 <= 1
C284: + x25 + x366 <= 1
C285: + x210 + x283 <= 1
C286: + x59 + x180 <= 1
C287: + x178 + x306 <= 1
C288: + x53 + x241 <= 1
C289: + x102 + x421 <= 1
C290: + x183 + x474 <= 1
C291: + x420 + x461 <= 1
C292: + x215 + x311 <= 1
C293: + x5 + x201 <= 1
C294: + x227 + x406 <= 1
C295: + x1 + x249 <= 1
C296: + x137 + x321 <= 1
C297: + x12 + x183 <= 1
C298: + x371 + x392 <= 1
C299: + x32 + x316 <= 1
C300: + x16 + x30 <= 1
C301: + x65 + x70 <= 1
C302: + x12 + x22 <= 1
C303: + x123 + x328 <= 1
C304: + x196 + x392 <= 1
C305: + x34 + x97 <= 1
C306: + x39 + x151 <= 1
C307: + x6 + x88 <= 1
C308: + x151 + x171 <= 1
C309: + x72 + x387 <= 1
C310: + x202 + x488 <= 1
C311: + x340 + x352 <= 1
C312: + x104 + x207 <= 1
C313: + x6 + x139 <= 1
C314: + x24 + x305 <= 1
C315: + x227 + x490 <= 1
C316: + x93 + x126 <= 1
C317: + x150 + x414 <= 1
C318: + x16 + x34 <= 1
C319: + x12 + x405 <= 1
C320: + x196 + x436 <= 1
C321: + x8 + x300 <= 1
C322: + x76 + x109 <= 1
C323: + x53 + x494 <= 1
C324: + x171 + x329 <= 1
C325: + x93 + x434 <= 1
C326: + x26 + x121 <= 1
C327: + x159 + x242 <= 1
C328: + x53 + x413 <= 1
C329: + x77 + x299 <= 1
C330: + x95 + x325 <= 1
C331: + x16 + x27 <= 1
C332: + x8 + x458 <= 1
C333: + x11 + x384 <= 1
C334: + x50 + x212 <= 1
C335: + x24 + x491 <= 1
C336: + x109 + x417 <= 1
C337: + x401 + x490 <= 1
C338: + x84 + x251 <= 1
C339: + x3 + x159 <= 1
C340: + x20 + x370 <= 1
C341: + x214 + x414 <= 1
C342: + x14 + x17 <= 1
C343: + x24 + x245 <= 1
C344: + x254 + x354 <= 1
C345: + x12 + x156 <= 1
C346: + x24 + x92 <= 1
C347: + x44 + x240 <= 1
C348: + x176 + x269 <= 1
C349: + x270 + x301 <= 1
C350: + x7 + x147 <= 1
C351: + x54 + x59 <= 1
C352: + x1 + x187 <= 1
C353: + x47 + x447 <= 1
C354: + x76 + x102 <= 1
C355: + x5 + x48 <= 1
C356: + x170 + x233 <= 1
C357: + x61 + x408 <= 1
C358: + x82 + x450 <= 1
C359: + x12 + x88 <= 1
C360: + x7 + x46 <= 1
C361: + x147 + x384 <= 1
C362: + x58 + x169 <= 1
C363: + x132 + x165 <= 1
C364: + x133 + x468 <= 1
C365: + x23 + x279 <= 1
C366: + x87 + x471 <= 1
C367: + x412 + x423 <= 1
C368: + x83 + x167 <= 1
C369: + x85 + x244 <= 1
C370: + x5 + x227 <= 1
C371: + x73 + x145 <= 1
C372: + x265 + x336 <= 1
C373: + x2 + x181 <= 1
C374: + x3 + x315 <= 1
C375: + x132 + x400 <= 1
C376: + x205 + x240 <= 1
C377: + x387 + x455 <= 1
C378: + x6 + x491 <= 1
C379: + x16 + x56 <= 1
C380: + x62 + x286 <= 1
C381: + x46 + x68 <= 1
C382: + x3 + x9 <= 1
C383: + x133 + x242 <= 1
C384: + x6 + x14 <= 1
C385: + x159 + x312 <= 1
C386: + x1 + x178 <= 1
C387: + x2 + x38 <= 1
C388: + x59 + x447 <= 1
C389: + x42 + x415 <= 1
C390: + x52 + x452 <= 1
C391: + x11 + x318 <= 1
C392: + x12 + x77 <= 1
C393: + x5 + x257 <= 1
C394: + x135 + x234 <= 1
C395: + x393 + x409 <= 1
C396: + x84 + x189 <= 1
C397: + x8 + x431 <= 1
C398: + x102 + x480 <= 1
C399: + x2 + x87 <= 1
C400: + x331 + x370 <= 1
C401: + x6 + x50 <= 1
C402: + x294 + x404 <= 1
C403: + x13 + x38 <= 1
C404: + x5 + x91 <= 1
C405: + x14 + x381 <= 1
C406: + x20 + x110 <= 1
C407: + x314 + x393 <= 1
C408: + x6 + x67 <= 1
C409: + x79 + x216 <= 1
C410: + x44 + x333 <= 1
C411: + x29 + x339 <= 1
C412: + x118 + x353 <= 1
C413: + x18 + x381 <= 1
C414: + x163 + x179 <= 1
C415: + x18 + x200 <= 1
C416: + x13 + x26 <= 1
C417: + x69 + x79 <= 1
C418: + x36 + x201 <= 1
C419: + x80 + x381 <= 1
C420: + x38 + x112 <= 1
C421: + x267 + x373 <= 1
C422: + x33 + x96 <= 1
C423: + x106 + x293 <= 1
C424: + x6 + x119 <= 1
C425: + x301 + x362 <= 1
C426: + x30 + x145 <= 1
C427: + x307 + x398 <= 1
C428: + x100 + x154 <= 1
C429: + x80 + x494 <= 1
C430: + x120 + x288 <= 1
C431: + x12 + x70 <= 1
C432: + x33 + x282 <= 1
C433: + x167 + x477 <= 1
C434: + x26 + x84 <= 1
C435: + x45 + x282 <= 1
C436: + x1 + x499 <= 1
C437: + x76 + x350 <= 1
C438: + x194 + x467 <= 1
C439: + x14 + x72 <= 1
C440: + x6 + x59 <= 1
C441: + x36 + x39 <= 1
C442: + x56 + x444 <= 1
C443: + x34 + x162 <= 1
C444: + x68 + x173 <= 1
C445: + x35 + x371 <= 1
C446: + x108 + x161 <= 1
C447: + x1 + x17 <= 1
C448: + x219 + x287 <= 1
C449: + x20 + x228 <= 1
C450: + x144 + x478 <= 1
C451: + x124 + x134 <= 1
C452: + x60 + x454 <= 1
C453: + x61 + x462 <= 1
C454: + x24 + x103 <= 1
C455: + x6 + x477 <= 1
C456: + x8 + x489 <= 1
C457: + x57 + x75 <= 1
C458: + x16 + x345 <= 1
C459: + x137 + x227 <= 1
C460: + x36 + x429 <= 1
C461: + x29 + x382 <= 1
C462: + x225 + x372 <= 1
C463: + x117 + x258 <= 1
C464: + x1 + x45 <= 1
C465: + x46 + x199 <= 1
C466: + x122 + x238 <= 1
C467: + x138 + x491 <= 1
C468: + x4 + x42 <= 1
C469: + x23 + x329 <= 1
C470: + x96 + x440 <= 1
C471: + x262 + x348 <= 1
C472: + x34 + x202 <= 1
C473: + x37 + x67 <= 1
C474: + x49 + x281 <= 1
C475: + x16 + x365 <= 1
C476: + x146 + x329 <= 1
C477: + x202 + x316 <= 1
C478: + x61 + x62 <= 1
C479: + x25 + x210 <= 1
C480: + x9 + x12 <= 1
C481: + x8 + x46 <= 1
C482: + x49 + x163 <= 1
C483: + x40 + x325 <= 1
C484: + x7 + x67 <= 1
C485: + x1 + x262 <= 1
C486: + x335 + x411 <= 1
C487: + x13 + x171 <= 1
C488: + x214 + x434 <= 1
C489: + x6 + x216 <= 1
C490: + x56 + x69 <= 1
C491: + x131 + x497 <= 1
C492: + x488 + x496 <= 1
C493: + x339 + x368 <= 1
C494: + x203 + x209 <= 1
C495: + x422 + x435 <= 1
C496: + x251 + x356 <= 1
C497: + x6 + x121 <= 1
C498: + x16 + x418 <= 1
C499: + x19 + x81 <= 1
C500: + x46 + x413 <= 1
C501: + x105 + x318 <= 1
C502: + x17 + x218 <= 1
C503: + x1 + x36 <= 1
C504: + x14 + x279 <= 1
C505: + x216 + x244 <= 1
C506: + x7 + x10 <= 1
C507: + x45 + x272 <= 1
C508: + x48 + x442 <= 1
C509: + x240 + x250 <= 1
C510: + x34 + x430 <= 1
C511: + x62 + x96 <= 1
C512: + x82 + x236 <= 1
C513: + x10 + x42 <= 1
C514: + x2 + x197 <= 1
C515: + x94 + x140 <= 1
C516: + x14 + x221 <= 1
C517: + x43 + x143 <= 1
C518: + x9 + x51 <= 1
C519: + x7 + x409 <= 1
C520: + x11 + x283 <= 1
C521: + x67 + x432 <= 1
C522: + x169 + x465 <= 1
C523: + x18 + x453 <= 1
C524: + x37 + x62 <= 1
C525: + x2 + x118 <= 1
C526: + x30 + x296 <= 1
C527: + x269 + x495 <= 1
C528: + x202 + x361 <= 1
C529: + x52 + x102 <= 1
C530: + x6 + x463 <= 1
C531: + x18 + x86 <= 1
C532: + x6 + x98 <= 1
C533: + x5 + x11 <= 1
C534: + x229 + x468 <= 1
C535: + x33 + x212 <= 1
C536: + x397 + x410 <= 1
C537: + x143 + x153 <= 1
C538: + x20 + x25 <= 1
C539: + x130 + x230 <= 1
C540: + x94 + x439 <= 1
C541: + x97 + x369 <= 1
C542: + x215 + x360 <= 1
C543: + x151 + x233 <= 1
C544: + x19 + x128 <= 1
C545: + x28 + x41 <= 1
C546: + x5 + x63 <= 1
C547: + x70 + x446 <= 1
C548: + x306 + x485 <= 1
C549: + x12 + x492 <= 1
C550: + x71 + x253 <= 1
C551: + x165 + x421 <= 1
C552: + x50 + x85 <= 1
C553: + x30 + x289 <= 1
C554: + x31 + x439 <= 1
C555: + x108 + x152 <= 1
C556: + x7 + x291 <= 1
C557: + x28 + x101 <= 1
C558: + x11 + x149 <= 1
C559: + x47 + x118 <= 1
C560: + x4 + x81 <= 1
C561: + x1 + x387 <= 1
C562: + x102 + x265 <= 1
C563: + x239 + x279 <= 1
C564: + x12 + x17 <= 1
C565: + x132 + x195 <= 1
C566: + x107 + x415 <= 1
C567: + x155 + x219 <= 1
C568: + x1 + x149 <= 1
C569: + x158 + x245 <= 1
C570: + x133 + x370 <= 1
C571: + x24 + x227 <= 1
C572: + x3 + x302 <= 1
C573: + x12 + x98 <= 1
C574: + x69 + x87 <= 1
C575: + x208 + x229 <= 1
C576: + x16 + x37 <= 1
C577: + x169 + x336 <= 1
C578: + x6 + x31 <= 1
C579: + x10 + x385 <= 1
C580: + x28 + x34 <= 1
C581: + x266 + x418 <= 1
C582: + x6 + x178 <= 1
C583: + x90 + x166 <= 1
C584: + x1 + x78 <= 1
C585: + x105 + x117 <= 1
C586: + x5 + x280 <= 1
C587: + x7 + x56 <= 1
C588: + x75 + x251 <= 1
C589: + x67 + x144 <= 1
C590: + x266 + x307 <= 1
C591: + x14 + x96 <= 1
C592: + x125 + x461 <= 1
C593: + x107 + x357 <= 1
C594: + x71 + x263 <= 1
C595: + x78 + x166 <= 1
C596: + x7 + x100 <= 1
C597: + x65 + x231 <= 1
C598: + x20 + x365 <= 1
C599: + x221 + x386 <= 1
C600: + x22 + x81 <= 1
C601: + x28 + x138 <= 1
C602: + x12 + x103 <= 1
C603: + x4 + x6 <= 1
C604: + x295 + x431 <= 1
C605: + x251 + x496 <= 1
C606: + x235 + x358 <= 1
C607: + x16 + x46 <= 1
C608: + x10 + x303 <= 1
C609: + x145 + x433 <= 1
C610: + x202 + x472 <= 1
C611: + x94 + x151 <= 1
C612: + x169 + x212 <= 1
C613: + x6 + x374 <= 1
C614: + x7 + x398 <= 1
C615: + x8 + x18 <= 1
C616: + x53 + x78 + x101 <= 1
C617: + x215 + x225 <= 1
C618: + x235 + x298 <= 1
C619: + x346 + x376 <= 1
C620: + x5 + x287 <= 1
C621: + x11 + x38 <= 1
C622: + x58 + x172 <= 1
C623: + x31 + x417 <= 1
C624: + x14 + x89 <= 1
C625: + x18 + x331 <= 1
C626: + x109 + x219 <= 1
C627: + x24 + x132 <= 1
C628: + x9 + x20 <= 1
C629: + x6 + x314 <= 1
C630: + x202 + x255 <= 1
C631: + x7 + x442 <= 1
C632: + x29 + x79 <= 1
C633: + x4 + x17 + x58 <= 1
C634: + x40 + x349 <= 1
C635: + x97 + x458 <= 1
C636: + x67 + x91 <= 1
C637: + x12 + x305 <= 1
C638: + x3 + x155 <= 1
C639: + x24 + x241 <= 1
C640: + x16 + x152 <= 1
C641: + x80 + x472 <= 1
C642: + x461 + x482 <= 1
C643: + x13 + x429 <= 1
C644: + x230 + x245 <= 1
C645: + x5 + x375 <= 1
C646: + x73 + x253 <= 1
C647: + x10 + x435 <= 1
C648: + x103 + x155 <= 1
C649: + x39 + x112 <= 1
C650: + x24 + x197 <= 1
C651: + x9 + x47 <= 1
C652: + x8 + x15 <= 1
C653: + x64 + x126 <= 1
C654: + x45 + x131 <= 1
C655: + x65 + x412 <= 1
C656: + x67 + x436 <= 1
C657: + x126 + x135 <= 1
C658: + x59 + x277 <= 1
C659: + x7 + x34 <= 1
C660: + x37 + x495 <= 1
C661: + x11 + x45 <= 1
C662: + x35 + x270 <= 1
C663: + x109 + x261 <= 1
C664: + x16 + x286 <= 1
C665: + x8 + x160 <= 1
C666: + x39 + x92 <= 1
C667: + x299 + x317 <= 1
C668: + x7 + x94 <= 1
C669: + x58 + x121 <= 1
C670: + x41 + x449 <= 1
C671: + x218 + x411 <= 1
C672: + x1 + x7 <= 1
C673: + x5 + x473 <= 1
C674: + x14 + x308 <= 1
C675: + x9 + x71 <= 1
C676: + x45 + x235 <= 1
C677: + x3 + x5 <= 1
C678: + x22 + x468 <= 1
C679: + x24 + x436 <= 1
C680: + x5 + x19 <= 1
C681: + x24 + x222 <= 1
C682: + x37 + x252 <= 1
C683: + x78 + x466 <= 1
C684: + x6 + x411 <= 1
C685: + x209 + x371 <= 1
C686: + x262 + x393 <= 1
C687: + x73 + x176 <= 1
C688: + x102 + x202 <= 1
C689: + x47 + x402 <= 1
C690: + x448 + x478 <= 1
C691: + x165 + x203 <= 1
C692: + x40 + x161 <= 1
C693: + x107 + x338 <= 1
C694: + x8 + x60 <= 1
C695: + x10 + x150 <= 1
C696: + x39 + x192 <= 1
C697: + x143 + x205 <= 1
C698: + x280 + x377 <= 1
C699: + x20 + x62 <= 1
C700: + x72 + x410 <= 1
C701: + x210 + x480 <= 1
C702: + x59 + x70 <= 1
C703: + x114 + x345 <= 1
C704: + x158 + x237 <= 1
C705: + x24 + x219 <= 1
C706: + x11 + x289 <= 1
C707: + x52 + x223 <= 1
C708: + x6 + x388 <= 1
C709: + x45 + x278 <= 1
C710: + x92 + x440 <= 1
C711: + x149 + x183 <= 1
C712: + x39 + x489 <= 1
C713: + x33 + x48 <= 1
C714: + x100 + x344 <= 1
C715: + x14 + x167 <= 1
C716: + x6 + x277 <= 1
C717: + x273 + x310 <= 1
C718: + x11 + x277 <= 1
C719: + x12 + x54 <= 1
C720: + x13 + x459 <= 1
C721: + x74 + x186 <= 1
C722: + x67 + x168 <= 1
C723: + x26 + x319 <= 1
C724: + x36 + x452 <= 1
C725: + x229 + x486 <= 1
C726: + x197 + x306 <= 1
C727: + x24 + x99 <= 1
C728: + x71 + x287 <= 1
C729: + x8 + x485 <= 1
C730: + x68 + x221 <= 1
C731: + x359 + x441 <= 1
C732: + x89 + x376 <= 1
C733: + x14 + x393 <= 1
C734: + x190 + x271 <= 1
C735: + x63 + x442 <= 1
C736: + x12 + x276 <= 1
C737: + x15 + x204 <= 1
C738: + x253 + x339 <= 1
C739: + x31 + x175 <= 1
C740: + x44 + x131 <= 1
C741: + x63 + x248 <= 1
C742: + x2 + x498 <= 1
C743: + x122 + x209 + x300 <= 1
C744: + x6 + x48 <= 1
C745: + x91 + x172 <= 1
C746: + x111 + x175 <= 1
C747: + x114 + x142 <= 1
C748: + x333 + x362 <= 1
C749: + x17 + x147 <= 1
C750: + x5 + x386 <= 1
C751: + x8 + x42 <= 1
C752: + x12 + x43 <= 1
C753: + x209 + x256 <= 1
C754: + x53 + x228 <= 1
C755: + x15 + x135 <= 1
C756: + x9 + x330 <= 1
C757: + x18 + x182 <= 1
C758: + x281 + x495 <= 1
C759: + x250 + x303 <= 1
C760: + x14 + x148 <= 1
C761: + x24 + x124 <= 1
C762: + x35 + x249 <= 1
C763: + x37 + x130 <= 1
C764: + x47 + x201 <= 1
C765: + x52 + x192 <= 1
C766: + x91 + x111 <= 1
C767: + x10 + x431 <= 1
C768: + x19 + x77 <= 1
C769: + x1 + x155 <= 1
C770: + x95 + x228 <= 1
C771: + x97 + x143 <= 1
C772: + x206 + x293 <= 1
C773: + x21 + x342 <= 1
C774: + x100 + x140 <= 1
C775: + x10 + x221 <= 1
C776: + x299 + x493 <= 1
C777: + x29 + x150 <= 1
C778: + x12 + x120 <= 1
C779: + x109 + x167 <= 1
C780: + x114 + x476 <= 1
C781: + x97 + x382 <= 1
C782: + x6 + x41 <= 1
C783: + x9 + x261 <= 1
C784: + x18 + x304 <= 1
C785: + x102 + x229 <= 1
C786: + x2 + x217 <= 1
C787: + x129 + x412 <= 1
C788: + x31 + x33 <= 1
C789: + x6 + x263 <= 1
C790: + x9 + x55 <= 1
C791: + x12 + x36 <= 1
C792: + x4 + x406 <= 1
C793: + x116 + x441 <= 1
C794: + x99 + x449 <= 1
C795: + x42 + x66 + x407 <= 1
C796: + x109 + x285 <= 1
C797: + x179 + x279 <= 1
C798: + x6 + x459 <= 1
C799: + x91 + x469 <= 1
C800: + x12 + x32 <= 1
C801: + x422 + x424 <= 1
C802: + x14 + x443 <= 1
C803: + x44 + x356 <= 1
C804: + x2 + x6 <= 1
C805: + x67 + x78 <= 1
C806: + x267 + x463 <= 1
C807: + x6 + x129 <= 1
C808: + x24 + x226 <= 1
C809: + x26 + x341 <= 1
C810: + x7 + x348 <= 1
C811: + x298 + x480 <= 1
C812: + x15 + x214 <= 1
C813: + x36 + x113 <= 1
C814: + x1 + x63 <= 1
C815: + x69 + x108 <= 1
C816: + x183 + x226 <= 1
C817: + x20 + x194 <= 1
C818: + x21 + x50 <= 1
C819: + x4 + x28 <= 1
C820: + x169 + x432 <= 1
C821: + x45 + x259 <= 1
C822: + x76 + x140 <= 1
C823: + x230 + x267 <= 1
C824: + x97 + x373 <= 1
C825: + x85 + x87 <= 1
C826: + x44 + x288 <= 1
C827: + x9 + x268 <= 1
C828: + x73 + x204 <= 1
C829: + x8 + x249 <= 1
C830: + x110 + x368 <= 1
C831: + x59 + x419 <= 1
C832: + x232 + x261 <= 1
C833: + x132 + x297 <= 1
C834: + x145 + x470 <= 1
C835: + x19 + x157 <= 1
C836: + x45 + x146 <= 1
C837: + x119 + x137 <= 1
C838: + x30 + x47 <= 1
C839: + x78 + x117 <= 1
C840: + x218 + x234 <= 1
C841: + x128 + x427 <= 1
C842: + x93 + x134 <= 1
C843: + x58 + x158 <= 1
C844: + x149 + x152 <= 1
C845: + x9 + x141 <= 1
C846: + x2 + x238 <= 1
C847: + x121 + x164 <= 1
C848: + x50 + x218 <= 1
C849: + x79 + x196 <= 1
C850: + x416 + x484 <= 1
C851: + x9 + x455 <= 1
C852: + x28 + x419 <= 1
C853: + x2 + x31 <= 1
C854: + x42 + x488 <= 1
C855: + x14 + x23 <= 1
C856: + x239 + x390 <= 1
C857: + x99 + x415 <= 1
C858: + x99 + x100 <= 1
C859: + x409 + x451 <= 1
C860: + x11 + x88 <= 1
C861: + x240 + x367 <= 1
C862: + x96 + x97 <= 1
C863: + x88 + x499 <= 1
C864: + x37 + x203 <= 1
C865: + x56 + x63 <= 1
C866: + x252 + x303 <= 1
C867: + x103 + x128 <= 1
C868: + x12 + x324 <= 1
C869: + x422 + x473 <= 1
C870: + x287 + x375 <= 1
C871: + x5 + x177 <= 1
C872: + x99 + x184 <= 1
C873: + x100 + x320 <= 1
C874: + x72 + x486 <= 1
C875: + x444 + x491 <= 1
C876: + x62 + x493 <= 1
C877: + x305 + x368 <= 1
C878: + x116 + x193 <= 1
C879: + x80 + x294 <= 1
C880: + x336 + x401 <= 1
C881: + x143 + x291 <= 1
C882: + x12 + x14 <= 1
C883: + x350 + x466 <= 1
C884: + x52 + x147 <= 1
C885: + x84 + x327 <= 1
C886: + x14 + x16 <= 1
C887: + x6 + x243 <= 1
C888: + x197 + x421 <= 1
C889: + x34 + x476 <= 1
C890: + x1 + x13 <= 1
C891: + x122 + x142 <= 1
C892: + x44 + x239 <= 1
C893: + x46 + x74 <= 1
C894: + x20 + x43 <= 1
C895: + x3 + x15 <= 1
C896: + x167 + x337 <= 1
C897: + x33 + x67 <= 1
C898: + x44 + x270 <= 1
C899: + x269 + x420 <= 1
C900: + x8 + x14 <= 1
C901: + x193 + x206 <= 1
C902: + x13 + x89 <= 1
C903: + x14 + x498 <= 1
C904: + x1 + x486 <= 1
C905: + x37 + x87 <= 1
C906: + x2 + x93 <= 1
C907: + x103 + x119 <= 1
C908: + x6 + x56 <= 1
C909: + x69 + x456 <= 1
C910: + x252 + x405 <= 1
C911: + x90 + x306 <= 1
C912: + x9 + x24 <= 1
C913: + x18 + x61 <= 1
C914: + x159 + x496 <= 1
C915: + x248 + x268 <= 1
C916: + x13 + x474 <= 1
C917: + x34 + x114 <= 1
C918: + x142 + x241 <= 1
C919: + x7 + x95 <= 1
C920: + x272 + x487 <= 1
C921: + x11 + x22 <= 1
C922: + x301 + x320 <= 1
C923: + x214 + x422 <= 1
C924: + x190 + x399 <= 1
C925: + x13 + x425 <= 1
C926: + x97 + x445 <= 1
C927: + x43 + x224 <= 1
C928: + x16 + x55 <= 1
C929: + x18 + x105 <= 1
C930: + x3 + x10 <= 1
C931: + x33 + x90 <= 1
C932: + x107 + x433 <= 1
C933: + x15 + x90 <= 1
C934: + x110 + x166 <= 1
C935: + x2 + x37 <= 1
C936: + x94 + x236 <= 1
C937: + x48 + x61 <= 1
C938: + x113 + x349 <= 1
C939: + x44 + x117 <= 1
C940: + x2 + x328 <= 1
C941: + x93 + x385 <= 1
C942: + x17 + x19 <= 1
C943: + x7 + x38 <= 1
C944: + x8 + x426 <= 1
C945: + x84 + x265 <= 1
C946: + x229 + x299 <= 1
C947: + x21 + x301 <= 1
C948: + x6 + x49 <= 1
C949: + x254 + x319 <= 1
C950: + x1 + x207 <= 1
C951: + x71 + x460 <= 1
C952: + x154 + x275 <= 1
C953: + x135 + x477 <= 1
C954: + x4 + x76 <= 1
C955: + x298 + x427 <= 1
C956: + x19 + x190 <= 1
C957: + x46 + x136 <= 1
C958: + x128 + x215 <= 1
C959: + x58 + x367 <= 1
C960: + x181 + x464 <= 1
C961: + x36 + x109 <= 1
C962: + x73 + x302 <= 1
C963: + x102 + x177 <= 1
C964: + x325 + x466 <= 1
C965: + x18 + x98 <= 1
C966: + x182 + x361 <= 1
C967: + x12 + x443 <= 1
C968: + x87 + x264 <= 1
C969: + x9 + x296 <= 1
C970: + x114 + x348 <= 1
C971: + x97 + x254 <= 1
C972: + x40 + x105 <= 1
C973: + x55 + x154 <= 1
C974: + x46 + x205 <= 1
C975: + x40 + x283 <= 1
C976: + x69 + x116 <= 1
C977: + x58 + x186 <= 1
C978: + x360 + x453 <= 1
C979: + x142 + x146 <= 1
C980: + x219 + x460 <= 1
C981: + x6 + x280 <= 1
C982: + x114 + x390 <= 1
C983: + x42 + x161 <= 1
C984: + x17 + x454 <= 1
C985: + x6 + x75 <= 1
C986: + x44 + x325 <= 1
C987: + x97 + x185 <= 1
C988: + x7 + x246 <= 1
C989: + x2 + x44 + x341 <= 1
C990: + x8 + x69 <= 1
C991: + x49 + x60 <= 1
C992: + x13 + x18 <= 1
C993: + x5 + x119 <= 1
C994: + x112 + x158 <= 1
C995: + x53 + x137 <= 1
C996: + x23 + x382 <= 1
C997: + x19 + x361 <= 1
C998: + x103 + x411 <= 1
C999: + x7 + x11 + x12 <= 1
C1000: + x6 + x127 <= 1
C1001: + x62 + x114 <= 1
C1002: + x138 + x143 <= 1
C1003: + x34 + x315 <= 1
C1004: + x5 + x6 <= 1
C1005: + x53 + x64 <= 1
C1006: + x6 + x146 <= 1
C1007: + x144 + x481 <= 1
C1008: + x7 + x363 <= 1
C1009: + x3 + x322 <= 1
C1010: + x28 + x173 <= 1
C1011: + x4 + x41 <= 1
C1012: + x62 + x416 <= 1
C1013: + x87 + x394 <= 1
C1014: + x19 + x285 <= 1
C1015: + x67 + x240 <= 1
C1016: + x58 + x195 <= 1
C1017: + x51 + x118 <= 1
C1018: + x14 + x128 <= 1
C1019: + x35 + x284 <= 1
C1020: + x13 + x376 <= 1
C1021: + x34 + x428 <= 1
C1022: + x114 + x302 <= 1
C1023: + x75 + x128 <= 1
C1024: + x6 + x35 <= 1
C1025: + x424 + x457 <= 1
C1026: + x27 + x90 <= 1
C1027: + x299 + x394 <= 1
C1028: + x189 + x474 <= 1
C1029: + x53 + x68 <= 1
C1030: + x56 + x215 <= 1
C1031: + x242 + x492 <= 1
C1032: + x258 + x335 <= 1
C1033: + x133 + x188 <= 1
C1034: + x17 + x61 <= 1
C1035: + x226 + x272 <= 1
C1036: + x5 + x316 <= 1
C1037: + x151 + x335 <= 1
C1038: + x8 + x340 <= 1
C1039: + x11 + x15 <= 1
C1040: + x158 + x174 <= 1
C1041: + x167 + x238 <= 1
C1042: + x42 + x453 <= 1
C1043: + x32 + x90 <= 1
C1044: + x265 + x358 <= 1
C1045: + x239 + x425 <= 1
C1046: + x4 + x102 <= 1
C1047: + x71 + x275 <= 1
C1048: + x40 + x444 <= 1
C1049: + x51 + x57 <= 1
C1050: + x207 + x371 <= 1
C1051: + x26 + x436 <= 1
C1052: + x8 + x264 <= 1
C1053: + x10 + x426 <= 1
C1054: + x161 + x404 <= 1
C1055: + x1 + x339 <= 1
C1056: + x384 + x397 <= 1
C1057: + x225 + x268 <= 1
C1058: + x6 + x342 <= 1
C1059: + x45 + x108 <= 1
C1060: + x1 + x37 <= 1
C1061: + x10 + x224 <= 1
C1062: + x70 + x126 <= 1
C1063: + x14 + x278 <= 1
C1064: + x38 + x69 <= 1
C1065: + x104 + x304 <= 1
C1066: + x115 + x429 <= 1
C1067: + x98 + x109 <= 1
C1068: + x10 + x41 <= 1
C1069: + x113 + x318 <= 1
C1070: + x42 + x445 <= 1
C1071: + x69 + x316 <= 1
C1072: + x43 + x144 <= 1
C1073: + x226 + x422 <= 1
C1074: + x100 + x115 <= 1
C1075: + x14 + x359 <= 1
C1076: + x102 + x347 <= 1
C1077: + x36 + x179 <= 1
C1078: + x1 + x113 <= 1
C1079: + x294 + x353 <= 1
C1080: + x159 + x357 <= 1
C1081: + x22 + x122 <= 1
C1082: + x5 + x200 <= 1
C1083: + x35 + x487 <= 1
C1084: + x262 + x427 <= 1
C1085: + x73 + x142 <= 1
C1086: + x18 + x359 <= 1
C1087: + x219 + x482 <= 1
C1088: + x250 + x307 <= 1
C1089: + x12 + x192 <= 1
C1090: + x21 + x227 <= 1
C1091: + x36 + x255 <= 1
C1092: + x61 + x124 + x176 <= 1
C1093: + x87 + x297 <= 1
C1094: + x6 + x97 <= 1
C1095: + x29 + x333 <= 1
C1096: + x158 + x251 <= 1
C1097: + x114 + x335 <= 1
C1098: + x4 + x252 <= 1
C1099: + x295 + x337 <= 1
C1100: + x26 + x344 <= 1
C1101: + x92 + x123 <= 1
C1102: + x2 + x164 <= 1
C1103: + x237 + x496 <= 1
C1104: + x102 + x160 <= 1
C1105: + x22 + x161 <= 1
C1106: + x341 + x345 <= 1
C1107: + x9 + x428 <= 1
C1108: + x10 + x292 <= 1
C1109: + x31 + x396 <= 1
C1110: + x6 + x21 <= 1
C1111: + x127 + x459 <= 1
C1112: + x62 + x88 <= 1
C1113: + x151 + x234 <= 1
C1114: + x10 + x82 <= 1
C1115: + x16 + x80 <= 1
C1116: + x28 + x247 <= 1
C1117: + x102 + x324 <= 1
C1118: + x85 + x270 <= 1
C1119: + x131 + x337 <= 1
C1120: + x108 + x492 <= 1
C1121: + x57 + x71 + x282 <= 1
C1122: + x64 + x165 <= 1
C1123: + x123 + x471 <= 1
C1124: + x42 + x55 <= 1
C1125: + x90 + x205 <= 1
C1126: + x9 + x138 <= 1
C1127: + x28 + x104 <= 1
C1128: + x19 + x49 <= 1
C1129: + x1 + x231 <= 1
C1130: + x12 + x181 <= 1
C1131: + x22 + x230 <= 1
C1132: + x79 + x420 <= 1
C1133: + x73 + x423 <= 1
C1134: + x110 + x405 <= 1
C1135: + x59 + x333 <= 1
C1136: + x50 + x274 <= 1
C1137: + x324 + x345 <= 1
C1138: + x415 + x493 <= 1
C1139: + x2 + x26 <= 1
C1140: + x77 + x129 <= 1
C1141: + x31 + x100 <= 1
C1142: + x1 + x51 <= 1
C1143: + x1 + x5 + x10 <= 1
C1144: + x4 + x32 <= 1
C1145: + x295 + x437 <= 1
C1146: + x214 + x362 <= 1
C1147: + x16 + x40 <= 1
C1148: + x13 + x194 <= 1
C1149: + x171 + x242 <= 1
C1150: + x9 + x34 <= 1
C1151: + x8 + x28 <= 1
C1152: + x16 + x85 <= 1
C1153: + x256 + x399 <= 1
C1154: + x12 + x93 <= 1
C1155: + x50 + x77 <= 1
C1156: + x22 + x396 <= 1
C1157: + x36 + x50 <= 1
C1158: + x222 + x319 <= 1
C1159: + x131 + x384 <= 1
C1160: + x4 + x331 <= 1
C1161: + x167 + x354 <= 1
C1162: + x424 + x441 <= 1
C1163: + x184 + x492 <= 1
C1164: + x16 + x448 <= 1
C1165: + x156 + x366 <= 1
C1166: + x64 + x301 <= 1
C1167: + x14 + x19 <= 1
C1168: + x171 + x258 <= 1
C1169: + x233 + x305 <= 1
C1170: + x4 + x5 <= 1
C1171: + x79 + x375 <= 1
C1172: + x16 + x45 <= 1
C1173: + x6 + x7 <= 1
C1174: + x19 + x111 <= 1
C1175: + x137 + x257 <= 1
C1176: + x49 + x483 <= 1
C1177: + x305 + x312 <= 1
C1178: + x69 + x273 <= 1
C1179: + x303 + x366 <= 1
C1180: + x174 + x350 <= 1
C1181: + x84 + x420 <= 1
C1182: + x33 + x266 <= 1
C1183: + x307 + x383 <= 1
C1184: + x24 + x46 <= 1
C1185: + x84 + x182 <= 1
C1186: + x278 + x336 <= 1
C1187: + x65 + x309 <= 1
C1188: + x102 + x199 <= 1
C1189: + x85 + x131 <= 1
C1190: + x86 + x381 <= 1
C1191: + x292 + x385 <= 1
C1192: + x40 + x174 <= 1
C1193: + x107 + x365 <= 1
C1194: + x9 + x21 <= 1
C1195: + x46 + x146 <= 1
C1196: + x21 + x93 <= 1
C1197: + x22 + x262 <= 1
C1198: + x71 + x156 <= 1
C1199: + x12 + x308 <= 1
C1200: + x31 + x110 <= 1
C1201: + x15 + x285 <= 1
C1202: + x5 + x467 <= 1
C1203: + x9 + x65 <= 1
C1204: + x1 + x430 <= 1
C1205: + x47 + x359 <= 1
C1206: + x6 + x16 <= 1
C1207: + x10 + x434 <= 1
C1208: + x21 + x179 <= 1
C1209: + x240 + x372 <= 1
C1210: + x6 + x163 <= 1
C1211: + x24 + x200 <= 1
C1212: + x16 + x91 <= 1
C1213: + x276 + x339 <= 1
C1214: + x35 + x170 <= 1
C1215: + x109 + x481 <= 1
C1216: + x135 + x236 <= 1
C1217: + x274 + x385 <= 1
C1218: + x102 + x109 <= 1
C1219: + x77 + x250 <= 1
C1220: + x169 + x363 <= 1
C1221: + x6 + x52 <= 1
C1222: + x19 + x30 <= 1
C1223: + x384 + x473 <= 1
C1224: + x12 + x220 <= 1
C1225: + x124 + x191 <= 1
C1226: + x215 + x423 <= 1
C1227: + x197 + x214 <= 1
C1228: + x39 + x89 <= 1
C1229: + x16 + x111 <= 1
C1230: + x153 + x311 <= 1
C1231: + x103 + x454 <= 1
C1232: + x13 + x470 <= 1
C1233: + x6 + x69 <= 1
C1234: + x279 + x314 <= 1
C1235: + x5 + x331 <= 1
C1236: + x263 + x424 <= 1
C1237: + x11 + x18 <= 1
C1238: + x110 + x291 <= 1
C1239: + x57 + x211 <= 1
C1240: + x4 + x216 <= 1
C1241: + x26 + x308 <= 1
C1242: + x1 + x8 <= 1
C1243: + x13 + x32 <= 1
C1244: + x14 + x307 <= 1
C1245: + x325 + x471 <= 1
C1246: + x121 + x130 <= 1
C1247: + x49 + x239 <= 1
C1248: + x94 + x410 <= 1
C1249: + x3 + x6 <= 1
C1250: + x33 + x94 <= 1
C1251: + x61 + x199 <= 1
C1252: + x92 + x257 <= 1
C1253: + x14 + x249 <= 1
C1254: + x24 + x274 <= 1
C1255: + x198 + x364 <= 1
C1256: + x27 + x33 <= 1
C1257: + x280 + x311 <= 1
C1258: + x12 + x68 <= 1
C1259: + x31 + x190 <= 1
C1260: + x123 + x221 <= 1
C1261: + x6 + x410 <= 1
C1262: + x18 + x409 <= 1
C1263: + x7 + x26 <= 1
C1264: + x173 + x485 <= 1
C1265: + x46 + x115 <= 1
C1266: + x482 + x489 <= 1
C1267: + x152 + x206 <= 1
C1268: + x134 + x451 <= 1
C1269: + x57 + x416 <= 1
C1270: + x12 + x209 <= 1
C1271: + x21 + x142 <= 1
C1272: + x5 + x72 <= 1
C1273: + x37 + x169 <= 1
C1274: + x30 + x74 <= 1
C1275: + x97 + x473 <= 1
C1276: + x138 + x222 <= 1
C1277: + x26 + x309 <= 1
C1278: + x91 + x296 <= 1
C1279: + x72 + x268 <= 1
C1280: + x27 + x104 <= 1
C1281: + x8 + x76 <= 1
C1282: + x46 + x277 <= 1
C1283: + x5 + x449 <= 1
C1284: + x6 + x479 <= 1
C1285: + x182 + x373 <= 1
C1286: + x47 + x369 <= 1
C1287: + x3 + x29 <= 1
C1288: + x20 + x500 <= 1
C1289: + x34 + x91 <= 1
C1290: + x52 + x177 <= 1
C1291: + x7 + x130 <= 1
C1292: + x164 + x181 <= 1
C1293: + x4 + x137 <= 1
C1294: + x32 + x156 <= 1
C1295: + x193 + x224 <= 1
C1296: + x321 + x352 <= 1
C1297: + x69 + x419 <= 1
C1298: + x13 + x408 <= 1
C1299: + x53 + x210 <= 1
C1300: + x24 + x57 <= 1
C1301: + x44 + x141 <= 1
C1302: + x9 + x443 <= 1
C1303: + x3 + x81 <= 1
C1304: + x88 + x224 <= 1
C1305: + x62 + x73 <= 1
C1306: + x18 + x136 <= 1
C1307: + x179 + x229 <= 1
C1308: + x80 + x317 <= 1
C1309: + x8 + x52 <= 1
C1310: + x81 + x378 <= 1
C1311: + x8 + x343 <= 1
C1312: + x26 + x99 <= 1
C1313: + x71 + x141 <= 1
C1314: + x202 + x391 <= 1
C1315: + x69 + x321 <= 1
C1316: + x23 + x100 <= 1
C1317: + x143 + x427 <= 1
C1318: + x1 + x22 <= 1
C1319: + x5 + x115 <= 1
C1320: + x43 + x206 <= 1
C1321: + x179 + x217 <= 1
C1322: + x53 + x149 <= 1
C1323: + x18 + x24 + x65 <= 1
C1324: + x61 + x213 <= 1
C1325: + x21 + x336 <= 1
C1326: + x269 + x298 <= 1
C1327: + x88 + x104 <= 1
C1328: + x381 + x409 <= 1
C1329: + x53 + x217 <= 1
C1330: + x139 + x148 <= 1
C1331: + x62 + x66 <= 1
C1332: + x92 + x299 <= 1
C1333: + x8 + x134 <= 1
C1334: + x30 + x185 <= 1
C1335: + x45 + x157 <= 1
C1336: + x128 + x193 <= 1
C1337: + x10 + x135 <= 1
C1338: + x3 + x402 <= 1
C1339: + x59 + x371 <= 1
C1340: + x31 + x301 <= 1
C1341: + x6 + x448 <= 1
C1342: + x54 + x86 <= 1
C1343: + x37 + x52 <= 1
C1344: + x251 + x254 <= 1
C1345: + x16 + x320 <= 1
C1346: + x36 + x460 <= 1
C1347: + x7 + x310 <= 1
C1348: + x8 + x186 <= 1
C1349: + x94 + x322 <= 1
C1350: + x210 + x448 <= 1
C1351: + x12 + x187 <= 1
C1352: + x17 + x80 <= 1
C1353: + x218 + x272 <= 1
C1354: + x8 + x477 <= 1
C1355: + x84 + x472 <= 1
C1356: + x52 + x191 <= 1
C1357: + x61 + x212 <= 1
C1358: + x10 + x430 <= 1
C1359: + x3 + x180 <= 1
C1360: + x78 + x281 <= 1
C1361: + x5 + x9 <= 1
C1362: + x363 + x392 <= 1
C1363: + x53 + x470 <= 1
C1364: + x145 + x292 <= 1
C1365: + x92 + x122 <= 1
C1366: + x16 + x478 <= 1
C1367: + x62 + x248 <= 1
C1368: + x81 + x217 <= 1
C1369: + x74 + x218 <= 1
C1370: + x210 + x389 <= 1
C1371: + x92 + x292 <= 1
C1372: + x57 + x437 <= 1
C1373: + x18 + x29 <= 1
C1374: + x36 + x183 <= 1
C1375: + x45 + x156 <= 1
C1376: + x48 + x310 <= 1
C1377: + x31 + x280 <= 1
C1378: + x142 + x273 <= 1
C1379: + x15 + x494 <= 1
C1380: + x8 + x325 <= 1
C1381: + x66 + x265 <= 1
C1382: + x2 + x73 <= 1
C1383: + x197 + x388 <= 1
C1384: + x108 + x150 <= 1
C1385: + x8 + x183 <= 1
C1386: + x12 + x180 <= 1
C1387: + x98 + x323 <= 1
C1388: + x153 + x479 <= 1
C1389: + x103 + x393 <= 1
C1390: + x68 + x206 <= 1
C1391: + x167 + x364 <= 1
C1392: + x324 + x344 <= 1
C1393: + x107 + x401 <= 1
C1394: + x1 + x147 <= 1
C1395: + x2 + x5 <= 1
C1396: + x372 + x474 <= 1
C1397: + x226 + x487 <= 1
C1398: + x45 + x95 <= 1
C1399: + x1 + x64 <= 1
C1400: + x86 + x434 <= 1
C1401: + x112 + x116 <= 1
C1402: + x225 + x484 <= 1
C1403: + x5 + x482 <= 1
C1404: + x143 + x158 <= 1
C1405: + x57 + x170 <= 1
C1406: + x138 + x379 <= 1
C1407: + x94 + x125 <= 1
C1408: + x88 + x235 <= 1
C1409: + x82 + x232 <= 1
C1410: + x174 + x197 <= 1
C1411: + x222 + x459 <= 1
C1412: + x104 + x136 <= 1
C1413: + x15 + x231 <= 1
C1414: + x134 + x346 <= 1
C1415: + x62 + x354 <= 1
C1416: + x83 + x478 <= 1
C1417: + x187 + x363 <= 1
C1418: + x24 + x28 <= 1
C1419: + x226 + x286 <= 1
C1420: + x10 + x276 <= 1
C1421: + x1 + x489 <= 1
C1422: + x129 + x222 <= 1
C1423: + x12 + x334 <= 1
C1424: + x418 + x484 <= 1
C1425: + x185 + x189 <= 1
C1426: + x31 + x213 <= 1
C1427: + x18 + x66 <= 1
C1428: + x135 + x150 <= 1
C1429: + x239 + x284 <= 1
C1430: + x3 + x440 <= 1
C1431: + x40 + x422 <= 1
C1432: + x6 + x8 + x9 <= 1
C1433: + x142 + x254 <= 1
C1434: + x6 + x86 <= 1
C1435: + x13 + x138 <= 1
C1436: + x300 + x488 <= 1
C1437: + x239 + x395 <= 1
C1438: + x68 + x269 <= 1
C1439: + x277 + x375 <= 1
C1440: + x69 + x84 <= 1
C1441: + x90 + x499 <= 1
C1442: + x366 + x422 <= 1
C1443: + x34 + x435 <= 1
C1444: + x180 + x400 <= 1
C1445: + x110 + x179 <= 1
C1446: + x229 + x343 <= 1
C1447: + x3 + x218 <= 1
C1448: + x13 + x254 <= 1
C1449: + x15 + x291 <= 1
C1450: + x44 + x122 <= 1
C1451: + x8 + x24 <= 1
C1452: + x49 + x77 <= 1
C1453: + x34 + x36 <= 1
C1454: + x70 + x160 <= 1
C1455: + x71 + x233 <= 1
C1456: + x121 + x498 <= 1
C1457: + x49 + x383 <= 1
C1458: + x55 + x412 <= 1
C1459: + x60 + x154 <= 1
C1460: + x145 + x152 <= 1
C1461: + x1 + x242 <= 1
C1462: + x11 + x153 <= 1
C1463: + x13 + x50 <= 1
C1464: + x33 + x358 <= 1
C1465: + x25 + x248 <= 1
C1466: + x44 + x54 <= 1
C1467: + x215 + x425 <= 1
C1468: + x36 + x145 <= 1
C1469: + x156 + x451 <= 1
C1470: + x3 + x399 <= 1
C1471: + x30 + x123 <= 1
C1472: + x95 + x488 <= 1
C1473: + x33 + x120 <= 1
C1474: + x97 + x312 <= 1
C1475: + x6 + x95 <= 1
C1476: + x8 + x367 <= 1
C1477: + x23 + x92 <= 1
C1478: + x180 + x360 <= 1
C1479: + x7 + x331 <= 1
C1480: + x8 + x89 <= 1
C1481: + x135 + x288 <= 1
C1482: + x137 + x438 <= 1
C1483: + x73 + x289 <= 1
C1484: + x31 + x140 <= 1
C1485: + x71 + x312 <= 1
C1486: + x65 + x107 <= 1
C1487: + x10 + x338 <= 1
C1488: + x333 + x413 <= 1
C1489: + x261 + x450 <= 1
C1490: + x62 + x102 <= 1
C1491: + x199 + x465 <= 1
C1492: + x11 + x96 <= 1
C1493: + x17 + x256 <= 1
C1494: + x153 + x360 <= 1
C1495: + x8 + x13 <= 1
C1496: + x102 + x370 <= 1
C1497: + x31 + x265 <= 1
C1498: + x124 + x372 <= 1
C1499: + x118 + x447 <= 1
C1500: + x390 + x442 <= 1
C1501: + x11 + x47 <= 1
C1502: + x102 + x112 <= 1
C1503: + x115 + x394 <= 1
C1504: + x270 + x287 <= 1
C1505: + x16 + x276 <= 1
C1506: + x10 + x52 <= 1
C1507: + x46 + x363 <= 1
C1508: + x40 + x170 <= 1
C1509: + x269 + x374 <= 1
C1510: + x70 + x479 <= 1
C1511: + x9 + x25 <= 1
C1512: + x218 + x364 <= 1
C1513: + x239 + x294 <= 1
C1514: + x166 + x433 <= 1
C1515: + x243 + x294 <= 1
C1516: + x6 + x72 <= 1
C1517: + x46 + x49 <= 1
C1518: + x53 + x188 <= 1
C1519: + x10 + x347 <= 1
C1520: + x37 + x107 <= 1
C1521: + x119 + x356 <= 1
C1522: + x56 + x326 <= 1
C1523: + x67 + x199 <= 1
C1524: + x5 + x372 <= 1
C1525: + x6 + x12 <= 1
C1526: + x60 + x295 <= 1
C1527: + x70 + x404 <= 1
C1528: + x17 + x290 <= 1
C1529: + x227 + x462 <= 1
C1530: + x5 + x259 <= 1
C1531: + x81 + x340 <= 1
C1532: + x7 + x27 <= 1
C1533: + x17 + x20 <= 1
C1534: + x165 + x479 <= 1
C1535: + x149 + x174 <= 1
C1536: + x5 + x168 <= 1
C1537: + x82 + x330 <= 1
C1538: + x10 + x53 <= 1
C1539: + x105 + x247 <= 1
C1540: + x89 + x390 <= 1
C1541: + x45 + x180 <= 1
C1542: + x8 + x58 <= 1
C1543: + x219 + x355 <= 1
C1544: + x12 + x59 <= 1
C1545: + x109 + x401 <= 1
C1546: + x211 + x438 <= 1
C1547: + x25 + x448 <= 1
C1548: + x24 + x346 <= 1
C1549: + x265 + x377 <= 1
C1550: + x12 + x446 <= 1
C1551: + x53 + x296 <= 1
C1552: + x7 + x131 <= 1
C1553: + x100 + x362 <= 1
C1554: + x182 + x395 <= 1
C1555: + x85 + x201 <= 1
C1556: + x3 + x328 <= 1
C1557: + x208 + x259 <= 1
C1558: + x45 + x284 <= 1
C1559: + x8 + x418 <= 1
C1560: + x139 + x238 <= 1
C1561: + x29 + x408 <= 1
C1562: + x6 + x57 <= 1
C1563: + x284 + x498 <= 1
C1564: + x5 + x68 <= 1
C1565: + x52 + x407 <= 1
C1566: + x79 + x388 <= 1
C1567: + x15 + x324 <= 1
C1568: + x174 + x384 <= 1
C1569: + x6 + x74 <= 1
C1570: + x71 + x138 <= 1
C1571: + x128 + x446 <= 1
C1572: + x151 + x181 <= 1
C1573: + x8 + x342 <= 1
C1574: + x24 + x500 <= 1
C1575: + x28 + x148 <= 1
C1576: + x273 + x323 <= 1
C1577: + x12 + x129 <= 1
C1578: + x71 + x281 <= 1
C1579: + x154 + x450 <= 1
C1580: + x385 + x426 <= 1
C1581: + x49 + x303 <= 1
C1582: + x4 + x338 <= 1
C1583: + x25 + x54 <= 1
C1584: + x24 + x456 <= 1
C1585: + x1 + x349 <= 1
C1586: + x13 + x226 <= 1
C1587: + x34 + x314 <= 1
C1588: + x5 + x7 <= 1
C1589: + x9 + x194 <= 1
C1590: + x70 + x116 <= 1
C1591: + x24 + x53 <= 1
C1592: + x34 + x208 <= 1
C1593: + x36 + x320 <= 1
C1594: + x88 + x373 <= 1
C1595: + x108 + x449 <= 1
C1596: + x15 + x476 <= 1
C1597: + x7 + x178 <= 1
C1598: + x225 + x322 <= 1
C1599: + x104 + x149 <= 1
C1600: + x69 + x318 <= 1
C1601: + x24 + x166 <= 1
C1602: + x319 + x406 <= 1
C1603: + x251 + x414 <= 1
C1604: + x307 + x348 <= 1
C1605: + x7 + x65 <= 1
C1606: + x182 + x457 <= 1
C1607: + x45 + x327 <= 1
C1608: + x97 + x177 <= 1
C1609: + x52 + x269 <= 1
C1610: + x16 + x234 <= 1
C1611: + x290 + x392 <= 1
C1612: + x46 + x266 <= 1
C1613: + x250 + x297 <= 1
C1614: + x30 + x208 <= 1
C1615: + x20 + x235 <= 1
C1616: + x40 + x137 <= 1
C1617: + x23 + x193 <= 1
C1618: + x45 + x214 <= 1
C1619: + x72 + x398 <= 1
C1620: + x13 + x153 <= 1
C1621: + x4 + x246 <= 1
C1622: + x5 + x14 <= 1
C1623: + x99 + x225 <= 1
C1624: + x7 + x355 <= 1
C1625: + x8 + x113 <= 1
C1626: + x187 + x232 <= 1
C1627: + x20 + x22 <= 1
C1628: + x141 + x240 <= 1
C1629: + x5 + x157 <= 1
C1630: + x6 + x43 <= 1
C1631: + x174 + x207 <= 1
C1632: + x12 + x195 <= 1
C1633: + x132 + x290 <= 1
C1634: + x31 + x35 <= 1
C1635: + x9 + x53 <= 1
C1636: + x100 + x118 <= 1
C1637: + x10 + x139 <= 1
C1638: + x30 + x387 <= 1
C1639: + x7 + x60 <= 1
C1640: + x8 + x332 <= 1
C1641: + x111 + x490 <= 1
C1642: + x39 + x465 <= 1
C1643: + x153 + x202 <= 1
C1644: + x39 + x62 <= 1
C1645: + x14 + x143 <= 1
C1646: + x6 + x461 <= 1
C1647: + x385 + x424 <= 1
C1648: + x157 + x484 <= 1
C1649: + x131 + x216 <= 1
C1650: + x12 + x30 <= 1
C1651: + x10 + x101 <= 1
C1652: + x2 + x8 <= 1
C1653: + x94 + x207 <= 1
C1654: + x90 + x151 <= 1
C1655: + x90 + x330 <= 1
C1656: + x8 + x106 <= 1
C1657: + x2 + x163 <= 1
C1658: + x232 + x438 <= 1
C1659: + x167 + x456 <= 1
C1660: + x13 + x386 <= 1
C1661: + x20 + x33 + x39 <= 1
C1662: + x78 + x230 <= 1
C1663: + x180 + x390 <= 1
C1664: + x6 + x20 <= 1
C1665: + x121 + x377 <= 1
C1666: + x35 + x400 <= 1
C1667: + x16 + x79 <= 1
C1668: + x19 + x159 <= 1
C1669: + x121 + x214 <= 1
C1670: + x214 + x239 <= 1
C1671: + x151 + x346 <= 1
C1672: + x193 + x464 <= 1
C1673: + x23 + x114 <= 1
C1674: + x6 + x200 <= 1
C1675: + x180 + x338 <= 1
C1676: + x4 + x83 <= 1
C1677: + x32 + x313 <= 1
C1678: + x142 + x414 <= 1
C1679: + x324 + x445 <= 1
C1680: + x202 + x243 <= 1
C1681: + x12 + x19 <= 1
C1682: + x196 + x389 <= 1
C1683: + x6 + x105 <= 1
C1684: + x81 + x168 <= 1
C1685: + x10 + x475 <= 1
C1686: + x8 + x196 <= 1
C1687: + x72 + x388 <= 1
C1688: + x52 + x295 <= 1
C1689: + x5 + x244 <= 1
C1690: + x15 + x276 <= 1
C1691: + x36 + x120 <= 1
C1692: + x316 + x377 <= 1
C1693: + x8 + x103 <= 1
C1694: + x65 + x500 <= 1
C1695: + x78 + x497 <= 1
C1696: + x4 + x470 <= 1
C1697: + x61 + x86 <= 1
C1698: + x14 + x263 <= 1
C1699: + x247 + x328 <= 1
C1700: + x239 + x353 <= 1
C1701: + x21 + x457 <= 1
C1702: + x15 + x74 <= 1
C1703: + x216 + x359 <= 1
C1704: + x24 + x71 <= 1
C1705: + x6 + x267 <= 1
C1706: + x8 + x27 <= 1
C1707: + x230 + x391 <= 1
C1708: + x30 + x405 <= 1
C1709: + x226 + x274 <= 1
C1710: + x2 + x403 <= 1
C1711: + x158 + x184 <= 1
C1712: + x25 + x483 <= 1
C1713: + x269 + x415 <= 1
C1714: + x27 + x72 <= 1
C1715: + x12 + x173 <= 1
C1716: + x50 + x266 <= 1
C1717: + x71 + x162 <= 1
C1718: + x103 + x182 <= 1
C1719: + x70 + x378 <= 1
C1720: + x34 + x454 <= 1
C1721: + x153 + x228 <= 1
C1722: + x1 + x11 <= 1
C1723: + x21 + x198 <= 1
C1724: + x4 + x8 <= 1
C1725: + x18 + x114 <= 1
C1726: + x43 + x396 <= 1
C1727: + x81 + x203 <= 1
C1728: + x8 + x237 <= 1
C1729: + x112 + x246 <= 1
C1730: + x40 + x121 <= 1
C1731: + x357 + x368 <= 1
C1732: + x35 + x75 <= 1
C1733: + x9 + x42 <= 1
C1734: + x100 + x105 <= 1
C1735: + x16 + x93 <= 1
C1736: + x36 + x169 <= 1
C1737: + x53 + x198 <= 1
C1738: + x24 + x45 <= 1
C1739: + x79 + x260 <= 1
C1740: + x57 + x310 <= 1
C1741: + x360 + x469 <= 1
C1742: + x209 + x391 <= 1
C1743: + x37 + x327 <= 1
C1744: + x5 + x83 <= 1
C1745: + x85 + x481 <= 1
C1746: + x101 + x260 <= 1
C1747: + x11 + x24 <= 1
C1748: + x12 + x307 <= 1
C1749: + x31 + x83 <= 1
C1750: + x218 + x408 <= 1
C1751: + x82 + x272 <= 1
C1752: + x8 + x85 <= 1
C1753: + x47 + x82 <= 1
C1754: + x78 + x483 <= 1
C1755: + x44 + x230 <= 1
C1756: + x226 + x344 <= 1
C1757: + x72 + x188 <= 1
C1758: + x66 + x145 <= 1
C1759: + x1 + x431 <= 1
C1760: + x39 + x257 <= 1
C1761: + x16 + x332 <= 1
C1762: + x72 + x95 <= 1
C1763: + x62 + x98 <= 1
C1764: + x50 + x493 <= 1
C1765: + x109 + x189 <= 1
C1766: + x1 + x94 <= 1
C1767: + x4 + x57 <= 1
C1768: + x119 + x313 <= 1
C1769: + x103 + x108 <= 1
C1770: + x22 + x413 <= 1
C1771: + x6 + x51 <= 1
C1772: + x17 + x446 <= 1
C1773: + x152 + x355 <= 1
C1774: + x364 + x452 <= 1
C1775: + x103 + x213 <= 1
C1776: + x451 + x471 <= 1
C1777: + x16 + x106 <= 1
C1778: + x25 + x32 <= 1
C1779: + x118 + x463 <= 1
C1780: + x71 + x148 <= 1
C1781: + x198 + x295 <= 1
C1782: + x290 + x497 <= 1
C1783: + x27 + x30 <= 1
C1784: + x135 + x267 <= 1
C1785: + x112 + x139 <= 1
C1786: + x40 + x154 <= 1
C1787: + x17 + x92 <= 1
C1788: + x27 + x191 <= 1
C1789: + x45 + x229 <= 1
C1790: + x139 + x187 <= 1
C1791: + x20 + x494 <= 1
C1792: + x112 + x421 <= 1
C1793: + x25 + x44 <= 1
C1794: + x53 + x293 <= 1
C1795: + x109 + x330 <= 1
C1796: + x180 + x482 <= 1
C1797: + x1 + x184 <= 1
C1798: + x6 + x120 <= 1
C1799: + x100 + x357 <= 1
C1800: + x132 + x259 <= 1
C1801: + x5 + x29 <= 1
C1802: + x209 + x486 <= 1
C1803: + x363 + x428 <= 1
C1804: + x208 + x258 <= 1
C1805: + x95 + x160 <= 1
C1806: + x105 + x350 <= 1
C1807: + x133 + x292 <= 1
C1808: + x6 + x60 <= 1
C1809: + x79 + x175 <= 1
C1810: + x9 + x274 <= 1
C1811: + x32 + x35 <= 1
C1812: + x71 + x124 <= 1
C1813: + x51 + x290 <= 1
C1814: + x253 + x275 <= 1
C1815: + x72 + x374 <= 1
C1816: + x11 + x26 <= 1
C1817: + x93 + x164 <= 1
C1818: + x12 + x289 <= 1
C1819: + x104 + x244 <= 1
C1820: + x58 + x136 <= 1
C1821: + x143 + x417 <= 1
C1822: + x21 + x211 <= 1
C1823: + x242 + x334 <= 1
C1824: + x34 + x332 <= 1
C1825: + x14 + x299 <= 1
C1826: + x399 + x439 <= 1
C1827: + x67 + x273 <= 1
C1828: + x241 + x423 <= 1
C1829: + x104 + x321 <= 1
C1830: + x10 + x419 <= 1
C1831: + x72 + x412 <= 1
C1832: + x32 + x155 <= 1
C1833: + x180 + x262 <= 1
C1834: + x8 + x127 <= 1
C1835: + x72 + x319 <= 1
C1836: + x196 + x231 <= 1
C1837: + x176 + x394 <= 1
C1838: + x40 + x203 <= 1
C1839: + x55 + x64 <= 1
C1840: + x12 + x366 <= 1
C1841: + x78 + x247 <= 1
C1842: + x5 + x171 <= 1
C1843: + x32 + x44 <= 1
C1844: + x17 + x428 <= 1
C1845: + x18 + x308 <= 1
C1846: + x1 + x219 <= 1
C1847: + x378 + x403 <= 1
C1848: + x277 + x451 <= 1
C1849: + x5 + x80 <= 1
C1850: + x25 + x284 <= 1
C1851: + x198 + x211 <= 1
C1852: + x9 + x11 <= 1
C1853: + x322 + x403 <= 1
C1854: + x179 + x404 <= 1
C1855: + x249 + x418 <= 1
C1856: + x112 + x326 <= 1
C1857: + x106 + x135 <= 1
C1858: + x25 + x395 <= 1
C1859: + x72 + x260 <= 1
C1860: + x102 + x165 <= 1
C1861: + x12 + x133 <= 1
C1862: + x214 + x278 <= 1
C1863: + x153 + x466 <= 1
C1864: + x90 + x467 <= 1
C1865: + x29 + x106 <= 1
C1866: + x85 + x127 <= 1
C1867: + x166 + x403 <= 1
C1868: + x1 + x134 <= 1
C1869: + x15 + x202 <= 1
C1870: + x108 + x211 <= 1
C1871: + x73 + x262 <= 1
C1872: + x46 + x193 <= 1
C1873: + x44 + x133 <= 1
C1874: + x173 + x476 <= 1
C1875: + x57 + x157 <= 1
C1876: + x256 + x266 <= 1
C1877: + x100 + x351 <= 1
C1878: + x65 + x173 <= 1
C1879: + x137 + x213 <= 1
C1880: + x182 + x420 <= 1
C1881: + x1 + x210 <= 1
C1882: + x12 + x194 <= 1
C1883: + x112 + x222 <= 1
C1884: + x34 + x189 <= 1
C1885: + x53 + x73 <= 1
C1886: + x198 + x220 <= 1
C1887: + x134 + x343 <= 1
C1888: + x120 + x295 <= 1
C1889: + x103 + x347 <= 1
C1890: + x77 + x119 <= 1
C1891: + x124 + x343 <= 1
C1892: + x108 + x497 <= 1
C1893: + x355 + x369 <= 1
C1894: + x347 + x406 <= 1
C1895: + x66 + x196 <= 1
C1896: + x248 + x256 <= 1
C1897: + x17 + x351 <= 1
C1898: + x24 + x364 <= 1
C1899: + x10 + x23 <= 1
C1900: + x183 + x209 <= 1
C1901: + x210 + x447 <= 1
C1902: + x21 + x225 <= 1
C1903: + x59 + x483 <= 1
C1904: + x12 + x190 <= 1
C1905: + x179 + x286 <= 1
C1906: + x9 + x126 <= 1
C1907: + x45 + x210 <= 1
C1908: + x1 + x395 <= 1
C1909: + x37 + x132 <= 1
C1910: + x12 + x25 <= 1
C1911: + x231 + x237 <= 1
C1912: + x40 + x439 <= 1
C1913: + x216 + x281 <= 1
C1914: + x49 + x391 <= 1
C1915: + x78 + x280 <= 1
C1916: + x45 + x97 <= 1
C1917: + x3 + x13 + x40 <= 1
C1918: + x51 + x133 <= 1
C1919: + x1 + x455 <= 1
C1920: + x157 + x437 <= 1
C1921: + x3 + x36 <= 1
C1922: + x14 + x116 <= 1
C1923: + x6 + x23 <= 1
C1924: + x79 + x132 <= 1
C1925: + x280 + x462 <= 1
C1926: + x120 + x153 <= 1
C1927: + x23 + x132 <= 1
C1928: + x16 + x78 <= 1
C1929: + x321 + x379 <= 1
C1930: + x59 + x184 <= 1
C1931: + x115 + x313 <= 1
C1932: + x258 + x347 <= 1
C1933: + x44 + x170 <= 1
C1934: + x187 + x353 <= 1
C1935: + x228 + x236 <= 1
C1936: + x403 + x464 <= 1
C1937: + x11 + x51 <= 1
C1938: + x50 + x235 <= 1
C1939: + x2 + x80 <= 1
C1940: + x56 + x309 <= 1
C1941: + x242 + x369 <= 1
C1942: + x222 + x389 <= 1
C1943: + x16 + x18 <= 1
C1944: + x59 + x252 <= 1
C1945: + x189 + x401 <= 1
C1946: + x69 + x380 <= 1
C1947: + x14 + x28 <= 1
C1948: + x99 + x248 <= 1
C1949: + x121 + x270 <= 1
C1950: + x2 + x167 <= 1
C1951: + x305 + x432 <= 1
C1952: + x13 + x113 <= 1
C1953: + x23 + x349 <= 1
C1954: + x88 + x263 <= 1
C1955: + x58 + x285 <= 1
C1956: + x3 + x59 <= 1

binary
x1 x2 x3 x4 x5 x6 x7 x8 x9 x10 x11 x12 x13 x14 x15 x16 x17 x18 x19 x20 x21 x22 x23 x24 x25 x26 x27 x28 x29 x30 x31 x32 x33 x34 x35 x36 x37 x38 x39 x40 x41 x42 x43 x44 x45 x46 x47 x48 x49 x50 x51 x52 x53 x54 x55 x56 x57 x58 x59 x60 x61 x62 x63 x64 x65 x66 x67 x68 x69 x70 x71 x72 x73 x74 x75 x76 x77 x78 x79 x80 x81 x82 x83 x84 x85 x86 x87 x88 x89 x90 x91 x92 x93 x94 x95 x96 x97 x98 x99 x100 x101 x102 x103 x104 x105 x106 x107 x108 x109 x110 x111 x112 x113 x114 x115 x116 x117 x118 x119 x120 x121 x122 x123 x124 x125 x126 x127 x128 x129 x130 x131 x132 x133 x134 x135 x136 x137 x138 x139 x140 x141 x142 x143 x144 x145 x146 x147 x148 x149 x150 x151 x152 x153 x154 x155 x156 x157 x158 x159 x160 x161 x162 x163 x164 x165 x166 x167 x168 x169 x170 x171 x172 x173 x174 x175 x176 x177 x178 x179 x180 x181 x182 x183 x184 x185 x186 x187 x188 x189 x190 x191 x192 x193 x194 x195 x196 x197 x198 x199 x200 x201 x202 x203 x204 x205 x206 x207 x208 x209 x210 x211 x212 x213 x214 x215 x216 x217 x218 x219 x220 x221 x222 x223 x224 x225 x226 x227 x228 x229 x230 x231 x232 x233 x234 x235 x236 x237 x238 x239 x240 x241 x242 x243 x244 x245 x246 x247 x248 x249 x250 x251 x252 x253 x254 x255 x256 x257 x258 x259 x260 x261 x262 x263 x264 x265 x266 x267 x268 x269 x270 x271 x272 x273 x274 x275 x276 x277 x278 x279 x280 x281 x282 x283 x284 x285 x286 x287 x288 x289 x290 x291 x292 x293 x294 x295 x296 x297 x298 x299 x300 x301 x302 x303 x304 x305 x306 x307 x308 x309 x310 x311 x312 x313 x314 x315 x316 x317 x318 x319 x320 x321 x322 x323 x324 x325 x326 x327 x328 x329 x330 x331 x332 x333 x334 x335 x336 x337 x338 x339 x340 x341 x342 x343 x344 x345 x346 x347 x348 x349 x350 x351 x352 x353 x354 x355 x356 x357 x358 x359 x360 x361 x362 x363 x364 x365 x366 x367 x368 x369 x370 x371 x372 x373 x374 x375 x376 x377 x378 x379 x380 x381 x382 x383 x384 x385 x386 x387 x388 x389 x390 x391 x392 x393 x394 x395 x396 x397 x398 x399 x400 x401 x402 x403 x404 x405 x406 x407 x408 x409 x410 x411 x412 x413 x414 x415 x416 x417 x418 x419 x420 x421 x422 x423 x424 x425 x426 x427 x428 x429 x430 x431 x432 x433 x434 x435 x436 x437 x438 x439 x440 x441 x442 x443 x444 x445 x446 x447 x448 x449 x450 x451 x452 x453 x454 x455 x456 x457 x458 x459 x460 x461 x462 x463 x464 x465 x466 x467 x468 x469 x470 x471 x472 x473 x474 x475 x476 x477 x478 x479 x480 x481 x482 x483 x484 x485 x486 x487 x488 x489 x490 x491 x492 x493 x494 x495 x496 x497 x498 x499 x500
