maximize
OBJ: + 1 x1 + 1 x2 + 1 x3 + 1 x4 + 1 x5 + 1 x6 + 1 x7 + 1 x8 + 1 x9 + 1 x10 + 1 x11 + 1 x12 + 1 x13 + 1 x14 + 1 x15 + 1 x16 + 1 x17 + 1 x18 + 1 x19 + 1 x20 + 1 x21 + 1 x22 + 1 x23 + 1 x24 + 1 x25 + 1 x26 + 1 x27 + 1 x28 + 1 x29 + 1 x30 + 1 x31 + 1 x32 + 1 x33 + 1 x34 + 1 x35 + 1 x36 + 1 x37 + 1 x38 + 1 x39 + 1 x40 + 1 x41 + 1 x42 + 1 x43 + 1 x44 + 1 x45 + 1 x46 + 1 x47 + 1 x48 + 1 x49 + 1 x50 + 1 x51 + 1 x52 + 1 x53 + 1 x54 + 1 x55 + 1 x56 + 1 x57 + 1 x58 + 1 x59 + 1 x60 + 1 x61 + 1 x62 + 1 x63 + 1 x64 + 1 x65 + 1 x66 + 1 x67 + 1 x68 + 1 x69 + 1 x70 + 1 x71 + 1 x72 + 1 x73 + 1 x74 + 1 x75 + 1 x76 + 1 x77 + 1 x78 + 1 x79 + 1 x80 + 1 x81 + 1 x82 + 1 x83 + 1 x84 + 1 x85 + 1 x86 + 1 x87 + 1 x88 + 1 x89 + 1 x90 + 1 x91 + 1 x92 + 1 x93 + 1 x94 + 1 x95 + 1 x96 + 1 x97 + 1 x98 + 1 x99 + 1 x100 + 1 x101 + 1 x102 + 1 x103 + 1 x104 + 1 x105 + 1 x106 + 1 x107 + 1 x108 + 1 x109 + 1 x110 + 1 x111 + 1 x112 + 1 x113 + 1 x114 + 1 x115 + 1 x116 + 1 x117 + 1 x118 + 1 x119 + 1 x120 + 1 x121 + 1 x122 + 1 x123 + 1 x124 + 1 x125 + 1 x126 + 1 x127 + 1 x128 + 1 x129 + 1 x130 + 1 x131 + 1 x132 + 1 x133 + 1 x134 + 1 x135 + 1 x136 + 1 x137 + 1 x138 + 1 x139 + 1 x140 + 1 x141 + 1 x142 + 1 x143 + 1 x144 + 1 x145 + 1 x146 + 1 x147 + 1 x148 + 1 x149 + 1 x150 + 1 x151 + 1 x152 + 1 x153 + 1 x154 + 1 x155 + 1 x156 + 1 x157 + 1 x158 + 1 x159 + 1 x160 + 1 x161 + 1 x162 + 1 x163 + 1 x164 + 1 x165 + 1 x166 + 1 x167 + 1 x168 + 1 x169 + 1 x170 + 1 x171 + 1 x172 + 1 x173 + 1 x174 + 1 x175 + 1 x176 + 1 x177 + 1 x178 + 1 x179 + 1 x180 + 1 x181 + 1 x182 + 1 x183 + 1 x184 + 1 x185 + 1 x186 + 1 x187 + 1 x188 + 1 x189 + 1 x190 + 1 x191 + 1 x192 + 1 x193 + 1 x194 + 1 x195 + 1 x196 + 1 x197 + 1 x198 + 1 x199 + 1 x200 + 1 x201 + 1 x202 + 1 x203 + 1 x204 + 1 x205 + 1 x206 + 1 x207 + 1 x208 + 1 x209 + 1 x210 + 1 x211 + 1 x212 + 1 x213 + 1 x214 + 1 x215 + 1 x216 + 1 x217 + 1 x218 + 1 x219 + 1 x220 + 1 x221 + 1 x222 + 1 x223 + 1 x224 + 1 x225 + 1 x226 + 1 x227 + 1 x228 + 1 x229 + 1 x230 + 1 x231 + 1 x232 + 1 x233 + 1 x234 + 1 x235 + 1 x236 + 1 x237 + 1 x238 + 1 x239 + 1 x240 + 1 x241 + 1 x242 + 1 x243 + 1 x244 + 1 x245 + 1 x246 + 1 x247 + 1 x248 + 1 x249 + 1 x250 + 1 x251 + 1 x252 + 1 x253 + 1 x254 + 1 x255 + 1 x256 + 1 x257 + 1 x258 + 1 x259 + 1 x260 + 1 x261 + 1 x262 + 1 x263 + 1 x264 + 1 x265 + 1 x266 + 1 x267 + 1 x268 + 1 x269 + 1 x270 + 1 x271 + 1 x272 + 1 x273 + 1 x274 + 1 x275 + 1 x276 + 1 x277 + 1 x278 + 1 x279 + 1 x280 + 1 x281 + 1 x282 + 1 x283 + 1 x284 + 1 x285 + 1 x286 + 1 x287 + 1 x288 + 1 x289 + 1 x290 + 1 x291 + 1 x292 + 1 x293 + 1 x294 + 1 x295 + 1 x296 + 1 x297 + 1 x298 + 1 x299 + 1 x300 + 1 x301 + 1 x302 + 1 x303 + 1 x304 + 1 x305 + 1 x306 + 1 x307 + 1 x308 + 1 x309 + 1 x310 + 1 x311 + 1 x312 + 1 x313 + 1 x314 + 1 x315 + 1 x316 + 1 x317 + 1 x318 + 1 x319 + 1 x320 + 1 x321 + 1 x322 + 1 x323 + 1 x324 + 1 x325 + 1 x326 + 1 x327 + 1 x328 + 1 x329 + 1 x330 + 1 x331 + 1 x332 + 1 x333 + 1 x334 + 1 x335 + 1 x336 + 1 x337 + 1 x338 + 1 x339 + 1 x340 + 1 x341 + 1 x342 + 1 x343 + 1 x344 + 1 x345 + 1 x346 + 1 x347 + 1 x348 + 1 x349 + 1 x350 + 1 x351 + 1 x352 + 1 x353 + 1 x354 + 1 x355 + 1 x356 + 1 x357 + 1 x358 + 1 x359 + 1 x360 + 1 x361 + 1 x362 + 1 x363 + 1 x364 + 1 x365 + 1 x366 + 1 x367 + 1 x368 + 1 x369 + 1 x370 + 1 x371 + 1 x372 + 1 x373 + 1 x374 + 1 x375 + 1 x376 + 1 x377 + 1 x378 + 1 x379 + 1 x380 + 1 x381 + 1 x382 + 1 x383 + 1 x384 + 1 x385 + 1 x386 + 1 x387 + 1 x388 + 1 x389 + 1 x390 + 1 x391 + 1 x392 + 1 x393 + 1 x394 + 1 x395 + 1 x396 + 1 x397 + 1 x398 + 1 x399 + 1 x400 + 1 x401 + 1 x402 + 1 x403 + 1 x404 + 1 x405 + 1 x406 + 1 x407 + 1 x408 + 1 x409 + 1 x410 + 1 x411 + 1 x412 + 1 x413 + 1 x414 + 1 x415 + 1 x416 + 1 x417 + 1 x418 + 1 x419 + 1 x420 + 1 x421 + 1 x422 + 1 x423 + 1 x424 + 1 x425 + 1 x426 + 1 x427 + 1 x428 + 1 x429 + 1 x430 + 1 x431 + 1 x432 + 1 x433 + 1 x434 + 1 x435 + 1 x436 + 1 x437 + 1 x438 + 1 x439 + 1 x440 + 1 x441 + 1 x442 + 1 x443 + 1 x444 + 1 x445 + 1 x446 + 1 x447 + 1 x448 + 1 x449 + 1 x450 + 1 x451 + 1 x452 + 1 x453 + 1 x454 + 1 x455 + 1 x456 + 1 x457 + 1 x458 + 1 x459 + 1 x460 + 1 x461 + 1 x462 + 1 x463 + 1 x464 + 1 x465 + 1 x466 + 1 x467 + 1 x468 + 1 x469 + 1 x470 + 1 x471 + 1 x472 + 1 x473 + 1 x474 + 1 x475 + 1 x476 + 1 x477 + 1 x478 + 1 x479 + 1 x480 + 1 x481 + 1 x482 + 1 x483 + 1 x484 + 1 x485 + 1 x486 + 1 x487 + 1 x488 + 1 x489 + 1 x490 + 1 x491 + 1 x492 + 1 x493 + 1 x494 + 1 x495 + 1 x496 + 1 x497 + 1 x498 + 1 x499 + 1 x500

subject to
C1: + x16 + x377 <= 1
C2: + x9 + x270 <= 1
C3: + x5 + x37 <= 1
C4: + x27 + x202 <= 1
C5: + x149 + x392 <= 1
C6: + x150 + x358 <= 1
C7: + x7 + x55 <= 1
C8: + x134 + x252 <= 1
C9: + x11 + x62 <= 1
C10: + x58 + x164 <= 1
C11: + x341 + x399 <= 1
C12: + x168 + x227 <= 1
C13: + x61 + x372 <= 1
C14: + x44 + x462 <= 1
C15: + x129 + x417 <= 1
C16: + x38 + x171 <= 1
C17: + x276 + x436 <= 1
C18: + x43 + x168 <= 1
C19: + x120 + x329 <= 1
C20: + x252 + x360 <= 1
C21: + x17 + x476 <= 1
C22: + x11 + x469 <= 1
C23: + x193 + x416 <= 1
C24: + x356 + x423 <= 1
C25: + x129 + x235 <= 1
C26: + x88 + x441 <= 1
C27: + x1 + x56 <= 1
C28: + x112 + x124 <= 1
C29: + x132 + x387 <= 1
C30: + x149 + x443 <= 1
C31: + x123 + x249 <= 1
C32: + x81 + x299 <= 1
C33: + x143 + x358 <= 1
C34: + x4 + x373 <= 1
C35: + x117 + x396 <= 1
C36: + x45 + x409 <= 1
C37: + x10 + x395 <= 1
C38: + x1 + x167 <= 1
C39: + x2 + x41 <= 1
C40: + x228 + x352 <= 1
C41: + x87 + x94 <= 1
C42: + x15 + x292 <= 1
C43: + x9 + x39 <= 1
C44: + x201 + x316 <= 1
C45: + x123 + x205 <= 1
C46: + x86 + x398 <= 1
C47: + x12 + x487 <= 1
C48: + x7 + x42 <= 1
C49: + x63 + x219 <= 1
C50: + x3 + x74 <= 1
C51: + x80 + x86 <= 1
C52: + x82 + x140 <= 1
C53: + x11 + x154 <= 1
C54: + x12 + x161 <= 1
C55: + x443 + x486 <= 1
C56: + x49 + x428 <= 1
C57: + x23 + x89 <= 1
C58: + x108 + x191 <= 1
C59: + x6 + x241 <= 1
C60: + x13 + x103 <= 1
C61: + x25 + x133 <= 1
C62: + x17 + x98 <= 1
C63: + x46 + x72 <= 1
C64: + x42 + x128 <= 1
C65: + x25 + x34 <= 1
C66: + x405 + x454 <= 1
C67: + x34 + x278 <= 1
C68: + x27 + x220 <= 1
C69: + x1 + x91 <= 1
C70: + x247 + x462 <= 1
C71: + x111 + x294 <= 1
C72: + x231 + x268 <= 1
C73: + x4 + x56 <= 1
C74: + x15 + x456 <= 1
C75: + x18 + x418 <= 1
C76: + x7 + x33 <= 1
C77: + x57 + x314 <= 1
C78: + x11 + x48 <= 1
C79: + x112 + x359 <= 1
C80: + x6 + x54 <= 1
C81: + x7 + x279 <= 1
C82: + x10 + x51 <= 1
C83: + x262 + x385 <= 1
C84: + x134 + x476 <= 1
C85: + x26 + x482 <= 1
C86: + x3 + x230 <= 1
C87: + x5 + x95 <= 1
C88: + x65 + x87 <= 1
C89: + x148 + x490 <= 1
C90: + x7 + x93 <= 1
C91: + x71 + x157 <= 1
C92: + x11 + x20 <= 1
C93: + x358 + x441 <= 1
C94: + x5 + x238 <= 1
C95: + x15 + x173 <= 1
C96: + x296 + x325 <= 1
C97: + x1 + x6 <= 1
C98: + x37 + x311 <= 1
C99: + x74 + x447 <= 1
C100: + x48 + x74 <= 1
C101: + x60 + x128 <= 1
C102: + x61 + x104 <= 1
C103: + x65 + x99 <= 1
C104: + x13 + x272 <= 1
C105: + x10 + x437 <= 1
C106: + x1 + x181 <= 1
C107: + x74 + x272 <= 1
C108: + x144 + x378 <= 1
C109: + x11 + x72 <= 1
C110: + x12 + x227 <= 1
C111: + x6 + x174 <= 1
C112: + x1 + x82 <= 1
C113: + x156 + x392 <= 1
C114: + x2 + x326 <= 1
C115: + x209 + x213 <= 1
C116: + x80 + x133 <= 1
C117: + x10 + x262 <= 1
C118: + x49 + x217 <= 1
C119: + x264 + x393 <= 1
C120: + x258 + x450 <= 1
C121: + x124 + x471 <= 1
C122: + x70 + x292 <= 1
C123: + x80 + x407 <= 1
C124: + x1 + x7 + x11 + x12 <= 1
C125: + x49 + x459 <= 1
C126: + x4 + x78 <= 1
C127: + x5 + x70 <= 1
C128: + x32 + x276 <= 1
C129: + x53 + x128 <= 1
C130: + x48 + x285 <= 1
C131: + x181 + x458 <= 1
C132: + x228 + x244 <= 1
C133: + x1 + x267 <= 1
C134: + x11 + x27 <= 1
C135: + x58 + x131 <= 1
C136: + x14 + x64 <= 1
C137: + x7 + x326 <= 1
C138: + x16 + x58 <= 1
C139: + x18 + x104 <= 1
C140: + x122 + x436 <= 1
C141: + x411 + x471 <= 1
C142: + x18 + x259 <= 1
C143: + x16 + x349 <= 1
C144: + x235 + x243 <= 1
C145: + x6 + x151 <= 1
C146: + x151 + x413 <= 1
C147: + x307 + x393 <= 1
C148: + x120 + x281 <= 1
C149: + x12 + x71 <= 1
C150: + x124 + x257 <= 1
C151: + x13 + x406 <= 1
C152: + x25 + x95 <= 1
C153: + x390 + x427 <= 1
C154: + x130 + x301 <= 1
C155: + x159 + x234 <= 1
C156: + x35 + x287 <= 1
C157: + x237 + x276 <= 1
C158: + x74 + x381 <= 1
C159: + x25 + x281 <= 1
C160: + x34 + x167 <= 1
C161: + x162 + x362 <= 1
C162: + x18 + x45 <= 1
C163: + x235 + x405 <= 1
C164: + x55 + x172 <= 1
C165: + x133 + x461 <= 1
C166: + x81 + x475 <= 1
C167: + x11 + x280 <= 1
C168: + x15 + x30 <= 1
C169: + x80 + x210 <= 1
C170: + x57 + x223 <= 1
C171: + x211 + x430 <= 1
C172: + x356 + x451 <= 1
C173: + x93 + x192 <= 1
C174: + x76 + x210 <= 1
C175: + x70 + x337 <= 1
C176: + x165 + x395 <= 1
C177: + x22 + x118 <= 1
C178: + x153 + x253 <= 1
C179: + x63 + x298 <= 1
C180: + x148 + x357 <= 1
C181: + x136 + x398 <= 1
C182: + x12 + x132 <= 1
C183: + x5 + x462 <= 1
C184: + x298 + x350 <= 1
C185: + x70 + x79 <= 1
C186: + x63 + x139 <= 1
C187: + x102 + x283 <= 1
C188: + x15 + x397 <= 1
C189: + x54 + x256 <= 1
C190: + x161 + x415 <= 1
C191: + x126 + x389 <= 1
C192: + x25 + x55 <= 1
C193: + x207 + x362 <= 1
C194: + x37 + x396 <= 1
C195: + x20 + x342 <= 1
C196: + x158 + x231 <= 1
C197: + x170 + x193 <= 1
C198: + x6 + x160 <= 1
C199: + x6 + x363 <= 1
C200: + x288 + x478 <= 1
C201: + x14 + x283 <= 1
C202: + x334 + x486 <= 1
C203: + x16 + x459 <= 1
C204: + x129 + x178 <= 1
C205: + x39 + x483 <= 1
C206: + x6 + x33 <= 1
C207: + x11 + x190 <= 1
C208: + x18 + x38 <= 1
C209: + x37 + x221 <= 1
C210: + x48 + x248 <= 1
C211: + x7 + x66 <= 1
C212: + x91 + x94 <= 1
C213: + x74 + x164 <= 1
C214: + x11 + x13 <= 1
C215: + x49 + x344 <= 1
C216: + x361 + x458 <= 1
C217: + x4 + x201 <= 1
C218: + x35 + x494 <= 1
C219: + x1 + x235 <= 1
C220: + x121 + x312 <= 1
C221: + x168 + x414 <= 1
C222: + x322 + x419 <= 1
C223: + x58 + x331 <= 1
C224: + x123 + x310 <= 1
C225: + x25 + x62 <= 1
C226: + x315 + x348 <= 1
C227: + x74 + x240 <= 1
C228: + x146 + x267 <= 1
C229: + x74 + x291 <= 1
C230: + x11 + x113 <= 1
C231: + x85 + x224 <= 1
C232: + x301 + x347 <= 1
C233: + x5 + x15 <= 1
C234: + x354 + x421 <= 1
C235: + x121 + x423 <= 1
C236: + x107 + x205 <= 1
C237: + x161 + x243 <= 1
C238: + x113 + x161 <= 1
C239: + x59 + x300 <= 1
C240: + x31 + x145 <= 1
C241: + x18 + x398 <= 1
C242: + x7 + x13 <= 1
C243: + x8 + x407 <= 1
C244: + x173 + x472 <= 1
C245: + x29 + x58 <= 1
C246: + x5 + x6 + x9 + x10 <= 1
C247: + x18 + x297 <= 1
C248: + x64 + x488 <= 1
C249: + x20 + x295 <= 1
C250: + x5 + x51 <= 1
C251: + x170 + x246 <= 1
C252: + x90 + x276 <= 1
C253: + x64 + x91 <= 1
C254: + x49 + x93 <= 1
C255: + x12 + x33 <= 1
C256: + x33 + x172 <= 1
C257: + x160 + x377 <= 1
C258: + x37 + x57 <= 1
C259: + x139 + x193 <= 1
C260: + x49 + x335 <= 1
C261: + x78 + x224 <= 1
C262: + x80 + x434 <= 1
C263: + x11 + x233 <= 1
C264: + x136 + x388 <= 1
C265: + x16 + x21 <= 1
C266: + x18 + x75 <= 1
C267: + x57 + x92 <= 1
C268: + x40 + x435 <= 1
C269: + x5 + x337 <= 1
C270: + x1 + x145 <= 1
C271: + x111 + x112 <= 1
C272: + x11 + x124 <= 1
C273: + x209 + x463 <= 1
C274: + x18 + x220 <= 1
C275: + x8 + x105 <= 1
C276: + x16 + x134 <= 1
C277: + x93 + x103 <= 1
C278: + x55 + x353 <= 1
C279: + x178 + x179 <= 1
C280: + x7 + x8 <= 1
C281: + x54 + x150 <= 1
C282: + x72 + x208 <= 1
C283: + x19 + x269 <= 1
C284: + x3 + x64 <= 1
C285: + x1 + x475 <= 1
C286: + x78 + x229 <= 1
C287: + x150 + x248 <= 1
C288: + x6 + x19 <= 1
C289: + x142 + x187 <= 1
C290: + x19 + x123 <= 1
C291: + x6 + x182 <= 1
C292: + x26 + x213 <= 1
C293: + x8 + x29 <= 1
C294: + x422 + x465 <= 1
C295: + x75 + x84 <= 1
C296: + x112 + x171 <= 1
C297: + x78 + x444 <= 1
C298: + x14 + x135 <= 1
C299: + x252 + x392 <= 1
C300: + x287 + x428 <= 1
C301: + x174 + x286 <= 1
C302: + x75 + x437 <= 1
C303: + x48 + x261 <= 1
C304: + x23 + x482 <= 1
C305: + x19 + x66 <= 1
C306: + x10 + x109 <= 1
C307: + x12 + x264 <= 1
C308: + x25 + x425 <= 1
C309: + x273 + x357 <= 1
C310: + x2 + x187 <= 1
C311: + x55 + x380 <= 1
C312: + x233 + x460 <= 1
C313: + x125 + x151 <= 1
C314: + x17 + x120 <= 1
C315: + x27 + x163 <= 1
C316: + x80 + x354 <= 1
C317: + x129 + x135 <= 1
C318: + x6 + x28 <= 1
C319: + x401 + x431 <= 1
C320: + x54 + x493 <= 1
C321: + x4 + x175 <= 1
C322: + x359 + x364 <= 1
C323: + x37 + x47 <= 1
C324: + x158 + x183 <= 1
C325: + x4 + x320 <= 1
C326: + x362 + x433 <= 1
C327: + x17 + x321 <= 1
C328: + x6 + x208 <= 1
C329: + x9 + x179 <= 1
C330: + x19 + x42 <= 1
C331: + x260 + x274 <= 1
C332: + x161 + x169 <= 1
C333: + x34 + x159 <= 1
C334: + x162 + x322 <= 1
C335: + x93 + x454 <= 1
C336: + x315 + x373 <= 1
C337: + x6 + x81 <= 1
C338: + x401 + x490 <= 1
C339: + x8 + x365 <= 1
C340: + x138 + x278 <= 1
C341: + x11 + x110 <= 1
C342: + x211 + x454 <= 1
C343: + x4 + x236 <= 1
C344: + x140 + x284 <= 1
C345: + x441 + x451 <= 1
C346: + x4 + x7 <= 1
C347: + x125 + x174 <= 1
C348: + x14 + x319 <= 1
C349: + x187 + x242 <= 1
C350: + x115 + x371 <= 1
C351: + x117 + x408 <= 1
C352: + x83 + x301 <= 1
C353: + x379 + x390 <= 1
C354: + x5 + x282 <= 1
C355: + x14 + x499 <= 1
C356: + x18 + x429 <= 1
C357: + x145 + x338 <= 1
C358: + x454 + x490 <= 1
C359: + x55 + x314 <= 1
C360: + x135 + x485 <= 1
C361: + x30 + x211 <= 1
C362: + x285 + x402 <= 1
C363: + x80 + x292 <= 1
C364: + x10 + x361 <= 1
C365: + x46 + x144 <= 1
C366: + x101 + x432 <= 1
C367: + x39 + x129 <= 1
C368: + x177 + x408 <= 1
C369: + x116 + x473 <= 1
C370: + x9 + x500 <= 1
C371: + x1 + x305 <= 1
C372: + x55 + x104 <= 1
C373: + x2 + x106 <= 1
C374: + x58 + x117 <= 1
C375: + x11 + x476 <= 1
C376: + x11 + x21 <= 1
C377: + x157 + x220 <= 1
C378: + x154 + x228 <= 1
C379: + x245 + x274 <= 1
C380: + x444 + x445 <= 1
C381: + x37 + x268 <= 1
C382: + x31 + x322 <= 1
C383: + x17 + x102 <= 1
C384: + x117 + x122 <= 1
C385: + x245 + x439 <= 1
C386: + x25 + x38 <= 1
C387: + x72 + x421 <= 1
C388: + x48 + x62 <= 1
C389: + x27 + x40 <= 1
C390: + x219 + x337 <= 1
C391: + x28 + x224 <= 1
C392: + x49 + x121 <= 1
C393: + x31 + x270 <= 1
C394: + x52 + x214 <= 1
C395: + x9 + x399 <= 1
C396: + x11 + x415 <= 1
C397: + x430 + x473 <= 1
C398: + x422 + x460 <= 1
C399: + x6 + x50 <= 1
C400: + x81 + x255 <= 1
C401: + x16 + x214 <= 1
C402: + x7 + x267 <= 1
C403: + x75 + x77 <= 1
C404: + x27 + x414 <= 1
C405: + x11 + x141 <= 1
C406: + x85 + x140 <= 1
C407: + x12 + x222 <= 1
C408: + x253 + x277 <= 1
C409: + x66 + x93 <= 1
C410: + x33 + x132 <= 1
C411: + x98 + x460 <= 1
C412: + x129 + x253 <= 1
C413: + x11 + x32 <= 1
C414: + x275 + x449 <= 1
C415: + x80 + x99 <= 1
C416: + x337 + x384 <= 1
C417: + x28 + x153 <= 1
C418: + x48 + x86 <= 1
C419: + x13 + x423 <= 1
C420: + x72 + x180 <= 1
C421: + x57 + x68 <= 1
C422: + x66 + x105 <= 1
C423: + x139 + x367 <= 1
C424: + x25 + x45 <= 1
C425: + x82 + x206 <= 1
C426: + x184 + x211 <= 1
C427: + x4 + x134 <= 1
C428: + x60 + x318 <= 1
C429: + x15 + x306 <= 1
C430: + x1 + x86 <= 1
C431: + x3 + x330 <= 1
C432: + x386 + x494 <= 1
C433: + x34 + x49 <= 1
C434: + x72 + x232 <= 1
C435: + x130 + x304 <= 1
C436: + x33 + x44 <= 1
C437: + x32 + x46 <= 1
C438: + x15 + x112 <= 1
C439: + x7 + x270 <= 1
C440: + x102 + x247 <= 1
C441: + x45 + x169 <= 1
C442: + x152 + x474 <= 1
C443: + x18 + x48 <= 1
C444: + x48 + x238 <= 1
C445: + x178 + x266 <= 1
C446: + x54 + x66 <= 1
C447: + x144 + x196 <= 1
C448: + x177 + x355 <= 1
C449: + x31 + x94 <= 1
C450: + x9 + x148 <= 1
C451: + x1 + x17 <= 1
C452: + x12 + x143 <= 1
C453: + x206 + x351 <= 1
C454: + x15 + x394 <= 1
C455: + x19 + x364 <= 1
C456: + x20 + x63 <= 1
C457: + x110 + x334 <= 1
C458: + x49 + x394 <= 1
C459: + x13 + x232 <= 1
C460: + x61 + x445 <= 1
C461: + x15 + x200 <= 1
C462: + x261 + x338 <= 1
C463: + x22 + x160 <= 1
C464: + x32 + x376 <= 1
C465: + x173 + x478 <= 1
C466: + x89 + x192 <= 1
C467: + x54 + x405 <= 1
C468: + x26 + x198 <= 1
C469: + x8 + x46 <= 1
C470: + x4 + x425 <= 1
C471: + x71 + x131 <= 1
C472: + x18 + x452 <= 1
C473: + x49 + x341 <= 1
C474: + x50 + x91 <= 1
C475: + x177 + x282 <= 1
C476: + x82 + x175 <= 1
C477: + x144 + x475 <= 1
C478: + x48 + x92 <= 1
C479: + x31 + x226 <= 1
C480: + x32 + x254 <= 1
C481: + x41 + x111 <= 1
C482: + x5 + x125 <= 1
C483: + x36 + x247 <= 1
C484: + x329 + x333 <= 1
C485: + x82 + x413 <= 1
C486: + x43 + x109 <= 1
C487: + x217 + x251 <= 1
C488: + x7 + x127 <= 1
C489: + x1 + x338 <= 1
C490: + x32 + x131 <= 1
C491: + x88 + x98 <= 1
C492: + x14 + x233 <= 1
C493: + x6 + x343 <= 1
C494: + x1 + x36 <= 1
C495: + x272 + x294 <= 1
C496: + x148 + x309 <= 1
C497: + x48 + x176 <= 1
C498: + x4 + x47 <= 1
C499: + x19 + x81 + x156 <= 1
C500: + x25 + x170 <= 1
C501: + x24 + x52 <= 1
C502: + x7 + x10 <= 1
C503: + x103 + x457 <= 1
C504: + x357 + x404 <= 1
C505: + x34 + x430 <= 1
C506: + x72 + x121 <= 1
C507: + x74 + x215 <= 1
C508: + x146 + x255 <= 1
C509: + x39 + x68 <= 1
C510: + x31 + x61 <= 1
C511: + x61 + x400 <= 1
C512: + x91 + x389 <= 1
C513: + x291 + x410 <= 1
C514: + x144 + x435 <= 1
C515: + x25 + x118 <= 1
C516: + x2 + x118 <= 1
C517: + x356 + x464 <= 1
C518: + x45 + x481 <= 1
C519: + x80 + x437 <= 1
C520: + x129 + x468 <= 1
C521: + x25 + x304 <= 1
C522: + x61 + x452 <= 1
C523: + x72 + x159 <= 1
C524: + x65 + x76 <= 1
C525: + x39 + x302 <= 1
C526: + x4 + x350 <= 1
C527: + x413 + x449 <= 1
C528: + x10 + x468 <= 1
C529: + x358 + x388 <= 1
C530: + x61 + x435 <= 1
C531: + x90 + x145 <= 1
C532: + x10 + x194 <= 1
C533: + x49 + x101 <= 1
C534: + x31 + x362 <= 1
C535: + x81 + x318 <= 1
C536: + x80 + x160 <= 1
C537: + x73 + x107 <= 1
C538: + x54 + x137 <= 1
C539: + x353 + x422 <= 1
C540: + x151 + x233 <= 1
C541: + x97 + x222 <= 1
C542: + x1 + x119 <= 1
C543: + x11 + x52 <= 1
C544: + x25 + x410 <= 1
C545: + x7 + x218 <= 1
C546: + x271 + x450 <= 1
C547: + x163 + x215 <= 1
C548: + x69 + x470 <= 1
C549: + x40 + x189 <= 1
C550: + x18 + x79 <= 1
C551: + x54 + x206 <= 1
C552: + x102 + x265 <= 1
C553: + x222 + x295 <= 1
C554: + x6 + x107 <= 1
C555: + x1 + x304 <= 1
C556: + x60 + x346 <= 1
C557: + x6 + x142 <= 1
C558: + x1 + x50 <= 1
C559: + x78 + x499 <= 1
C560: + x13 + x114 <= 1
C561: + x178 + x378 <= 1
C562: + x1 + x479 <= 1
C563: + x156 + x259 <= 1
C564: + x38 + x120 <= 1
C565: + x114 + x466 <= 1
C566: + x89 + x149 <= 1
C567: + x338 + x425 <= 1
C568: + x49 + x491 <= 1
C569: + x17 + x132 <= 1
C570: + x45 + x141 <= 1
C571: + x27 + x215 <= 1
C572: + x319 + x393 <= 1
C573: + x1 + x78 <= 1
C574: + x50 + x352 <= 1
C575: + x39 + x356 <= 1
C576: + x160 + x366 <= 1
C577: + x1 + x491 <= 1
C578: + x328 + x331 <= 1
C579: + x11 + x59 <= 1
C580: + x112 + x340 <= 1
C581: + x6 + x195 <= 1
C582: + x108 + x141 <= 1
C583: + x7 + x294 <= 1
C584: + x109 + x228 <= 1
C585: + x19 + x43 <= 1
C586: + x166 + x298 <= 1
C587: + x233 + x260 <= 1
C588: + x34 + x154 <= 1
C589: + x243 + x461 <= 1
C590: + x16 + x26 <= 1
C591: + x7 + x455 <= 1
C592: + x165 + x307 <= 1
C593: + x241 + x452 <= 1
C594: + x65 + x90 <= 1
C595: + x250 + x409 <= 1
C596: + x48 + x214 <= 1
C597: + x33 + x115 <= 1
C598: + x81 + x157 <= 1
C599: + x337 + x482 <= 1
C600: + x74 + x158 <= 1
C601: + x301 + x325 <= 1
C602: + x66 + x340 <= 1
C603: + x47 + x496 <= 1
C604: + x58 + x111 <= 1
C605: + x14 + x20 <= 1
C606: + x188 + x390 <= 1
C607: + x91 + x334 <= 1
C608: + x1 + x9 <= 1
C609: + x51 + x363 <= 1
C610: + x60 + x97 <= 1
C611: + x14 + x258 <= 1
C612: + x57 + x179 <= 1
C613: + x38 + x113 <= 1
C614: + x404 + x456 <= 1
C615: + x9 + x310 <= 1
C616: + x4 + x147 <= 1
C617: + x6 + x374 <= 1
C618: + x35 + x77 <= 1
C619: + x135 + x343 <= 1
C620: + x121 + x226 <= 1
C621: + x11 + x312 <= 1
C622: + x201 + x317 <= 1
C623: + x41 + x188 <= 1
C624: + x7 + x47 <= 1
C625: + x318 + x391 <= 1
C626: + x251 + x277 <= 1
C627: + x13 + x335 <= 1
C628: + x6 + x204 <= 1
C629: + x15 + x159 <= 1
C630: + x8 + x167 <= 1
C631: + x447 + x472 <= 1
C632: + x12 + x164 <= 1
C633: + x32 + x210 <= 1
C634: + x61 + x489 <= 1
C635: + x126 + x194 <= 1
C636: + x236 + x315 <= 1
C637: + x15 + x365 <= 1
C638: + x6 + x314 <= 1
C639: + x65 + x81 <= 1
C640: + x12 + x15 <= 1
C641: + x86 + x465 <= 1
C642: + x148 + x246 <= 1
C643: + x15 + x288 <= 1
C644: + x18 + x202 <= 1
C645: + x1 + x16 <= 1
C646: + x57 + x477 <= 1
C647: + x7 + x329 <= 1
C648: + x137 + x440 <= 1
C649: + x4 + x11 <= 1
C650: + x11 + x203 <= 1
C651: + x25 + x134 <= 1
C652: + x116 + x325 <= 1
C653: + x122 + x147 <= 1
C654: + x30 + x234 <= 1
C655: + x486 + x488 <= 1
C656: + x160 + x304 <= 1
C657: + x57 + x186 <= 1
C658: + x5 + x375 <= 1
C659: + x352 + x387 <= 1
C660: + x401 + x410 <= 1
C661: + x8 + x236 <= 1
C662: + x2 + x33 <= 1
C663: + x167 + x177 <= 1
C664: + x32 + x171 <= 1
C665: + x189 + x345 <= 1
C666: + x2 + x32 + x216 <= 1
C667: + x80 + x284 <= 1
C668: + x8 + x15 <= 1
C669: + x1 + x92 <= 1
C670: + x113 + x134 <= 1
C671: + x21 + x23 <= 1
C672: + x332 + x486 <= 1
C673: + x25 + x82 <= 1
C674: + x17 + x31 <= 1
C675: + x416 + x431 <= 1
C676: + x116 + x401 <= 1
C677: + x7 + x34 <= 1
C678: + x292 + x300 <= 1
C679: + x265 + x427 <= 1
C680: + x4 + x297 <= 1
C681: + x5 + x187 <= 1
C682: + x52 + x368 <= 1
C683: + x216 + x335 <= 1
C684: + x164 + x244 <= 1
C685: + x74 + x370 <= 1
C686: + x9 + x27 <= 1
C687: + x41 + x292 <= 1
C688: + x39 + x330 <= 1
C689: + x25 + x30 <= 1
C690: + x50 + x201 <= 1
C691: + x62 + x169 <= 1
C692: + x217 + x222 <= 1
C693: + x1 + x309 <= 1
C694: + x148 + x251 <= 1
C695: + x438 + x477 <= 1
C696: + x18 + x195 <= 1
C697: + x27 + x32 <= 1
C698: + x8 + x84 <= 1
C699: + x12 + x149 <= 1
C700: + x17 + x90 <= 1
C701: + x19 + x374 <= 1
C702: + x248 + x345 <= 1
C703: + x20 + x53 <= 1
C704: + x3 + x5 <= 1
C705: + x38 + x99 <= 1
C706: + x3 + x476 <= 1
C707: + x1 + x321 <= 1
C708: + x29 + x364 <= 1
C709: + x176 + x245 <= 1
C710: + x62 + x395 <= 1
C711: + x60 + x75 <= 1
C712: + x25 + x89 <= 1
C713: + x7 + x25 <= 1
C714: + x82 + x90 <= 1
C715: + x11 + x411 <= 1
C716: + x120 + x418 <= 1
C717: + x173 + x492 <= 1
C718: + x178 + x444 <= 1
C719: + x219 + x464 <= 1
C720: + x55 + x309 <= 1
C721: + x72 + x469 <= 1
C722: + x149 + x269 <= 1
C723: + x96 + x467 <= 1
C724: + x18 + x43 <= 1
C725: + x128 + x212 <= 1
C726: + x62 + x351 <= 1
C727: + x39 + x192 <= 1
C728: + x77 + x442 <= 1
C729: + x12 + x61 <= 1
C730: + x48 + x288 <= 1
C731: + x7 + x85 <= 1
C732: + x11 + x28 <= 1
C733: + x3 + x109 <= 1
C734: + x106 + x160 <= 1
C735: + x6 + x226 <= 1
C736: + x1 + x30 <= 1
C737: + x13 + x22 <= 1
C738: + x81 + x273 <= 1
C739: + x2 + x301 <= 1
C740: + x39 + x317 <= 1
C741: + x314 + x345 <= 1
C742: + x119 + x390 <= 1
C743: + x58 + x78 <= 1
C744: + x69 + x269 <= 1
C745: + x5 + x26 <= 1
C746: + x6 + x150 <= 1
C747: + x52 + x461 <= 1
C748: + x7 + x20 <= 1
C749: + x255 + x397 <= 1
C750: + x82 + x83 <= 1
C751: + x58 + x268 <= 1
C752: + x119 + x309 <= 1
C753: + x7 + x189 <= 1
C754: + x9 + x172 <= 1
C755: + x10 + x36 <= 1
C756: + x291 + x319 <= 1
C757: + x272 + x321 <= 1
C758: + x1 + x102 <= 1
C759: + x210 + x311 <= 1
C760: + x76 + x303 <= 1
C761: + x11 + x277 <= 1
C762: + x41 + x274 <= 1
C763: + x12 + x54 <= 1
C764: + x25 + x108 <= 1
C765: + x15 + x483 <= 1
C766: + x59 + x121 <= 1
C767: + x13 + x176 <= 1
C768: + x360 + x438 <= 1
C769: + x9 + x323 <= 1
C770: + x1 + x21 <= 1
C771: + x10 + x240 <= 1
C772: + x11 + x232 <= 1
C773: + x48 + x95 <= 1
C774: + x86 + x349 <= 1
C775: + x14 + x294 <= 1
C776: + x32 + x336 <= 1
C777: + x3 + x23 <= 1
C778: + x42 + x82 <= 1
C779: + x345 + x429 <= 1
C780: + x100 + x401 <= 1
C781: + x83 + x201 <= 1
C782: + x367 + x457 <= 1
C783: + x105 + x315 <= 1
C784: + x32 + x130 <= 1
C785: + x108 + x296 <= 1
C786: + x18 + x233 <= 1
C787: + x148 + x308 <= 1
C788: + x41 + x152 <= 1
C789: + x25 + x167 <= 1
C790: + x216 + x247 <= 1
C791: + x398 + x496 <= 1
C792: + x6 + x397 <= 1
C793: + x33 + x39 <= 1
C794: + x173 + x383 <= 1
C795: + x8 + x139 <= 1
C796: + x75 + x123 <= 1
C797: + x2 + x200 <= 1
C798: + x32 + x182 <= 1
C799: + x25 + x214 <= 1
C800: + x98 + x383 <= 1
C801: + x9 + x16 <= 1
C802: + x1 + x125 <= 1
C803: + x391 + x436 <= 1
C804: + x12 + x43 <= 1
C805: + x213 + x237 <= 1
C806: + x68 + x323 <= 1
C807: + x25 + x115 <= 1
C808: + x5 + x295 <= 1
C809: + x7 + x71 <= 1
C810: + x6 + x433 <= 1
C811: + x32 + x424 <= 1
C812: + x11 + x14 <= 1
C813: + x4 + x204 <= 1
C814: + x7 + x228 <= 1
C815: + x265 + x361 <= 1
C816: + x112 + x168 <= 1
C817: + x9 + x124 <= 1
C818: + x127 + x186 <= 1
C819: + x72 + x158 <= 1
C820: + x139 + x285 <= 1
C821: + x54 + x200 <= 1
C822: + x328 + x489 <= 1
C823: + x124 + x417 <= 1
C824: + x3 + x18 <= 1
C825: + x185 + x448 <= 1
C826: + x27 + x303 <= 1
C827: + x146 + x199 <= 1
C828: + x172 + x434 <= 1
C829: + x2 + x13 <= 1
C830: + x228 + x356 <= 1
C831: + x264 + x354 <= 1
C832: + x97 + x143 <= 1
C833: + x307 + x444 <= 1
C834: + x10 + x221 <= 1
C835: + x51 + x382 <= 1
C836: + x4 + x19 <= 1
C837: + x97 + x108 <= 1
C838: + x57 + x162 <= 1
C839: + x221 + x251 <= 1
C840: + x10 + x46 <= 1
C841: + x266 + x444 <= 1
C842: + x225 + x347 <= 1
C843: + x43 + x306 <= 1
C844: + x25 + x360 <= 1
C845: + x17 + x138 <= 1
C846: + x42 + x418 <= 1
C847: + x9 + x55 <= 1
C848: + x102 + x328 <= 1
C849: + x48 + x256 <= 1
C850: + x4 + x406 <= 1
C851: + x70 + x175 <= 1
C852: + x160 + x380 <= 1
C853: + x14 + x455 <= 1
C854: + x65 + x209 <= 1
C855: + x410 + x412 <= 1
C856: + x1 + x273 <= 1
C857: + x14 + x42 <= 1
C858: + x154 + x196 <= 1
C859: + x163 + x220 <= 1
C860: + x4 + x112 <= 1
C861: + x32 + x231 <= 1
C862: + x173 + x412 <= 1
C863: + x19 + x346 <= 1
C864: + x1 + x400 <= 1
C865: + x385 + x442 <= 1
C866: + x169 + x257 <= 1
C867: + x6 + x110 <= 1
C868: + x2 + x6 <= 1
C869: + x57 + x367 <= 1
C870: + x114 + x324 <= 1
C871: + x6 + x18 <= 1
C872: + x7 + x162 <= 1
C873: + x279 + x365 <= 1
C874: + x10 + x87 <= 1
C875: + x15 + x69 <= 1
C876: + x177 + x189 <= 1
C877: + x304 + x349 <= 1
C878: + x78 + x327 <= 1
C879: + x6 + x272 <= 1
C880: + x18 + x23 <= 1
C881: + x138 + x453 <= 1
C882: + x12 + x496 <= 1
C883: + x142 + x267 <= 1
C884: + x7 + x49 <= 1
C885: + x80 + x176 <= 1
C886: + x410 + x413 <= 1
C887: + x163 + x453 <= 1
C888: + x264 + x420 <= 1
C889: + x1 + x280 <= 1
C890: + x57 + x298 <= 1
C891: + x6 + x198 <= 1
C892: + x27 + x123 <= 1
C893: + x19 + x48 <= 1
C894: + x37 + x339 <= 1
C895: + x9 + x141 <= 1
C896: + x39 + x43 <= 1
C897: + x116 + x303 <= 1
C898: + x245 + x414 <= 1
C899: + x201 + x255 <= 1
C900: + x2 + x265 <= 1
C901: + x29 + x117 <= 1
C902: + x10 + x473 <= 1
C903: + x55 + x107 <= 1
C904: + x58 + x106 <= 1
C905: + x86 + x217 <= 1
C906: + x31 + x103 <= 1
C907: + x23 + x68 <= 1
C908: + x32 + x125 <= 1
C909: + x11 + x197 <= 1
C910: + x37 + x263 <= 1
C911: + x55 + x377 <= 1
C912: + x5 + x496 <= 1
C913: + x18 + x127 <= 1
C914: + x54 + x158 <= 1
C915: + x1 + x467 <= 1
C916: + x326 + x499 <= 1
C917: + x70 + x272 <= 1
C918: + x181 + x263 <= 1
C919: + x5 + x34 <= 1
C920: + x36 + x166 <= 1
C921: + x9 + x37 <= 1
C922: + x210 + x275 <= 1
C923: + x242 + x404 <= 1
C924: + x6 + x428 <= 1
C925: + x122 + x487 <= 1
C926: + x50 + x66 <= 1
C927: + x3 + x76 <= 1
C928: + x34 + x400 <= 1
C929: + x56 + x432 <= 1
C930: + x222 + x409 <= 1
C931: + x78 + x436 <= 1
C932: + x5 + x419 <= 1
C933: + x14 + x330 <= 1
C934: + x108 + x371 <= 1
C935: + x20 + x95 <= 1
C936: + x12 + x14 <= 1
C937: + x48 + x210 <= 1
C938: + x35 + x359 <= 1
C939: + x199 + x296 <= 1
C940: + x2 + x24 <= 1
C941: + x93 + x209 <= 1
C942: + x39 + x445 <= 1
C943: + x47 + x500 <= 1
C944: + x8 + x90 <= 1
C945: + x1 + x13 <= 1
C946: + x306 + x442 <= 1
C947: + x164 + x401 <= 1
C948: + x65 + x106 <= 1
C949: + x156 + x288 <= 1
C950: + x12 + x397 <= 1
C951: + x60 + x196 <= 1
C952: + x34 + x437 <= 1
C953: + x345 + x469 <= 1
C954: + x8 + x239 <= 1
C955: + x72 + x431 <= 1
C956: + x148 + x189 <= 1
C957: + x20 + x317 <= 1
C958: + x5 + x41 <= 1
C959: + x17 + x298 <= 1
C960: + x257 + x342 <= 1
C961: + x26 + x166 <= 1
C962: + x81 + x447 <= 1
C963: + x8 + x14 <= 1
C964: + x4 + x393 <= 1
C965: + x17 + x28 <= 1
C966: + x7 + x35 <= 1
C967: + x111 + x385 <= 1
C968: + x11 + x34 <= 1
C969: + x32 + x63 <= 1
C970: + x107 + x126 <= 1
C971: + x271 + x472 <= 1
C972: + x25 + x492 <= 1
C973: + x7 + x208 <= 1
C974: + x76 + x81 <= 1
C975: + x86 + x378 <= 1
C976: + x23 + x227 <= 1
C977: + x9 + x24 <= 1
C978: + x11 + x22 <= 1
C979: + x177 + x374 <= 1
C980: + x102 + x184 <= 1
C981: + x231 + x465 <= 1
C982: + x22 + x185 <= 1
C983: + x386 + x480 <= 1
C984: + x317 + x480 <= 1
C985: + x10 + x348 <= 1
C986: + x47 + x358 <= 1
C987: + x112 + x410 <= 1
C988: + x61 + x203 <= 1
C989: + x9 + x289 <= 1
C990: + x238 + x369 <= 1
C991: + x192 + x338 <= 1
C992: + x216 + x470 <= 1
C993: + x54 + x273 <= 1
C994: + x87 + x384 <= 1
C995: + x11 + x416 <= 1
C996: + x11 + x41 <= 1
C997: + x95 + x155 <= 1
C998: + x15 + x102 <= 1
C999: + x1 + x207 <= 1
C1000: + x11 + x367 <= 1
C1001: + x56 + x193 <= 1
C1002: + x4 + x446 <= 1
C1003: + x80 + x207 <= 1
C1004: + x267 + x483 <= 1
C1005: + x172 + x306 <= 1
C1006: + x152 + x305 <= 1
C1007: + x7 + x328 <= 1
C1008: + x7 + x481 <= 1
C1009: + x57 + x69 <= 1
C1010: + x76 + x184 <= 1
C1011: + x50 + x185 <= 1
C1012: + x14 + x403 <= 1
C1013: + x7 + x142 <= 1
C1014: + x84 + x216 <= 1
C1015: + x360 + x376 <= 1
C1016: + x117 + x241 <= 1
C1017: + x467 + x471 <= 1
C1018: + x420 + x492 <= 1
C1019: + x48 + x427 <= 1
C1020: + x178 + x448 <= 1
C1021: + x96 + x237 <= 1
C1022: + x6 + x58 <= 1
C1023: + x1 + x198 <= 1
C1024: + x108 + x346 <= 1
C1025: + x16 + x113 <= 1
C1026: + x166 + x420 <= 1
C1027: + x30 + x71 <= 1
C1028: + x11 + x459 <= 1
C1029: + x247 + x252 <= 1
C1030: + x66 + x315 <= 1
C1031: + x167 + x235 <= 1
C1032: + x106 + x132 <= 1
C1033: + x35 + x469 <= 1
C1034: + x300 + x449 <= 1
C1035: + x98 + x138 <= 1
C1036: + x32 + x323 <= 1
C1037: + x25 + x152 <= 1
C1038: + x119 + x381 <= 1
C1039: + x256 + x479 <= 1
C1040: + x78 + x129 <= 1
C1041: + x25 + x53 <= 1
C1042: + x14 + x396 <= 1
C1043: + x16 + x348 <= 1
C1044: + x173 + x336 <= 1
C1045: + x1 + x129 <= 1
C1046: + x11 + x76 <= 1
C1047: + x176 + x250 <= 1
C1048: + x6 + x146 <= 1
C1049: + x44 + x99 <= 1
C1050: + x10 + x215 <= 1
C1051: + x37 + x239 <= 1
C1052: + x194 + x197 <= 1
C1053: + x13 + x70 <= 1
C1054: + x170 + x305 <= 1
C1055: + x116 + x355 <= 1
C1056: + x7 + x24 <= 1
C1057: + x32 + x375 <= 1
C1058: + x1 + x459 <= 1
C1059: + x39 + x493 <= 1
C1060: + x9 + x176 <= 1
C1061: + x4 + x186 <= 1
C1062: + x8 + x45 <= 1
C1063: + x55 + x173 <= 1
C1064: + x77 + x122 <= 1
C1065: + x349 + x394 <= 1
C1066: + x414 + x417 <= 1
C1067: + x212 + x333 <= 1
C1068: + x268 + x495 <= 1
C1069: + x11 + x228 <= 1
C1070: + x1 + x438 <= 1
C1071: + x135 + x168 <= 1
C1072: + x120 + x384 <= 1
C1073: + x5 + x368 <= 1
C1074: + x59 + x73 <= 1
C1075: + x78 + x285 <= 1
C1076: + x9 + x200 <= 1
C1077: + x7 + x366 <= 1
C1078: + x169 + x422 <= 1
C1079: + x161 + x259 <= 1
C1080: + x7 + x15 <= 1
C1081: + x140 + x229 <= 1
C1082: + x13 + x367 <= 1
C1083: + x176 + x203 <= 1
C1084: + x116 + x281 <= 1
C1085: + x53 + x75 <= 1
C1086: + x152 + x495 <= 1
C1087: + x10 + x140 <= 1
C1088: + x59 + x370 <= 1
C1089: + x5 + x291 <= 1
C1090: + x16 + x486 <= 1
C1091: + x47 + x279 <= 1
C1092: + x21 + x270 <= 1
C1093: + x357 + x449 <= 1
C1094: + x123 + x464 <= 1
C1095: + x116 + x242 <= 1
C1096: + x17 + x67 <= 1
C1097: + x63 + x183 <= 1
C1098: + x14 + x446 <= 1
C1099: + x6 + x97 <= 1
C1100: + x157 + x205 <= 1
C1101: + x5 + x12 <= 1
C1102: + x7 + x357 <= 1
C1103: + x1 + x60 <= 1
C1104: + x272 + x302 <= 1
C1105: + x113 + x166 <= 1
C1106: + x69 + x105 <= 1
C1107: + x160 + x308 <= 1
C1108: + x54 + x152 <= 1
C1109: + x75 + x372 <= 1
C1110: + x89 + x143 <= 1
C1111: + x206 + x434 <= 1
C1112: + x6 + x21 <= 1
C1113: + x75 + x98 <= 1
C1114: + x37 + x356 <= 1
C1115: + x120 + x155 <= 1
C1116: + x125 + x328 <= 1
C1117: + x82 + x466 <= 1
C1118: + x49 + x82 <= 1
C1119: + x41 + x260 <= 1
C1120: + x88 + x352 <= 1
C1121: + x316 + x412 <= 1
C1122: + x128 + x426 <= 1
C1123: + x129 + x218 <= 1
C1124: + x2 + x411 <= 1
C1125: + x45 + x316 <= 1
C1126: + x32 + x80 <= 1
C1127: + x7 + x223 <= 1
C1128: + x173 + x243 <= 1
C1129: + x5 + x100 <= 1
C1130: + x41 + x336 <= 1
C1131: + x341 + x497 <= 1
C1132: + x252 + x353 <= 1
C1133: + x6 + x106 <= 1
C1134: + x45 + x368 <= 1
C1135: + x35 + x337 <= 1
C1136: + x11 + x101 <= 1
C1137: + x103 + x190 <= 1
C1138: + x159 + x181 <= 1
C1139: + x90 + x153 <= 1
C1140: + x326 + x339 <= 1
C1141: + x290 + x495 <= 1
C1142: + x272 + x299 <= 1
C1143: + x22 + x170 <= 1
C1144: + x5 + x493 <= 1
C1145: + x80 + x360 <= 1
C1146: + x1 + x480 <= 1
C1147: + x4 + x8 + x151 <= 1
C1148: + x42 + x116 <= 1
C1149: + x92 + x318 <= 1
C1150: + x10 + x91 <= 1
C1151: + x11 + x169 <= 1
C1152: + x30 + x136 <= 1
C1153: + x22 + x27 <= 1
C1154: + x13 + x194 <= 1
C1155: + x12 + x242 <= 1
C1156: + x93 + x440 <= 1
C1157: + x467 + x495 <= 1
C1158: + x56 + x62 <= 1
C1159: + x21 + x447 <= 1
C1160: + x143 + x173 <= 1
C1161: + x26 + x75 + x441 <= 1
C1162: + x55 + x83 <= 1
C1163: + x64 + x174 <= 1
C1164: + x367 + x406 <= 1
C1165: + x80 + x390 <= 1
C1166: + x77 + x297 <= 1
C1167: + x124 + x161 <= 1
C1168: + x14 + x130 <= 1
C1169: + x42 + x347 <= 1
C1170: + x162 + x324 <= 1
C1171: + x55 + x206 <= 1
C1172: + x21 + x387 <= 1
C1173: + x209 + x286 <= 1
C1174: + x242 + x249 <= 1
C1175: + x7 + x343 <= 1
C1176: + x102 + x130 <= 1
C1177: + x77 + x285 <= 1
C1178: + x4 + x5 <= 1
C1179: + x48 + x70 <= 1
C1180: + x7 + x500 <= 1
C1181: + x156 + x283 <= 1
C1182: + x23 + x55 <= 1
C1183: + x6 + x7 <= 1
C1184: + x36 + x440 <= 1
C1185: + x164 + x331 <= 1
C1186: + x5 + x137 <= 1
C1187: + x224 + x330 <= 1
C1188: + x49 + x483 <= 1
C1189: + x14 + x199 <= 1
C1190: + x15 + x237 <= 1
C1191: + x6 + x373 <= 1
C1192: + x160 + x439 <= 1
C1193: + x216 + x452 <= 1
C1194: + x55 + x137 <= 1
C1195: + x239 + x470 <= 1
C1196: + x106 + x115 <= 1
C1197: + x142 + x320 <= 1
C1198: + x88 + x366 <= 1
C1199: + x80 + x177 <= 1
C1200: + x249 + x448 <= 1
C1201: + x55 + x415 <= 1
C1202: + x47 + x300 <= 1
C1203: + x45 + x88 + x498 <= 1
C1204: + x73 + x163 <= 1
C1205: + x10 + x16 <= 1
C1206: + x11 + x136 <= 1
C1207: + x8 + x162 <= 1
C1208: + x1 + x245 <= 1
C1209: + x41 + x76 <= 1
C1210: + x32 + x209 <= 1
C1211: + x14 + x326 <= 1
C1212: + x91 + x419 <= 1
C1213: + x54 + x223 <= 1
C1214: + x80 + x290 <= 1
C1215: + x245 + x481 <= 1
C1216: + x42 + x178 <= 1
C1217: + x35 + x355 <= 1
C1218: + x58 + x119 <= 1
C1219: + x168 + x202 <= 1
C1220: + x44 + x72 <= 1
C1221: + x11 + x204 <= 1
C1222: + x20 + x212 <= 1
C1223: + x240 + x259 <= 1
C1224: + x58 + x466 <= 1
C1225: + x164 + x405 <= 1
C1226: + x221 + x265 <= 1
C1227: + x34 + x73 <= 1
C1228: + x58 + x67 <= 1
C1229: + x25 + x321 <= 1
C1230: + x6 + x382 <= 1
C1231: + x10 + x168 <= 1
C1232: + x102 + x383 <= 1
C1233: + x6 + x401 <= 1
C1234: + x7 + x39 <= 1
C1235: + x55 + x402 <= 1
C1236: + x32 + x59 <= 1
C1237: + x15 + x103 <= 1
C1238: + x7 + x196 <= 1
C1239: + x10 + x49 <= 1
C1240: + x101 + x248 <= 1
C1241: + x2 + x244 <= 1
C1242: + x158 + x302 <= 1
C1243: + x13 + x44 <= 1
C1244: + x161 + x165 <= 1
C1245: + x119 + x171 <= 1
C1246: + x394 + x456 <= 1
C1247: + x176 + x461 <= 1
C1248: + x34 + x118 <= 1
C1249: + x18 + x468 <= 1
C1250: + x57 + x211 <= 1
C1251: + x11 + x18 <= 1
C1252: + x40 + x60 <= 1
C1253: + x34 + x465 <= 1
C1254: + x15 + x179 <= 1
C1255: + x1 + x8 <= 1
C1256: + x20 + x217 <= 1
C1257: + x77 + x275 <= 1
C1258: + x31 + x242 <= 1
C1259: + x23 + x360 <= 1
C1260: + x15 + x385 <= 1
C1261: + x8 + x498 <= 1
C1262: + x54 + x236 <= 1
C1263: + x3 + x6 <= 1
C1264: + x7 + x143 <= 1
C1265: + x83 + x216 <= 1
C1266: + x28 + x56 <= 1
C1267: + x11 + x70 <= 1
C1268: + x17 + x293 <= 1
C1269: + x151 + x412 <= 1
C1270: + x45 + x123 <= 1
C1271: + x80 + x484 <= 1
C1272: + x7 + x26 <= 1
C1273: + x156 + x293 <= 1
C1274: + x157 + x431 <= 1
C1275: + x322 + x490 <= 1
C1276: + x21 + x297 <= 1
C1277: + x14 + x74 <= 1
C1278: + x16 + x209 <= 1
C1279: + x73 + x358 <= 1
C1280: + x11 + x138 <= 1
C1281: + x378 + x395 <= 1
C1282: + x95 + x316 <= 1
C1283: + x70 + x453 <= 1
C1284: + x25 + x276 <= 1
C1285: + x108 + x357 <= 1
C1286: + x17 + x451 <= 1
C1287: + x234 + x287 <= 1
C1288: + x6 + x225 <= 1
C1289: + x259 + x274 <= 1
C1290: + x6 + x479 <= 1
C1291: + x16 + x60 <= 1
C1292: + x25 + x50 <= 1
C1293: + x15 + x37 <= 1
C1294: + x6 + x114 <= 1
C1295: + x1 + x142 <= 1
C1296: + x292 + x332 <= 1
C1297: + x103 + x150 <= 1
C1298: + x13 + x230 <= 1
C1299: + x6 + x149 <= 1
C1300: + x7 + x376 <= 1
C1301: + x49 + x117 <= 1
C1302: + x4 + x40 <= 1
C1303: + x22 + x146 <= 1
C1304: + x42 + x249 <= 1
C1305: + x6 + x387 <= 1
C1306: + x7 + x17 <= 1
C1307: + x80 + x144 <= 1
C1308: + x57 + x149 <= 1
C1309: + x130 + x291 <= 1
C1310: + x357 + x491 <= 1
C1311: + x425 + x430 <= 1
C1312: + x16 + x218 <= 1
C1313: + x11 + x177 <= 1
C1314: + x219 + x361 <= 1
C1315: + x20 + x122 <= 1
C1316: + x12 + x53 <= 1
C1317: + x15 + x484 <= 1
C1318: + x7 + x77 <= 1
C1319: + x1 + x260 <= 1
C1320: + x328 + x350 <= 1
C1321: + x39 + x422 <= 1
C1322: + x90 + x254 <= 1
C1323: + x8 + x65 <= 1
C1324: + x36 + x245 <= 1
C1325: + x327 + x481 <= 1
C1326: + x57 + x80 <= 1
C1327: + x2 + x293 <= 1
C1328: + x333 + x389 <= 1
C1329: + x2 + x11 <= 1
C1330: + x326 + x356 <= 1
C1331: + x10 + x219 <= 1
C1332: + x47 + x50 <= 1
C1333: + x49 + x108 <= 1
C1334: + x34 + x205 <= 1
C1335: + x1 + x463 <= 1
C1336: + x56 + x361 <= 1
C1337: + x15 + x124 <= 1
C1338: + x14 + x25 + x57 <= 1
C1339: + x4 + x190 <= 1
C1340: + x108 + x339 <= 1
C1341: + x119 + x192 <= 1
C1342: + x114 + x435 <= 1
C1343: + x4 + x432 <= 1
C1344: + x27 + x284 <= 1
C1345: + x335 + x416 <= 1
C1346: + x177 + x287 <= 1
C1347: + x7 + x225 <= 1
C1348: + x7 + x310 <= 1
C1349: + x1 + x237 <= 1
C1350: + x69 + x493 <= 1
C1351: + x14 + x147 <= 1
C1352: + x32 + x312 <= 1
C1353: + x44 + x207 <= 1
C1354: + x135 + x156 <= 1
C1355: + x55 + x253 <= 1
C1356: + x328 + x492 <= 1
C1357: + x21 + x69 <= 1
C1358: + x6 + x100 <= 1
C1359: + x7 + x116 <= 1
C1360: + x1 + x156 <= 1
C1361: + x11 + x127 <= 1
C1362: + x223 + x438 <= 1
C1363: + x6 + x135 <= 1
C1364: + x32 + x138 <= 1
C1365: + x234 + x472 <= 1
C1366: + x40 + x250 <= 1
C1367: + x221 + x252 <= 1
C1368: + x278 + x365 <= 1
C1369: + x45 + x426 <= 1
C1370: + x329 + x411 <= 1
C1371: + x8 + x131 <= 1
C1372: + x371 + x471 <= 1
C1373: + x34 + x183 <= 1
C1374: + x7 + x414 <= 1
C1375: + x10 + x144 <= 1
C1376: + x184 + x478 <= 1
C1377: + x7 + x63 <= 1
C1378: + x55 + x69 <= 1
C1379: + x57 + x239 <= 1
C1380: + x38 + x464 <= 1
C1381: + x13 + x351 <= 1
C1382: + x32 + x67 <= 1
C1383: + x118 + x327 <= 1
C1384: + x10 + x25 <= 1
C1385: + x37 + x341 <= 1
C1386: + x113 + x238 <= 1
C1387: + x47 + x120 <= 1
C1388: + x5 + x97 <= 1
C1389: + x107 + x163 <= 1
C1390: + x338 + x340 <= 1
C1391: + x155 + x463 <= 1
C1392: + x327 + x467 <= 1
C1393: + x285 + x300 <= 1
C1394: + x184 + x402 <= 1
C1395: + x5 + x339 <= 1
C1396: + x7 + x107 <= 1
C1397: + x2 + x5 <= 1
C1398: + x12 + x257 <= 1
C1399: + x5 + x248 <= 1
C1400: + x1 + x64 <= 1
C1401: + x193 + x293 <= 1
C1402: + x12 + x112 <= 1
C1403: + x31 + x154 <= 1
C1404: + x42 + x212 <= 1
C1405: + x35 + x197 <= 1
C1406: + x54 + x148 <= 1
C1407: + x37 + x126 <= 1
C1408: + x67 + x254 <= 1
C1409: + x14 + x110 <= 1
C1410: + x6 + x17 <= 1
C1411: + x91 + x187 <= 1
C1412: + x144 + x181 <= 1
C1413: + x284 + x474 <= 1
C1414: + x39 + x128 <= 1
C1415: + x34 + x261 <= 1
C1416: + x198 + x372 <= 1
C1417: + x6 + x271 <= 1
C1418: + x377 + x398 <= 1
C1419: + x48 + x136 <= 1
C1420: + x33 + x165 <= 1
C1421: + x306 + x379 <= 1
C1422: + x11 + x61 <= 1
C1423: + x47 + x286 <= 1
C1424: + x181 + x333 <= 1
C1425: + x7 + x211 <= 1
C1426: + x154 + x319 <= 1
C1427: + x141 + x443 <= 1
C1428: + x16 + x32 <= 1
C1429: + x119 + x326 <= 1
C1430: + x11 + x371 <= 1
C1431: + x37 + x177 <= 1
C1432: + x12 + x24 <= 1
C1433: + x48 + x263 <= 1
C1434: + x29 + x87 + x188 <= 1
C1435: + x160 + x386 <= 1
C1436: + x45 + x86 <= 1
C1437: + x62 + x266 <= 1
C1438: + x20 + x37 <= 1
C1439: + x357 + x399 <= 1
C1440: + x115 + x475 <= 1
C1441: + x176 + x258 <= 1
C1442: + x246 + x256 <= 1
C1443: + x129 + x363 <= 1
C1444: + x55 + x489 <= 1
C1445: + x87 + x93 <= 1
C1446: + x217 + x439 <= 1
C1447: + x1 + x67 <= 1
C1448: + x55 + x182 <= 1
C1449: + x20 + x150 <= 1
C1450: + x37 + x204 <= 1
C1451: + x58 + x408 <= 1
C1452: + x42 + x129 <= 1
C1453: + x29 + x185 <= 1
C1454: + x7 + x41 <= 1
C1455: + x27 + x373 <= 1
C1456: + x11 + x40 <= 1
C1457: + x283 + x344 <= 1
C1458: + x50 + x65 <= 1
C1459: + x20 + x424 <= 1
C1460: + x9 + x181 <= 1
C1461: + x19 + x40 <= 1
C1462: + x57 + x399 <= 1
C1463: + x95 + x331 <= 1
C1464: + x5 + x87 <= 1
C1465: + x125 + x303 <= 1
C1466: + x120 + x327 <= 1
C1467: + x20 + x98 <= 1
C1468: + x104 + x355 <= 1
C1469: + x87 + x319 <= 1
C1470: + x352 + x477 <= 1
C1471: + x7 + x101 <= 1
C1472: + x128 + x391 <= 1
C1473: + x384 + x424 <= 1
C1474: + x242 + x253 <= 1
C1475: + x167 + x199 <= 1
C1476: + x24 + x332 <= 1
C1477: + x235 + x462 <= 1
C1478: + x1 + x14 <= 1
C1479: + x22 + x191 <= 1
C1480: + x44 + x226 <= 1
C1481: + x299 + x380 <= 1
C1482: + x11 + x418 <= 1
C1483: + x20 + x46 <= 1
C1484: + x393 + x424 <= 1
C1485: + x15 + x88 <= 1
C1486: + x65 + x184 <= 1
C1487: + x10 + x72 <= 1
C1488: + x11 + x96 <= 1
C1489: + x8 + x234 <= 1
C1490: + x303 + x370 <= 1
C1491: + x13 + x245 <= 1
C1492: + x265 + x474 <= 1
C1493: + x292 + x345 <= 1
C1494: + x4 + x154 <= 1
C1495: + x80 + x282 <= 1
C1496: + x7 + x391 <= 1
C1497: + x39 + x203 <= 1
C1498: + x50 + x332 <= 1
C1499: + x17 + x29 <= 1
C1500: + x7 + x36 <= 1
C1501: + x129 + x172 <= 1
C1502: + x2 + x84 <= 1
C1503: + x96 + x250 <= 1
C1504: + x144 + x262 <= 1
C1505: + x273 + x409 <= 1
C1506: + x197 + x286 <= 1
C1507: + x148 + x487 <= 1
C1508: + x303 + x415 <= 1
C1509: + x41 + x290 <= 1
C1510: + x4 + x440 <= 1
C1511: + x88 + x190 <= 1
C1512: + x7 + x96 <= 1
C1513: + x144 + x256 <= 1
C1514: + x1 + x307 <= 1
C1515: + x80 + x104 <= 1
C1516: + x1 + x5 <= 1
C1517: + x47 + x85 <= 1
C1518: + x38 + x130 <= 1
C1519: + x21 + x208 <= 1
C1520: + x4 + x114 <= 1
C1521: + x40 + x158 <= 1
C1522: + x114 + x455 <= 1
C1523: + x43 + x114 <= 1
C1524: + x8 + x231 <= 1
C1525: + x19 + x102 <= 1
C1526: + x1 + x180 <= 1
C1527: + x272 + x438 <= 1
C1528: + x106 + x221 <= 1
C1529: + x132 + x287 <= 1
C1530: + x5 + x17 <= 1
C1531: + x90 + x366 <= 1
C1532: + x6 + x378 <= 1
C1533: + x19 + x135 <= 1
C1534: + x183 + x264 <= 1
C1535: + x27 + x38 <= 1
C1536: + x303 + x470 <= 1
C1537: + x26 + x73 <= 1
C1538: + x10 + x263 <= 1
C1539: + x182 + x307 <= 1
C1540: + x11 + x42 <= 1
C1541: + x164 + x453 <= 1
C1542: + x220 + x343 <= 1
C1543: + x113 + x429 <= 1
C1544: + x77 + x246 <= 1
C1545: + x17 + x433 <= 1
C1546: + x43 + x422 <= 1
C1547: + x80 + x89 <= 1
C1548: + x273 + x416 <= 1
C1549: + x7 + x265 <= 1
C1550: + x10 + x53 <= 1
C1551: + x11 + x139 <= 1
C1552: + x31 + x202 <= 1
C1553: + x15 + x377 <= 1
C1554: + x119 + x175 <= 1
C1555: + x1 + x109 <= 1
C1556: + x489 + x499 <= 1
C1557: + x116 + x420 <= 1
C1558: + x1 + x266 <= 1
C1559: + x55 + x125 <= 1
C1560: + x156 + x384 <= 1
C1561: + x69 + x351 <= 1
C1562: + x287 + x302 <= 1
C1563: + x37 + x317 <= 1
C1564: + x218 + x313 <= 1
C1565: + x13 + x262 <= 1
C1566: + x90 + x97 <= 1
C1567: + x74 + x306 <= 1
C1568: + x434 + x497 <= 1
C1569: + x15 + x195 <= 1
C1570: + x152 + x264 <= 1
C1571: + x144 + x411 <= 1
C1572: + x113 + x178 <= 1
C1573: + x31 + x379 <= 1
C1574: + x396 + x485 <= 1
C1575: + x11 + x392 <= 1
C1576: + x41 + x385 <= 1
C1577: + x270 + x273 <= 1
C1578: + x6 + x57 <= 1
C1579: + x118 + x159 <= 1
C1580: + x7 + x260 <= 1
C1581: + x5 + x68 <= 1
C1582: + x11 + x279 <= 1
C1583: + x49 + x174 <= 1
C1584: + x156 + x426 <= 1
C1585: + x44 + x328 <= 1
C1586: + x165 + x394 <= 1
C1587: + x37 + x455 <= 1
C1588: + x402 + x487 <= 1
C1589: + x138 + x271 <= 1
C1590: + x1 + x19 <= 1
C1591: + x160 + x281 <= 1
C1592: + x155 + x498 <= 1
C1593: + x57 + x77 <= 1
C1594: + x58 + x323 <= 1
C1595: + x11 + x347 <= 1
C1596: + x340 + x491 <= 1
C1597: + x187 + x423 <= 1
C1598: + x25 + x54 <= 1
C1599: + x51 + x63 <= 1
C1600: + x154 + x157 <= 1
C1601: + x216 + x264 <= 1
C1602: + x114 + x340 <= 1
C1603: + x22 + x59 <= 1
C1604: + x5 + x7 <= 1
C1605: + x288 + x467 <= 1
C1606: + x1 + x47 <= 1
C1607: + x328 + x391 <= 1
C1608: + x29 + x157 <= 1
C1609: + x322 + x348 <= 1
C1610: + x80 + x140 <= 1
C1611: + x10 + x305 <= 1
C1612: + x366 + x446 <= 1
C1613: + x21 + x308 <= 1
C1614: + x217 + x258 <= 1
C1615: + x25 + x450 <= 1
C1616: + x8 + x137 <= 1
C1617: + x2 + x194 <= 1
C1618: + x8 + x48 <= 1
C1619: + x65 + x443 <= 1
C1620: + x47 + x255 <= 1
C1621: + x215 + x219 <= 1
C1622: + x88 + x329 <= 1
C1623: + x171 + x500 <= 1
C1624: + x7 + x65 <= 1
C1625: + x147 + x232 <= 1
C1626: + x11 + x16 <= 1
C1627: + x61 + x354 <= 1
C1628: + x10 + x19 <= 1
C1629: + x37 + x291 <= 1
C1630: + x49 + x52 <= 1
C1631: + x7 + x468 <= 1
C1632: + x57 + x84 <= 1
C1633: + x20 + x74 <= 1
C1634: + x25 + x61 <= 1
C1635: + x345 + x434 <= 1
C1636: + x143 + x229 <= 1
C1637: + x210 + x460 <= 1
C1638: + x146 + x268 <= 1
C1639: + x47 + x473 <= 1
C1640: + x4 + x246 <= 1
C1641: + x14 + x231 <= 1
C1642: + x296 + x421 <= 1
C1643: + x10 + x223 <= 1
C1644: + x14 + x277 <= 1
C1645: + x81 + x313 <= 1
C1646: + x80 + x145 <= 1
C1647: + x171 + x439 <= 1
C1648: + x54 + x142 <= 1
C1649: + x20 + x22 <= 1
C1650: + x39 + x485 <= 1
C1651: + x81 + x230 <= 1
C1652: + x74 + x213 <= 1
C1653: + x1 + x213 <= 1
C1654: + x401 + x448 <= 1
C1655: + x297 + x353 <= 1
C1656: + x200 + x229 <= 1
C1657: + x121 + x207 <= 1
C1658: + x78 + x126 <= 1
C1659: + x42 + x146 <= 1
C1660: + x4 + x404 <= 1
C1661: + x80 + x165 <= 1
C1662: + x388 + x446 <= 1
C1663: + x48 + x400 <= 1
C1664: + x205 + x484 <= 1
C1665: + x14 + x44 <= 1
C1666: + x87 + x191 <= 1
C1667: + x453 + x488 <= 1
C1668: + x8 + x182 <= 1
C1669: + x54 + x432 <= 1
C1670: + x56 + x96 <= 1
C1671: + x12 + x191 <= 1
C1672: + x95 + x342 <= 1
C1673: + x52 + x433 <= 1
C1674: + x88 + x311 <= 1
C1675: + x16 + x22 <= 1
C1676: + x11 + x333 <= 1
C1677: + x20 + x79 <= 1
C1678: + x396 + x443 <= 1
C1679: + x146 + x269 <= 1
C1680: + x2 + x8 <= 1
C1681: + x223 + x442 <= 1
C1682: + x296 + x350 <= 1
C1683: + x207 + x408 <= 1
C1684: + x81 + x403 <= 1
C1685: + x45 + x100 <= 1
C1686: + x160 + x307 <= 1
C1687: + x1 + x474 <= 1
C1688: + x1 + x359 <= 1
C1689: + x102 + x240 <= 1
C1690: + x276 + x484 <= 1
C1691: + x9 + x60 <= 1
C1692: + x8 + x30 <= 1
C1693: + x165 + x322 <= 1
C1694: + x378 + x381 <= 1
C1695: + x41 + x261 <= 1
C1696: + x14 + x450 <= 1
C1697: + x17 + x44 <= 1
C1698: + x21 + x278 <= 1
C1699: + x15 + x147 <= 1
C1700: + x190 + x427 <= 1
C1701: + x173 + x244 <= 1
C1702: + x63 + x478 <= 1
C1703: + x2 + x240 <= 1
C1704: + x308 + x407 <= 1
C1705: + x339 + x352 <= 1
C1706: + x64 + x295 <= 1
C1707: + x192 + x382 <= 1
C1708: + x41 + x494 <= 1
C1709: + x225 + x283 <= 1
C1710: + x345 + x349 <= 1
C1711: + x88 + x445 <= 1
C1712: + x92 + x115 <= 1
C1713: + x2 + x188 <= 1
C1714: + x170 + x299 <= 1
C1715: + x80 + x359 <= 1
C1716: + x58 + x290 <= 1
C1717: + x60 + x201 <= 1
C1718: + x61 + x315 <= 1
C1719: + x6 + x29 <= 1
C1720: + x7 + x155 <= 1
C1721: + x40 + x413 <= 1
C1722: + x1 + x163 <= 1
C1723: + x287 + x482 <= 1
C1724: + x9 + x35 <= 1
C1725: + x8 + x27 <= 1
C1726: + x61 + x170 <= 1
C1727: + x44 + x164 <= 1
C1728: + x82 + x117 <= 1
C1729: + x10 + x280 <= 1
C1730: + x6 + x430 <= 1
C1731: + x144 + x308 <= 1
C1732: + x16 + x28 <= 1
C1733: + x299 + x329 <= 1
C1734: + x55 + x195 <= 1
C1735: + x8 + x463 <= 1
C1736: + x11 + x383 <= 1
C1737: + x319 + x344 <= 1
C1738: + x148 + x239 <= 1
C1739: + x113 + x376 <= 1
C1740: + x14 + x18 <= 1
C1741: + x6 + x336 <= 1
C1742: + x7 + x344 <= 1
C1743: + x316 + x370 <= 1
C1744: + x29 + x225 <= 1
C1745: + x449 + x485 <= 1
C1746: + x15 + x80 + x83 <= 1
C1747: + x107 + x279 <= 1
C1748: + x14 + x320 <= 1
C1749: + x308 + x428 <= 1
C1750: + x283 + x289 <= 1
C1751: + x86 + x312 <= 1
C1752: + x14 + x198 <= 1
C1753: + x24 + x116 + x458 <= 1
C1754: + x27 + x224 <= 1
C1755: + x1 + x71 <= 1
C1756: + x7 + x45 <= 1
C1757: + x80 + x180 <= 1
C1758: + x119 + x290 <= 1
C1759: + x11 + x36 <= 1
C1760: + x118 + x341 <= 1
C1761: + x110 + x227 <= 1
C1762: + x11 + x133 <= 1
C1763: + x2 + x250 <= 1
C1764: + x12 + x166 <= 1
C1765: + x57 + x403 <= 1
C1766: + x22 + x247 <= 1
C1767: + x14 + x325 <= 1
C1768: + x298 + x420 <= 1
C1769: + x45 + x186 <= 1
C1770: + x8 + x456 <= 1
C1771: + x2 + x261 <= 1
C1772: + x43 + x79 <= 1
C1773: + x88 + x161 <= 1
C1774: + x7 + x89 <= 1
C1775: + x438 + x466 <= 1
C1776: + x340 + x363 <= 1
C1777: + x108 + x180 <= 1
C1778: + x57 + x479 <= 1
C1779: + x341 + x375 <= 1
C1780: + x8 + x230 <= 1
C1781: + x2 + x39 <= 1
C1782: + x11 + x92 <= 1
C1783: + x303 + x374 <= 1
C1784: + x13 + x241 <= 1
C1785: + x197 + x342 <= 1
C1786: + x48 + x146 <= 1
C1787: + x73 + x78 <= 1
C1788: + x55 + x407 <= 1
C1789: + x356 + x494 <= 1
C1790: + x6 + x51 <= 1
C1791: + x7 + x278 <= 1
C1792: + x85 + x139 <= 1
C1793: + x3 + x225 <= 1
C1794: + x27 + x235 <= 1
C1795: + x66 + x94 <= 1
C1796: + x21 + x101 <= 1
C1797: + x150 + x313 <= 1
C1798: + x11 + x454 <= 1
C1799: + x57 + x212 <= 1
C1800: + x129 + x252 <= 1
C1801: + x95 + x193 <= 1
C1802: + x17 + x362 <= 1
C1803: + x71 + x386 <= 1
C1804: + x1 + x25 <= 1
C1805: + x7 + x322 <= 1
C1806: + x50 + x405 <= 1
C1807: + x19 + x372 <= 1
C1808: + x247 + x425 <= 1
C1809: + x255 + x480 <= 1
C1810: + x163 + x380 <= 1
C1811: + x127 + x488 <= 1
C1812: + x7 + x144 <= 1
C1813: + x118 + x275 <= 1
C1814: + x5 + x29 <= 1
C1815: + x11 + x296 <= 1
C1816: + x194 + x206 <= 1
C1817: + x277 + x341 <= 1
C1818: + x5 + x271 <= 1
C1819: + x24 + x35 <= 1
C1820: + x7 + x31 <= 1
C1821: + x82 + x96 <= 1
C1822: + x38 + x85 <= 1
C1823: + x82 + x334 <= 1
C1824: + x257 + x382 <= 1
C1825: + x5 + x65 <= 1
C1826: + x161 + x354 <= 1
C1827: + x7 + x426 <= 1
C1828: + x19 + x183 <= 1
C1829: + x8 + x54 <= 1
C1830: + x21 + x100 <= 1
C1831: + x15 + x26 <= 1
C1832: + x16 + x20 + x31 <= 1
C1833: + x34 + x489 <= 1
C1834: + x74 + x421 <= 1
C1835: + x11 + x251 <= 1
C1836: + x16 + x59 <= 1
C1837: + x13 + x258 <= 1
C1838: + x15 + x38 <= 1
C1839: + x9 + x301 <= 1
C1840: + x110 + x335 <= 1
C1841: + x164 + x184 <= 1
C1842: + x1 + x346 <= 1
C1843: + x194 + x316 <= 1
C1844: + x35 + x58 + x369 <= 1
C1845: + x90 + x379 <= 1
C1846: + x252 + x457 <= 1
C1847: + x226 + x318 <= 1
C1848: + x6 + x386 <= 1
C1849: + x54 + x136 <= 1
C1850: + x148 + x396 <= 1
C1851: + x241 + x403 <= 1
C1852: + x132 + x153 <= 1
C1853: + x11 + x178 <= 1
C1854: + x3 + x243 <= 1
C1855: + x14 + x165 <= 1
C1856: + x5 + x80 <= 1
C1857: + x74 + x477 <= 1
C1858: + x2 + x368 <= 1
C1859: + x20 + x121 <= 1
C1860: + x49 + x162 <= 1
C1861: + x12 + x56 <= 1
C1862: + x5 + x314 <= 1
C1863: + x1 + x23 <= 1
C1864: + x237 + x451 <= 1
C1865: + x114 + x199 <= 1
C1866: + x9 + x119 <= 1
C1867: + x329 + x332 <= 1
C1868: + x11 + x327 <= 1
C1869: + x106 + x280 <= 1
C1870: + x235 + x249 <= 1
C1871: + x338 + x388 <= 1
C1872: + x58 + x85 <= 1
C1873: + x4 + x241 <= 1
C1874: + x17 + x217 <= 1
C1875: + x27 + x52 <= 1
C1876: + x80 + x497 <= 1
C1877: + x90 + x324 <= 1
C1878: + x1 + x35 <= 1
C1879: + x106 + x110 <= 1
C1880: + x7 + x9 <= 1
C1881: + x135 + x222 <= 1
C1882: + x156 + x310 <= 1
C1883: + x204 + x419 <= 1
C1884: + x11 + x185 <= 1
C1885: + x37 + x379 <= 1
C1886: + x53 + x73 <= 1
C1887: + x72 + x364 <= 1
C1888: + x58 + x388 <= 1
C1889: + x338 + x457 <= 1
C1890: + x1 + x284 <= 1
C1891: + x96 + x133 <= 1
C1892: + x91 + x254 <= 1
C1893: + x18 + x353 <= 1
C1894: + x1 + x238 <= 1
C1895: + x80 + x127 <= 1
C1896: + x7 + x299 <= 1
C1897: + x262 + x429 <= 1
C1898: + x4 + x105 <= 1
C1899: + x305 + x381 <= 1
C1900: + x286 + x311 <= 1
C1901: + x7 + x113 <= 1
C1902: + x19 + x386 <= 1
C1903: + x45 + x375 <= 1
C1904: + x220 + x257 <= 1
C1905: + x365 + x406 <= 1
C1906: + x87 + x120 <= 1
C1907: + x245 + x313 <= 1
C1908: + x42 + x234 <= 1
C1909: + x88 + x266 <= 1
C1910: + x8 + x404 <= 1
C1911: + x150 + x236 <= 1
C1912: + x81 + x218 <= 1
C1913: + x61 + x289 <= 1
C1914: + x14 + x116 <= 1
C1915: + x72 + x119 <= 1
C1916: + x120 + x153 <= 1
C1917: + x69 + x289 <= 1
C1918: + x97 + x221 <= 1
C1919: + x93 + x447 <= 1
C1920: + x78 + x122 <= 1
C1921: + x61 + x152 <= 1
C1922: + x251 + x417 <= 1
C1923: + x7 + x64 <= 1
C1924: + x271 + x296 <= 1
C1925: + x22 + x389 <= 1
C1926: + x6 + x219 <= 1
C1927: + x19 + x51 <= 1
C1928: + x75 + x88 <= 1
C1929: + x202 + x275 <= 1
C1930: + x120 + x173 <= 1
C1931: + x85 + x371 <= 1
C1932: + x48 + x111 <= 1
C1933: + x124 + x170 <= 1
C1934: + x30 + x197 <= 1
C1935: + x52 + x108 <= 1
C1936: + x125 + x282 <= 1
C1937: + x71 + x271 <= 1
C1938: + x4 + x324 <= 1
C1939: + x1 + x148 <= 1
C1940: + x83 + x262 <= 1
C1941: + x192 + x369 <= 1
C1942: + x297 + x320 <= 1
C1943: + x31 + x126 <= 1
C1944: + x261 + x334 <= 1
C1945: + x44 + x88 <= 1
C1946: + x13 + x148 <= 1
C1947: + x90 + x155 <= 1
C1948: + x1 + x49 <= 1
C1949: + x12 + x111 <= 1
C1950: + x141 + x497 <= 1
C1951: + x169 + x402 <= 1
C1952: + x119 + x288 <= 1

binary
x1 x2 x3 x4 x5 x6 x7 x8 x9 x10 x11 x12 x13 x14 x15 x16 x17 x18 x19 x20 x21 x22 x23 x24 x25 x26 x27 x28 x29 x30 x31 x32 x33 x34 x35 x36 x37 x38 x39 x40 x41 x42 x43 x44 x45 x46 x47 x48 x49 x50 x51 x52 x53 x54 x55 x56 x57 x58 x59 x60 x61 x62 x63 x64 x65 x66 x67 x68 x69 x70 x71 x72 x73 x74 x75 x76 x77 x78 x79 x80 x81 x82 x83 x84 x85 x86 x87 x88 x89 x90 x91 x92 x93 x94 x95 x96 x97 x98 x99 x100 x101 x102 x103 x104 x105 x106 x107 x108 x109 x110 x111 x112 x113 x114 x115 x116 x117 x118 x119 x120 x121 x122 x123 x124 x125 x126 x127 x128 x129 x130 x131 x132 x133 x134 x135 x136 x137 x138 x139 x140 x141 x142 x143 x144 x145 x146 x147 x148 x149 x150 x151 x152 x153 x154 x155 x156 x157 x158 x159 x160 x161 x162 x163 x164 x165 x166 x167 x168 x169 x170 x171 x172 x173 x174 x175 x176 x177 x178 x179 x180 x181 x182 x183 x184 x185 x186 x187 x188 x189 x190 x191 x192 x193 x194 x195 x196 x197 x198 x199 x200 x201 x202 x203 x204 x205 x206 x207 x208 x209 x210 x211 x212 x213 x214 x215 x216 x217 x218 x219 x220 x221 x222 x223 x224 x225 x226 x227 x228 x229 x230 x231 x232 x233 x234 x235 x236 x237 x238 x239 x240 x241 x242 x243 x244 x245 x246 x247 x248 x249 x250 x251 x252 x253 x254 x255 x256 x257 x258 x259 x260 x261 x262 x263 x264 x265 x266 x267 x268 x269 x270 x271 x272 x273 x274 x275 x276 x277 x278 x279 x280 x281 x282 x283 x284 x285 x286 x287 x288 x289 x290 x291 x292 x293 x294 x295 x296 x297 x298 x299 x300 x301 x302 x303 x304 x305 x306 x307 x308 x309 x310 x311 x312 x313 x314 x315 x316 x317 x318 x319 x320 x321 x322 x323 x324 x325 x326 x327 x328 x329 x330 x331 x332 x333 x334 x335 x336 x337 x338 x339 x340 x341 x342 x343 x344 x345 x346 x347 x348 x349 x350 x351 x352 x353 x354 x355 x356 x357 x358 x359 x360 x361 x362 x363 x364 x365 x366 x367 x368 x369 x370 x371 x372 x373 x374 x375 x376 x377 x378 x379 x380 x381 x382 x383 x384 x385 x386 x387 x388 x389 x390 x391 x392 x393 x394 x395 x396 x397 x398 x399 x400 x401 x402 x403 x404 x405 x406 x407 x408 x409 x410 x411 x412 x413 x414 x415 x416 x417 x418 x419 x420 x421 x422 x423 x424 x425 x426 x427 x428 x429 x430 x431 x432 x433 x434 x435 x436 x437 x438 x439 x440 x441 x442 x443 x444 x445 x446 x447 x448 x449 x450 x451 x452 x453 x454 x455 x456 x457 x458 x459 x460 x461 x462 x463 x464 x465 x466 x467 x468 x469 x470 x471 x472 x473 x474 x475 x476 x477 x478 x479 x480 x481 x482 x483 x484 x485 x486 x487 x488 x489 x490 x491 x492 x493 x494 x495 x496 x497 x498 x499 x500
