maximize
OBJ: + 1 x1 + 1 x2 + 1 x3 + 1 x4 + 1 x5 + 1 x6 + 1 x7 + 1 x8 + 1 x9 + 1 x10 + 1 x11 + 1 x12 + 1 x13 + 1 x14 + 1 x15 + 1 x16 + 1 x17 + 1 x18 + 1 x19 + 1 x20 + 1 x21 + 1 x22 + 1 x23 + 1 x24 + 1 x25 + 1 x26 + 1 x27 + 1 x28 + 1 x29 + 1 x30 + 1 x31 + 1 x32 + 1 x33 + 1 x34 + 1 x35 + 1 x36 + 1 x37 + 1 x38 + 1 x39 + 1 x40 + 1 x41 + 1 x42 + 1 x43 + 1 x44 + 1 x45 + 1 x46 + 1 x47 + 1 x48 + 1 x49 + 1 x50 + 1 x51 + 1 x52 + 1 x53 + 1 x54 + 1 x55 + 1 x56 + 1 x57 + 1 x58 + 1 x59 + 1 x60 + 1 x61 + 1 x62 + 1 x63 + 1 x64 + 1 x65 + 1 x66 + 1 x67 + 1 x68 + 1 x69 + 1 x70 + 1 x71 + 1 x72 + 1 x73 + 1 x74 + 1 x75 + 1 x76 + 1 x77 + 1 x78 + 1 x79 + 1 x80 + 1 x81 + 1 x82 + 1 x83 + 1 x84 + 1 x85 + 1 x86 + 1 x87 + 1 x88 + 1 x89 + 1 x90 + 1 x91 + 1 x92 + 1 x93 + 1 x94 + 1 x95 + 1 x96 + 1 x97 + 1 x98 + 1 x99 + 1 x100 + 1 x101 + 1 x102 + 1 x103 + 1 x104 + 1 x105 + 1 x106 + 1 x107 + 1 x108 + 1 x109 + 1 x110 + 1 x111 + 1 x112 + 1 x113 + 1 x114 + 1 x115 + 1 x116 + 1 x117 + 1 x118 + 1 x119 + 1 x120 + 1 x121 + 1 x122 + 1 x123 + 1 x124 + 1 x125 + 1 x126 + 1 x127 + 1 x128 + 1 x129 + 1 x130 + 1 x131 + 1 x132 + 1 x133 + 1 x134 + 1 x135 + 1 x136 + 1 x137 + 1 x138 + 1 x139 + 1 x140 + 1 x141 + 1 x142 + 1 x143 + 1 x144 + 1 x145 + 1 x146 + 1 x147 + 1 x148 + 1 x149 + 1 x150 + 1 x151 + 1 x152 + 1 x153 + 1 x154 + 1 x155 + 1 x156 + 1 x157 + 1 x158 + 1 x159 + 1 x160 + 1 x161 + 1 x162 + 1 x163 + 1 x164 + 1 x165 + 1 x166 + 1 x167 + 1 x168 + 1 x169 + 1 x170 + 1 x171 + 1 x172 + 1 x173 + 1 x174 + 1 x175 + 1 x176 + 1 x177 + 1 x178 + 1 x179 + 1 x180 + 1 x181 + 1 x182 + 1 x183 + 1 x184 + 1 x185 + 1 x186 + 1 x187 + 1 x188 + 1 x189 + 1 x190 + 1 x191 + 1 x192 + 1 x193 + 1 x194 + 1 x195 + 1 x196 + 1 x197 + 1 x198 + 1 x199 + 1 x200 + 1 x201 + 1 x202 + 1 x203 + 1 x204 + 1 x205 + 1 x206 + 1 x207 + 1 x208 + 1 x209 + 1 x210 + 1 x211 + 1 x212 + 1 x213 + 1 x214 + 1 x215 + 1 x216 + 1 x217 + 1 x218 + 1 x219 + 1 x220 + 1 x221 + 1 x222 + 1 x223 + 1 x224 + 1 x225 + 1 x226 + 1 x227 + 1 x228 + 1 x229 + 1 x230 + 1 x231 + 1 x232 + 1 x233 + 1 x234 + 1 x235 + 1 x236 + 1 x237 + 1 x238 + 1 x239 + 1 x240 + 1 x241 + 1 x242 + 1 x243 + 1 x244 + 1 x245 + 1 x246 + 1 x247 + 1 x248 + 1 x249 + 1 x250 + 1 x251 + 1 x252 + 1 x253 + 1 x254 + 1 x255 + 1 x256 + 1 x257 + 1 x258 + 1 x259 + 1 x260 + 1 x261 + 1 x262 + 1 x263 + 1 x264 + 1 x265 + 1 x266 + 1 x267 + 1 x268 + 1 x269 + 1 x270 + 1 x271 + 1 x272 + 1 x273 + 1 x274 + 1 x275 + 1 x276 + 1 x277 + 1 x278 + 1 x279 + 1 x280 + 1 x281 + 1 x282 + 1 x283 + 1 x284 + 1 x285 + 1 x286 + 1 x287 + 1 x288 + 1 x289 + 1 x290 + 1 x291 + 1 x292 + 1 x293 + 1 x294 + 1 x295 + 1 x296 + 1 x297 + 1 x298 + 1 x299 + 1 x300 + 1 x301 + 1 x302 + 1 x303 + 1 x304 + 1 x305 + 1 x306 + 1 x307 + 1 x308 + 1 x309 + 1 x310 + 1 x311 + 1 x312 + 1 x313 + 1 x314 + 1 x315 + 1 x316 + 1 x317 + 1 x318 + 1 x319 + 1 x320 + 1 x321 + 1 x322 + 1 x323 + 1 x324 + 1 x325 + 1 x326 + 1 x327 + 1 x328 + 1 x329 + 1 x330 + 1 x331 + 1 x332 + 1 x333 + 1 x334 + 1 x335 + 1 x336 + 1 x337 + 1 x338 + 1 x339 + 1 x340 + 1 x341 + 1 x342 + 1 x343 + 1 x344 + 1 x345 + 1 x346 + 1 x347 + 1 x348 + 1 x349 + 1 x350 + 1 x351 + 1 x352 + 1 x353 + 1 x354 + 1 x355 + 1 x356 + 1 x357 + 1 x358 + 1 x359 + 1 x360 + 1 x361 + 1 x362 + 1 x363 + 1 x364 + 1 x365 + 1 x366 + 1 x367 + 1 x368 + 1 x369 + 1 x370 + 1 x371 + 1 x372 + 1 x373 + 1 x374 + 1 x375 + 1 x376 + 1 x377 + 1 x378 + 1 x379 + 1 x380 + 1 x381 + 1 x382 + 1 x383 + 1 x384 + 1 x385 + 1 x386 + 1 x387 + 1 x388 + 1 x389 + 1 x390 + 1 x391 + 1 x392 + 1 x393 + 1 x394 + 1 x395 + 1 x396 + 1 x397 + 1 x398 + 1 x399 + 1 x400 + 1 x401 + 1 x402 + 1 x403 + 1 x404 + 1 x405 + 1 x406 + 1 x407 + 1 x408 + 1 x409 + 1 x410 + 1 x411 + 1 x412 + 1 x413 + 1 x414 + 1 x415 + 1 x416 + 1 x417 + 1 x418 + 1 x419 + 1 x420 + 1 x421 + 1 x422 + 1 x423 + 1 x424 + 1 x425 + 1 x426 + 1 x427 + 1 x428 + 1 x429 + 1 x430 + 1 x431 + 1 x432 + 1 x433 + 1 x434 + 1 x435 + 1 x436 + 1 x437 + 1 x438 + 1 x439 + 1 x440 + 1 x441 + 1 x442 + 1 x443 + 1 x444 + 1 x445 + 1 x446 + 1 x447 + 1 x448 + 1 x449 + 1 x450 + 1 x451 + 1 x452 + 1 x453 + 1 x454 + 1 x455 + 1 x456 + 1 x457 + 1 x458 + 1 x459 + 1 x460 + 1 x461 + 1 x462 + 1 x463 + 1 x464 + 1 x465 + 1 x466 + 1 x467 + 1 x468 + 1 x469 + 1 x470 + 1 x471 + 1 x472 + 1 x473 + 1 x474 + 1 x475 + 1 x476 + 1 x477 + 1 x478 + 1 x479 + 1 x480 + 1 x481 + 1 x482 + 1 x483 + 1 x484 + 1 x485 + 1 x486 + 1 x487 + 1 x488 + 1 x489 + 1 x490 + 1 x491 + 1 x492 + 1 x493 + 1 x494 + 1 x495 + 1 x496 + 1 x497 + 1 x498 + 1 x499 + 1 x500

subject to
C1: + x5 + x136 <= 1
C2: + x278 + x373 <= 1
C3: + x8 + x304 <= 1
C4: + x10 + x85 <= 1
C5: + x2 + x216 <= 1
C6: + x6 + x179 <= 1
C7: + x46 + x231 <= 1
C8: + x34 + x42 <= 1
C9: + x18 + x440 <= 1
C10: + x393 + x487 <= 1
C11: + x91 + x208 <= 1
C12: + x37 + x349 <= 1
C13: + x170 + x176 <= 1
C14: + x52 + x113 <= 1
C15: + x98 + x347 <= 1
C16: + x36 + x235 <= 1
C17: + x111 + x360 <= 1
C18: + x11 + x372 <= 1
C19: + x21 + x76 <= 1
C20: + x33 + x114 <= 1
C21: + x5 + x347 <= 1
C22: + x13 + x294 <= 1
C23: + x28 + x421 <= 1
C24: + x10 + x479 <= 1
C25: + x11 + x98 <= 1
C26: + x3 + x131 <= 1
C27: + x1 + x5 + x6 + x20 <= 1
C28: + x4 + x232 <= 1
C29: + x24 + x334 <= 1
C30: + x117 + x210 <= 1
C31: + x186 + x254 <= 1
C32: + x4 + x474 <= 1
C33: + x33 + x225 <= 1
C34: + x6 + x486 <= 1
C35: + x125 + x146 <= 1
C36: + x35 + x221 <= 1
C37: + x251 + x495 <= 1
C38: + x1 + x469 <= 1
C39: + x282 + x430 <= 1
C40: + x170 + x229 <= 1
C41: + x145 + x463 <= 1
C42: + x42 + x136 <= 1
C43: + x264 + x411 <= 1
C44: + x9 + x353 <= 1
C45: + x71 + x480 <= 1
C46: + x12 + x161 <= 1
C47: + x68 + x457 <= 1
C48: + x95 + x332 <= 1
C49: + x223 + x285 <= 1
C50: + x98 + x340 <= 1
C51: + x72 + x139 <= 1
C52: + x63 + x166 <= 1
C53: + x68 + x187 <= 1
C54: + x106 + x500 <= 1
C55: + x5 + x322 <= 1
C56: + x89 + x342 <= 1
C57: + x11 + x105 <= 1
C58: + x18 + x203 <= 1
C59: + x82 + x267 <= 1
C60: + x65 + x463 <= 1
C61: + x13 + x436 <= 1
C62: + x160 + x301 <= 1
C63: + x9 + x95 <= 1
C64: + x65 + x108 <= 1
C65: + x12 + x399 <= 1
C66: + x92 + x266 <= 1
C67: + x365 + x439 <= 1
C68: + x38 + x361 <= 1
C69: + x312 + x346 <= 1
C70: + x122 + x381 <= 1
C71: + x43 + x297 <= 1
C72: + x162 + x217 <= 1
C73: + x9 + x46 <= 1
C74: + x8 + x16 <= 1
C75: + x29 + x177 <= 1
C76: + x186 + x211 <= 1
C77: + x14 + x496 <= 1
C78: + x11 + x48 <= 1
C79: + x103 + x117 <= 1
C80: + x4 + x298 <= 1
C81: + x52 + x365 <= 1
C82: + x160 + x248 <= 1
C83: + x27 + x75 <= 1
C84: + x38 + x349 <= 1
C85: + x12 + x218 <= 1
C86: + x9 + x26 <= 1
C87: + x255 + x493 <= 1
C88: + x108 + x184 <= 1
C89: + x109 + x133 <= 1
C90: + x45 + x69 <= 1
C91: + x25 + x140 <= 1
C92: + x12 + x14 + x70 <= 1
C93: + x1 + x419 <= 1
C94: + x2 + x10 + x66 <= 1
C95: + x1 + x181 <= 1
C96: + x348 + x368 <= 1
C97: + x6 + x174 <= 1
C98: + x253 + x324 <= 1
C99: + x205 + x223 <= 1
C100: + x17 + x21 <= 1
C101: + x6 + x412 <= 1
C102: + x28 + x384 <= 1
C103: + x138 + x345 <= 1
C104: + x30 + x262 <= 1
C105: + x251 + x282 <= 1
C106: + x5 + x161 <= 1
C107: + x27 + x409 <= 1
C108: + x88 + x197 <= 1
C109: + x34 + x416 <= 1
C110: + x136 + x481 <= 1
C111: + x362 + x424 <= 1
C112: + x269 + x366 <= 1
C113: + x18 + x44 <= 1
C114: + x2 + x274 <= 1
C115: + x47 + x238 <= 1
C116: + x12 + x62 <= 1
C117: + x123 + x163 <= 1
C118: + x412 + x433 <= 1
C119: + x62 + x163 <= 1
C120: + x156 + x383 <= 1
C121: + x11 + x27 <= 1
C122: + x109 + x311 <= 1
C123: + x9 + x240 <= 1
C124: + x121 + x298 <= 1
C125: + x94 + x370 <= 1
C126: + x211 + x344 <= 1
C127: + x153 + x456 <= 1
C128: + x49 + x228 <= 1
C129: + x53 + x289 <= 1
C130: + x173 + x339 <= 1
C131: + x85 + x202 <= 1
C132: + x4 + x135 <= 1
C133: + x206 + x308 <= 1
C134: + x17 + x239 <= 1
C135: + x109 + x184 <= 1
C136: + x1 + x41 <= 1
C137: + x18 + x241 <= 1
C138: + x75 + x484 <= 1
C139: + x22 + x335 <= 1
C140: + x36 + x314 <= 1
C141: + x134 + x224 <= 1
C142: + x55 + x57 <= 1
C143: + x56 + x171 <= 1
C144: + x220 + x252 <= 1
C145: + x357 + x489 <= 1
C146: + x140 + x233 <= 1
C147: + x33 + x47 <= 1
C148: + x75 + x115 <= 1
C149: + x47 + x412 <= 1
C150: + x95 + x317 <= 1
C151: + x52 + x77 <= 1
C152: + x8 + x50 <= 1
C153: + x310 + x487 <= 1
C154: + x157 + x475 <= 1
C155: + x68 + x146 <= 1
C156: + x51 + x204 <= 1
C157: + x192 + x414 <= 1
C158: + x140 + x165 <= 1
C159: + x9 + x151 <= 1
C160: + x8 + x71 <= 1
C161: + x64 + x422 <= 1
C162: + x12 + x132 <= 1
C163: + x25 + x293 <= 1
C164: + x15 + x397 <= 1
C165: + x71 + x282 <= 1
C166: + x232 + x253 <= 1
C167: + x88 + x135 <= 1
C168: + x147 + x162 <= 1
C169: + x5 + x8 <= 1
C170: + x44 + x402 <= 1
C171: + x1 + x48 <= 1
C172: + x72 + x315 <= 1
C173: + x47 + x52 <= 1
C174: + x377 + x434 <= 1
C175: + x13 + x72 <= 1
C176: + x4 + x43 <= 1
C177: + x24 + x56 <= 1
C178: + x36 + x319 <= 1
C179: + x3 + x18 + x29 <= 1
C180: + x167 + x312 <= 1
C181: + x61 + x303 <= 1
C182: + x15 + x118 <= 1
C183: + x152 + x194 <= 1
C184: + x272 + x335 <= 1
C185: + x56 + x398 <= 1
C186: + x30 + x187 <= 1
C187: + x23 + x246 <= 1
C188: + x79 + x396 <= 1
C189: + x8 + x47 <= 1
C190: + x2 + x356 <= 1
C191: + x20 + x125 <= 1
C192: + x177 + x448 <= 1
C193: + x18 + x449 <= 1
C194: + x327 + x331 <= 1
C195: + x120 + x457 <= 1
C196: + x11 + x13 <= 1
C197: + x55 + x433 <= 1
C198: + x130 + x165 <= 1
C199: + x114 + x288 <= 1
C200: + x204 + x414 <= 1
C201: + x91 + x300 <= 1
C202: + x1 + x235 <= 1
C203: + x11 + x226 <= 1
C204: + x41 + x82 <= 1
C205: + x32 + x255 <= 1
C206: + x52 + x98 <= 1
C207: + x8 + x483 <= 1
C208: + x2 + x320 <= 1
C209: + x3 + x424 <= 1
C210: + x3 + x17 <= 1
C211: + x23 + x472 <= 1
C212: + x144 + x341 <= 1
C213: + x5 + x15 <= 1
C214: + x6 + x153 <= 1
C215: + x434 + x482 <= 1
C216: + x326 + x367 <= 1
C217: + x246 + x426 <= 1
C218: + x96 + x442 <= 1
C219: + x103 + x464 <= 1
C220: + x266 + x346 <= 1
C221: + x341 + x433 <= 1
C222: + x6 + x42 <= 1
C223: + x10 + x47 <= 1
C224: + x260 + x376 <= 1
C225: + x10 + x138 <= 1
C226: + x6 + x443 <= 1
C227: + x100 + x468 <= 1
C228: + x20 + x408 <= 1
C229: + x1 + x226 <= 1
C230: + x26 + x32 <= 1
C231: + x29 + x125 <= 1
C232: + x123 + x132 <= 1
C233: + x56 + x254 <= 1
C234: + x34 + x112 <= 1
C235: + x15 + x60 <= 1
C236: + x2 + x7 <= 1
C237: + x108 + x275 <= 1
C238: + x1 + x62 <= 1
C239: + x4 + x25 <= 1
C240: + x150 + x405 <= 1
C241: + x53 + x173 <= 1
C242: + x218 + x223 <= 1
C243: + x10 + x290 <= 1
C244: + x46 + x89 <= 1
C245: + x58 + x211 <= 1
C246: + x120 + x395 <= 1
C247: + x318 + x446 <= 1
C248: + x50 + x158 <= 1
C249: + x6 + x19 <= 1
C250: + x102 + x497 <= 1
C251: + x202 + x299 <= 1
C252: + x94 + x130 <= 1
C253: + x61 + x386 <= 1
C254: + x290 + x296 <= 1
C255: + x94 + x293 <= 1
C256: + x36 + x281 <= 1
C257: + x55 + x90 <= 1
C258: + x11 + x63 <= 1
C259: + x38 + x459 <= 1
C260: + x31 + x438 <= 1
C261: + x262 + x331 <= 1
C262: + x108 + x137 <= 1
C263: + x253 + x254 <= 1
C264: + x16 + x260 <= 1
C265: + x25 + x413 <= 1
C266: + x3 + x277 <= 1
C267: + x98 + x147 <= 1
C268: + x278 + x415 <= 1
C269: + x5 + x443 <= 1
C270: + x52 + x441 <= 1
C271: + x28 + x261 <= 1
C272: + x319 + x497 <= 1
C273: + x67 + x378 <= 1
C274: + x75 + x437 <= 1
C275: + x169 + x263 <= 1
C276: + x414 + x453 <= 1
C277: + x71 + x176 <= 1
C278: + x9 + x454 <= 1
C279: + x2 + x32 <= 1
C280: + x12 + x264 <= 1
C281: + x78 + x269 <= 1
C282: + x14 + x24 <= 1
C283: + x99 + x244 <= 1
C284: + x35 + x125 <= 1
C285: + x15 + x273 <= 1
C286: + x182 + x252 <= 1
C287: + x124 + x250 <= 1
C288: + x108 + x439 <= 1
C289: + x56 + x374 <= 1
C290: + x79 + x143 <= 1
C291: + x18 + x283 <= 1
C292: + x119 + x445 <= 1
C293: + x92 + x227 <= 1
C294: + x147 + x191 <= 1
C295: + x224 + x482 <= 1
C296: + x108 + x328 <= 1
C297: + x9 + x36 <= 1
C298: + x8 + x22 <= 1
C299: + x328 + x417 <= 1
C300: + x147 + x484 <= 1
C301: + x46 + x227 <= 1
C302: + x39 + x359 <= 1
C303: + x156 + x437 <= 1
C304: + x2 + x69 <= 1
C305: + x167 + x277 <= 1
C306: + x32 + x55 <= 1
C307: + x97 + x327 <= 1
C308: + x453 + x471 <= 1
C309: + x27 + x69 <= 1
C310: + x11 + x155 <= 1
C311: + x59 + x497 <= 1
C312: + x11 + x384 <= 1
C313: + x4 + x333 <= 1
C314: + x279 + x302 <= 1
C315: + x74 + x131 <= 1
C316: + x165 + x403 <= 1
C317: + x11 + x110 <= 1
C318: + x283 + x286 <= 1
C319: + x14 + x17 <= 1
C320: + x87 + x134 <= 1
C321: + x91 + x329 <= 1
C322: + x294 + x470 <= 1
C323: + x17 + x111 <= 1
C324: + x160 + x292 <= 1
C325: + x201 + x209 <= 1
C326: + x400 + x465 <= 1
C327: + x9 + x92 <= 1
C328: + x50 + x144 <= 1
C329: + x1 + x187 <= 1
C330: + x39 + x108 <= 1
C331: + x222 + x479 <= 1
C332: + x23 + x146 <= 1
C333: + x6 + x168 <= 1
C334: + x24 + x201 <= 1
C335: + x8 + x19 <= 1
C336: + x25 + x78 <= 1
C337: + x6 + x406 <= 1
C338: + x83 + x115 <= 1
C339: + x2 + x94 <= 1
C340: + x9 + x186 <= 1
C341: + x2 + x249 <= 1
C342: + x5 + x84 <= 1
C343: + x125 + x300 <= 1
C344: + x24 + x157 <= 1
C345: + x142 + x242 <= 1
C346: + x263 + x419 <= 1
C347: + x49 + x432 <= 1
C348: + x48 + x490 <= 1
C349: + x6 + x253 <= 1
C350: + x36 + x466 <= 1
C351: + x121 + x288 <= 1
C352: + x85 + x337 <= 1
C353: + x283 + x442 <= 1
C354: + x51 + x353 <= 1
C355: + x115 + x366 <= 1
C356: + x16 + x56 <= 1
C357: + x9 + x67 <= 1
C358: + x38 + x103 <= 1
C359: + x3 + x9 <= 1
C360: + x320 + x421 <= 1
C361: + x333 + x410 <= 1
C362: + x24 + x440 <= 1
C363: + x27 + x458 <= 1
C364: + x65 + x141 <= 1
C365: + x28 + x49 <= 1
C366: + x10 + x75 <= 1
C367: + x284 + x427 <= 1
C368: + x89 + x358 <= 1
C369: + x149 + x317 <= 1
C370: + x297 + x350 <= 1
C371: + x145 + x314 <= 1
C372: + x45 + x126 <= 1
C373: + x2 + x321 <= 1
C374: + x30 + x59 <= 1
C375: + x104 + x419 <= 1
C376: + x34 + x64 <= 1
C377: + x142 + x311 <= 1
C378: + x28 + x379 <= 1
C379: + x11 + x415 <= 1
C380: + x32 + x37 <= 1
C381: + x5 + x166 <= 1
C382: + x18 + x321 <= 1
C383: + x18 + x140 <= 1
C384: + x1 + x206 <= 1
C385: + x6 + x50 <= 1
C386: + x69 + x462 <= 1
C387: + x166 + x444 <= 1
C388: + x23 + x395 <= 1
C389: + x11 + x32 <= 1
C390: + x167 + x243 <= 1
C391: + x13 + x181 <= 1
C392: + x24 + x352 <= 1
C393: + x36 + x471 <= 1
C394: + x109 + x129 <= 1
C395: + x193 + x271 <= 1
C396: + x2 + x142 <= 1
C397: + x304 + x385 <= 1
C398: + x124 + x308 <= 1
C399: + x32 + x347 <= 1
C400: + x4 + x117 <= 1
C401: + x297 + x438 <= 1
C402: + x137 + x305 <= 1
C403: + x1 + x137 <= 1
C404: + x175 + x254 <= 1
C405: + x1 + x86 <= 1
C406: + x64 + x104 <= 1
C407: + x25 + x92 <= 1
C408: + x96 + x335 <= 1
C409: + x6 + x392 <= 1
C410: + x239 + x252 <= 1
C411: + x149 + x171 <= 1
C412: + x77 + x243 <= 1
C413: + x20 + x441 <= 1
C414: + x424 + x465 <= 1
C415: + x9 + x275 <= 1
C416: + x27 + x82 <= 1
C417: + x303 + x330 <= 1
C418: + x227 + x283 <= 1
C419: + x11 + x361 <= 1
C420: + x78 + x305 <= 1
C421: + x94 + x334 <= 1
C422: + x25 + x290 <= 1
C423: + x44 + x211 <= 1
C424: + x339 + x373 <= 1
C425: + x21 + x494 <= 1
C426: + x43 + x102 <= 1
C427: + x87 + x282 <= 1
C428: + x107 + x422 <= 1
C429: + x63 + x97 <= 1
C430: + x210 + x477 <= 1
C431: + x18 + x245 <= 1
C432: + x20 + x176 <= 1
C433: + x40 + x198 <= 1
C434: + x32 + x376 <= 1
C435: + x83 + x96 <= 1
C436: + x1 + x458 <= 1
C437: + x257 + x425 <= 1
C438: + x41 + x390 <= 1
C439: + x35 + x283 <= 1
C440: + x27 + x496 <= 1
C441: + x11 + x191 <= 1
C442: + x89 + x93 <= 1
C443: + x52 + x81 <= 1
C444: + x9 + x12 <= 1
C445: + x111 + x264 <= 1
C446: + x156 + x332 <= 1
C447: + x233 + x242 <= 1
C448: + x40 + x44 <= 1
C449: + x104 + x236 <= 1
C450: + x426 + x468 <= 1
C451: + x65 + x472 <= 1
C452: + x3 + x264 <= 1
C453: + x30 + x242 <= 1
C454: + x112 + x156 <= 1
C455: + x161 + x310 <= 1
C456: + x5 + x458 <= 1
C457: + x334 + x430 <= 1
C458: + x1 + x437 <= 1
C459: + x9 + x120 <= 1
C460: + x157 + x491 <= 1
C461: + x3 + x22 <= 1
C462: + x144 + x157 <= 1
C463: + x204 + x469 <= 1
C464: + x17 + x277 <= 1
C465: + x92 + x99 <= 1
C466: + x277 + x348 <= 1
C467: + x387 + x488 <= 1
C468: + x71 + x202 <= 1
C469: + x18 + x393 <= 1
C470: + x11 + x396 <= 1
C471: + x29 + x63 <= 1
C472: + x230 + x262 <= 1
C473: + x30 + x276 <= 1
C474: + x106 + x323 <= 1
C475: + x5 + x147 <= 1
C476: + x216 + x343 <= 1
C477: + x262 + x488 <= 1
C478: + x101 + x338 <= 1
C479: + x105 + x234 <= 1
C480: + x116 + x163 <= 1
C481: + x206 + x285 <= 1
C482: + x153 + x270 <= 1
C483: + x52 + x483 <= 1
C484: + x159 + x459 <= 1
C485: + x17 + x150 <= 1
C486: + x36 + x180 <= 1
C487: + x143 + x257 <= 1
C488: + x219 + x370 <= 1
C489: + x38 + x215 <= 1
C490: + x18 + x453 <= 1
C491: + x75 + x320 <= 1
C492: + x2 + x387 <= 1
C493: + x25 + x403 <= 1
C494: + x14 + x46 <= 1
C495: + x118 + x380 <= 1
C496: + x9 + x130 <= 1
C497: + x68 + x469 <= 1
C498: + x5 + x124 <= 1
C499: + x18 + x86 <= 1
C500: + x123 + x306 <= 1
C501: + x69 + x217 <= 1
C502: + x48 + x371 <= 1
C503: + x6 + x98 <= 1
C504: + x12 + x431 <= 1
C505: + x83 + x191 <= 1
C506: + x71 + x178 <= 1
C507: + x39 + x399 <= 1
C508: + x5 + x11 <= 1
C509: + x170 + x206 <= 1
C510: + x24 + x230 <= 1
C511: + x27 + x60 <= 1
C512: + x8 + x112 <= 1
C513: + x6 + x352 <= 1
C514: + x29 + x145 <= 1
C515: + x60 + x432 <= 1
C516: + x13 + x392 <= 1
C517: + x170 + x292 <= 1
C518: + x15 + x424 <= 1
C519: + x20 + x25 <= 1
C520: + x6 + x22 <= 1
C521: + x172 + x367 <= 1
C522: + x1 + x170 <= 1
C523: + x10 + x83 <= 1
C524: + x173 + x190 <= 1
C525: + x5 + x63 <= 1
C526: + x25 + x224 <= 1
C527: + x29 + x165 <= 1
C528: + x267 + x293 <= 1
C529: + x5 + x206 <= 1
C530: + x99 + x161 <= 1
C531: + x363 + x473 <= 1
C532: + x382 + x451 <= 1
C533: + x11 + x149 <= 1
C534: + x205 + x382 <= 1
C535: + x5 + x99 <= 1
C536: + x278 + x402 <= 1
C537: + x72 + x152 <= 1
C538: + x57 + x96 <= 1
C539: + x121 + x160 <= 1
C540: + x85 + x465 <= 1
C541: + x331 + x425 <= 1
C542: + x195 + x273 <= 1
C543: + x6 + x107 <= 1
C544: + x207 + x384 <= 1
C545: + x65 + x240 <= 1
C546: + x8 + x194 <= 1
C547: + x261 + x426 <= 1
C548: + x2 + x27 <= 1
C549: + x8 + x101 <= 1
C550: + x114 + x167 + x230 <= 1
C551: + x77 + x485 <= 1
C552: + x97 + x427 <= 1
C553: + x17 + x117 <= 1
C554: + x63 + x229 <= 1
C555: + x68 + x252 <= 1
C556: + x5 + x129 <= 1
C557: + x270 + x311 <= 1
C558: + x127 + x461 <= 1
C559: + x128 + x455 <= 1
C560: + x1 + x161 <= 1
C561: + x2 + x215 <= 1
C562: + x72 + x438 <= 1
C563: + x112 + x227 <= 1
C564: + x189 + x486 <= 1
C565: + x118 + x314 <= 1
C566: + x63 + x66 <= 1
C567: + x6 + x269 <= 1
C568: + x8 + x246 <= 1
C569: + x85 + x183 <= 1
C570: + x285 + x460 <= 1
C571: + x162 + x206 <= 1
C572: + x90 + x281 <= 1
C573: + x82 + x95 + x222 <= 1
C574: + x32 + x407 <= 1
C575: + x6 + x432 <= 1
C576: + x156 + x351 <= 1
C577: + x6 + x195 <= 1
C578: + x18 + x338 <= 1
C579: + x17 + x22 + x24 <= 1
C580: + x222 + x413 <= 1
C581: + x287 + x432 <= 1
C582: + x52 + x116 <= 1
C583: + x34 + x154 <= 1
C584: + x329 + x354 <= 1
C585: + x1 + x410 <= 1
C586: + x21 + x85 <= 1
C587: + x123 + x151 <= 1
C588: + x167 + x353 <= 1
C589: + x8 + x372 <= 1
C590: + x256 + x343 <= 1
C591: + x3 + x132 <= 1
C592: + x270 + x479 <= 1
C593: + x1 + x9 <= 1
C594: + x12 + x103 <= 1
C595: + x5 + x491 <= 1
C596: + x15 + x434 <= 1
C597: + x152 + x390 <= 1
C598: + x2 + x48 <= 1
C599: + x297 + x340 <= 1
C600: + x34 + x276 <= 1
C601: + x42 + x194 + x261 <= 1
C602: + x134 + x321 <= 1
C603: + x101 + x121 <= 1
C604: + x28 + x198 <= 1
C605: + x472 + x482 <= 1
C606: + x20 + x152 <= 1
C607: + x13 + x93 <= 1
C608: + x41 + x188 <= 1
C609: + x297 + x497 <= 1
C610: + x116 + x396 <= 1
C611: + x27 + x371 <= 1
C612: + x74 + x91 <= 1
C613: + x57 + x255 <= 1
C614: + x182 + x303 <= 1
C615: + x9 + x389 <= 1
C616: + x11 + x38 <= 1
C617: + x31 + x417 <= 1
C618: + x34 + x397 <= 1
C619: + x6 + x204 <= 1
C620: + x51 + x71 + x205 <= 1
C621: + x9 + x183 <= 1
C622: + x4 + x95 <= 1
C623: + x12 + x15 <= 1
C624: + x405 + x499 <= 1
C625: + x118 + x456 <= 1
C626: + x200 + x425 <= 1
C627: + x165 + x415 <= 1
C628: + x156 + x215 <= 1
C629: + x193 + x408 <= 1
C630: + x51 + x385 <= 1
C631: + x22 + x90 <= 1
C632: + x6 + x256 <= 1
C633: + x44 + x498 <= 1
C634: + x36 + x100 <= 1
C635: + x41 + x119 <= 1
C636: + x22 + x189 <= 1
C637: + x169 + x385 <= 1
C638: + x50 + x414 <= 1
C639: + x117 + x127 <= 1
C640: + x36 + x223 <= 1
C641: + x164 + x406 <= 1
C642: + x3 + x14 <= 1
C643: + x1 + x330 <= 1
C644: + x164 + x369 <= 1
C645: + x75 + x158 <= 1
C646: + x3 + x175 <= 1
C647: + x11 + x94 <= 1
C648: + x8 + x15 <= 1
C649: + x191 + x226 <= 1
C650: + x128 + x231 <= 1
C651: + x256 + x446 <= 1
C652: + x23 + x444 <= 1
C653: + x348 + x391 <= 1
C654: + x6 + x53 <= 1
C655: + x7 + x195 <= 1
C656: + x154 + x271 <= 1
C657: + x28 + x76 <= 1
C658: + x108 + x123 <= 1
C659: + x85 + x137 <= 1
C660: + x18 + x324 <= 1
C661: + x127 + x128 <= 1
C662: + x260 + x283 <= 1
C663: + x18 + x50 <= 1
C664: + x8 + x9 + x11 + x55 <= 1
C665: + x121 + x181 <= 1
C666: + x51 + x215 <= 1
C667: + x26 + x402 <= 1
C668: + x189 + x447 <= 1
C669: + x92 + x374 <= 1
C670: + x393 + x450 <= 1
C671: + x419 + x457 <= 1
C672: + x354 + x453 <= 1
C673: + x143 + x476 <= 1
C674: + x1 + x7 <= 1
C675: + x55 + x330 <= 1
C676: + x38 + x144 <= 1
C677: + x20 + x218 <= 1
C678: + x220 + x395 <= 1
C679: + x22 + x369 <= 1
C680: + x153 + x450 <= 1
C681: + x162 + x427 <= 1
C682: + x1 + x420 <= 1
C683: + x38 + x99 <= 1
C684: + x3 + x5 <= 1
C685: + x5 + x382 <= 1
C686: + x180 + x416 <= 1
C687: + x99 + x113 <= 1
C688: + x9 + x292 <= 1
C689: + x220 + x316 <= 1
C690: + x39 + x103 <= 1
C691: + x50 + x488 <= 1
C692: + x6 + x173 <= 1
C693: + x361 + x386 <= 1
C694: + x9 + x214 <= 1
C695: + x115 + x145 <= 1
C696: + x32 + x398 <= 1
C697: + x35 + x164 <= 1
C698: + x101 + x452 <= 1
C699: + x32 + x33 <= 1
C700: + x355 + x498 <= 1
C701: + x36 + x38 <= 1
C702: + x46 + x354 <= 1
C703: + x57 + x415 <= 1
C704: + x52 + x71 <= 1
C705: + x18 + x43 <= 1
C706: + x27 + x248 <= 1
C707: + x2 + x273 <= 1
C708: + x28 + x240 <= 1
C709: + x135 + x381 <= 1
C710: + x303 + x424 <= 1
C711: + x5 + x305 <= 1
C712: + x89 + x293 <= 1
C713: + x107 + x499 <= 1
C714: + x8 + x351 <= 1
C715: + x144 + x199 <= 1
C716: + x11 + x28 <= 1
C717: + x133 + x342 <= 1
C718: + x145 + x180 <= 1
C719: + x9 + x348 <= 1
C720: + x1 + x30 <= 1
C721: + x37 + x319 <= 1
C722: + x3 + x306 <= 1
C723: + x13 + x419 <= 1
C724: + x120 + x363 <= 1
C725: + x31 + x490 <= 1
C726: + x161 + x409 <= 1
C727: + x4 + x363 <= 1
C728: + x24 + x457 <= 1
C729: + x8 + x218 <= 1
C730: + x2 + x51 <= 1
C731: + x11 + x80 <= 1
C732: + x325 + x359 <= 1
C733: + x22 + x64 <= 1
C734: + x5 + x26 <= 1
C735: + x23 + x168 <= 1
C736: + x15 + x310 <= 1
C737: + x55 + x157 <= 1
C738: + x49 + x116 <= 1
C739: + x75 + x326 <= 1
C740: + x51 + x122 <= 1
C741: + x9 + x279 <= 1
C742: + x36 + x43 <= 1
C743: + x8 + x142 <= 1
C744: + x43 + x336 <= 1
C745: + x24 + x175 <= 1
C746: + x83 + x500 <= 1
C747: + x55 + x169 <= 1
C748: + x41 + x221 <= 1
C749: + x47 + x268 <= 1
C750: + x17 + x358 <= 1
C751: + x3 + x265 <= 1
C752: + x55 + x229 <= 1
C753: + x3 + x23 <= 1
C754: + x144 + x148 <= 1
C755: + x284 + x445 <= 1
C756: + x162 + x227 <= 1
C757: + x1 + x33 <= 1
C758: + x68 + x279 <= 1
C759: + x13 + x65 <= 1
C760: + x297 + x493 <= 1
C761: + x29 + x36 <= 1
C762: + x47 + x327 <= 1
C763: + x429 + x441 <= 1
C764: + x70 + x277 <= 1
C765: + x72 + x128 <= 1
C766: + x50 + x462 <= 1
C767: + x35 + x37 <= 1
C768: + x256 + x413 <= 1
C769: + x285 + x288 <= 1
C770: + x52 + x244 <= 1
C771: + x55 + x77 <= 1
C772: + x11 + x14 <= 1
C773: + x2 + x113 <= 1
C774: + x25 + x400 <= 1
C775: + x7 + x228 <= 1
C776: + x1 + x236 <= 1
C777: + x10 + x17 <= 1
C778: + x98 + x136 <= 1
C779: + x23 + x268 <= 1
C780: + x14 + x351 <= 1
C781: + x9 + x124 <= 1
C782: + x27 + x142 <= 1
C783: + x47 + x201 <= 1
C784: + x314 + x363 <= 1
C785: + x53 + x312 <= 1
C786: + x185 + x285 <= 1
C787: + x257 + x309 <= 1
C788: + x12 + x265 <= 1
C789: + x1 + x40 <= 1
C790: + x179 + x340 <= 1
C791: + x18 + x397 <= 1
C792: + x129 + x138 <= 1
C793: + x75 + x376 <= 1
C794: + x114 + x476 <= 1
C795: + x89 + x139 <= 1
C796: + x112 + x217 <= 1
C797: + x25 + x360 <= 1
C798: + x24 + x189 <= 1
C799: + x8 + x39 <= 1
C800: + x227 + x297 <= 1
C801: + x20 + x133 <= 1
C802: + x166 + x339 <= 1
C803: + x153 + x431 <= 1
C804: + x54 + x96 <= 1
C805: + x374 + x390 <= 1
C806: + x114 + x280 <= 1
C807: + x5 + x195 <= 1
C808: + x73 + x177 <= 1
C809: + x18 + x175 <= 1
C810: + x118 + x179 <= 1
C811: + x172 + x237 <= 1
C812: + x157 + x345 <= 1
C813: + x30 + x199 <= 1
C814: + x5 + x104 <= 1
C815: + x25 + x308 <= 1
C816: + x24 + x113 <= 1
C817: + x14 + x141 <= 1
C818: + x140 + x416 <= 1
C819: + x288 + x304 <= 1
C820: + x6 + x110 <= 1
C821: + x2 + x6 <= 1
C822: + x41 + x489 <= 1
C823: + x24 + x315 <= 1
C824: + x12 + x109 <= 1
C825: + x4 + x28 <= 1
C826: + x52 + x54 <= 1
C827: + x156 + x258 <= 1
C828: + x239 + x352 <= 1
C829: + x167 + x295 <= 1
C830: + x215 + x380 <= 1
C831: + x6 + x18 <= 1
C832: + x7 + x162 <= 1
C833: + x185 + x368 <= 1
C834: + x31 + x44 <= 1
C835: + x90 + x284 <= 1
C836: + x6 + x272 <= 1
C837: + x154 + x399 <= 1
C838: + x37 + x196 <= 1
C839: + x113 + x149 <= 1
C840: + x10 + x178 <= 1
C841: + x104 + x439 <= 1
C842: + x43 + x225 <= 1
C843: + x330 + x488 <= 1
C844: + x13 + x341 <= 1
C845: + x14 + x35 <= 1
C846: + x6 + x198 <= 1
C847: + x5 + x111 <= 1
C848: + x14 + x337 <= 1
C849: + x253 + x265 <= 1
C850: + x9 + x106 <= 1
C851: + x50 + x218 <= 1
C852: + x324 + x350 <= 1
C853: + x5 + x345 <= 1
C854: + x6 + x87 <= 1
C855: + x2 + x31 <= 1
C856: + x82 + x276 <= 1
C857: + x13 + x110 <= 1
C858: + x31 + x341 <= 1
C859: + x18 + x127 <= 1
C860: + x145 + x446 <= 1
C861: + x322 + x464 <= 1
C862: + x24 + x417 <= 1
C863: + x9 + x307 <= 1
C864: + x35 + x292 <= 1
C865: + x181 + x263 <= 1
C866: + x55 + x492 <= 1
C867: + x40 + x126 <= 1
C868: + x5 + x34 <= 1
C869: + x9 + x37 <= 1
C870: + x38 + x197 <= 1
C871: + x3 + x382 <= 1
C872: + x307 + x323 <= 1
C873: + x325 + x425 <= 1
C874: + x402 + x449 <= 1
C875: + x11 + x39 <= 1
C876: + x202 + x420 <= 1
C877: + x78 + x209 <= 1
C878: + x22 + x393 <= 1
C879: + x45 + x467 <= 1
C880: + x381 + x496 <= 1
C881: + x194 + x362 <= 1
C882: + x277 + x297 <= 1
C883: + x9 + x17 <= 1
C884: + x1 + x414 <= 1
C885: + x76 + x263 <= 1
C886: + x144 + x248 <= 1
C887: + x421 + x435 <= 1
C888: + x14 + x16 <= 1
C889: + x48 + x71 <= 1
C890: + x25 + x131 <= 1
C891: + x24 + x91 <= 1
C892: + x329 + x338 <= 1
C893: + x56 + x334 <= 1
C894: + x39 + x272 <= 1
C895: + x139 + x183 <= 1
C896: + x23 + x54 <= 1
C897: + x117 + x401 <= 1
C898: + x89 + x160 <= 1
C899: + x137 + x207 <= 1
C900: + x173 + x355 <= 1
C901: + x107 + x235 <= 1
C902: + x34 + x280 <= 1
C903: + x24 + x204 <= 1
C904: + x8 + x14 <= 1
C905: + x85 + x287 <= 1
C906: + x25 + x79 <= 1
C907: + x26 + x65 <= 1
C908: + x219 + x236 <= 1
C909: + x3 + x67 <= 1
C910: + x13 + x331 <= 1
C911: + x341 + x403 <= 1
C912: + x4 + x296 <= 1
C913: + x80 + x81 <= 1
C914: + x36 + x60 <= 1
C915: + x254 + x294 <= 1
C916: + x9 + x187 <= 1
C917: + x4 + x67 <= 1
C918: + x5 + x93 <= 1
C919: + x78 + x429 <= 1
C920: + x30 + x210 <= 1
C921: + x67 + x329 <= 1
C922: + x48 + x278 <= 1
C923: + x251 + x388 <= 1
C924: + x170 + x394 <= 1
C925: + x12 + x309 <= 1
C926: + x197 + x420 <= 1
C927: + x9 + x231 <= 1
C928: + x46 + x288 <= 1
C929: + x56 + x121 <= 1
C930: + x12 + x148 <= 1
C931: + x214 + x377 <= 1
C932: + x20 + x213 <= 1
C933: + x167 + x495 <= 1
C934: + x5 + x478 <= 1
C935: + x64 + x233 <= 1
C936: + x38 + x102 <= 1
C937: + x3 + x10 <= 1
C938: + x148 + x436 <= 1
C939: + x13 + x270 <= 1
C940: + x6 + x13 <= 1
C941: + x137 + x246 <= 1
C942: + x101 + x143 <= 1
C943: + x68 + x393 <= 1
C944: + x23 + x170 <= 1
C945: + x288 + x494 <= 1
C946: + x6 + x379 <= 1
C947: + x38 + x247 <= 1
C948: + x25 + x86 <= 1
C949: + x17 + x19 <= 1
C950: + x11 + x41 <= 1
C951: + x3 + x94 <= 1
C952: + x267 + x447 <= 1
C953: + x78 + x195 <= 1
C954: + x6 + x49 <= 1
C955: + x73 + x173 <= 1
C956: + x27 + x88 <= 1
C957: + x114 + x159 <= 1
C958: + x13 + x39 <= 1
C959: + x16 + x108 <= 1
C960: + x29 + x66 <= 1
C961: + x30 + x78 <= 1
C962: + x204 + x271 <= 1
C963: + x33 + x133 <= 1
C964: + x287 + x301 <= 1
C965: + x34 + x470 <= 1
C966: + x94 + x372 <= 1
C967: + x442 + x454 <= 1
C968: + x239 + x380 <= 1
C969: + x115 + x455 <= 1
C970: + x25 + x46 <= 1
C971: + x6 + x118 <= 1
C972: + x27 + x466 <= 1
C973: + x69 + x237 <= 1
C974: + x15 + x33 <= 1
C975: + x1 + x325 <= 1
C976: + x164 + x177 <= 1
C977: + x114 + x348 <= 1
C978: + x75 + x486 <= 1
C979: + x193 + x220 <= 1
C980: + x4 + x36 <= 1
C981: + x196 + x228 <= 1
C982: + x5 + x265 <= 1
C983: + x79 + x276 <= 1
C984: + x6 + x391 <= 1
C985: + x119 + x306 <= 1
C986: + x51 + x333 <= 1
C987: + x29 + x42 <= 1
C988: + x107 + x459 <= 1
C989: + x4 + x278 <= 1
C990: + x32 + x45 <= 1
C991: + x6 + x58 <= 1
C992: + x27 + x486 <= 1
C993: + x448 + x474 <= 1
C994: + x5 + x67 <= 1
C995: + x5 + x416 <= 1
C996: + x24 + x174 <= 1
C997: + x1 + x99 <= 1
C998: + x111 + x382 <= 1
C999: + x47 + x247 <= 1
C1000: + x167 + x394 <= 1
C1001: + x16 + x408 <= 1
C1002: + x45 + x335 <= 1
C1003: + x365 + x494 <= 1
C1004: + x3 + x105 <= 1
C1005: + x114 + x353 <= 1
C1006: + x6 + x238 <= 1
C1007: + x56 + x79 <= 1
C1008: + x17 + x85 <= 1
C1009: + x275 + x332 <= 1
C1010: + x139 + x164 <= 1
C1011: + x189 + x390 <= 1
C1012: + x160 + x189 <= 1
C1013: + x173 + x336 <= 1
C1014: + x8 + x214 <= 1
C1015: + x4 + x142 <= 1
C1016: + x18 + x236 <= 1
C1017: + x12 + x126 <= 1
C1018: + x31 + x172 <= 1
C1019: + x9 + x446 <= 1
C1020: + x15 + x120 <= 1
C1021: + x6 + x35 <= 1
C1022: + x28 + x94 <= 1
C1023: + x11 + x192 <= 1
C1024: + x21 + x152 <= 1
C1025: + x205 + x405 <= 1
C1026: + x217 + x478 <= 1
C1027: + x5 + x391 <= 1
C1028: + x179 + x301 <= 1
C1029: + x65 + x442 <= 1
C1030: + x64 + x84 <= 1
C1031: + x200 + x237 <= 1
C1032: + x38 + x45 <= 1
C1033: + x57 + x228 <= 1
C1034: + x339 + x478 <= 1
C1035: + x3 + x100 <= 1
C1036: + x143 + x426 <= 1
C1037: + x10 + x20 <= 1
C1038: + x22 + x212 <= 1
C1039: + x5 + x459 <= 1
C1040: + x235 + x326 <= 1
C1041: + x9 + x121 <= 1
C1042: + x154 + x460 <= 1
C1043: + x67 + x362 <= 1
C1044: + x3 + x19 <= 1
C1045: + x85 + x452 <= 1
C1046: + x81 + x169 <= 1
C1047: + x101 + x188 <= 1
C1048: + x8 + x211 <= 1
C1049: + x3 + x184 <= 1
C1050: + x68 + x128 <= 1
C1051: + x149 + x203 <= 1
C1052: + x21 + x331 <= 1
C1053: + x5 + x13 <= 1
C1054: + x6 + x155 <= 1
C1055: + x1 + x37 <= 1
C1056: + x8 + x114 <= 1
C1057: + x377 + x439 <= 1
C1058: + x31 + x147 <= 1
C1059: + x25 + x171 <= 1
C1060: + x7 + x15 <= 1
C1061: + x72 + x213 <= 1
C1062: + x37 + x75 <= 1
C1063: + x167 + x297 <= 1
C1064: + x72 + x124 <= 1
C1065: + x72 + x455 <= 1
C1066: + x333 + x358 <= 1
C1067: + x200 + x230 <= 1
C1068: + x64 + x89 <= 1
C1069: + x184 + x450 <= 1
C1070: + x325 + x448 <= 1
C1071: + x271 + x291 <= 1
C1072: + x7 + x59 <= 1
C1073: + x29 + x441 <= 1
C1074: + x5 + x200 <= 1
C1075: + x343 + x355 <= 1
C1076: + x16 + x248 <= 1
C1077: + x4 + x107 <= 1
C1078: + x5 + x101 <= 1
C1079: + x53 + x159 <= 1
C1080: + x142 + x358 <= 1
C1081: + x1 + x397 <= 1
C1082: + x159 + x273 <= 1
C1083: + x271 + x367 <= 1
C1084: + x1 + x298 <= 1
C1085: + x1 + x159 <= 1
C1086: + x5 + x12 <= 1
C1087: + x6 + x132 <= 1
C1088: + x207 + x407 <= 1
C1089: + x8 + x111 <= 1
C1090: + x10 + x193 <= 1
C1091: + x9 + x428 <= 1
C1092: + x109 + x456 <= 1
C1093: + x1 + x473 <= 1
C1094: + x30 + x492 <= 1
C1095: + x6 + x21 <= 1
C1096: + x17 + x313 <= 1
C1097: + x27 + x205 <= 1
C1098: + x186 + x190 <= 1
C1099: + x170 + x495 <= 1
C1100: + x117 + x332 <= 1
C1101: + x17 + x344 <= 1
C1102: + x18 + x352 <= 1
C1103: + x381 + x470 <= 1
C1104: + x14 + x137 <= 1
C1105: + x243 + x467 <= 1
C1106: + x24 + x141 <= 1
C1107: + x28 + x259 <= 1
C1108: + x39 + x145 <= 1
C1109: + x168 + x373 <= 1
C1110: + x10 + x111 <= 1
C1111: + x373 + x474 <= 1
C1112: + x220 + x284 <= 1
C1113: + x22 + x87 <= 1
C1114: + x209 + x452 <= 1
C1115: + x15 + x275 <= 1
C1116: + x1 + x51 <= 1
C1117: + x22 + x357 <= 1
C1118: + x43 + x239 <= 1
C1119: + x14 + x264 <= 1
C1120: + x37 + x121 <= 1
C1121: + x130 + x267 <= 1
C1122: + x147 + x339 <= 1
C1123: + x257 + x447 <= 1
C1124: + x13 + x285 <= 1
C1125: + x15 + x73 <= 1
C1126: + x91 + x186 <= 1
C1127: + x72 + x106 <= 1
C1128: + x1 + x162 <= 1
C1129: + x75 + x105 <= 1
C1130: + x2 + x214 <= 1
C1131: + x6 + x30 <= 1
C1132: + x8 + x298 <= 1
C1133: + x5 + x39 <= 1
C1134: + x120 + x148 <= 1
C1135: + x53 + x89 <= 1
C1136: + x17 + x133 <= 1
C1137: + x72 + x348 <= 1
C1138: + x30 + x43 <= 1
C1139: + x41 + x182 <= 1
C1140: + x3 + x77 <= 1
C1141: + x67 + x141 <= 1
C1142: + x259 + x483 <= 1
C1143: + x32 + x53 <= 1
C1144: + x9 + x177 <= 1
C1145: + x154 + x260 <= 1
C1146: + x95 + x327 <= 1
C1147: + x13 + x54 <= 1
C1148: + x125 + x224 <= 1
C1149: + x16 + x25 <= 1
C1150: + x236 + x325 <= 1
C1151: + x19 + x333 <= 1
C1152: + x46 + x153 <= 1
C1153: + x8 + x371 <= 1
C1154: + x193 + x402 <= 1
C1155: + x112 + x295 <= 1
C1156: + x106 + x172 <= 1
C1157: + x119 + x204 <= 1
C1158: + x220 + x448 <= 1
C1159: + x20 + x203 <= 1
C1160: + x94 + x357 <= 1
C1161: + x4 + x5 <= 1
C1162: + x65 + x458 <= 1
C1163: + x34 + x213 <= 1
C1164: + x16 + x45 <= 1
C1165: + x20 + x42 <= 1
C1166: + x94 + x115 <= 1
C1167: + x34 + x440 <= 1
C1168: + x17 + x394 <= 1
C1169: + x45 + x411 <= 1
C1170: + x28 + x58 <= 1
C1171: + x301 + x378 <= 1
C1172: + x95 + x286 <= 1
C1173: + x5 + x46 <= 1
C1174: + x207 + x429 <= 1
C1175: + x10 + x191 <= 1
C1176: + x144 + x393 <= 1
C1177: + x165 + x375 <= 1
C1178: + x20 + x151 <= 1
C1179: + x472 + x481 <= 1
C1180: + x147 + x203 <= 1
C1181: + x132 + x163 <= 1
C1182: + x17 + x326 <= 1
C1183: + x152 + x192 <= 1
C1184: + x154 + x210 <= 1
C1185: + x118 + x342 <= 1
C1186: + x11 + x136 <= 1
C1187: + x36 + x484 <= 1
C1188: + x13 + x45 <= 1
C1189: + x5 + x82 <= 1
C1190: + x6 + x313 <= 1
C1191: + x9 + x21 <= 1
C1192: + x403 + x500 <= 1
C1193: + x170 + x389 <= 1
C1194: + x6 + x92 <= 1
C1195: + x8 + x364 <= 1
C1196: + x55 + x98 <= 1
C1197: + x11 + x23 <= 1
C1198: + x206 + x460 <= 1
C1199: + x71 + x394 <= 1
C1200: + x72 + x278 <= 1
C1201: + x45 + x80 <= 1
C1202: + x95 + x374 <= 1
C1203: + x205 + x289 <= 1
C1204: + x26 + x57 <= 1
C1205: + x9 + x65 <= 1
C1206: + x3 + x11 <= 1
C1207: + x243 + x286 <= 1
C1208: + x6 + x16 <= 1
C1209: + x74 + x242 <= 1
C1210: + x72 + x427 <= 1
C1211: + x101 + x375 <= 1
C1212: + x11 + x91 <= 1
C1213: + x5 + x21 <= 1
C1214: + x9 + x48 <= 1
C1215: + x8 + x10 <= 1
C1216: + x63 + x359 <= 1
C1217: + x33 + x182 <= 1
C1218: + x125 + x127 <= 1
C1219: + x6 + x401 <= 1
C1220: + x109 + x481 <= 1
C1221: + x46 + x122 <= 1
C1222: + x5 + x188 <= 1
C1223: + x6 + x52 <= 1
C1224: + x172 + x257 <= 1
C1225: + x8 + x159 <= 1
C1226: + x219 + x454 <= 1
C1227: + x2 + x244 <= 1
C1228: + x55 + x307 <= 1
C1229: + x21 + x135 <= 1
C1230: + x14 + x180 <= 1
C1231: + x23 + x231 <= 1
C1232: + x59 + x346 <= 1
C1233: + x196 + x377 <= 1
C1234: + x198 + x389 <= 1
C1235: + x49 + x421 <= 1
C1236: + x40 + x91 + x109 <= 1
C1237: + x96 + x175 <= 1
C1238: + x1 + x8 <= 1
C1239: + x8 + x83 <= 1
C1240: + x148 + x345 <= 1
C1241: + x206 + x243 <= 1
C1242: + x23 + x360 <= 1
C1243: + x18 + x109 <= 1
C1244: + x191 + x287 <= 1
C1245: + x3 + x6 <= 1
C1246: + x204 + x378 <= 1
C1247: + x13 + x266 <= 1
C1248: + x20 + x491 <= 1
C1249: + x6 + x9 <= 1
C1250: + x10 + x78 <= 1
C1251: + x240 + x377 <= 1
C1252: + x48 + x57 <= 1
C1253: + x286 + x478 <= 1
C1254: + x27 + x33 <= 1
C1255: + x63 + x362 <= 1
C1256: + x11 + x295 <= 1
C1257: + x162 + x216 <= 1
C1258: + x13 + x84 <= 1
C1259: + x31 + x190 <= 1
C1260: + x111 + x400 <= 1
C1261: + x38 + x86 <= 1
C1262: + x12 + x374 <= 1
C1263: + x195 + x451 <= 1
C1264: + x6 + x61 <= 1
C1265: + x53 + x368 <= 1
C1266: + x7 + x272 <= 1
C1267: + x3 + x251 <= 1
C1268: + x24 + x145 <= 1
C1269: + x27 + x245 <= 1
C1270: + x8 + x59 <= 1
C1271: + x10 + x149 <= 1
C1272: + x6 + x299 <= 1
C1273: + x36 + x383 <= 1
C1274: + x1 + x269 <= 1
C1275: + x174 + x423 <= 1
C1276: + x207 + x234 <= 1
C1277: + x168 + x256 <= 1
C1278: + x6 + x225 <= 1
C1279: + x143 + x420 <= 1
C1280: + x49 + x57 <= 1
C1281: + x4 + x463 <= 1
C1282: + x125 + x185 <= 1
C1283: + x142 + x375 <= 1
C1284: + x27 + x185 <= 1
C1285: + x7 + x485 <= 1
C1286: + x48 + x355 <= 1
C1287: + x76 + x172 <= 1
C1288: + x110 + x155 <= 1
C1289: + x5 + x27 <= 1
C1290: + x24 + x303 <= 1
C1291: + x15 + x315 <= 1
C1292: + x253 + x341 <= 1
C1293: + x22 + x146 <= 1
C1294: + x6 + x387 <= 1
C1295: + x73 + x123 <= 1
C1296: + x119 + x310 <= 1
C1297: + x125 + x466 <= 1
C1298: + x80 + x410 <= 1
C1299: + x112 + x214 <= 1
C1300: + x14 + x166 <= 1
C1301: + x43 + x154 <= 1
C1302: + x110 + x114 <= 1
C1303: + x8 + x52 <= 1
C1304: + x29 + x85 <= 1
C1305: + x47 + x251 <= 1
C1306: + x18 + x462 <= 1
C1307: + x59 + x122 <= 1
C1308: + x176 + x178 <= 1
C1309: + x363 + x489 <= 1
C1310: + x9 + x153 <= 1
C1311: + x339 + x370 <= 1
C1312: + x32 + x34 + x74 <= 1
C1313: + x87 + x128 <= 1
C1314: + x35 + x421 <= 1
C1315: + x57 + x88 + x193 <= 1
C1316: + x3 + x350 <= 1
C1317: + x6 + x396 <= 1
C1318: + x36 + x289 <= 1
C1319: + x46 + x101 <= 1
C1320: + x173 + x197 <= 1
C1321: + x53 + x80 <= 1
C1322: + x24 + x167 <= 1
C1323: + x9 + x49 <= 1
C1324: + x28 + x253 <= 1
C1325: + x82 + x476 <= 1
C1326: + x39 + x372 <= 1
C1327: + x284 + x377 <= 1
C1328: + x13 + x168 <= 1
C1329: + x70 + x328 <= 1
C1330: + x5 + x197 <= 1
C1331: + x154 + x250 <= 1
C1332: + x38 + x186 <= 1
C1333: + x3 + x257 <= 1
C1334: + x5 + x122 <= 1
C1335: + x89 + x110 <= 1
C1336: + x151 + x318 <= 1
C1337: + x37 + x131 <= 1
C1338: + x12 + x26 <= 1
C1339: + x39 + x304 <= 1
C1340: + x78 + x182 <= 1
C1341: + x6 + x135 <= 1
C1342: + x134 + x208 <= 1
C1343: + x120 + x400 <= 1
C1344: + x94 + x100 <= 1
C1345: + x41 + x370 <= 1
C1346: + x167 + x301 <= 1
C1347: + x206 + x437 <= 1
C1348: + x6 + x24 <= 1
C1349: + x142 + x192 <= 1
C1350: + x10 + x410 <= 1
C1351: + x164 + x239 <= 1
C1352: + x211 + x267 <= 1
C1353: + x236 + x287 <= 1
C1354: + x9 + x56 <= 1
C1355: + x62 + x361 <= 1
C1356: + x88 + x323 <= 1
C1357: + x15 + x494 <= 1
C1358: + x8 + x325 <= 1
C1359: + x3 + x119 <= 1
C1360: + x21 + x266 <= 1
C1361: + x90 + x208 <= 1
C1362: + x198 + x284 <= 1
C1363: + x276 + x428 <= 1
C1364: + x115 + x194 <= 1
C1365: + x188 + x286 <= 1
C1366: + x33 + x344 <= 1
C1367: + x18 + x73 <= 1
C1368: + x123 + x130 <= 1
C1369: + x175 + x447 <= 1
C1370: + x137 + x150 <= 1
C1371: + x101 + x274 <= 1
C1372: + x2 + x5 <= 1
C1373: + x217 + x356 <= 1
C1374: + x1 + x64 <= 1
C1375: + x50 + x366 <= 1
C1376: + x115 + x383 <= 1
C1377: + x52 + x340 <= 1
C1378: + x190 + x468 <= 1
C1379: + x146 + x318 <= 1
C1380: + x85 + x181 <= 1
C1381: + x17 + x317 <= 1
C1382: + x26 + x219 <= 1
C1383: + x80 + x268 <= 1
C1384: + x121 + x491 <= 1
C1385: + x147 + x213 <= 1
C1386: + x113 + x392 <= 1
C1387: + x96 + x140 <= 1
C1388: + x152 + x337 <= 1
C1389: + x86 + x375 <= 1
C1390: + x75 + x435 <= 1
C1391: + x20 + x89 <= 1
C1392: + x68 + x179 <= 1
C1393: + x28 + x422 <= 1
C1394: + x193 + x316 <= 1
C1395: + x85 + x333 <= 1
C1396: + x39 + x232 <= 1
C1397: + x51 + x365 <= 1
C1398: + x124 + x303 <= 1
C1399: + x75 + x107 + x156 <= 1
C1400: + x42 + x258 <= 1
C1401: + x346 + x449 <= 1
C1402: + x147 + x189 <= 1
C1403: + x85 + x180 <= 1
C1404: + x105 + x221 <= 1
C1405: + x312 + x322 <= 1
C1406: + x236 + x269 <= 1
C1407: + x143 + x280 <= 1
C1408: + x9 + x38 <= 1
C1409: + x28 + x196 <= 1
C1410: + x240 + x461 <= 1
C1411: + x208 + x312 <= 1
C1412: + x9 + x387 <= 1
C1413: + x101 + x468 <= 1
C1414: + x56 + x268 <= 1
C1415: + x355 + x482 <= 1
C1416: + x18 + x160 <= 1
C1417: + x120 + x164 <= 1
C1418: + x3 + x238 <= 1
C1419: + x229 + x411 <= 1
C1420: + x52 + x119 <= 1
C1421: + x49 + x185 <= 1
C1422: + x32 + x450 <= 1
C1423: + x75 + x287 <= 1
C1424: + x2 + x23 <= 1
C1425: + x22 + x92 <= 1
C1426: + x117 + x224 <= 1
C1427: + x24 + x247 <= 1
C1428: + x99 + x310 <= 1
C1429: + x17 + x196 <= 1
C1430: + x218 + x404 <= 1
C1431: + x233 + x309 <= 1
C1432: + x108 + x418 <= 1
C1433: + x101 + x407 <= 1
C1434: + x94 + x388 <= 1
C1435: + x71 + x81 <= 1
C1436: + x18 + x274 <= 1
C1437: + x119 + x127 <= 1
C1438: + x20 + x320 <= 1
C1439: + x114 + x169 <= 1
C1440: + x1 + x90 <= 1
C1441: + x8 + x13 <= 1
C1442: + x12 + x74 <= 1
C1443: + x103 + x120 <= 1
C1444: + x3 + x68 <= 1
C1445: + x204 + x444 <= 1
C1446: + x79 + x164 <= 1
C1447: + x37 + x322 <= 1
C1448: + x12 + x167 <= 1
C1449: + x4 + x70 <= 1
C1450: + x30 + x209 <= 1
C1451: + x249 + x307 <= 1
C1452: + x11 + x357 <= 1
C1453: + x6 + x72 <= 1
C1454: + x55 + x102 <= 1
C1455: + x22 + x101 <= 1
C1456: + x31 + x82 <= 1
C1457: + x80 + x104 <= 1
C1458: + x73 + x296 <= 1
C1459: + x28 + x134 <= 1
C1460: + x300 + x470 <= 1
C1461: + x157 + x379 <= 1
C1462: + x177 + x212 <= 1
C1463: + x2 + x139 <= 1
C1464: + x3 + x313 <= 1
C1465: + x112 + x143 <= 1
C1466: + x383 + x436 <= 1
C1467: + x9 + x69 <= 1
C1468: + x119 + x356 <= 1
C1469: + x3 + x7 <= 1
C1470: + x20 + x490 <= 1
C1471: + x124 + x412 <= 1
C1472: + x6 + x12 <= 1
C1473: + x9 + x290 <= 1
C1474: + x10 + x73 <= 1
C1475: + x84 + x210 <= 1
C1476: + x280 + x471 <= 1
C1477: + x86 + x318 <= 1
C1478: + x112 + x256 <= 1
C1479: + x18 + x249 <= 1
C1480: + x194 + x202 <= 1
C1481: + x22 + x327 <= 1
C1482: + x107 + x449 <= 1
C1483: + x142 + x309 <= 1
C1484: + x88 + x359 <= 1
C1485: + x344 + x430 <= 1
C1486: + x12 + x369 <= 1
C1487: + x108 + x114 <= 1
C1488: + x18 + x138 <= 1
C1489: + x118 + x150 <= 1
C1490: + x28 + x79 <= 1
C1491: + x13 + x40 <= 1
C1492: + x14 + x379 <= 1
C1493: + x324 + x405 <= 1
C1494: + x9 + x32 <= 1
C1495: + x8 + x58 <= 1
C1496: + x303 + x418 <= 1
C1497: + x6 + x65 <= 1
C1498: + x127 + x319 <= 1
C1499: + x119 + x460 <= 1
C1500: + x174 + x426 <= 1
C1501: + x93 + x168 <= 1
C1502: + x194 + x492 <= 1
C1503: + x4 + x220 <= 1
C1504: + x18 + x371 <= 1
C1505: + x1 + x28 <= 1
C1506: + x11 + x255 <= 1
C1507: + x59 + x469 <= 1
C1508: + x34 + x251 <= 1
C1509: + x17 + x95 <= 1
C1510: + x6 + x466 <= 1
C1511: + x474 + x500 <= 1
C1512: + x9 + x76 <= 1
C1513: + x112 + x418 <= 1
C1514: + x133 + x251 <= 1
C1515: + x18 + x260 <= 1
C1516: + x65 + x134 <= 1
C1517: + x401 + x406 <= 1
C1518: + x19 + x93 <= 1
C1519: + x6 + x152 <= 1
C1520: + x9 + x219 <= 1
C1521: + x1 + x88 <= 1
C1522: + x219 + x346 <= 1
C1523: + x94 + x263 <= 1
C1524: + x12 + x72 <= 1
C1525: + x4 + x35 <= 1
C1526: + x87 + x376 <= 1
C1527: + x7 + x30 <= 1
C1528: + x62 + x233 <= 1
C1529: + x262 + x337 <= 1
C1530: + x9 + x440 <= 1
C1531: + x75 + x328 <= 1
C1532: + x114 + x300 <= 1
C1533: + x109 + x198 <= 1
C1534: + x51 + x477 <= 1
C1535: + x24 + x173 <= 1
C1536: + x6 + x279 <= 1
C1537: + x10 + x153 <= 1
C1538: + x30 + x433 <= 1
C1539: + x265 + x387 <= 1
C1540: + x12 + x294 <= 1
C1541: + x444 + x461 <= 1
C1542: + x47 + x103 <= 1
C1543: + x62 + x302 <= 1
C1544: + x135 + x174 <= 1
C1545: + x3 + x25 <= 1
C1546: + x68 + x219 <= 1
C1547: + x6 + x126 <= 1
C1548: + x3 + x190 <= 1
C1549: + x59 + x79 <= 1
C1550: + x22 + x59 <= 1
C1551: + x5 + x7 <= 1
C1552: + x24 + x299 <= 1
C1553: + x25 + x339 <= 1
C1554: + x27 + x56 <= 1
C1555: + x72 + x316 <= 1
C1556: + x282 + x294 <= 1
C1557: + x189 + x364 <= 1
C1558: + x122 + x244 <= 1
C1559: + x315 + x451 <= 1
C1560: + x24 + x53 <= 1
C1561: + x6 + x399 <= 1
C1562: + x29 + x34 <= 1
C1563: + x103 + x472 <= 1
C1564: + x74 + x212 <= 1
C1565: + x75 + x125 <= 1
C1566: + x95 + x295 <= 1
C1567: + x5 + x75 <= 1
C1568: + x80 + x313 <= 1
C1569: + x300 + x428 <= 1
C1570: + x480 + x489 <= 1
C1571: + x2 + x365 <= 1
C1572: + x62 + x182 <= 1
C1573: + x11 + x16 <= 1
C1574: + x3 + x97 <= 1
C1575: + x46 + x487 <= 1
C1576: + x193 + x498 <= 1
C1577: + x25 + x398 <= 1
C1578: + x261 + x279 <= 1
C1579: + x14 + x51 <= 1
C1580: + x198 + x278 <= 1
C1581: + x38 + x52 + x62 <= 1
C1582: + x211 + x329 <= 1
C1583: + x205 + x330 <= 1
C1584: + x3 + x423 <= 1
C1585: + x405 + x473 <= 1
C1586: + x110 + x144 <= 1
C1587: + x291 + x383 <= 1
C1588: + x443 + x448 <= 1
C1589: + x171 + x217 <= 1
C1590: + x15 + x258 <= 1
C1591: + x1 + x38 <= 1
C1592: + x12 + x118 <= 1
C1593: + x22 + x338 <= 1
C1594: + x13 + x395 <= 1
C1595: + x35 + x207 <= 1
C1596: + x73 + x102 <= 1
C1597: + x120 + x435 <= 1
C1598: + x348 + x481 <= 1
C1599: + x24 + x401 <= 1
C1600: + x9 + x259 <= 1
C1601: + x137 + x216 <= 1
C1602: + x54 + x412 <= 1
C1603: + x6 + x281 <= 1
C1604: + x11 + x281 <= 1
C1605: + x186 + x188 <= 1
C1606: + x131 + x343 <= 1
C1607: + x17 + x53 <= 1
C1608: + x15 + x495 <= 1
C1609: + x2 + x76 <= 1
C1610: + x272 + x454 <= 1
C1611: + x248 + x249 <= 1
C1612: + x49 + x334 <= 1
C1613: + x140 + x319 <= 1
C1614: + x149 + x356 <= 1
C1615: + x17 + x68 <= 1
C1616: + x71 + x267 <= 1
C1617: + x1 + x398 <= 1
C1618: + x55 + x241 <= 1
C1619: + x3 + x418 <= 1
C1620: + x24 + x119 <= 1
C1621: + x23 + x490 <= 1
C1622: + x6 + x112 <= 1
C1623: + x44 + x354 <= 1
C1624: + x28 + x31 <= 1
C1625: + x64 + x314 <= 1
C1626: + x46 + x404 <= 1
C1627: + x2 + x8 <= 1
C1628: + x59 + x81 <= 1
C1629: + x5 + x245 <= 1
C1630: + x145 + x296 <= 1
C1631: + x42 + x284 <= 1
C1632: + x167 + x456 <= 1
C1633: + x316 + x463 <= 1
C1634: + x9 + x429 <= 1
C1635: + x10 + x291 <= 1
C1636: + x37 + x115 <= 1
C1637: + x114 + x479 <= 1
C1638: + x167 + x289 <= 1
C1639: + x9 + x266 <= 1
C1640: + x74 + x222 <= 1
C1641: + x65 + x364 <= 1
C1642: + x112 + x232 <= 1
C1643: + x32 + x186 <= 1
C1644: + x6 + x183 <= 1
C1645: + x79 + x405 <= 1
C1646: + x9 + x60 <= 1
C1647: + x8 + x30 <= 1
C1648: + x11 + x260 <= 1
C1649: + x215 + x455 <= 1
C1650: + x53 + x83 <= 1
C1651: + x204 + x302 <= 1
C1652: + x70 + x170 <= 1
C1653: + x17 + x44 <= 1
C1654: + x133 + x171 <= 1
C1655: + x110 + x259 <= 1
C1656: + x328 + x336 <= 1
C1657: + x24 + x31 <= 1
C1658: + x62 + x200 <= 1
C1659: + x40 + x476 <= 1
C1660: + x13 + x347 <= 1
C1661: + x6 + x200 <= 1
C1662: + x445 + x452 <= 1
C1663: + x48 + x207 <= 1
C1664: + x52 + x140 <= 1
C1665: + x24 + x467 <= 1
C1666: + x27 + x307 <= 1
C1667: + x10 + x475 <= 1
C1668: + x14 + x438 <= 1
C1669: + x75 + x166 <= 1
C1670: + x160 + x389 <= 1
C1671: + x10 + x201 <= 1
C1672: + x76 + x413 <= 1
C1673: + x39 + x225 <= 1
C1674: + x13 + x116 <= 1
C1675: + x32 + x365 <= 1
C1676: + x46 + x83 <= 1
C1677: + x75 + x380 <= 1
C1678: + x3 + x461 <= 1
C1679: + x14 + x106 <= 1
C1680: + x6 + x29 <= 1
C1681: + x81 + x212 <= 1
C1682: + x22 + x26 <= 1
C1683: + x5 + x40 <= 1
C1684: + x23 + x154 <= 1
C1685: + x6 + x192 <= 1
C1686: + x53 + x90 <= 1
C1687: + x8 + x27 <= 1
C1688: + x140 + x480 <= 1
C1689: + x12 + x483 <= 1
C1690: + x39 + x221 <= 1
C1691: + x89 + x262 <= 1
C1692: + x325 + x431 <= 1
C1693: + x416 + x443 <= 1
C1694: + x200 + x378 <= 1
C1695: + x131 + x150 <= 1
C1696: + x25 + x70 <= 1
C1697: + x27 + x362 <= 1
C1698: + x83 + x123 <= 1
C1699: + x259 + x484 <= 1
C1700: + x11 + x496 <= 1
C1701: + x51 + x84 <= 1
C1702: + x9 + x381 <= 1
C1703: + x45 + x465 <= 1
C1704: + x135 + x493 <= 1
C1705: + x66 + x417 <= 1
C1706: + x87 + x201 <= 1
C1707: + x36 + x49 <= 1
C1708: + x164 + x200 <= 1
C1709: + x22 + x238 <= 1
C1710: + x5 + x108 <= 1
C1711: + x25 + x245 <= 1
C1712: + x71 + x261 <= 1
C1713: + x191 + x290 <= 1
C1714: + x3 + x436 <= 1
C1715: + x314 + x384 <= 1
C1716: + x5 + x326 <= 1
C1717: + x8 + x366 <= 1
C1718: + x89 + x239 <= 1
C1719: + x25 + x431 <= 1
C1720: + x27 + x36 + x68 <= 1
C1721: + x4 + x8 <= 1
C1722: + x1 + x472 <= 1
C1723: + x2 + x480 <= 1
C1724: + x47 + x349 <= 1
C1725: + x5 + x138 <= 1
C1726: + x74 + x208 <= 1
C1727: + x166 + x237 <= 1
C1728: + x30 + x160 <= 1
C1729: + x12 + x234 <= 1
C1730: + x5 + x47 <= 1
C1731: + x20 + x154 <= 1
C1732: + x50 + x343 <= 1
C1733: + x70 + x156 <= 1
C1734: + x29 + x391 <= 1
C1735: + x233 + x240 <= 1
C1736: + x32 + x61 <= 1
C1737: + x14 + x87 <= 1
C1738: + x18 + x329 <= 1
C1739: + x381 + x485 <= 1
C1740: + x28 + x117 <= 1
C1741: + x103 + x222 <= 1
C1742: + x94 + x169 <= 1
C1743: + x31 + x196 <= 1
C1744: + x3 + x234 <= 1
C1745: + x36 + x149 <= 1
C1746: + x11 + x475 <= 1
C1747: + x30 + x325 <= 1
C1748: + x88 + x435 <= 1
C1749: + x74 + x443 <= 1
C1750: + x21 + x205 <= 1
C1751: + x60 + x124 <= 1
C1752: + x6 + x492 <= 1
C1753: + x18 + x107 <= 1
C1754: + x156 + x275 <= 1
C1755: + x41 + x363 <= 1
C1756: + x33 + x72 <= 1
C1757: + x87 + x271 <= 1
C1758: + x89 + x357 <= 1
C1759: + x156 + x229 <= 1
C1760: + x112 + x243 <= 1
C1761: + x149 + x308 <= 1
C1762: + x297 + x349 <= 1
C1763: + x6 + x162 <= 1
C1764: + x193 + x422 <= 1
C1765: + x13 + x241 <= 1
C1766: + x135 + x336 <= 1
C1767: + x174 + x342 <= 1
C1768: + x39 + x207 <= 1
C1769: + x2 + x88 <= 1
C1770: + x29 + x291 <= 1
C1771: + x14 + x179 <= 1
C1772: + x108 + x367 <= 1
C1773: + x68 + x165 <= 1
C1774: + x22 + x270 <= 1
C1775: + x167 + x401 <= 1
C1776: + x10 + x462 <= 1
C1777: + x11 + x31 <= 1
C1778: + x20 + x381 <= 1
C1779: + x32 + x106 <= 1
C1780: + x25 + x445 <= 1
C1781: + x79 + x116 <= 1
C1782: + x118 + x354 <= 1
C1783: + x8 + x78 <= 1
C1784: + x193 + x270 <= 1
C1785: + x20 + x220 <= 1
C1786: + x25 + x143 <= 1
C1787: + x6 + x120 <= 1
C1788: + x91 + x148 <= 1
C1789: + x264 + x373 <= 1
C1790: + x12 + x232 <= 1
C1791: + x5 + x29 <= 1
C1792: + x32 + x158 <= 1
C1793: + x117 + x247 <= 1
C1794: + x15 + x256 <= 1
C1795: + x101 + x105 <= 1
C1796: + x10 + x176 <= 1
C1797: + x29 + x139 <= 1
C1798: + x68 + x299 <= 1
C1799: + x13 + x77 <= 1
C1800: + x15 + x305 <= 1
C1801: + x176 + x385 <= 1
C1802: + x36 + x87 <= 1
C1803: + x4 + x34 <= 1
C1804: + x129 + x167 <= 1
C1805: + x94 + x429 <= 1
C1806: + x6 + x409 <= 1
C1807: + x47 + x130 <= 1
C1808: + x8 + x151 <= 1
C1809: + x81 + x487 <= 1
C1810: + x18 + x41 <= 1
C1811: + x8 + x54 <= 1
C1812: + x11 + x364 <= 1
C1813: + x101 + x306 <= 1
C1814: + x68 + x73 <= 1
C1815: + x14 + x61 <= 1
C1816: + x25 + x388 <= 1
C1817: + x9 + x350 <= 1
C1818: + x67 + x464 <= 1
C1819: + x12 + x144 <= 1
C1820: + x89 + x97 <= 1
C1821: + x25 + x51 <= 1
C1822: + x63 + x100 <= 1
C1823: + x373 + x451 <= 1
C1824: + x99 + x235 <= 1
C1825: + x99 + x280 <= 1
C1826: + x172 + x184 <= 1
C1827: + x18 + x246 <= 1
C1828: + x145 + x311 <= 1
C1829: + x40 + x274 <= 1
C1830: + x6 + x386 <= 1
C1831: + x225 + x226 <= 1
C1832: + x17 + x428 <= 1
C1833: + x154 + x172 <= 1
C1834: + x9 + x174 <= 1
C1835: + x265 + x312 <= 1
C1836: + x56 + x434 <= 1
C1837: + x235 + x404 <= 1
C1838: + x91 + x445 <= 1
C1839: + x94 + x471 <= 1
C1840: + x114 + x118 <= 1
C1841: + x204 + x315 <= 1
C1842: + x38 + x477 <= 1
C1843: + x13 + x170 <= 1
C1844: + x277 + x434 <= 1
C1845: + x5 + x223 <= 1
C1846: + x6 + x233 <= 1
C1847: + x27 + x112 <= 1
C1848: + x64 + x423 <= 1
C1849: + x94 + x328 <= 1
C1850: + x52 + x423 <= 1
C1851: + x89 + x477 <= 1
C1852: + x174 + x304 <= 1
C1853: + x2 + x316 <= 1
C1854: + x251 + x355 <= 1
C1855: + x25 + x58 <= 1
C1856: + x100 + x403 <= 1
C1857: + x265 + x499 <= 1
C1858: + x4 + x241 <= 1
C1859: + x153 + x321 <= 1
C1860: + x160 + x406 <= 1
C1861: + x1 + x35 <= 1
C1862: + x156 + x407 <= 1
C1863: + x93 + x404 <= 1
C1864: + x232 + x388 <= 1
C1865: + x13 + x400 <= 1
C1866: + x182 + x257 <= 1
C1867: + x8 + x411 <= 1
C1868: + x64 + x202 <= 1
C1869: + x366 + x442 <= 1
C1870: + x194 + x430 <= 1
C1871: + x4 + x258 <= 1
C1872: + x96 + x209 <= 1
C1873: + x358 + x493 <= 1
C1874: + x88 + x216 <= 1
C1875: + x221 + x464 <= 1
C1876: + x31 + x64 <= 1
C1877: + x14 + x361 <= 1
C1878: + x89 + x408 <= 1
C1879: + x76 + x474 <= 1
C1880: + x258 + x322 <= 1
C1881: + x17 + x50 <= 1
C1882: + x62 + x178 <= 1
C1883: + x355 + x369 <= 1
C1884: + x11 + x12 <= 1
C1885: + x117 + x323 <= 1
C1886: + x8 + x185 <= 1
C1887: + x464 + x480 <= 1
C1888: + x442 + x475 <= 1
C1889: + x5 + x123 <= 1
C1890: + x108 + x386 <= 1
C1891: + x36 + x253 <= 1
C1892: + x29 + x97 <= 1
C1893: + x204 + x368 <= 1
C1894: + x8 + x259 <= 1
C1895: + x85 + x219 <= 1
C1896: + x97 + x129 <= 1
C1897: + x206 + x291 <= 1
C1898: + x5 + x10 <= 1
C1899: + x6 + x134 <= 1
C1900: + x116 + x157 <= 1
C1901: + x227 + x467 <= 1
C1902: + x162 + x250 <= 1
C1903: + x81 + x317 <= 1
C1904: + x199 + x324 <= 1
C1905: + x10 + x318 <= 1
C1906: + x6 + x23 <= 1
C1907: + x18 + x302 <= 1
C1908: + x36 + x392 <= 1
C1909: + x50 + x453 <= 1
C1910: + x40 + x74 <= 1
C1911: + x43 + x320 <= 1
C1912: + x52 + x96 <= 1
C1913: + x48 + x250 <= 1
C1914: + x68 + x129 <= 1
C1915: + x136 + x147 <= 1
C1916: + x121 + x485 <= 1
C1917: + x2 + x80 <= 1
C1918: + x233 + x255 <= 1
C1919: + x12 + x344 <= 1
C1920: + x14 + x40 <= 1
C1921: + x52 + x282 <= 1
C1922: + x343 + x360 <= 1
C1923: + x25 + x409 <= 1
C1924: + x67 + x473 <= 1
C1925: + x13 + x61 <= 1
C1926: + x16 + x18 <= 1
C1927: + x119 + x324 <= 1
C1928: + x13 + x28 + x199 <= 1
C1929: + x12 + x18 <= 1
C1930: + x30 + x104 <= 1
C1931: + x124 + x444 <= 1
C1932: + x41 + x249 <= 1
C1933: + x15 + x63 <= 1
C1934: + x144 + x351 <= 1
C1935: + x83 + x262 <= 1
C1936: + x137 + x300 <= 1
C1937: + x108 + x193 <= 1
C1938: + x11 + x220 <= 1
C1939: + x301 + x498 <= 1
C1940: + x238 + x499 <= 1
C1941: + x125 + x155 <= 1
C1942: + x26 + x41 <= 1
C1943: + x62 + x272 <= 1
C1944: + x47 + x158 <= 1

binary
x1 x2 x3 x4 x5 x6 x7 x8 x9 x10 x11 x12 x13 x14 x15 x16 x17 x18 x19 x20 x21 x22 x23 x24 x25 x26 x27 x28 x29 x30 x31 x32 x33 x34 x35 x36 x37 x38 x39 x40 x41 x42 x43 x44 x45 x46 x47 x48 x49 x50 x51 x52 x53 x54 x55 x56 x57 x58 x59 x60 x61 x62 x63 x64 x65 x66 x67 x68 x69 x70 x71 x72 x73 x74 x75 x76 x77 x78 x79 x80 x81 x82 x83 x84 x85 x86 x87 x88 x89 x90 x91 x92 x93 x94 x95 x96 x97 x98 x99 x100 x101 x102 x103 x104 x105 x106 x107 x108 x109 x110 x111 x112 x113 x114 x115 x116 x117 x118 x119 x120 x121 x122 x123 x124 x125 x126 x127 x128 x129 x130 x131 x132 x133 x134 x135 x136 x137 x138 x139 x140 x141 x142 x143 x144 x145 x146 x147 x148 x149 x150 x151 x152 x153 x154 x155 x156 x157 x158 x159 x160 x161 x162 x163 x164 x165 x166 x167 x168 x169 x170 x171 x172 x173 x174 x175 x176 x177 x178 x179 x180 x181 x182 x183 x184 x185 x186 x187 x188 x189 x190 x191 x192 x193 x194 x195 x196 x197 x198 x199 x200 x201 x202 x203 x204 x205 x206 x207 x208 x209 x210 x211 x212 x213 x214 x215 x216 x217 x218 x219 x220 x221 x222 x223 x224 x225 x226 x227 x228 x229 x230 x231 x232 x233 x234 x235 x236 x237 x238 x239 x240 x241 x242 x243 x244 x245 x246 x247 x248 x249 x250 x251 x252 x253 x254 x255 x256 x257 x258 x259 x260 x261 x262 x263 x264 x265 x266 x267 x268 x269 x270 x271 x272 x273 x274 x275 x276 x277 x278 x279 x280 x281 x282 x283 x284 x285 x286 x287 x288 x289 x290 x291 x292 x293 x294 x295 x296 x297 x298 x299 x300 x301 x302 x303 x304 x305 x306 x307 x308 x309 x310 x311 x312 x313 x314 x315 x316 x317 x318 x319 x320 x321 x322 x323 x324 x325 x326 x327 x328 x329 x330 x331 x332 x333 x334 x335 x336 x337 x338 x339 x340 x341 x342 x343 x344 x345 x346 x347 x348 x349 x350 x351 x352 x353 x354 x355 x356 x357 x358 x359 x360 x361 x362 x363 x364 x365 x366 x367 x368 x369 x370 x371 x372 x373 x374 x375 x376 x377 x378 x379 x380 x381 x382 x383 x384 x385 x386 x387 x388 x389 x390 x391 x392 x393 x394 x395 x396 x397 x398 x399 x400 x401 x402 x403 x404 x405 x406 x407 x408 x409 x410 x411 x412 x413 x414 x415 x416 x417 x418 x419 x420 x421 x422 x423 x424 x425 x426 x427 x428 x429 x430 x431 x432 x433 x434 x435 x436 x437 x438 x439 x440 x441 x442 x443 x444 x445 x446 x447 x448 x449 x450 x451 x452 x453 x454 x455 x456 x457 x458 x459 x460 x461 x462 x463 x464 x465 x466 x467 x468 x469 x470 x471 x472 x473 x474 x475 x476 x477 x478 x479 x480 x481 x482 x483 x484 x485 x486 x487 x488 x489 x490 x491 x492 x493 x494 x495 x496 x497 x498 x499 x500
