maximize
OBJ: + 1 x1 + 1 x2 + 1 x3 + 1 x4 + 1 x5 + 1 x6 + 1 x7 + 1 x8 + 1 x9 + 1 x10 + 1 x11 + 1 x12 + 1 x13 + 1 x14 + 1 x15 + 1 x16 + 1 x17 + 1 x18 + 1 x19 + 1 x20 + 1 x21 + 1 x22 + 1 x23 + 1 x24 + 1 x25 + 1 x26 + 1 x27 + 1 x28 + 1 x29 + 1 x30 + 1 x31 + 1 x32 + 1 x33 + 1 x34 + 1 x35 + 1 x36 + 1 x37 + 1 x38 + 1 x39 + 1 x40 + 1 x41 + 1 x42 + 1 x43 + 1 x44 + 1 x45 + 1 x46 + 1 x47 + 1 x48 + 1 x49 + 1 x50 + 1 x51 + 1 x52 + 1 x53 + 1 x54 + 1 x55 + 1 x56 + 1 x57 + 1 x58 + 1 x59 + 1 x60 + 1 x61 + 1 x62 + 1 x63 + 1 x64 + 1 x65 + 1 x66 + 1 x67 + 1 x68 + 1 x69 + 1 x70 + 1 x71 + 1 x72 + 1 x73 + 1 x74 + 1 x75 + 1 x76 + 1 x77 + 1 x78 + 1 x79 + 1 x80 + 1 x81 + 1 x82 + 1 x83 + 1 x84 + 1 x85 + 1 x86 + 1 x87 + 1 x88 + 1 x89 + 1 x90 + 1 x91 + 1 x92 + 1 x93 + 1 x94 + 1 x95 + 1 x96 + 1 x97 + 1 x98 + 1 x99 + 1 x100 + 1 x101 + 1 x102 + 1 x103 + 1 x104 + 1 x105 + 1 x106 + 1 x107 + 1 x108 + 1 x109 + 1 x110 + 1 x111 + 1 x112 + 1 x113 + 1 x114 + 1 x115 + 1 x116 + 1 x117 + 1 x118 + 1 x119 + 1 x120 + 1 x121 + 1 x122 + 1 x123 + 1 x124 + 1 x125 + 1 x126 + 1 x127 + 1 x128 + 1 x129 + 1 x130 + 1 x131 + 1 x132 + 1 x133 + 1 x134 + 1 x135 + 1 x136 + 1 x137 + 1 x138 + 1 x139 + 1 x140 + 1 x141 + 1 x142 + 1 x143 + 1 x144 + 1 x145 + 1 x146 + 1 x147 + 1 x148 + 1 x149 + 1 x150 + 1 x151 + 1 x152 + 1 x153 + 1 x154 + 1 x155 + 1 x156 + 1 x157 + 1 x158 + 1 x159 + 1 x160 + 1 x161 + 1 x162 + 1 x163 + 1 x164 + 1 x165 + 1 x166 + 1 x167 + 1 x168 + 1 x169 + 1 x170 + 1 x171 + 1 x172 + 1 x173 + 1 x174 + 1 x175 + 1 x176 + 1 x177 + 1 x178 + 1 x179 + 1 x180 + 1 x181 + 1 x182 + 1 x183 + 1 x184 + 1 x185 + 1 x186 + 1 x187 + 1 x188 + 1 x189 + 1 x190 + 1 x191 + 1 x192 + 1 x193 + 1 x194 + 1 x195 + 1 x196 + 1 x197 + 1 x198 + 1 x199 + 1 x200 + 1 x201 + 1 x202 + 1 x203 + 1 x204 + 1 x205 + 1 x206 + 1 x207 + 1 x208 + 1 x209 + 1 x210 + 1 x211 + 1 x212 + 1 x213 + 1 x214 + 1 x215 + 1 x216 + 1 x217 + 1 x218 + 1 x219 + 1 x220 + 1 x221 + 1 x222 + 1 x223 + 1 x224 + 1 x225 + 1 x226 + 1 x227 + 1 x228 + 1 x229 + 1 x230 + 1 x231 + 1 x232 + 1 x233 + 1 x234 + 1 x235 + 1 x236 + 1 x237 + 1 x238 + 1 x239 + 1 x240 + 1 x241 + 1 x242 + 1 x243 + 1 x244 + 1 x245 + 1 x246 + 1 x247 + 1 x248 + 1 x249 + 1 x250 + 1 x251 + 1 x252 + 1 x253 + 1 x254 + 1 x255 + 1 x256 + 1 x257 + 1 x258 + 1 x259 + 1 x260 + 1 x261 + 1 x262 + 1 x263 + 1 x264 + 1 x265 + 1 x266 + 1 x267 + 1 x268 + 1 x269 + 1 x270 + 1 x271 + 1 x272 + 1 x273 + 1 x274 + 1 x275 + 1 x276 + 1 x277 + 1 x278 + 1 x279 + 1 x280 + 1 x281 + 1 x282 + 1 x283 + 1 x284 + 1 x285 + 1 x286 + 1 x287 + 1 x288 + 1 x289 + 1 x290 + 1 x291 + 1 x292 + 1 x293 + 1 x294 + 1 x295 + 1 x296 + 1 x297 + 1 x298 + 1 x299 + 1 x300 + 1 x301 + 1 x302 + 1 x303 + 1 x304 + 1 x305 + 1 x306 + 1 x307 + 1 x308 + 1 x309 + 1 x310 + 1 x311 + 1 x312 + 1 x313 + 1 x314 + 1 x315 + 1 x316 + 1 x317 + 1 x318 + 1 x319 + 1 x320 + 1 x321 + 1 x322 + 1 x323 + 1 x324 + 1 x325 + 1 x326 + 1 x327 + 1 x328 + 1 x329 + 1 x330 + 1 x331 + 1 x332 + 1 x333 + 1 x334 + 1 x335 + 1 x336 + 1 x337 + 1 x338 + 1 x339 + 1 x340 + 1 x341 + 1 x342 + 1 x343 + 1 x344 + 1 x345 + 1 x346 + 1 x347 + 1 x348 + 1 x349 + 1 x350 + 1 x351 + 1 x352 + 1 x353 + 1 x354 + 1 x355 + 1 x356 + 1 x357 + 1 x358 + 1 x359 + 1 x360 + 1 x361 + 1 x362 + 1 x363 + 1 x364 + 1 x365 + 1 x366 + 1 x367 + 1 x368 + 1 x369 + 1 x370 + 1 x371 + 1 x372 + 1 x373 + 1 x374 + 1 x375 + 1 x376 + 1 x377 + 1 x378 + 1 x379 + 1 x380 + 1 x381 + 1 x382 + 1 x383 + 1 x384 + 1 x385 + 1 x386 + 1 x387 + 1 x388 + 1 x389 + 1 x390 + 1 x391 + 1 x392 + 1 x393 + 1 x394 + 1 x395 + 1 x396 + 1 x397 + 1 x398 + 1 x399 + 1 x400 + 1 x401 + 1 x402 + 1 x403 + 1 x404 + 1 x405 + 1 x406 + 1 x407 + 1 x408 + 1 x409 + 1 x410 + 1 x411 + 1 x412 + 1 x413 + 1 x414 + 1 x415 + 1 x416 + 1 x417 + 1 x418 + 1 x419 + 1 x420 + 1 x421 + 1 x422 + 1 x423 + 1 x424 + 1 x425 + 1 x426 + 1 x427 + 1 x428 + 1 x429 + 1 x430 + 1 x431 + 1 x432 + 1 x433 + 1 x434 + 1 x435 + 1 x436 + 1 x437 + 1 x438 + 1 x439 + 1 x440 + 1 x441 + 1 x442 + 1 x443 + 1 x444 + 1 x445 + 1 x446 + 1 x447 + 1 x448 + 1 x449 + 1 x450 + 1 x451 + 1 x452 + 1 x453 + 1 x454 + 1 x455 + 1 x456 + 1 x457 + 1 x458 + 1 x459 + 1 x460 + 1 x461 + 1 x462 + 1 x463 + 1 x464 + 1 x465 + 1 x466 + 1 x467 + 1 x468 + 1 x469 + 1 x470 + 1 x471 + 1 x472 + 1 x473 + 1 x474 + 1 x475 + 1 x476 + 1 x477 + 1 x478 + 1 x479 + 1 x480 + 1 x481 + 1 x482 + 1 x483 + 1 x484 + 1 x485 + 1 x486 + 1 x487 + 1 x488 + 1 x489 + 1 x490 + 1 x491 + 1 x492 + 1 x493 + 1 x494 + 1 x495 + 1 x496 + 1 x497 + 1 x498 + 1 x499 + 1 x500

subject to
C1: + x217 + x276 <= 1
C2: + x10 + x85 <= 1
C3: + x2 + x216 <= 1
C4: + x37 + x361 <= 1
C5: + x384 + x485 <= 1
C6: + x11 + x171 <= 1
C7: + x1 + x77 <= 1
C8: + x30 + x45 <= 1
C9: + x17 + x48 <= 1
C10: + x24 + x27 <= 1
C11: + x7 + x55 <= 1
C12: + x337 + x437 <= 1
C13: + x93 + x136 <= 1
C14: + x8 + x445 <= 1
C15: + x32 + x75 <= 1
C16: + x444 + x472 <= 1
C17: + x134 + x490 <= 1
C18: + x283 + x495 <= 1
C19: + x19 + x46 <= 1
C20: + x124 + x175 <= 1
C21: + x5 + x105 <= 1
C22: + x24 + x140 <= 1
C23: + x19 + x335 <= 1
C24: + x93 + x458 <= 1
C25: + x148 + x476 <= 1
C26: + x30 + x97 <= 1
C27: + x131 + x171 <= 1
C28: + x60 + x241 <= 1
C29: + x50 + x224 <= 1
C30: + x6 + x85 <= 1
C31: + x119 + x488 <= 1
C32: + x2 + x29 <= 1
C33: + x22 + x82 <= 1
C34: + x133 + x384 <= 1
C35: + x180 + x354 <= 1
C36: + x281 + x395 <= 1
C37: + x2 + x192 <= 1
C38: + x38 + x159 <= 1
C39: + x37 + x257 <= 1
C40: + x213 + x379 <= 1
C41: + x15 + x433 <= 1
C42: + x9 + x88 <= 1
C43: + x10 + x304 <= 1
C44: + x18 + x125 <= 1
C45: + x139 + x142 <= 1
C46: + x47 + x346 <= 1
C47: + x178 + x479 <= 1
C48: + x3 + x54 <= 1
C49: + x56 + x375 <= 1
C50: + x191 + x460 <= 1
C51: + x2 + x41 <= 1
C52: + x193 + x428 <= 1
C53: + x12 + x245 <= 1
C54: + x180 + x302 <= 1
C55: + x81 + x442 <= 1
C56: + x162 + x267 <= 1
C57: + x15 + x292 <= 1
C58: + x21 + x444 <= 1
C59: + x9 + x388 <= 1
C60: + x64 + x169 <= 1
C61: + x36 + x53 <= 1
C62: + x28 + x116 <= 1
C63: + x19 + x37 <= 1
C64: + x74 + x330 <= 1
C65: + x20 + x262 <= 1
C66: + x38 + x340 <= 1
C67: + x188 + x299 <= 1
C68: + x53 + x106 <= 1
C69: + x12 + x16 <= 1
C70: + x42 + x180 <= 1
C71: + x13 + x477 <= 1
C72: + x207 + x329 <= 1
C73: + x8 + x362 <= 1
C74: + x11 + x105 <= 1
C75: + x88 + x434 <= 1
C76: + x148 + x338 <= 1
C77: + x187 + x298 <= 1
C78: + x13 + x436 <= 1
C79: + x44 + x225 <= 1
C80: + x323 + x450 <= 1
C81: + x108 + x417 <= 1
C82: + x3 + x13 <= 1
C83: + x59 + x210 <= 1
C84: + x81 + x207 <= 1
C85: + x7 + x146 <= 1
C86: + x72 + x94 <= 1
C87: + x19 + x108 <= 1
C88: + x8 + x233 <= 1
C89: + x206 + x258 <= 1
C90: + x244 + x426 <= 1
C91: + x42 + x137 <= 1
C92: + x5 + x261 <= 1
C93: + x82 + x98 <= 1
C94: + x66 + x176 <= 1
C95: + x2 + x83 <= 1
C96: + x11 + x48 <= 1
C97: + x21 + x296 <= 1
C98: + x350 + x440 <= 1
C99: + x14 + x83 <= 1
C100: + x18 + x333 <= 1
C101: + x161 + x344 <= 1
C102: + x109 + x118 <= 1
C103: + x78 + x89 <= 1
C104: + x352 + x453 <= 1
C105: + x339 + x495 <= 1
C106: + x11 + x20 <= 1
C107: + x374 + x419 <= 1
C108: + x330 + x452 <= 1
C109: + x368 + x482 <= 1
C110: + x353 + x466 <= 1
C111: + x1 + x6 <= 1
C112: + x8 + x81 <= 1
C113: + x211 + x349 <= 1
C114: + x192 + x195 <= 1
C115: + x137 + x446 <= 1
C116: + x178 + x366 <= 1
C117: + x334 + x448 <= 1
C118: + x289 + x361 <= 1
C119: + x57 + x192 <= 1
C120: + x3 + x8 <= 1
C121: + x50 + x134 <= 1
C122: + x60 + x219 <= 1
C123: + x146 + x221 <= 1
C124: + x1 + x336 <= 1
C125: + x2 + x59 <= 1
C126: + x3 + x169 <= 1
C127: + x93 + x254 <= 1
C128: + x19 + x410 <= 1
C129: + x5 + x18 <= 1
C130: + x10 + x437 <= 1
C131: + x28 + x54 <= 1
C132: + x9 + x213 <= 1
C133: + x17 + x291 <= 1
C134: + x90 + x365 <= 1
C135: + x37 + x251 <= 1
C136: + x4 + x61 <= 1
C137: + x386 + x490 <= 1
C138: + x32 + x387 <= 1
C139: + x116 + x407 <= 1
C140: + x4 + x500 <= 1
C141: + x7 + x28 <= 1
C142: + x9 + x434 <= 1
C143: + x3 + x92 <= 1
C144: + x41 + x411 <= 1
C145: + x5 + x161 <= 1
C146: + x61 + x281 <= 1
C147: + x429 + x458 <= 1
C148: + x112 + x368 <= 1
C149: + x9 + x164 <= 1
C150: + x373 + x397 <= 1
C151: + x80 + x407 <= 1
C152: + x281 + x468 <= 1
C153: + x32 + x34 <= 1
C154: + x108 + x113 <= 1
C155: + x185 + x339 <= 1
C156: + x15 + x378 <= 1
C157: + x21 + x132 <= 1
C158: + x114 + x157 <= 1
C159: + x242 + x285 <= 1
C160: + x479 + x490 <= 1
C161: + x45 + x173 <= 1
C162: + x8 + x57 <= 1
C163: + x97 + x455 <= 1
C164: + x27 + x247 <= 1
C165: + x28 + x396 <= 1
C166: + x57 + x216 <= 1
C167: + x386 + x471 <= 1
C168: + x121 + x135 <= 1
C169: + x322 + x465 <= 1
C170: + x3 + x31 <= 1
C171: + x131 + x204 <= 1
C172: + x329 + x447 <= 1
C173: + x277 + x500 <= 1
C174: + x5 + x25 <= 1
C175: + x13 + x236 <= 1
C176: + x172 + x179 <= 1
C177: + x10 + x212 <= 1
C178: + x36 + x91 <= 1
C179: + x166 + x382 <= 1
C180: + x7 + x19 <= 1
C181: + x200 + x353 <= 1
C182: + x240 + x245 <= 1
C183: + x13 + x379 <= 1
C184: + x124 + x496 <= 1
C185: + x7 + x192 <= 1
C186: + x11 + x179 <= 1
C187: + x3 + x248 <= 1
C188: + x23 + x243 <= 1
C189: + x10 + x160 <= 1
C190: + x358 + x376 <= 1
C191: + x340 + x418 <= 1
C192: + x143 + x215 <= 1
C193: + x229 + x264 <= 1
C194: + x2 + x121 <= 1
C195: + x8 + x71 <= 1
C196: + x2 + x156 <= 1
C197: + x103 + x320 <= 1
C198: + x197 + x305 <= 1
C199: + x5 + x462 <= 1
C200: + x70 + x79 <= 1
C201: + x128 + x270 <= 1
C202: + x55 + x232 <= 1
C203: + x20 + x68 <= 1
C204: + x113 + x496 <= 1
C205: + x86 + x108 <= 1
C206: + x323 + x336 <= 1
C207: + x340 + x494 <= 1
C208: + x134 + x184 <= 1
C209: + x255 + x296 <= 1
C210: + x94 + x252 <= 1
C211: + x60 + x312 <= 1
C212: + x5 + x8 <= 1
C213: + x133 + x392 <= 1
C214: + x51 + x481 <= 1
C215: + x62 + x414 <= 1
C216: + x17 + x230 <= 1
C217: + x157 + x286 <= 1
C218: + x131 + x265 <= 1
C219: + x7 + x22 <= 1
C220: + x56 + x164 <= 1
C221: + x47 + x322 <= 1
C222: + x50 + x100 <= 1
C223: + x98 + x106 <= 1
C224: + x6 + x33 <= 1
C225: + x72 + x125 <= 1
C226: + x144 + x165 <= 1
C227: + x2 + x193 <= 1
C228: + x182 + x423 <= 1
C229: + x26 + x203 <= 1
C230: + x12 + x44 <= 1
C231: + x244 + x360 <= 1
C232: + x17 + x63 <= 1
C233: + x64 + x177 <= 1
C234: + x264 + x435 <= 1
C235: + x48 + x386 <= 1
C236: + x251 + x256 <= 1
C237: + x70 + x346 <= 1
C238: + x45 + x50 <= 1
C239: + x10 + x18 <= 1
C240: + x7 + x312 <= 1
C241: + x124 + x160 <= 1
C242: + x160 + x257 <= 1
C243: + x66 + x128 <= 1
C244: + x248 + x293 <= 1
C245: + x79 + x241 <= 1
C246: + x91 + x98 <= 1
C247: + x8 + x205 <= 1
C248: + x2 + x14 <= 1
C249: + x38 + x269 <= 1
C250: + x34 + x306 <= 1
C251: + x162 + x304 <= 1
C252: + x10 + x222 <= 1
C253: + x196 + x295 <= 1
C254: + x10 + x313 <= 1
C255: + x330 + x436 <= 1
C256: + x136 + x222 <= 1
C257: + x29 + x58 <= 1
C258: + x49 + x275 <= 1
C259: + x70 + x287 <= 1
C260: + x10 + x47 <= 1
C261: + x111 + x177 <= 1
C262: + x3 + x202 <= 1
C263: + x30 + x180 <= 1
C264: + x13 + x206 <= 1
C265: + x197 + x371 <= 1
C266: + x38 + x369 <= 1
C267: + x16 + x65 <= 1
C268: + x8 + x40 <= 1
C269: + x3 + x363 <= 1
C270: + x64 + x373 <= 1
C271: + x193 + x458 <= 1
C272: + x26 + x266 <= 1
C273: + x80 + x123 <= 1
C274: + x118 + x377 <= 1
C275: + x300 + x305 <= 1
C276: + x2 + x150 <= 1
C277: + x70 + x486 <= 1
C278: + x44 + x198 <= 1
C279: + x49 + x137 <= 1
C280: + x139 + x263 <= 1
C281: + x313 + x401 <= 1
C282: + x33 + x104 <= 1
C283: + x477 + x490 <= 1
C284: + x24 + x469 <= 1
C285: + x373 + x477 <= 1
C286: + x2 + x7 <= 1
C287: + x29 + x335 <= 1
C288: + x133 + x374 <= 1
C289: + x88 + x423 <= 1
C290: + x4 + x25 <= 1
C291: + x34 + x217 <= 1
C292: + x62 + x243 <= 1
C293: + x255 + x417 <= 1
C294: + x10 + x290 <= 1
C295: + x20 + x30 <= 1
C296: + x56 + x178 <= 1
C297: + x166 + x460 <= 1
C298: + x429 + x430 <= 1
C299: + x98 + x124 <= 1
C300: + x5 + x133 <= 1
C301: + x121 + x378 <= 1
C302: + x66 + x403 <= 1
C303: + x76 + x120 <= 1
C304: + x171 + x322 <= 1
C305: + x308 + x462 <= 1
C306: + x3 + x358 <= 1
C307: + x22 + x302 <= 1
C308: + x284 + x373 <= 1
C309: + x6 + x199 <= 1
C310: + x19 + x47 <= 1
C311: + x8 + x174 <= 1
C312: + x380 + x465 <= 1
C313: + x3 + x442 <= 1
C314: + x77 + x94 <= 1
C315: + x52 + x139 <= 1
C316: + x79 + x195 <= 1
C317: + x10 + x109 <= 1
C318: + x3 + x136 <= 1
C319: + x112 + x284 <= 1
C320: + x51 + x398 <= 1
C321: + x15 + x224 <= 1
C322: + x8 + x98 <= 1
C323: + x120 + x253 <= 1
C324: + x233 + x460 <= 1
C325: + x66 + x134 <= 1
C326: + x38 + x400 <= 1
C327: + x85 + x93 <= 1
C328: + x91 + x259 + x314 <= 1
C329: + x137 + x199 <= 1
C330: + x229 + x341 <= 1
C331: + x56 + x409 <= 1
C332: + x50 + x498 <= 1
C333: + x51 + x450 <= 1
C334: + x72 + x342 <= 1
C335: + x8 + x22 <= 1
C336: + x20 + x148 <= 1
C337: + x11 + x268 <= 1
C338: + x4 + x385 <= 1
C339: + x34 + x46 <= 1
C340: + x7 + x43 <= 1
C341: + x10 + x279 <= 1
C342: + x11 + x58 <= 1
C343: + x193 + x456 <= 1
C344: + x430 + x487 <= 1
C345: + x20 + x422 <= 1
C346: + x21 + x286 <= 1
C347: + x79 + x91 <= 1
C348: + x73 + x371 <= 1
C349: + x3 + x240 <= 1
C350: + x12 + x176 <= 1
C351: + x51 + x310 <= 1
C352: + x285 + x411 <= 1
C353: + x116 + x194 <= 1
C354: + x236 + x327 <= 1
C355: + x19 + x331 <= 1
C356: + x147 + x408 <= 1
C357: + x131 + x167 <= 1
C358: + x167 + x360 <= 1
C359: + x243 + x301 <= 1
C360: + x238 + x250 <= 1
C361: + x2 + x17 <= 1
C362: + x3 + x159 <= 1
C363: + x78 + x262 <= 1
C364: + x72 + x287 <= 1
C365: + x42 + x261 <= 1
C366: + x5 + x470 <= 1
C367: + x17 + x111 <= 1
C368: + x108 + x432 <= 1
C369: + x9 + x92 <= 1
C370: + x156 + x285 <= 1
C371: + x85 + x92 <= 1
C372: + x193 + x432 <= 1
C373: + x76 + x102 <= 1
C374: + x42 + x406 <= 1
C375: + x35 + x76 <= 1
C376: + x171 + x308 <= 1
C377: + x27 + x221 <= 1
C378: + x20 + x153 <= 1
C379: + x30 + x34 <= 1
C380: + x132 + x435 <= 1
C381: + x22 + x320 <= 1
C382: + x99 + x493 <= 1
C383: + x3 + x70 <= 1
C384: + x376 + x398 <= 1
C385: + x189 + x308 <= 1
C386: + x36 + x57 <= 1
C387: + x10 + x14 <= 1
C388: + x135 + x485 <= 1
C389: + x223 + x257 <= 1
C390: + x235 + x424 <= 1
C391: + x38 + x51 <= 1
C392: + x56 + x201 <= 1
C393: + x42 + x184 <= 1
C394: + x6 + x253 <= 1
C395: + x210 + x338 <= 1
C396: + x55 + x374 <= 1
C397: + x157 + x377 <= 1
C398: + x4 + x451 <= 1
C399: + x117 + x122 <= 1
C400: + x79 + x384 <= 1
C401: + x19 + x378 <= 1
C402: + x119 + x366 <= 1
C403: + x66 + x152 <= 1
C404: + x3 + x9 <= 1
C405: + x221 + x267 <= 1
C406: + x50 + x129 <= 1
C407: + x1 + x178 <= 1
C408: + x238 + x370 <= 1
C409: + x48 + x62 <= 1
C410: + x105 + x201 <= 1
C411: + x50 + x484 <= 1
C412: + x21 + x189 <= 1
C413: + x81 + x112 <= 1
C414: + x12 + x77 <= 1
C415: + x78 + x97 <= 1
C416: + x170 + x456 <= 1
C417: + x26 + x75 <= 1
C418: + x70 + x132 <= 1
C419: + x135 + x234 <= 1
C420: + x10 + x257 <= 1
C421: + x265 + x430 <= 1
C422: + x67 + x157 <= 1
C423: + x36 + x272 <= 1
C424: + x13 + x321 <= 1
C425: + x2 + x87 <= 1
C426: + x108 + x128 <= 1
C427: + x188 + x473 <= 1
C428: + x427 + x462 <= 1
C429: + x10 + x55 <= 1
C430: + x21 + x129 <= 1
C431: + x13 + x38 <= 1
C432: + x66 + x93 <= 1
C433: + x385 + x389 <= 1
C434: + x23 + x395 <= 1
C435: + x27 + x269 <= 1
C436: + x146 + x165 <= 1
C437: + x2 + x99 <= 1
C438: + x58 + x126 <= 1
C439: + x132 + x346 <= 1
C440: + x159 + x176 <= 1
C441: + x45 + x65 <= 1
C442: + x42 + x375 <= 1
C443: + x252 + x487 <= 1
C444: + x16 + x61 <= 1
C445: + x28 + x296 <= 1
C446: + x20 + x58 <= 1
C447: + x3 + x471 <= 1
C448: + x217 + x237 <= 1
C449: + x72 + x87 <= 1
C450: + x8 + x222 <= 1
C451: + x149 + x316 <= 1
C452: + x234 + x328 <= 1
C453: + x22 + x52 <= 1
C454: + x213 + x345 <= 1
C455: + x3 + x491 <= 1
C456: + x5 + x173 <= 1
C457: + x27 + x82 <= 1
C458: + x7 + x270 <= 1
C459: + x3 + x249 <= 1
C460: + x312 + x359 <= 1
C461: + x278 + x435 <= 1
C462: + x5 + x415 <= 1
C463: + x8 + x53 <= 1
C464: + x47 + x242 <= 1
C465: + x3 + x414 <= 1
C466: + x21 + x109 <= 1
C467: + x43 + x50 <= 1
C468: + x27 + x102 <= 1
C469: + x2 + x135 <= 1
C470: + x29 + x207 <= 1
C471: + x294 + x449 <= 1
C472: + x33 + x325 <= 1
C473: + x311 + x342 <= 1
C474: + x3 + x27 <= 1
C475: + x131 + x200 <= 1
C476: + x47 + x190 <= 1
C477: + x44 + x370 <= 1
C478: + x137 + x227 <= 1
C479: + x21 + x323 <= 1
C480: + x13 + x232 <= 1
C481: + x51 + x486 <= 1
C482: + x27 + x42 <= 1
C483: + x10 + x216 <= 1
C484: + x24 + x59 <= 1
C485: + x119 + x268 <= 1
C486: + x74 + x115 <= 1
C487: + x77 + x234 <= 1
C488: + x6 + x36 <= 1
C489: + x100 + x345 <= 1
C490: + x265 + x313 <= 1
C491: + x106 + x245 <= 1
C492: + x51 + x474 <= 1
C493: + x153 + x263 <= 1
C494: + x9 + x12 <= 1
C495: + x8 + x46 <= 1
C496: + x319 + x408 <= 1
C497: + x13 + x454 <= 1
C498: + x75 + x309 <= 1
C499: + x56 + x290 <= 1
C500: + x24 + x366 <= 1
C501: + x27 + x109 <= 1
C502: + x8 + x67 <= 1
C503: + x237 + x452 <= 1
C504: + x29 + x198 <= 1
C505: + x286 + x317 <= 1
C506: + x107 + x268 <= 1
C507: + x108 + x396 <= 1
C508: + x162 + x442 <= 1
C509: + x11 + x328 <= 1
C510: + x22 + x483 <= 1
C511: + x34 + x82 <= 1
C512: + x3 + x183 <= 1
C513: + x148 + x218 <= 1
C514: + x6 + x343 <= 1
C515: + x60 + x407 <= 1
C516: + x42 + x232 <= 1
C517: + x98 + x259 <= 1
C518: + x38 + x70 <= 1
C519: + x221 + x255 <= 1
C520: + x221 + x300 <= 1
C521: + x373 + x415 <= 1
C522: + x30 + x183 <= 1
C523: + x40 + x84 <= 1
C524: + x93 + x417 <= 1
C525: + x213 + x307 <= 1
C526: + x77 + x120 <= 1
C527: + x128 + x418 <= 1
C528: + x265 + x399 <= 1
C529: + x106 + x143 <= 1
C530: + x5 + x199 <= 1
C531: + x207 + x454 <= 1
C532: + x13 + x162 <= 1
C533: + x10 + x22 <= 1
C534: + x292 + x491 <= 1
C535: + x47 + x115 <= 1
C536: + x107 + x186 <= 1
C537: + x125 + x260 <= 1
C538: + x23 + x198 <= 1
C539: + x260 + x319 <= 1
C540: + x27 + x137 <= 1
C541: + x222 + x302 <= 1
C542: + x123 + x306 <= 1
C543: + x43 + x88 <= 1
C544: + x45 + x376 <= 1
C545: + x16 + x431 <= 1
C546: + x92 + x221 <= 1
C547: + x11 + x125 <= 1
C548: + x3 + x178 <= 1
C549: + x77 + x137 <= 1
C550: + x21 + x337 <= 1
C551: + x32 + x140 <= 1
C552: + x35 + x446 <= 1
C553: + x464 + x483 <= 1
C554: + x60 + x83 <= 1
C555: + x80 + x160 <= 1
C556: + x10 + x317 <= 1
C557: + x182 + x265 <= 1
C558: + x255 + x446 <= 1
C559: + x3 + x33 <= 1
C560: + x13 + x357 <= 1
C561: + x6 + x22 <= 1
C562: + x10 + x416 <= 1
C563: + x111 + x181 <= 1
C564: + x51 + x460 <= 1
C565: + x153 + x277 <= 1
C566: + x100 + x121 <= 1
C567: + x11 + x262 <= 1
C568: + x3 + x359 <= 1
C569: + x240 + x441 <= 1
C570: + x36 + x280 <= 1
C571: + x139 + x205 <= 1
C572: + x30 + x289 <= 1
C573: + x17 + x343 <= 1
C574: + x27 + x127 <= 1
C575: + x8 + x177 <= 1
C576: + x163 + x215 <= 1
C577: + x248 + x411 <= 1
C578: + x4 + x81 <= 1
C579: + x223 + x276 <= 1
C580: + x5 + x448 <= 1
C581: + x44 + x58 <= 1
C582: + x80 + x337 <= 1
C583: + x57 + x96 <= 1
C584: + x55 + x246 <= 1
C585: + x132 + x465 <= 1
C586: + x175 + x445 <= 1
C587: + x127 + x168 <= 1
C588: + x34 + x100 <= 1
C589: + x198 + x427 <= 1
C590: + x62 + x158 <= 1
C591: + x27 + x309 <= 1
C592: + x11 + x104 <= 1
C593: + x13 + x141 <= 1
C594: + x171 + x282 <= 1
C595: + x9 + x245 <= 1
C596: + x6 + x345 <= 1
C597: + x11 + x217 <= 1
C598: + x58 + x449 <= 1
C599: + x246 + x447 <= 1
C600: + x4 + x29 <= 1
C601: + x22 + x171 <= 1
C602: + x332 + x444 <= 1
C603: + x10 + x294 <= 1
C604: + x321 + x452 <= 1
C605: + x132 + x143 <= 1
C606: + x6 + x31 <= 1
C607: + x63 + x66 <= 1
C608: + x237 + x373 <= 1
C609: + x338 + x425 <= 1
C610: + x31 + x47 <= 1
C611: + x13 + x193 <= 1
C612: + x171 + x334 <= 1
C613: + x17 + x132 <= 1
C614: + x64 + x80 <= 1
C615: + x213 + x321 <= 1
C616: + x48 + x317 <= 1
C617: + x162 + x468 <= 1
C618: + x271 + x304 <= 1
C619: + x162 + x191 <= 1
C620: + x7 + x209 <= 1
C621: + x382 + x476 <= 1
C622: + x122 + x190 <= 1
C623: + x178 + x244 <= 1
C624: + x197 + x231 <= 1
C625: + x243 + x461 <= 1
C626: + x36 + x238 <= 1
C627: + x79 + x422 <= 1
C628: + x9 + x109 <= 1
C629: + x8 + x461 <= 1
C630: + x156 + x464 <= 1
C631: + x320 + x463 <= 1
C632: + x133 + x220 <= 1
C633: + x100 + x393 <= 1
C634: + x2 + x20 <= 1
C635: + x38 + x315 <= 1
C636: + x20 + x42 + x65 <= 1
C637: + x90 + x227 <= 1
C638: + x181 + x208 <= 1
C639: + x7 + x338 <= 1
C640: + x11 + x196 <= 1
C641: + x20 + x204 <= 1
C642: + x213 + x380 <= 1
C643: + x4 + x6 <= 1
C644: + x208 + x238 <= 1
C645: + x9 + x89 <= 1
C646: + x27 + x175 <= 1
C647: + x263 + x328 <= 1
C648: + x29 + x497 <= 1
C649: + x36 + x218 <= 1
C650: + x42 + x118 <= 1
C651: + x6 + x8 <= 1
C652: + x81 + x201 <= 1
C653: + x152 + x233 <= 1
C654: + x72 + x435 <= 1
C655: + x122 + x379 <= 1
C656: + x4 + x147 <= 1
C657: + x15 + x240 <= 1
C658: + x6 + x374 <= 1
C659: + x245 + x468 <= 1
C660: + x149 + x400 <= 1
C661: + x45 + x297 <= 1
C662: + x255 + x412 <= 1
C663: + x183 + x469 <= 1
C664: + x49 + x369 <= 1
C665: + x82 + x350 <= 1
C666: + x38 + x339 <= 1
C667: + x450 + x466 <= 1
C668: + x275 + x444 <= 1
C669: + x70 + x468 <= 1
C670: + x125 + x214 <= 1
C671: + x391 + x472 <= 1
C672: + x12 + x15 <= 1
C673: + x33 + x138 <= 1
C674: + x53 + x272 <= 1
C675: + x7 + x91 <= 1
C676: + x19 + x492 <= 1
C677: + x2 + x21 <= 1
C678: + x112 + x301 <= 1
C679: + x13 + x131 <= 1
C680: + x24 + x326 <= 1
C681: + x17 + x198 <= 1
C682: + x24 + x241 <= 1
C683: + x1 + x16 <= 1
C684: + x238 + x484 <= 1
C685: + x89 + x454 <= 1
C686: + x17 + x99 <= 1
C687: + x281 + x304 <= 1
C688: + x5 + x375 <= 1
C689: + x27 + x459 <= 1
C690: + x300 + x368 <= 1
C691: + x2 + x33 <= 1
C692: + x66 + x353 <= 1
C693: + x60 + x292 <= 1
C694: + x225 + x355 <= 1
C695: + x171 + x227 <= 1
C696: + x35 + x72 <= 1
C697: + x22 + x316 <= 1
C698: + x6 + x402 <= 1
C699: + x37 + x82 <= 1
C700: + x11 + x404 <= 1
C701: + x3 + x66 <= 1
C702: + x5 + x187 <= 1
C703: + x9 + x361 <= 1
C704: + x18 + x324 <= 1
C705: + x11 + x130 <= 1
C706: + x238 + x425 <= 1
C707: + x5 + x96 <= 1
C708: + x72 + x131 <= 1
C709: + x2 + x288 <= 1
C710: + x110 + x385 <= 1
C711: + x3 + x392 <= 1
C712: + x349 + x448 <= 1
C713: + x149 + x475 <= 1
C714: + x5 + x330 <= 1
C715: + x44 + x332 <= 1
C716: + x30 + x114 <= 1
C717: + x124 + x322 <= 1
C718: + x2 + x110 <= 1
C719: + x216 + x387 <= 1
C720: + x427 + x499 <= 1
C721: + x36 + x105 <= 1
C722: + x19 + x209 <= 1
C723: + x111 + x226 <= 1
C724: + x299 + x464 <= 1
C725: + x12 + x149 <= 1
C726: + x4 + x19 + x119 <= 1
C727: + x31 + x326 <= 1
C728: + x157 + x410 <= 1
C729: + x176 + x274 <= 1
C730: + x17 + x391 <= 1
C731: + x8 + x278 <= 1
C732: + x156 + x252 <= 1
C733: + x64 + x264 <= 1
C734: + x78 + x367 <= 1
C735: + x179 + x185 <= 1
C736: + x15 + x250 <= 1
C737: + x4 + x499 <= 1
C738: + x33 + x41 <= 1
C739: + x100 + x230 <= 1
C740: + x74 + x379 <= 1
C741: + x55 + x309 <= 1
C742: + x29 + x320 <= 1
C743: + x21 + x141 <= 1
C744: + x98 + x186 <= 1
C745: + x34 + x173 <= 1
C746: + x54 + x290 <= 1
C747: + x50 + x194 <= 1
C748: + x7 + x85 <= 1
C749: + x138 + x223 <= 1
C750: + x2 + x103 <= 1
C751: + x148 + x351 <= 1
C752: + x106 + x398 <= 1
C753: + x132 + x235 <= 1
C754: + x4 + x363 <= 1
C755: + x22 + x477 <= 1
C756: + x1 + x141 <= 1
C757: + x2 + x51 <= 1
C758: + x3 + x161 <= 1
C759: + x77 + x160 <= 1
C760: + x20 + x336 <= 1
C761: + x5 + x26 <= 1
C762: + x35 + x429 <= 1
C763: + x117 + x244 <= 1
C764: + x41 + x145 <= 1
C765: + x107 + x458 <= 1
C766: + x26 + x88 <= 1
C767: + x80 + x141 <= 1
C768: + x111 + x402 <= 1
C769: + x29 + x37 <= 1
C770: + x130 + x151 <= 1
C771: + x77 + x239 <= 1
C772: + x49 + x358 <= 1
C773: + x6 + x39 <= 1
C774: + x100 + x344 <= 1
C775: + x179 + x232 <= 1
C776: + x206 + x359 <= 1
C777: + x281 + x377 <= 1
C778: + x10 + x159 <= 1
C779: + x321 + x363 <= 1
C780: + x56 + x219 <= 1
C781: + x224 + x255 <= 1
C782: + x23 + x386 <= 1
C783: + x7 + x80 <= 1
C784: + x83 + x149 <= 1
C785: + x334 + x480 <= 1
C786: + x20 + x393 <= 1
C787: + x12 + x296 <= 1
C788: + x260 + x410 <= 1
C789: + x82 + x170 <= 1
C790: + x1 + x21 <= 1
C791: + x28 + x150 <= 1
C792: + x139 + x433 <= 1
C793: + x70 + x78 <= 1
C794: + x17 + x88 <= 1
C795: + x3 + x23 <= 1
C796: + x187 + x421 <= 1
C797: + x5 + x356 <= 1
C798: + x98 + x413 <= 1
C799: + x101 + x355 <= 1
C800: + x74 + x313 <= 1
C801: + x3 + x188 <= 1
C802: + x234 + x333 <= 1
C803: + x70 + x388 <= 1
C804: + x35 + x424 <= 1
C805: + x151 + x405 <= 1
C806: + x107 + x305 <= 1
C807: + x230 + x281 <= 1
C808: + x2 + x200 <= 1
C809: + x158 + x314 <= 1
C810: + x9 + x16 <= 1
C811: + x119 + x191 <= 1
C812: + x68 + x323 <= 1
C813: + x112 + x494 <= 1
C814: + x55 + x434 <= 1
C815: + x5 + x220 <= 1
C816: + x43 + x474 <= 1
C817: + x74 + x337 <= 1
C818: + x2 + x148 <= 1
C819: + x10 + x17 <= 1
C820: + x304 + x403 <= 1
C821: + x43 + x184 <= 1
C822: + x10 + x372 <= 1
C823: + x3 + x18 <= 1
C824: + x80 + x238 <= 1
C825: + x10 + x431 <= 1
C826: + x5 + x16 <= 1
C827: + x99 + x255 <= 1
C828: + x108 + x285 <= 1
C829: + x152 + x280 <= 1
C830: + x62 + x406 <= 1
C831: + x65 + x488 <= 1
C832: + x110 + x117 + x294 <= 1
C833: + x13 + x128 <= 1
C834: + x37 + x118 <= 1
C835: + x49 + x207 <= 1
C836: + x3 + x38 <= 1
C837: + x10 + x46 <= 1
C838: + x5 + x52 <= 1
C839: + x17 + x138 <= 1
C840: + x8 + x39 <= 1
C841: + x193 + x249 <= 1
C842: + x3 + x364 <= 1
C843: + x4 + x406 <= 1
C844: + x252 + x256 <= 1
C845: + x24 + x50 + x430 <= 1
C846: + x265 + x368 <= 1
C847: + x77 + x310 <= 1
C848: + x30 + x199 <= 1
C849: + x98 + x153 <= 1
C850: + x107 + x166 <= 1
C851: + x26 + x31 <= 1
C852: + x179 + x279 <= 1
C853: + x162 + x439 <= 1
C854: + x66 + x120 <= 1
C855: + x313 + x402 <= 1
C856: + x187 + x439 <= 1
C857: + x209 + x291 <= 1
C858: + x27 + x298 <= 1
C859: + x10 + x107 <= 1
C860: + x8 + x197 <= 1
C861: + x56 + x463 <= 1
C862: + x137 + x298 <= 1
C863: + x26 + x341 <= 1
C864: + x112 + x113 <= 1
C865: + x149 + x434 <= 1
C866: + x107 + x291 <= 1
C867: + x24 + x69 <= 1
C868: + x64 + x254 <= 1
C869: + x239 + x352 <= 1
C870: + x3 + x61 <= 1
C871: + x51 + x99 <= 1
C872: + x14 + x111 <= 1
C873: + x53 + x323 <= 1
C874: + x19 + x431 <= 1
C875: + x8 + x249 <= 1
C876: + x26 + x353 <= 1
C877: + x8 + x32 <= 1
C878: + x37 + x196 <= 1
C879: + x2 + x381 <= 1
C880: + x322 + x360 <= 1
C881: + x7 + x49 <= 1
C882: + x64 + x162 <= 1
C883: + x321 + x413 <= 1
C884: + x50 + x73 <= 1
C885: + x5 + x202 <= 1
C886: + x98 + x325 <= 1
C887: + x281 + x282 <= 1
C888: + x158 + x483 <= 1
C889: + x21 + x391 <= 1
C890: + x91 + x113 <= 1
C891: + x46 + x64 <= 1
C892: + x64 + x289 <= 1
C893: + x257 + x259 <= 1
C894: + x56 + x456 <= 1
C895: + x4 + x230 <= 1
C896: + x225 + x285 <= 1
C897: + x6 + x138 <= 1
C898: + x145 + x273 <= 1
C899: + x8 + x97 <= 1
C900: + x385 + x461 <= 1
C901: + x56 + x412 <= 1
C902: + x50 + x497 <= 1
C903: + x24 + x264 <= 1
C904: + x15 + x350 <= 1
C905: + x19 + x152 <= 1
C906: + x300 + x401 <= 1
C907: + x56 + x63 <= 1
C908: + x59 + x271 <= 1
C909: + x78 + x110 <= 1
C910: + x70 + x145 <= 1
C911: + x107 + x466 <= 1
C912: + x3 + x76 <= 1
C913: + x13 + x340 <= 1
C914: + x109 + x224 <= 1
C915: + x10 + x12 <= 1
C916: + x8 + x166 <= 1
C917: + x77 + x300 <= 1
C918: + x68 + x455 <= 1
C919: + x5 + x86 <= 1
C920: + x243 + x457 <= 1
C921: + x44 + x51 <= 1
C922: + x27 + x231 <= 1
C923: + x34 + x158 <= 1
C924: + x21 + x81 <= 1
C925: + x195 + x360 <= 1
C926: + x66 + x237 <= 1
C927: + x50 + x62 <= 1
C928: + x171 + x180 <= 1
C929: + x17 + x382 <= 1
C930: + x19 + x219 <= 1
C931: + x265 + x330 <= 1
C932: + x38 + x154 <= 1
C933: + x305 + x348 <= 1
C934: + x311 + x421 <= 1
C935: + x115 + x372 <= 1
C936: + x17 + x112 <= 1
C937: + x289 + x352 <= 1
C938: + x6 + x481 <= 1
C939: + x2 + x478 <= 1
C940: + x64 + x228 <= 1
C941: + x20 + x482 <= 1
C942: + x78 + x150 <= 1
C943: + x5 + x140 <= 1
C944: + x60 + x196 <= 1
C945: + x88 + x250 <= 1
C946: + x19 + x110 <= 1
C947: + x66 + x356 <= 1
C948: + x29 + x274 <= 1
C949: + x158 + x286 <= 1
C950: + x12 + x236 <= 1
C951: + x70 + x428 <= 1
C952: + x162 + x219 <= 1
C953: + x15 + x293 <= 1
C954: + x2 + x36 <= 1
C955: + x54 + x280 <= 1
C956: + x56 + x401 <= 1
C957: + x21 + x183 <= 1
C958: + x297 + x344 <= 1
C959: + x5 + x41 <= 1
C960: + x78 + x103 <= 1
C961: + x9 + x44 <= 1
C962: + x226 + x297 <= 1
C963: + x8 + x14 <= 1
C964: + x11 + x34 <= 1
C965: + x30 + x271 <= 1
C966: + x376 + x397 <= 1
C967: + x430 + x479 <= 1
C968: + x288 + x374 <= 1
C969: + x271 + x472 <= 1
C970: + x5 + x192 <= 1
C971: + x43 + x446 <= 1
C972: + x10 + x13 <= 1
C973: + x12 + x168 <= 1
C974: + x52 + x394 <= 1
C975: + x57 + x114 <= 1
C976: + x130 + x334 <= 1
C977: + x33 + x142 <= 1
C978: + x5 + x335 <= 1
C979: + x351 + x457 <= 1
C980: + x352 + x475 <= 1
C981: + x144 + x253 <= 1
C982: + x21 + x362 <= 1
C983: + x102 + x184 <= 1
C984: + x56 + x121 <= 1
C985: + x5 + x478 <= 1
C986: + x326 + x485 <= 1
C987: + x41 + x365 <= 1
C988: + x87 + x269 <= 1
C989: + x2 + x37 <= 1
C990: + x295 + x309 <= 1
C991: + x13 + x27 + x86 <= 1
C992: + x26 + x380 <= 1
C993: + x1 + x96 <= 1
C994: + x122 + x227 <= 1
C995: + x17 + x19 <= 1
C996: + x100 + x463 <= 1
C997: + x57 + x138 <= 1
C998: + x102 + x106 <= 1
C999: + x49 + x364 <= 1
C1000: + x149 + x173 <= 1
C1001: + x78 + x195 <= 1
C1002: + x133 + x295 <= 1
C1003: + x216 + x331 <= 1
C1004: + x6 + x49 <= 1
C1005: + x21 + x301 <= 1
C1006: + x10 + x54 <= 1
C1007: + x13 + x39 <= 1
C1008: + x434 + x437 <= 1
C1009: + x6 + x303 <= 1
C1010: + x281 + x367 <= 1
C1011: + x77 + x447 <= 1
C1012: + x188 + x408 <= 1
C1013: + x27 + x28 <= 1
C1014: + x3 + x307 <= 1
C1015: + x58 + x480 <= 1
C1016: + x486 + x493 <= 1
C1017: + x107 + x263 <= 1
C1018: + x79 + x328 <= 1
C1019: + x6 + x467 <= 1
C1020: + x135 + x182 <= 1
C1021: + x10 + x349 <= 1
C1022: + x86 + x101 <= 1
C1023: + x5 + x378 <= 1
C1024: + x155 + x267 <= 1
C1025: + x182 + x396 <= 1
C1026: + x64 + x260 <= 1
C1027: + x19 + x96 <= 1
C1028: + x177 + x345 <= 1
C1029: + x5 + x31 <= 1
C1030: + x328 + x399 <= 1
C1031: + x124 + x220 <= 1
C1032: + x13 + x412 <= 1
C1033: + x138 + x324 <= 1
C1034: + x148 + x389 <= 1
C1035: + x38 + x494 <= 1
C1036: + x4 + x278 <= 1
C1037: + x24 + x388 <= 1
C1038: + x19 + x20 <= 1
C1039: + x111 + x161 <= 1
C1040: + x57 + x419 <= 1
C1041: + x39 + x87 <= 1
C1042: + x370 + x475 <= 1
C1043: + x10 + x63 <= 1
C1044: + x86 + x268 <= 1
C1045: + x8 + x56 <= 1
C1046: + x11 + x362 <= 1
C1047: + x29 + x89 <= 1
C1048: + x77 + x438 <= 1
C1049: + x222 + x242 <= 1
C1050: + x15 + x32 <= 1
C1051: + x100 + x420 <= 1
C1052: + x372 + x444 <= 1
C1053: + x8 + x69 <= 1
C1054: + x59 + x479 <= 1
C1055: + x27 + x136 <= 1
C1056: + x19 + x361 <= 1
C1057: + x112 + x432 <= 1
C1058: + x98 + x416 <= 1
C1059: + x2 + x55 <= 1
C1060: + x67 + x125 <= 1
C1061: + x15 + x197 <= 1
C1062: + x321 + x339 <= 1
C1063: + x3 + x322 <= 1
C1064: + x93 + x316 <= 1
C1065: + x29 + x33 <= 1
C1066: + x47 + x143 <= 1
C1067: + x4 + x283 <= 1
C1068: + x23 + x43 <= 1
C1069: + x24 + x409 <= 1
C1070: + x134 + x457 <= 1
C1071: + x111 + x172 <= 1
C1072: + x5 + x74 <= 1
C1073: + x116 + x276 <= 1
C1074: + x334 + x377 <= 1
C1075: + x9 + x13 <= 1
C1076: + x8 + x45 <= 1
C1077: + x11 + x273 <= 1
C1078: + x103 + x418 <= 1
C1079: + x320 + x495 <= 1
C1080: + x34 + x186 <= 1
C1081: + x35 + x139 <= 1
C1082: + x26 + x104 <= 1
C1083: + x3 + x5 + x6 + x10 <= 1
C1084: + x11 + x15 <= 1
C1085: + x331 + x341 <= 1
C1086: + x86 + x134 <= 1
C1087: + x260 + x414 <= 1
C1088: + x118 + x370 <= 1
C1089: + x67 + x453 <= 1
C1090: + x38 + x190 <= 1
C1091: + x170 + x187 <= 1
C1092: + x34 + x246 <= 1
C1093: + x100 + x405 <= 1
C1094: + x43 + x271 <= 1
C1095: + x171 + x220 <= 1
C1096: + x189 + x354 <= 1
C1097: + x10 + x224 <= 1
C1098: + x60 + x93 <= 1
C1099: + x98 + x258 <= 1
C1100: + x26 + x93 <= 1
C1101: + x44 + x135 <= 1
C1102: + x15 + x478 <= 1
C1103: + x203 + x351 <= 1
C1104: + x230 + x406 <= 1
C1105: + x50 + x301 <= 1
C1106: + x39 + x375 <= 1
C1107: + x51 + x417 <= 1
C1108: + x27 + x117 <= 1
C1109: + x28 + x111 <= 1
C1110: + x9 + x131 <= 1
C1111: + x17 + x67 <= 1
C1112: + x45 + x212 <= 1
C1113: + x182 + x324 <= 1
C1114: + x134 + x281 <= 1
C1115: + x42 + x95 <= 1
C1116: + x7 + x119 <= 1
C1117: + x8 + x204 <= 1
C1118: + x5 + x12 <= 1
C1119: + x224 + x459 <= 1
C1120: + x458 + x495 <= 1
C1121: + x2 + x463 <= 1
C1122: + x13 + x358 <= 1
C1123: + x4 + x265 <= 1
C1124: + x110 + x371 <= 1
C1125: + x10 + x415 <= 1
C1126: + x368 + x404 <= 1
C1127: + x5 + x64 <= 1
C1128: + x279 + x459 <= 1
C1129: + x13 + x203 <= 1
C1130: + x233 + x399 <= 1
C1131: + x80 + x163 <= 1
C1132: + x202 + x438 <= 1
C1133: + x14 + x38 <= 1
C1134: + x90 + x205 <= 1
C1135: + x10 + x30 <= 1
C1136: + x210 + x438 <= 1
C1137: + x47 + x123 <= 1
C1138: + x19 + x49 <= 1
C1139: + x89 + x120 <= 1
C1140: + x14 + x340 <= 1
C1141: + x18 + x78 <= 1
C1142: + x28 + x259 <= 1
C1143: + x107 + x416 <= 1
C1144: + x2 + x26 <= 1
C1145: + x47 + x486 <= 1
C1146: + x13 + x142 <= 1
C1147: + x296 + x348 <= 1
C1148: + x93 + x100 <= 1
C1149: + x56 + x106 <= 1
C1150: + x46 + x305 <= 1
C1151: + x47 + x164 <= 1
C1152: + x60 + x202 <= 1
C1153: + x34 + x447 <= 1
C1154: + x5 + x130 <= 1
C1155: + x71 + x102 <= 1
C1156: + x4 + x370 <= 1
C1157: + x7 + x166 <= 1
C1158: + x111 + x189 <= 1
C1159: + x43 + x388 <= 1
C1160: + x83 + x312 <= 1
C1161: + x176 + x217 <= 1
C1162: + x79 + x415 <= 1
C1163: + x80 + x277 <= 1
C1164: + x17 + x133 <= 1
C1165: + x64 + x79 <= 1
C1166: + x11 + x270 <= 1
C1167: + x34 + x48 <= 1
C1168: + x35 + x152 <= 1
C1169: + x2 + x404 <= 1
C1170: + x3 + x77 <= 1
C1171: + x215 + x332 <= 1
C1172: + x7 + x283 <= 1
C1173: + x137 + x326 <= 1
C1174: + x11 + x157 <= 1
C1175: + x12 + x174 <= 1
C1176: + x41 + x69 <= 1
C1177: + x15 + x363 <= 1
C1178: + x36 + x237 <= 1
C1179: + x79 + x427 <= 1
C1180: + x55 + x206 <= 1
C1181: + x2 + x269 <= 1
C1182: + x294 + x327 <= 1
C1183: + x208 + x217 <= 1
C1184: + x167 + x354 <= 1
C1185: + x43 + x71 <= 1
C1186: + x86 + x471 <= 1
C1187: + x33 + x116 <= 1
C1188: + x8 + x371 <= 1
C1189: + x64 + x146 <= 1
C1190: + x283 + x288 <= 1
C1191: + x284 + x392 <= 1
C1192: + x182 + x489 <= 1
C1193: + x241 + x247 <= 1
C1194: + x14 + x19 <= 1
C1195: + x1 + x10 <= 1
C1196: + x10 + x243 <= 1
C1197: + x4 + x5 <= 1
C1198: + x51 + x364 <= 1
C1199: + x26 + x56 <= 1
C1200: + x56 + x134 <= 1
C1201: + x38 + x395 <= 1
C1202: + x78 + x153 <= 1
C1203: + x6 + x7 <= 1
C1204: + x76 + x100 <= 1
C1205: + x59 + x426 <= 1
C1206: + x169 + x213 <= 1
C1207: + x37 + x247 <= 1
C1208: + x20 + x151 <= 1
C1209: + x86 + x396 <= 1
C1210: + x1 + x483 <= 1
C1211: + x11 + x35 <= 1
C1212: + x176 + x343 <= 1
C1213: + x24 + x369 <= 1
C1214: + x7 + x201 <= 1
C1215: + x8 + x162 <= 1
C1216: + x2 + x251 <= 1
C1217: + x104 + x110 <= 1
C1218: + x197 + x274 <= 1
C1219: + x442 + x500 <= 1
C1220: + x178 + x282 <= 1
C1221: + x14 + x425 <= 1
C1222: + x9 + x498 <= 1
C1223: + x8 + x364 <= 1
C1224: + x1 + x319 <= 1
C1225: + x75 + x286 <= 1
C1226: + x295 + x326 <= 1
C1227: + x88 + x436 <= 1
C1228: + x119 + x195 <= 1
C1229: + x22 + x188 <= 1
C1230: + x460 + x486 <= 1
C1231: + x51 + x355 <= 1
C1232: + x6 + x493 <= 1
C1233: + x3 + x11 <= 1
C1234: + x34 + x73 <= 1
C1235: + x35 + x311 <= 1
C1236: + x61 + x208 <= 1
C1237: + x4 + x30 <= 1
C1238: + x10 + x69 <= 1
C1239: + x119 + x126 <= 1
C1240: + x5 + x21 <= 1
C1241: + x35 + x170 <= 1
C1242: + x140 + x253 <= 1
C1243: + x4 + x300 <= 1
C1244: + x5 + x188 <= 1
C1245: + x18 + x150 <= 1
C1246: + x38 + x347 <= 1
C1247: + x77 + x351 <= 1
C1248: + x4 + x71 <= 1
C1249: + x2 + x8 + x9 <= 1
C1250: + x24 + x156 <= 1
C1251: + x36 + x155 <= 1
C1252: + x26 + x246 <= 1
C1253: + x6 + x290 <= 1
C1254: + x239 + x297 <= 1
C1255: + x13 + x470 <= 1
C1256: + x15 + x18 <= 1
C1257: + x7 + x83 <= 1
C1258: + x265 + x408 <= 1
C1259: + x5 + x240 <= 1
C1260: + x90 + x244 <= 1
C1261: + x99 + x159 <= 1
C1262: + x26 + x308 <= 1
C1263: + x19 + x210 <= 1
C1264: + x9 + x342 <= 1
C1265: + x21 + x203 <= 1
C1266: + x4 + x115 <= 1
C1267: + x13 + x32 <= 1
C1268: + x15 + x385 <= 1
C1269: + x11 + x344 <= 1
C1270: + x101 + x139 <= 1
C1271: + x93 + x256 <= 1
C1272: + x7 + x381 <= 1
C1273: + x281 + x423 <= 1
C1274: + x35 + x161 <= 1
C1275: + x147 + x372 <= 1
C1276: + x2 + x487 <= 1
C1277: + x3 + x90 <= 1
C1278: + x4 + x273 <= 1
C1279: + x215 + x349 <= 1
C1280: + x288 + x383 <= 1
C1281: + x71 + x464 <= 1
C1282: + x193 + x376 <= 1
C1283: + x158 + x295 <= 1
C1284: + x42 + x334 <= 1
C1285: + x70 + x453 <= 1
C1286: + x52 + x74 <= 1
C1287: + x116 + x211 <= 1
C1288: + x189 + x210 <= 1
C1289: + x6 + x299 <= 1
C1290: + x153 + x318 <= 1
C1291: + x50 + x193 <= 1
C1292: + x33 + x153 <= 1
C1293: + x11 + x25 <= 1
C1294: + x22 + x107 <= 1
C1295: + x43 + x469 <= 1
C1296: + x91 + x235 <= 1
C1297: + x16 + x229 <= 1
C1298: + x10 + x230 <= 1
C1299: + x246 + x402 <= 1
C1300: + x3 + x271 <= 1
C1301: + x4 + x124 <= 1
C1302: + x13 + x23 <= 1
C1303: + x178 + x357 <= 1
C1304: + x325 + x478 <= 1
C1305: + x187 + x411 <= 1
C1306: + x171 + x214 <= 1
C1307: + x26 + x188 <= 1
C1308: + x8 + x128 <= 1
C1309: + x1 + x43 <= 1
C1310: + x22 + x333 <= 1
C1311: + x24 + x57 <= 1
C1312: + x8 + x419 <= 1
C1313: + x49 + x210 <= 1
C1314: + x61 + x274 <= 1
C1315: + x27 + x91 <= 1
C1316: + x100 + x238 <= 1
C1317: + x16 + x218 <= 1
C1318: + x59 + x407 <= 1
C1319: + x1 + x103 <= 1
C1320: + x41 + x275 <= 1
C1321: + x43 + x59 <= 1
C1322: + x162 + x459 <= 1
C1323: + x93 + x186 <= 1
C1324: + x15 + x189 <= 1
C1325: + x45 + x53 <= 1
C1326: + x10 + x239 <= 1
C1327: + x231 + x455 <= 1
C1328: + x6 + x456 <= 1
C1329: + x27 + x132 <= 1
C1330: + x65 + x115 <= 1
C1331: + x72 + x168 <= 1
C1332: + x3 + x427 <= 1
C1333: + x47 + x380 <= 1
C1334: + x132 + x211 <= 1
C1335: + x9 + x467 <= 1
C1336: + x2 + x11 <= 1
C1337: + x3 + x185 <= 1
C1338: + x93 + x206 <= 1
C1339: + x17 + x275 <= 1
C1340: + x27 + x51 <= 1
C1341: + x19 + x248 <= 1
C1342: + x57 + x63 <= 1
C1343: + x21 + x45 <= 1
C1344: + x45 + x270 <= 1
C1345: + x83 + x89 <= 1
C1346: + x334 + x484 <= 1
C1347: + x3 + x44 <= 1
C1348: + x59 + x61 <= 1
C1349: + x350 + x385 <= 1
C1350: + x88 + x213 <= 1
C1351: + x100 + x352 <= 1
C1352: + x20 + x292 <= 1
C1353: + x290 + x300 <= 1
C1354: + x1 + x126 <= 1
C1355: + x10 + x135 <= 1
C1356: + x131 + x136 <= 1
C1357: + x15 + x491 <= 1
C1358: + x86 + x130 <= 1
C1359: + x379 + x382 <= 1
C1360: + x78 + x293 <= 1
C1361: + x21 + x36 + x321 <= 1
C1362: + x2 + x147 <= 1
C1363: + x37 + x302 <= 1
C1364: + x43 + x181 <= 1
C1365: + x24 + x123 <= 1
C1366: + x2 + x318 <= 1
C1367: + x104 + x376 <= 1
C1368: + x8 + x260 <= 1
C1369: + x58 + x95 <= 1
C1370: + x149 + x215 <= 1
C1371: + x348 + x373 <= 1
C1372: + x5 + x9 <= 1
C1373: + x11 + x212 <= 1
C1374: + x49 + x99 <= 1
C1375: + x21 + x44 <= 1
C1376: + x70 + x122 <= 1
C1377: + x78 + x234 <= 1
C1378: + x350 + x410 <= 1
C1379: + x6 + x24 <= 1
C1380: + x151 + x235 <= 1
C1381: + x10 + x45 <= 1
C1382: + x11 + x163 <= 1
C1383: + x137 + x368 <= 1
C1384: + x36 + x389 <= 1
C1385: + x164 + x239 <= 1
C1386: + x55 + x287 <= 1
C1387: + x165 + x225 <= 1
C1388: + x57 + x437 <= 1
C1389: + x9 + x56 <= 1
C1390: + x63 + x335 <= 1
C1391: + x49 + x95 <= 1
C1392: + x128 + x429 <= 1
C1393: + x86 + x139 <= 1
C1394: + x48 + x393 <= 1
C1395: + x82 + x155 <= 1
C1396: + x100 + x200 <= 1
C1397: + x1 + x228 <= 1
C1398: + x5 + x97 <= 1
C1399: + x121 + x158 <= 1
C1400: + x47 + x209 <= 1
C1401: + x26 + x441 <= 1
C1402: + x2 + x5 <= 1
C1403: + x225 + x263 <= 1
C1404: + x26 + x348 <= 1
C1405: + x92 + x127 <= 1
C1406: + x47 + x68 <= 1
C1407: + x24 + x72 <= 1
C1408: + x191 + x359 <= 1
C1409: + x75 + x384 <= 1
C1410: + x3 + x62 <= 1
C1411: + x137 + x194 <= 1
C1412: + x135 + x445 <= 1
C1413: + x2 + x209 <= 1
C1414: + x141 + x327 <= 1
C1415: + x345 + x357 <= 1
C1416: + x435 + x475 <= 1
C1417: + x467 + x500 <= 1
C1418: + x24 + x28 <= 1
C1419: + x181 + x432 <= 1
C1420: + x267 + x387 <= 1
C1421: + x13 + x59 <= 1
C1422: + x141 + x443 <= 1
C1423: + x188 + x218 <= 1
C1424: + x36 + x236 <= 1
C1425: + x2 + x272 <= 1
C1426: + x49 + x130 <= 1
C1427: + x12 + x24 <= 1
C1428: + x204 + x283 <= 1
C1429: + x18 + x81 + x443 <= 1
C1430: + x65 + x229 <= 1
C1431: + x55 + x108 <= 1
C1432: + x28 + x422 <= 1
C1433: + x50 + x60 <= 1
C1434: + x30 + x336 <= 1
C1435: + x171 + x202 <= 1
C1436: + x44 + x78 <= 1
C1437: + x24 + x307 <= 1
C1438: + x227 + x488 <= 1
C1439: + x5 + x489 <= 1
C1440: + x289 + x346 <= 1
C1441: + x138 + x356 <= 1
C1442: + x130 + x242 <= 1
C1443: + x10 + x95 <= 1
C1444: + x2 + x42 <= 1
C1445: + x105 + x221 <= 1
C1446: + x21 + x169 <= 1
C1447: + x70 + x418 <= 1
C1448: + x60 + x297 <= 1
C1449: + x35 + x79 <= 1
C1450: + x1 + x67 <= 1
C1451: + x77 + x470 <= 1
C1452: + x140 + x465 <= 1
C1453: + x26 + x127 <= 1
C1454: + x47 + x293 <= 1
C1455: + x251 + x279 <= 1
C1456: + x70 + x307 <= 1
C1457: + x36 + x54 <= 1
C1458: + x7 + x287 <= 1
C1459: + x56 + x431 <= 1
C1460: + x50 + x420 <= 1
C1461: + x14 + x329 <= 1
C1462: + x38 + x56 <= 1
C1463: + x12 + x13 <= 1
C1464: + x195 + x357 <= 1
C1465: + x3 + x399 <= 1
C1466: + x88 + x165 <= 1
C1467: + x80 + x252 <= 1
C1468: + x2 + x23 <= 1
C1469: + x79 + x101 <= 1
C1470: + x242 + x352 <= 1
C1471: + x22 + x191 <= 1
C1472: + x132 + x393 <= 1
C1473: + x332 + x440 <= 1
C1474: + x26 + x60 <= 1
C1475: + x145 + x438 <= 1
C1476: + x19 + x381 <= 1
C1477: + x21 + x467 <= 1
C1478: + x405 + x453 <= 1
C1479: + x7 + x11 + x17 <= 1
C1480: + x10 + x72 <= 1
C1481: + x121 + x394 <= 1
C1482: + x19 + x107 <= 1
C1483: + x48 + x55 <= 1
C1484: + x4 + x154 <= 1
C1485: + x35 + x74 <= 1
C1486: + x241 + x260 <= 1
C1487: + x342 + x425 <= 1
C1488: + x24 + x42 <= 1
C1489: + x7 + x36 <= 1
C1490: + x27 + x384 <= 1
C1491: + x9 + x394 <= 1
C1492: + x11 + x47 <= 1
C1493: + x17 + x29 <= 1
C1494: + x425 + x445 <= 1
C1495: + x236 + x403 <= 1
C1496: + x3 + x229 <= 1
C1497: + x77 + x292 <= 1
C1498: + x23 + x228 <= 1
C1499: + x318 + x499 <= 1
C1500: + x59 + x347 <= 1
C1501: + x412 + x441 <= 1
C1502: + x78 + x90 <= 1
C1503: + x53 + x277 <= 1
C1504: + x400 + x427 <= 1
C1505: + x78 + x317 <= 1
C1506: + x45 + x76 <= 1
C1507: + x36 + x103 <= 1
C1508: + x1 + x5 <= 1
C1509: + x56 + x124 <= 1
C1510: + x13 + x426 <= 1
C1511: + x3 + x7 <= 1
C1512: + x243 + x282 <= 1
C1513: + x414 + x489 <= 1
C1514: + x7 + x140 <= 1
C1515: + x110 + x165 <= 1
C1516: + x144 + x383 <= 1
C1517: + x233 + x331 <= 1
C1518: + x95 + x265 <= 1
C1519: + x60 + x295 <= 1
C1520: + x277 + x492 <= 1
C1521: + x100 + x147 <= 1
C1522: + x9 + x212 <= 1
C1523: + x377 + x419 <= 1
C1524: + x48 + x147 <= 1
C1525: + x286 + x356 <= 1
C1526: + x13 + x414 <= 1
C1527: + x170 + x454 <= 1
C1528: + x233 + x488 <= 1
C1529: + x2 + x482 <= 1
C1530: + x429 + x457 <= 1
C1531: + x46 + x118 <= 1
C1532: + x32 + x39 <= 1
C1533: + x34 + x409 <= 1
C1534: + x23 + x26 <= 1
C1535: + x24 + x390 <= 1
C1536: + x19 + x26 <= 1
C1537: + x13 + x40 <= 1
C1538: + x125 + x234 <= 1
C1539: + x386 + x423 <= 1
C1540: + x61 + x143 <= 1
C1541: + x88 + x187 <= 1
C1542: + x101 + x310 <= 1
C1543: + x11 + x449 <= 1
C1544: + x348 + x426 <= 1
C1545: + x77 + x170 <= 1
C1546: + x13 + x183 <= 1
C1547: + x26 + x312 <= 1
C1548: + x100 + x281 <= 1
C1549: + x22 + x380 <= 1
C1550: + x32 + x325 <= 1
C1551: + x131 + x203 <= 1
C1552: + x187 + x416 <= 1
C1553: + x22 + x479 <= 1
C1554: + x78 + x362 <= 1
C1555: + x162 + x236 <= 1
C1556: + x21 + x27 <= 1
C1557: + x4 + x35 <= 1
C1558: + x7 + x30 <= 1
C1559: + x135 + x231 <= 1
C1560: + x219 + x251 <= 1
C1561: + x55 + x60 <= 1
C1562: + x56 + x172 <= 1
C1563: + x149 + x181 <= 1
C1564: + x39 + x491 <= 1
C1565: + x215 + x337 <= 1
C1566: + x81 + x248 <= 1
C1567: + x352 + x443 <= 1
C1568: + x28 + x72 <= 1
C1569: + x57 + x420 <= 1
C1570: + x3 + x247 <= 1
C1571: + x5 + x68 <= 1
C1572: + x19 + x182 <= 1
C1573: + x30 + x70 <= 1
C1574: + x42 + x168 <= 1
C1575: + x7 + x74 <= 1
C1576: + x54 + x80 <= 1
C1577: + x36 + x450 <= 1
C1578: + x27 + x222 <= 1
C1579: + x7 + x473 <= 1
C1580: + x42 + x84 <= 1
C1581: + x164 + x185 <= 1
C1582: + x74 + x315 <= 1
C1583: + x5 + x7 <= 1
C1584: + x6 + x145 <= 1
C1585: + x16 + x181 <= 1
C1586: + x100 + x129 <= 1
C1587: + x21 + x34 <= 1
C1588: + x233 + x470 <= 1
C1589: + x22 + x329 <= 1
C1590: + x13 + x71 <= 1
C1591: + x66 + x180 <= 1
C1592: + x47 + x144 <= 1
C1593: + x221 + x303 <= 1
C1594: + x287 + x340 <= 1
C1595: + x255 + x275 <= 1
C1596: + x111 + x169 <= 1
C1597: + x13 + x214 <= 1
C1598: + x268 + x401 <= 1
C1599: + x2 + x365 <= 1
C1600: + x316 + x397 <= 1
C1601: + x8 + x339 <= 1
C1602: + x37 + x49 <= 1
C1603: + x55 + x79 <= 1
C1604: + x229 + x241 <= 1
C1605: + x260 + x413 <= 1
C1606: + x26 + x258 <= 1
C1607: + x101 + x214 <= 1
C1608: + x19 + x64 <= 1
C1609: + x197 + x319 <= 1
C1610: + x5 + x127 <= 1
C1611: + x44 + x206 <= 1
C1612: + x111 + x338 <= 1
C1613: + x157 + x485 <= 1
C1614: + x3 + x20 <= 1
C1615: + x33 + x112 <= 1
C1616: + x408 + x439 <= 1
C1617: + x291 + x383 <= 1
C1618: + x419 + x428 <= 1
C1619: + x94 + x246 <= 1
C1620: + x5 + x14 <= 1
C1621: + x288 + x476 <= 1
C1622: + x6 + x154 <= 1
C1623: + x26 + x129 <= 1
C1624: + x10 + x223 <= 1
C1625: + x2 + x170 <= 1
C1626: + x193 + x299 <= 1
C1627: + x77 + x497 <= 1
C1628: + x22 + x167 <= 1
C1629: + x205 + x318 <= 1
C1630: + x13 + x126 <= 1
C1631: + x79 + x355 <= 1
C1632: + x45 + x266 <= 1
C1633: + x10 + x314 <= 1
C1634: + x11 + x394 <= 1
C1635: + x252 + x451 <= 1
C1636: + x58 + x280 <= 1
C1637: + x33 + x60 <= 1
C1638: + x224 + x350 <= 1
C1639: + x181 + x311 <= 1
C1640: + x100 + x324 <= 1
C1641: + x47 + x421 <= 1
C1642: + x5 + x50 <= 1
C1643: + x170 + x330 <= 1
C1644: + x194 + x233 <= 1
C1645: + x17 + x53 <= 1
C1646: + x142 + x276 <= 1
C1647: + x55 + x66 <= 1
C1648: + x283 + x327 <= 1
C1649: + x7 + x229 <= 1
C1650: + x122 + x178 <= 1
C1651: + x148 + x372 <= 1
C1652: + x18 + x76 <= 1
C1653: + x50 + x163 <= 1
C1654: + x80 + x233 <= 1
C1655: + x83 + x266 <= 1
C1656: + x11 + x123 <= 1
C1657: + x329 + x467 <= 1
C1658: + x3 + x144 <= 1
C1659: + x38 + x311 <= 1
C1660: + x20 + x353 <= 1
C1661: + x6 + x350 <= 1
C1662: + x10 + x200 <= 1
C1663: + x93 + x102 <= 1
C1664: + x2 + x163 <= 1
C1665: + x300 + x494 <= 1
C1666: + x13 + x386 <= 1
C1667: + x10 + x291 <= 1
C1668: + x139 + x334 <= 1
C1669: + x103 + x450 <= 1
C1670: + x169 + x331 <= 1
C1671: + x269 + x436 <= 1
C1672: + x23 + x38 <= 1
C1673: + x111 + x187 <= 1
C1674: + x11 + x175 <= 1
C1675: + x43 + x315 <= 1
C1676: + x319 + x392 <= 1
C1677: + x33 + x162 <= 1
C1678: + x32 + x428 <= 1
C1679: + x169 + x474 <= 1
C1680: + x27 + x367 <= 1
C1681: + x21 + x278 <= 1
C1682: + x13 + x347 <= 1
C1683: + x23 + x114 <= 1
C1684: + x5 + x208 <= 1
C1685: + x227 + x405 <= 1
C1686: + x2 + x240 <= 1
C1687: + x55 + x303 <= 1
C1688: + x129 + x429 <= 1
C1689: + x189 + x207 <= 1
C1690: + x27 + x146 <= 1
C1691: + x182 + x332 <= 1
C1692: + x135 + x151 <= 1
C1693: + x148 + x472 <= 1
C1694: + x66 + x75 <= 1
C1695: + x110 + x311 <= 1
C1696: + x63 + x429 <= 1
C1697: + x2 + x25 <= 1
C1698: + x12 + x261 <= 1
C1699: + x58 + x455 <= 1
C1700: + x36 + x211 <= 1
C1701: + x5 + x131 <= 1
C1702: + x151 + x226 <= 1
C1703: + x7 + x155 <= 1
C1704: + x10 + x391 <= 1
C1705: + x10 + x90 <= 1
C1706: + x55 + x278 <= 1
C1707: + x45 + x413 <= 1
C1708: + x409 + x449 <= 1
C1709: + x43 + x294 <= 1
C1710: + x133 + x424 <= 1
C1711: + x6 + x267 <= 1
C1712: + x70 + x421 <= 1
C1713: + x215 + x474 <= 1
C1714: + x78 + x112 <= 1
C1715: + x259 + x351 <= 1
C1716: + x171 + x493 <= 1
C1717: + x11 + x496 <= 1
C1718: + x192 + x439 <= 1
C1719: + x77 + x197 <= 1
C1720: + x107 + x117 <= 1
C1721: + x6 + x193 <= 1
C1722: + x154 + x208 <= 1
C1723: + x7 + x284 <= 1
C1724: + x118 + x332 <= 1
C1725: + x5 + x108 <= 1
C1726: + x80 + x348 <= 1
C1727: + x1 + x412 <= 1
C1728: + x46 + x152 <= 1
C1729: + x157 + x498 <= 1
C1730: + x80 + x255 <= 1
C1731: + x229 + x367 <= 1
C1732: + x68 + x86 <= 1
C1733: + x125 + x387 <= 1
C1734: + x270 + x477 <= 1
C1735: + x207 + x482 <= 1
C1736: + x93 + x124 <= 1
C1737: + x43 + x215 <= 1
C1738: + x49 + x242 <= 1
C1739: + x58 + x299 <= 1
C1740: + x61 + x306 <= 1
C1741: + x10 + x67 <= 1
C1742: + x297 + x342 <= 1
C1743: + x35 + x75 <= 1
C1744: + x65 + x391 <= 1
C1745: + x11 + x310 <= 1
C1746: + x466 + x473 <= 1
C1747: + x37 + x248 <= 1
C1748: + x42 + x133 <= 1
C1749: + x34 + x40 <= 1
C1750: + x2 + x492 <= 1
C1751: + x178 + x400 <= 1
C1752: + x61 + x262 <= 1
C1753: + x43 + x448 <= 1
C1754: + x262 + x389 <= 1
C1755: + x10 + x15 <= 1
C1756: + x157 + x172 <= 1
C1757: + x49 + x480 <= 1
C1758: + x107 + x145 <= 1
C1759: + x107 + x366 <= 1
C1760: + x91 + x420 <= 1
C1761: + x110 + x390 <= 1
C1762: + x27 + x228 <= 1
C1763: + x29 + x73 <= 1
C1764: + x5 + x333 <= 1
C1765: + x2 + x424 <= 1
C1766: + x11 + x24 <= 1
C1767: + x69 + x341 <= 1
C1768: + x100 + x166 <= 1
C1769: + x8 + x85 <= 1
C1770: + x2 + x182 <= 1
C1771: + x139 + x390 <= 1
C1772: + x200 + x316 <= 1
C1773: + x64 + x239 <= 1
C1774: + x3 + x12 <= 1
C1775: + x17 + x386 <= 1
C1776: + x79 + x156 <= 1
C1777: + x9 + x319 <= 1
C1778: + x10 + x433 <= 1
C1779: + x11 + x92 <= 1
C1780: + x149 + x308 <= 1
C1781: + x286 + x452 <= 1
C1782: + x107 + x216 <= 1
C1783: + x24 + x284 <= 1
C1784: + x35 + x70 <= 1
C1785: + x248 + x499 <= 1
C1786: + x73 + x78 <= 1
C1787: + x111 + x390 <= 1
C1788: + x58 + x179 <= 1
C1789: + x105 + x343 <= 1
C1790: + x30 + x43 + x122 <= 1
C1791: + x275 + x433 <= 1
C1792: + x41 + x52 <= 1
C1793: + x39 + x90 <= 1
C1794: + x95 + x306 <= 1
C1795: + x6 + x289 <= 1
C1796: + x97 + x451 <= 1
C1797: + x6 + x68 <= 1
C1798: + x2 + x441 <= 1
C1799: + x3 + x148 <= 1
C1800: + x59 + x117 <= 1
C1801: + x439 + x473 <= 1
C1802: + x79 + x116 <= 1
C1803: + x21 + x204 <= 1
C1804: + x86 + x329 <= 1
C1805: + x76 + x182 <= 1
C1806: + x7 + x144 <= 1
C1807: + x10 + x442 <= 1
C1808: + x2 + x64 <= 1
C1809: + x5 + x29 <= 1
C1810: + x90 + x191 <= 1
C1811: + x6 + x358 <= 1
C1812: + x22 + x323 <= 1
C1813: + x17 + x24 <= 1
C1814: + x24 + x35 <= 1
C1815: + x136 + x244 <= 1
C1816: + x56 + x175 <= 1
C1817: + x3 + x87 <= 1
C1818: + x225 + x235 <= 1
C1819: + x69 + x151 <= 1
C1820: + x160 + x250 <= 1
C1821: + x236 + x400 <= 1
C1822: + x10 + x57 <= 1
C1823: + x14 + x172 <= 1
C1824: + x17 + x167 <= 1
C1825: + x248 + x288 <= 1
C1826: + x98 + x462 <= 1
C1827: + x354 + x369 <= 1
C1828: + x36 + x354 <= 1
C1829: + x2 + x101 <= 1
C1830: + x3 + x107 <= 1
C1831: + x12 + x289 <= 1
C1832: + x13 + x179 <= 1
C1833: + x215 + x298 <= 1
C1834: + x27 + x101 <= 1
C1835: + x146 + x397 <= 1
C1836: + x7 + x313 <= 1
C1837: + x56 + x77 <= 1
C1838: + x21 + x211 <= 1
C1839: + x60 + x451 <= 1
C1840: + x147 + x440 <= 1
C1841: + x4 + x365 <= 1
C1842: + x61 + x223 <= 1
C1843: + x137 + x226 <= 1
C1844: + x283 + x318 <= 1
C1845: + x5 + x28 <= 1
C1846: + x371 + x498 <= 1
C1847: + x65 + x492 <= 1
C1848: + x158 + x398 <= 1
C1849: + x33 + x197 <= 1
C1850: + x216 + x252 <= 1
C1851: + x36 + x315 <= 1
C1852: + x37 + x66 <= 1
C1853: + x38 + x94 <= 1
C1854: + x149 + x177 <= 1
C1855: + x260 + x496 <= 1
C1856: + x6 + x37 <= 1
C1857: + x26 + x497 <= 1
C1858: + x87 + x213 <= 1
C1859: + x8 + x144 <= 1
C1860: + x2 + x205 <= 1
C1861: + x3 + x243 <= 1
C1862: + x5 + x80 <= 1
C1863: + x9 + x11 <= 1
C1864: + x80 + x320 <= 1
C1865: + x131 + x142 <= 1
C1866: + x50 + x249 <= 1
C1867: + x5 + x223 <= 1
C1868: + x135 + x261 <= 1
C1869: + x13 + x15 <= 1
C1870: + x31 + x225 <= 1
C1871: + x35 + x256 <= 1
C1872: + x15 + x404 <= 1
C1873: + x8 + x487 <= 1
C1874: + x182 + x381 <= 1
C1875: + x55 + x251 <= 1
C1876: + x3 + x21 <= 1
C1877: + x243 + x264 <= 1
C1878: + x80 + x231 <= 1
C1879: + x31 + x116 <= 1
C1880: + x81 + x84 <= 1
C1881: + x6 + x157 <= 1
C1882: + x27 + x52 <= 1
C1883: + x44 + x403 <= 1
C1884: + x1 + x35 <= 1
C1885: + x58 + x440 <= 1
C1886: + x4 + x48 <= 1
C1887: + x124 + x283 <= 1
C1888: + x34 + x196 <= 1
C1889: + x112 + x383 <= 1
C1890: + x98 + x111 <= 1
C1891: + x168 + x185 <= 1
C1892: + x75 + x121 <= 1
C1893: + x86 + x288 <= 1
C1894: + x297 + x382 <= 1
C1895: + x34 + x266 <= 1
C1896: + x34 + x189 <= 1
C1897: + x53 + x73 <= 1
C1898: + x6 + x284 <= 1
C1899: + x63 + x325 <= 1
C1900: + x21 + x114 <= 1
C1901: + x122 + x466 <= 1
C1902: + x234 + x272 <= 1
C1903: + x91 + x254 <= 1
C1904: + x10 + x23 <= 1
C1905: + x11 + x237 <= 1
C1906: + x4 + x105 <= 1
C1907: + x40 + x133 <= 1
C1908: + x44 + x194 <= 1
C1909: + x8 + x480 <= 1
C1910: + x157 + x481 <= 1
C1911: + x56 + x226 <= 1
C1912: + x94 + x484 <= 1
C1913: + x336 + x347 <= 1
C1914: + x10 + x104 <= 1
C1915: + x90 + x146 <= 1
C1916: + x94 + x277 <= 1
C1917: + x30 + x32 <= 1
C1918: + x68 + x258 <= 1
C1919: + x234 + x471 <= 1
C1920: + x60 + x84 <= 1
C1921: + x26 + x40 <= 1
C1922: + x19 + x273 <= 1
C1923: + x250 + x476 <= 1
C1924: + x76 + x149 <= 1
C1925: + x257 + x422 <= 1
C1926: + x139 + x156 <= 1
C1927: + x82 + x149 + x174 <= 1
C1928: + x410 + x489 <= 1
C1929: + x8 + x254 <= 1
C1930: + x72 + x119 <= 1
C1931: + x5 + x62 <= 1
C1932: + x5 + x395 <= 1
C1933: + x19 + x164 <= 1
C1934: + x133 + x176 <= 1
C1935: + x39 + x469 <= 1
C1936: + x51 + x94 <= 1
C1937: + x199 + x409 <= 1
C1938: + x82 + x154 <= 1
C1939: + x134 + x481 <= 1
C1940: + x5 + x98 <= 1
C1941: + x32 + x225 <= 1
C1942: + x111 + x349 <= 1
C1943: + x77 + x405 <= 1
C1944: + x258 + x279 <= 1
C1945: + x13 + x303 <= 1
C1946: + x146 + x190 <= 1
C1947: + x1 + x148 <= 1
C1948: + x164 + x171 <= 1
C1949: + x34 + x464 <= 1
C1950: + x79 + x461 <= 1
C1951: + x102 + x155 <= 1
C1952: + x13 + x113 <= 1
C1953: + x26 + x41 <= 1
C1954: + x27 + x167 <= 1
C1955: + x47 + x158 <= 1

binary
x1 x2 x3 x4 x5 x6 x7 x8 x9 x10 x11 x12 x13 x14 x15 x16 x17 x18 x19 x20 x21 x22 x23 x24 x25 x26 x27 x28 x29 x30 x31 x32 x33 x34 x35 x36 x37 x38 x39 x40 x41 x42 x43 x44 x45 x46 x47 x48 x49 x50 x51 x52 x53 x54 x55 x56 x57 x58 x59 x60 x61 x62 x63 x64 x65 x66 x67 x68 x69 x70 x71 x72 x73 x74 x75 x76 x77 x78 x79 x80 x81 x82 x83 x84 x85 x86 x87 x88 x89 x90 x91 x92 x93 x94 x95 x96 x97 x98 x99 x100 x101 x102 x103 x104 x105 x106 x107 x108 x109 x110 x111 x112 x113 x114 x115 x116 x117 x118 x119 x120 x121 x122 x123 x124 x125 x126 x127 x128 x129 x130 x131 x132 x133 x134 x135 x136 x137 x138 x139 x140 x141 x142 x143 x144 x145 x146 x147 x148 x149 x150 x151 x152 x153 x154 x155 x156 x157 x158 x159 x160 x161 x162 x163 x164 x165 x166 x167 x168 x169 x170 x171 x172 x173 x174 x175 x176 x177 x178 x179 x180 x181 x182 x183 x184 x185 x186 x187 x188 x189 x190 x191 x192 x193 x194 x195 x196 x197 x198 x199 x200 x201 x202 x203 x204 x205 x206 x207 x208 x209 x210 x211 x212 x213 x214 x215 x216 x217 x218 x219 x220 x221 x222 x223 x224 x225 x226 x227 x228 x229 x230 x231 x232 x233 x234 x235 x236 x237 x238 x239 x240 x241 x242 x243 x244 x245 x246 x247 x248 x249 x250 x251 x252 x253 x254 x255 x256 x257 x258 x259 x260 x261 x262 x263 x264 x265 x266 x267 x268 x269 x270 x271 x272 x273 x274 x275 x276 x277 x278 x279 x280 x281 x282 x283 x284 x285 x286 x287 x288 x289 x290 x291 x292 x293 x294 x295 x296 x297 x298 x299 x300 x301 x302 x303 x304 x305 x306 x307 x308 x309 x310 x311 x312 x313 x314 x315 x316 x317 x318 x319 x320 x321 x322 x323 x324 x325 x326 x327 x328 x329 x330 x331 x332 x333 x334 x335 x336 x337 x338 x339 x340 x341 x342 x343 x344 x345 x346 x347 x348 x349 x350 x351 x352 x353 x354 x355 x356 x357 x358 x359 x360 x361 x362 x363 x364 x365 x366 x367 x368 x369 x370 x371 x372 x373 x374 x375 x376 x377 x378 x379 x380 x381 x382 x383 x384 x385 x386 x387 x388 x389 x390 x391 x392 x393 x394 x395 x396 x397 x398 x399 x400 x401 x402 x403 x404 x405 x406 x407 x408 x409 x410 x411 x412 x413 x414 x415 x416 x417 x418 x419 x420 x421 x422 x423 x424 x425 x426 x427 x428 x429 x430 x431 x432 x433 x434 x435 x436 x437 x438 x439 x440 x441 x442 x443 x444 x445 x446 x447 x448 x449 x450 x451 x452 x453 x454 x455 x456 x457 x458 x459 x460 x461 x462 x463 x464 x465 x466 x467 x468 x469 x470 x471 x472 x473 x474 x475 x476 x477 x478 x479 x480 x481 x482 x483 x484 x485 x486 x487 x488 x489 x490 x491 x492 x493 x494 x495 x496 x497 x498 x499 x500
