maximize
OBJ: + 1 x1 + 1 x2 + 1 x3 + 1 x4 + 1 x5 + 1 x6 + 1 x7 + 1 x8 + 1 x9 + 1 x10 + 1 x11 + 1 x12 + 1 x13 + 1 x14 + 1 x15 + 1 x16 + 1 x17 + 1 x18 + 1 x19 + 1 x20 + 1 x21 + 1 x22 + 1 x23 + 1 x24 + 1 x25 + 1 x26 + 1 x27 + 1 x28 + 1 x29 + 1 x30 + 1 x31 + 1 x32 + 1 x33 + 1 x34 + 1 x35 + 1 x36 + 1 x37 + 1 x38 + 1 x39 + 1 x40 + 1 x41 + 1 x42 + 1 x43 + 1 x44 + 1 x45 + 1 x46 + 1 x47 + 1 x48 + 1 x49 + 1 x50 + 1 x51 + 1 x52 + 1 x53 + 1 x54 + 1 x55 + 1 x56 + 1 x57 + 1 x58 + 1 x59 + 1 x60 + 1 x61 + 1 x62 + 1 x63 + 1 x64 + 1 x65 + 1 x66 + 1 x67 + 1 x68 + 1 x69 + 1 x70 + 1 x71 + 1 x72 + 1 x73 + 1 x74 + 1 x75 + 1 x76 + 1 x77 + 1 x78 + 1 x79 + 1 x80 + 1 x81 + 1 x82 + 1 x83 + 1 x84 + 1 x85 + 1 x86 + 1 x87 + 1 x88 + 1 x89 + 1 x90 + 1 x91 + 1 x92 + 1 x93 + 1 x94 + 1 x95 + 1 x96 + 1 x97 + 1 x98 + 1 x99 + 1 x100 + 1 x101 + 1 x102 + 1 x103 + 1 x104 + 1 x105 + 1 x106 + 1 x107 + 1 x108 + 1 x109 + 1 x110 + 1 x111 + 1 x112 + 1 x113 + 1 x114 + 1 x115 + 1 x116 + 1 x117 + 1 x118 + 1 x119 + 1 x120 + 1 x121 + 1 x122 + 1 x123 + 1 x124 + 1 x125 + 1 x126 + 1 x127 + 1 x128 + 1 x129 + 1 x130 + 1 x131 + 1 x132 + 1 x133 + 1 x134 + 1 x135 + 1 x136 + 1 x137 + 1 x138 + 1 x139 + 1 x140 + 1 x141 + 1 x142 + 1 x143 + 1 x144 + 1 x145 + 1 x146 + 1 x147 + 1 x148 + 1 x149 + 1 x150 + 1 x151 + 1 x152 + 1 x153 + 1 x154 + 1 x155 + 1 x156 + 1 x157 + 1 x158 + 1 x159 + 1 x160 + 1 x161 + 1 x162 + 1 x163 + 1 x164 + 1 x165 + 1 x166 + 1 x167 + 1 x168 + 1 x169 + 1 x170 + 1 x171 + 1 x172 + 1 x173 + 1 x174 + 1 x175 + 1 x176 + 1 x177 + 1 x178 + 1 x179 + 1 x180 + 1 x181 + 1 x182 + 1 x183 + 1 x184 + 1 x185 + 1 x186 + 1 x187 + 1 x188 + 1 x189 + 1 x190 + 1 x191 + 1 x192 + 1 x193 + 1 x194 + 1 x195 + 1 x196 + 1 x197 + 1 x198 + 1 x199 + 1 x200 + 1 x201 + 1 x202 + 1 x203 + 1 x204 + 1 x205 + 1 x206 + 1 x207 + 1 x208 + 1 x209 + 1 x210 + 1 x211 + 1 x212 + 1 x213 + 1 x214 + 1 x215 + 1 x216 + 1 x217 + 1 x218 + 1 x219 + 1 x220 + 1 x221 + 1 x222 + 1 x223 + 1 x224 + 1 x225 + 1 x226 + 1 x227 + 1 x228 + 1 x229 + 1 x230 + 1 x231 + 1 x232 + 1 x233 + 1 x234 + 1 x235 + 1 x236 + 1 x237 + 1 x238 + 1 x239 + 1 x240 + 1 x241 + 1 x242 + 1 x243 + 1 x244 + 1 x245 + 1 x246 + 1 x247 + 1 x248 + 1 x249 + 1 x250 + 1 x251 + 1 x252 + 1 x253 + 1 x254 + 1 x255 + 1 x256 + 1 x257 + 1 x258 + 1 x259 + 1 x260 + 1 x261 + 1 x262 + 1 x263 + 1 x264 + 1 x265 + 1 x266 + 1 x267 + 1 x268 + 1 x269 + 1 x270 + 1 x271 + 1 x272 + 1 x273 + 1 x274 + 1 x275 + 1 x276 + 1 x277 + 1 x278 + 1 x279 + 1 x280 + 1 x281 + 1 x282 + 1 x283 + 1 x284 + 1 x285 + 1 x286 + 1 x287 + 1 x288 + 1 x289 + 1 x290 + 1 x291 + 1 x292 + 1 x293 + 1 x294 + 1 x295 + 1 x296 + 1 x297 + 1 x298 + 1 x299 + 1 x300 + 1 x301 + 1 x302 + 1 x303 + 1 x304 + 1 x305 + 1 x306 + 1 x307 + 1 x308 + 1 x309 + 1 x310 + 1 x311 + 1 x312 + 1 x313 + 1 x314 + 1 x315 + 1 x316 + 1 x317 + 1 x318 + 1 x319 + 1 x320 + 1 x321 + 1 x322 + 1 x323 + 1 x324 + 1 x325 + 1 x326 + 1 x327 + 1 x328 + 1 x329 + 1 x330 + 1 x331 + 1 x332 + 1 x333 + 1 x334 + 1 x335 + 1 x336 + 1 x337 + 1 x338 + 1 x339 + 1 x340 + 1 x341 + 1 x342 + 1 x343 + 1 x344 + 1 x345 + 1 x346 + 1 x347 + 1 x348 + 1 x349 + 1 x350 + 1 x351 + 1 x352 + 1 x353 + 1 x354 + 1 x355 + 1 x356 + 1 x357 + 1 x358 + 1 x359 + 1 x360 + 1 x361 + 1 x362 + 1 x363 + 1 x364 + 1 x365 + 1 x366 + 1 x367 + 1 x368 + 1 x369 + 1 x370 + 1 x371 + 1 x372 + 1 x373 + 1 x374 + 1 x375 + 1 x376 + 1 x377 + 1 x378 + 1 x379 + 1 x380 + 1 x381 + 1 x382 + 1 x383 + 1 x384 + 1 x385 + 1 x386 + 1 x387 + 1 x388 + 1 x389 + 1 x390 + 1 x391 + 1 x392 + 1 x393 + 1 x394 + 1 x395 + 1 x396 + 1 x397 + 1 x398 + 1 x399 + 1 x400 + 1 x401 + 1 x402 + 1 x403 + 1 x404 + 1 x405 + 1 x406 + 1 x407 + 1 x408 + 1 x409 + 1 x410 + 1 x411 + 1 x412 + 1 x413 + 1 x414 + 1 x415 + 1 x416 + 1 x417 + 1 x418 + 1 x419 + 1 x420 + 1 x421 + 1 x422 + 1 x423 + 1 x424 + 1 x425 + 1 x426 + 1 x427 + 1 x428 + 1 x429 + 1 x430 + 1 x431 + 1 x432 + 1 x433 + 1 x434 + 1 x435 + 1 x436 + 1 x437 + 1 x438 + 1 x439 + 1 x440 + 1 x441 + 1 x442 + 1 x443 + 1 x444 + 1 x445 + 1 x446 + 1 x447 + 1 x448 + 1 x449 + 1 x450 + 1 x451 + 1 x452 + 1 x453 + 1 x454 + 1 x455 + 1 x456 + 1 x457 + 1 x458 + 1 x459 + 1 x460 + 1 x461 + 1 x462 + 1 x463 + 1 x464 + 1 x465 + 1 x466 + 1 x467 + 1 x468 + 1 x469 + 1 x470 + 1 x471 + 1 x472 + 1 x473 + 1 x474 + 1 x475 + 1 x476 + 1 x477 + 1 x478 + 1 x479 + 1 x480 + 1 x481 + 1 x482 + 1 x483 + 1 x484 + 1 x485 + 1 x486 + 1 x487 + 1 x488 + 1 x489 + 1 x490 + 1 x491 + 1 x492 + 1 x493 + 1 x494 + 1 x495 + 1 x496 + 1 x497 + 1 x498 + 1 x499 + 1 x500

subject to
C1: + x22 + x442 <= 1
C2: + x63 + x65 <= 1
C3: + x22 + x29 <= 1
C4: + x117 + x159 <= 1
C5: + x16 + x75 <= 1
C6: + x273 + x285 <= 1
C7: + x121 + x218 <= 1
C8: + x12 + x333 <= 1
C9: + x42 + x58 <= 1
C10: + x43 + x458 <= 1
C11: + x425 + x464 <= 1
C12: + x19 + x46 <= 1
C13: + x175 + x177 <= 1
C14: + x51 + x314 <= 1
C15: + x4 + x87 <= 1
C16: + x80 + x351 <= 1
C17: + x128 + x294 <= 1
C18: + x256 + x497 <= 1
C19: + x41 + x309 <= 1
C20: + x50 + x224 <= 1
C21: + x195 + x363 <= 1
C22: + x26 + x385 <= 1
C23: + x93 + x220 <= 1
C24: + x32 + x127 <= 1
C25: + x228 + x463 <= 1
C26: + x26 + x50 <= 1
C27: + x207 + x241 <= 1
C28: + x8 + x386 <= 1
C29: + x71 + x318 <= 1
C30: + x9 + x309 <= 1
C31: + x155 + x320 <= 1
C32: + x122 + x380 <= 1
C33: + x86 + x299 <= 1
C34: + x43 + x290 <= 1
C35: + x100 + x104 <= 1
C36: + x91 + x401 <= 1
C37: + x226 + x278 <= 1
C38: + x114 + x264 <= 1
C39: + x224 + x372 <= 1
C40: + x16 + x42 + x97 <= 1
C41: + x12 + x161 <= 1
C42: + x21 + x254 <= 1
C43: + x4 + x96 <= 1
C44: + x32 + x302 <= 1
C45: + x25 + x249 <= 1
C46: + x54 + x209 <= 1
C47: + x56 + x205 <= 1
C48: + x2 + x264 <= 1
C49: + x114 + x401 <= 1
C50: + x29 + x78 <= 1
C51: + x12 + x16 <= 1
C52: + x6 + x94 <= 1
C53: + x303 + x405 <= 1
C54: + x250 + x419 <= 1
C55: + x2 + x419 <= 1
C56: + x11 + x105 <= 1
C57: + x31 + x112 <= 1
C58: + x24 + x331 <= 1
C59: + x36 + x97 <= 1
C60: + x218 + x403 <= 1
C61: + x122 + x148 <= 1
C62: + x103 + x267 <= 1
C63: + x4 + x12 <= 1
C64: + x62 + x258 <= 1
C65: + x10 + x337 <= 1
C66: + x16 + x44 <= 1
C67: + x18 + x118 <= 1
C68: + x3 + x13 <= 1
C69: + x115 + x467 <= 1
C70: + x87 + x268 <= 1
C71: + x25 + x34 <= 1
C72: + x98 + x395 <= 1
C73: + x164 + x370 <= 1
C74: + x19 + x108 <= 1
C75: + x27 + x462 <= 1
C76: + x10 + x71 <= 1
C77: + x101 + x103 <= 1
C78: + x210 + x266 <= 1
C79: + x111 + x294 <= 1
C80: + x42 + x137 <= 1
C81: + x5 + x261 <= 1
C82: + x17 + x30 <= 1
C83: + x118 + x446 <= 1
C84: + x135 + x246 <= 1
C85: + x2 + x83 <= 1
C86: + x20 + x432 <= 1
C87: + x284 + x328 <= 1
C88: + x122 + x494 <= 1
C89: + x32 + x57 <= 1
C90: + x6 + x54 <= 1
C91: + x91 + x210 <= 1
C92: + x82 + x344 <= 1
C93: + x165 + x195 <= 1
C94: + x17 + x173 <= 1
C95: + x6 + x292 <= 1
C96: + x173 + x387 <= 1
C97: + x38 + x64 <= 1
C98: + x195 + x381 <= 1
C99: + x6 + x71 <= 1
C100: + x71 + x157 <= 1
C101: + x146 + x161 <= 1
C102: + x66 + x252 <= 1
C103: + x3 + x149 <= 1
C104: + x12 + x311 <= 1
C105: + x221 + x407 <= 1
C106: + x116 + x121 <= 1
C107: + x10 + x255 <= 1
C108: + x441 + x461 <= 1
C109: + x12 + x150 <= 1
C110: + x42 + x198 <= 1
C111: + x176 + x436 <= 1
C112: + x81 + x281 <= 1
C113: + x18 + x111 <= 1
C114: + x411 + x464 <= 1
C115: + x56 + x325 <= 1
C116: + x98 + x388 <= 1
C117: + x6 + x11 <= 1
C118: + x25 + x326 <= 1
C119: + x27 + x35 <= 1
C120: + x65 + x402 <= 1
C121: + x1 + x82 <= 1
C122: + x22 + x139 <= 1
C123: + x103 + x112 <= 1
C124: + x21 + x303 <= 1
C125: + x42 + x45 <= 1
C126: + x32 + x34 <= 1
C127: + x9 + x164 <= 1
C128: + x245 + x344 <= 1
C129: + x105 + x248 <= 1
C130: + x115 + x227 <= 1
C131: + x5 + x70 <= 1
C132: + x180 + x187 <= 1
C133: + x55 + x209 <= 1
C134: + x332 + x472 <= 1
C135: + x6 + x80 <= 1
C136: + x26 + x412 <= 1
C137: + x155 + x325 <= 1
C138: + x58 + x131 <= 1
C139: + x105 + x263 <= 1
C140: + x149 + x243 <= 1
C141: + x60 + x355 <= 1
C142: + x417 + x478 <= 1
C143: + x26 + x311 <= 1
C144: + x144 + x466 <= 1
C145: + x157 + x371 <= 1
C146: + x4 + x122 <= 1
C147: + x14 + x302 <= 1
C148: + x6 + x465 <= 1
C149: + x134 + x300 <= 1
C150: + x3 + x31 <= 1
C151: + x275 + x335 <= 1
C152: + x404 + x476 <= 1
C153: + x5 + x380 <= 1
C154: + x347 + x457 <= 1
C155: + x65 + x135 <= 1
C156: + x8 + x223 <= 1
C157: + x5 + x25 <= 1
C158: + x188 + x358 <= 1
C159: + x24 + x220 <= 1
C160: + x81 + x431 <= 1
C161: + x17 + x239 <= 1
C162: + x303 + x478 <= 1
C163: + x13 + x73 <= 1
C164: + x215 + x245 <= 1
C165: + x25 + x95 <= 1
C166: + x120 + x448 <= 1
C167: + x3 + x83 <= 1
C168: + x140 + x233 <= 1
C169: + x8 + x50 <= 1
C170: + x35 + x370 <= 1
C171: + x67 + x167 <= 1
C172: + x3 + x103 <= 1
C173: + x69 + x327 <= 1
C174: + x40 + x48 <= 1
C175: + x225 + x315 <= 1
C176: + x114 + x194 <= 1
C177: + x13 + x20 <= 1
C178: + x25 + x154 <= 1
C179: + x14 + x295 <= 1
C180: + x30 + x452 <= 1
C181: + x5 + x355 <= 1
C182: + x71 + x187 <= 1
C183: + x72 + x73 <= 1
C184: + x83 + x277 <= 1
C185: + x138 + x141 <= 1
C186: + x430 + x439 <= 1
C187: + x188 + x379 <= 1
C188: + x6 + x363 <= 1
C189: + x29 + x158 <= 1
C190: + x21 + x35 <= 1
C191: + x124 + x485 <= 1
C192: + x62 + x68 <= 1
C193: + x7 + x183 <= 1
C194: + x92 + x297 <= 1
C195: + x197 + x268 <= 1
C196: + x9 + x15 <= 1
C197: + x331 + x498 <= 1
C198: + x251 + x411 <= 1
C199: + x98 + x475 <= 1
C200: + x17 + x63 <= 1
C201: + x65 + x217 <= 1
C202: + x136 + x153 <= 1
C203: + x193 + x499 <= 1
C204: + x42 + x459 <= 1
C205: + x162 + x169 <= 1
C206: + x53 + x392 <= 1
C207: + x117 + x328 <= 1
C208: + x10 + x18 <= 1
C209: + x29 + x193 <= 1
C210: + x40 + x140 <= 1
C211: + x43 + x382 <= 1
C212: + x43 + x183 <= 1
C213: + x33 + x351 <= 1
C214: + x53 + x146 <= 1
C215: + x192 + x492 <= 1
C216: + x12 + x427 <= 1
C217: + x33 + x97 <= 1
C218: + x251 + x367 <= 1
C219: + x186 + x305 <= 1
C220: + x6 + x102 <= 1
C221: + x62 + x137 <= 1
C222: + x110 + x143 <= 1
C223: + x2 + x14 <= 1
C224: + x5 + x15 <= 1
C225: + x6 + x153 <= 1
C226: + x27 + x64 <= 1
C227: + x24 + x77 <= 1
C228: + x36 + x296 <= 1
C229: + x58 + x279 <= 1
C230: + x225 + x253 <= 1
C231: + x332 + x366 <= 1
C232: + x6 + x42 <= 1
C233: + x35 + x273 <= 1
C234: + x8 + x310 <= 1
C235: + x78 + x335 <= 1
C236: + x18 + x31 <= 1
C237: + x54 + x318 <= 1
C238: + x55 + x166 <= 1
C239: + x7 + x416 <= 1
C240: + x8 + x40 <= 1
C241: + x22 + x293 <= 1
C242: + x169 + x468 <= 1
C243: + x33 + x172 <= 1
C244: + x77 + x115 <= 1
C245: + x328 + x338 <= 1
C246: + x55 + x396 <= 1
C247: + x348 + x448 <= 1
C248: + x169 + x369 <= 1
C249: + x108 + x148 <= 1
C250: + x82 + x165 <= 1
C251: + x56 + x95 <= 1
C252: + x16 + x21 <= 1
C253: + x19 + x345 <= 1
C254: + x46 + x165 <= 1
C255: + x165 + x272 <= 1
C256: + x2 + x305 <= 1
C257: + x39 + x289 <= 1
C258: + x261 + x430 <= 1
C259: + x2 + x7 <= 1
C260: + x193 + x390 <= 1
C261: + x21 + x340 <= 1
C262: + x4 + x254 <= 1
C263: + x41 + x488 <= 1
C264: + x100 + x178 <= 1
C265: + x8 + x105 <= 1
C266: + x10 + x199 <= 1
C267: + x19 + x236 <= 1
C268: + x70 + x101 <= 1
C269: + x53 + x173 <= 1
C270: + x243 + x398 <= 1
C271: + x19 + x269 <= 1
C272: + x9 + x430 <= 1
C273: + x4 + x267 <= 1
C274: + x98 + x124 <= 1
C275: + x6 + x19 <= 1
C276: + x338 + x437 <= 1
C277: + x22 + x32 <= 1
C278: + x5 + x58 <= 1
C279: + x58 + x393 <= 1
C280: + x68 + x306 <= 1
C281: + x52 + x255 <= 1
C282: + x17 + x45 <= 1
C283: + x65 + x215 <= 1
C284: + x84 + x170 <= 1
C285: + x141 + x220 <= 1
C286: + x32 + x74 <= 1
C287: + x188 + x438 <= 1
C288: + x62 + x469 <= 1
C289: + x38 + x174 <= 1
C290: + x188 + x273 <= 1
C291: + x117 + x168 <= 1
C292: + x128 + x313 <= 1
C293: + x66 + x74 <= 1
C294: + x313 + x408 <= 1
C295: + x50 + x219 <= 1
C296: + x104 + x207 <= 1
C297: + x14 + x24 <= 1
C298: + x21 + x64 <= 1
C299: + x5 + x495 <= 1
C300: + x130 + x265 <= 1
C301: + x293 + x312 <= 1
C302: + x196 + x436 <= 1
C303: + x98 + x125 <= 1
C304: + x6 + x28 <= 1
C305: + x118 + x263 <= 1
C306: + x2 + x44 <= 1
C307: + x57 + x321 <= 1
C308: + x12 + x244 <= 1
C309: + x5 + x33 <= 1
C310: + x35 + x49 <= 1
C311: + x10 + x188 <= 1
C312: + x111 + x288 <= 1
C313: + x121 + x222 <= 1
C314: + x215 + x237 <= 1
C315: + x162 + x465 <= 1
C316: + x56 + x266 <= 1
C317: + x21 + x286 <= 1
C318: + x32 + x55 <= 1
C319: + x27 + x396 <= 1
C320: + x75 + x91 <= 1
C321: + x179 + x268 <= 1
C322: + x71 + x262 <= 1
C323: + x8 + x458 <= 1
C324: + x130 + x374 <= 1
C325: + x48 + x270 <= 1
C326: + x178 + x487 <= 1
C327: + x77 + x85 <= 1
C328: + x42 + x79 <= 1
C329: + x2 + x430 <= 1
C330: + x75 + x174 <= 1
C331: + x29 + x349 <= 1
C332: + x21 + x354 <= 1
C333: + x14 + x17 <= 1
C334: + x32 + x123 <= 1
C335: + x35 + x459 <= 1
C336: + x4 + x7 <= 1
C337: + x61 + x110 <= 1
C338: + x24 + x92 <= 1
C339: + x104 + x341 <= 1
C340: + x98 + x118 <= 1
C341: + x196 + x441 <= 1
C342: + x62 + x104 <= 1
C343: + x8 + x289 <= 1
C344: + x155 + x316 <= 1
C345: + x257 + x341 <= 1
C346: + x86 + x311 <= 1
C347: + x39 + x108 <= 1
C348: + x21 + x182 <= 1
C349: + x5 + x48 <= 1
C350: + x277 + x483 <= 1
C351: + x28 + x199 <= 1
C352: + x12 + x88 <= 1
C353: + x13 + x96 <= 1
C354: + x4 + x394 <= 1
C355: + x106 + x113 <= 1
C356: + x26 + x66 <= 1
C357: + x6 + x406 <= 1
C358: + x83 + x115 <= 1
C359: + x8 + x434 <= 1
C360: + x17 + x27 <= 1
C361: + x149 + x165 <= 1
C362: + x114 + x316 <= 1
C363: + x14 + x86 <= 1
C364: + x287 + x377 <= 1
C365: + x16 + x274 <= 1
C366: + x36 + x57 <= 1
C367: + x280 + x404 <= 1
C368: + x257 + x353 <= 1
C369: + x22 + x246 <= 1
C370: + x224 + x403 <= 1
C371: + x13 + x47 <= 1
C372: + x153 + x306 <= 1
C373: + x32 + x211 <= 1
C374: + x8 + x455 <= 1
C375: + x47 + x232 <= 1
C376: + x43 + x80 <= 1
C377: + x5 + x334 <= 1
C378: + x335 + x386 <= 1
C379: + x9 + x500 <= 1
C380: + x85 + x244 <= 1
C381: + x21 + x361 <= 1
C382: + x85 + x337 <= 1
C383: + x114 + x211 <= 1
C384: + x4 + x16 <= 1
C385: + x5 + x477 <= 1
C386: + x35 + x212 <= 1
C387: + x3 + x9 <= 1
C388: + x109 + x340 <= 1
C389: + x8 + x229 <= 1
C390: + x147 + x177 <= 1
C391: + x278 + x486 <= 1
C392: + x79 + x495 <= 1
C393: + x10 + x166 <= 1
C394: + x300 + x400 <= 1
C395: + x124 + x375 <= 1
C396: + x24 + x37 <= 1
C397: + x26 + x75 <= 1
C398: + x44 + x145 <= 1
C399: + x316 + x417 <= 1
C400: + x17 + x18 <= 1
C401: + x58 + x178 <= 1
C402: + x112 + x355 <= 1
C403: + x5 + x166 <= 1
C404: + x6 + x50 <= 1
C405: + x113 + x280 <= 1
C406: + x303 + x327 <= 1
C407: + x289 + x401 <= 1
C408: + x19 + x189 <= 1
C409: + x2 + x285 <= 1
C410: + x26 + x407 <= 1
C411: + x83 + x162 <= 1
C412: + x2 + x99 <= 1
C413: + x84 + x137 <= 1
C414: + x86 + x245 <= 1
C415: + x32 + x105 <= 1
C416: + x117 + x375 <= 1
C417: + x80 + x99 <= 1
C418: + x463 + x468 <= 1
C419: + x122 + x153 <= 1
C420: + x12 + x138 <= 1
C421: + x177 + x201 <= 1
C422: + x125 + x164 <= 1
C423: + x5 + x476 <= 1
C424: + x24 + x106 <= 1
C425: + x474 + x494 <= 1
C426: + x293 + x301 <= 1
C427: + x21 + x487 <= 1
C428: + x43 + x123 <= 1
C429: + x62 + x122 <= 1
C430: + x65 + x132 <= 1
C431: + x10 + x116 <= 1
C432: + x374 + x499 <= 1
C433: + x21 + x188 <= 1
C434: + x24 + x223 <= 1
C435: + x36 + x90 <= 1
C436: + x82 + x308 <= 1
C437: + x10 + x175 <= 1
C438: + x6 + x357 <= 1
C439: + x141 + x462 <= 1
C440: + x6 + x59 <= 1
C441: + x184 + x231 <= 1
C442: + x97 + x201 <= 1
C443: + x215 + x448 <= 1
C444: + x306 + x498 <= 1
C445: + x27 + x243 <= 1
C446: + x19 + x184 <= 1
C447: + x47 + x242 <= 1
C448: + x30 + x72 <= 1
C449: + x43 + x50 <= 1
C450: + x21 + x383 <= 1
C451: + x267 + x493 <= 1
C452: + x8 + x70 <= 1
C453: + x63 + x299 <= 1
C454: + x2 + x135 <= 1
C455: + x233 + x296 <= 1
C456: + x268 + x342 <= 1
C457: + x296 + x477 <= 1
C458: + x74 + x81 + x84 <= 1
C459: + x299 + x343 <= 1
C460: + x8 + x489 <= 1
C461: + x37 + x159 <= 1
C462: + x85 + x113 <= 1
C463: + x131 + x200 <= 1
C464: + x4 + x368 <= 1
C465: + x7 + x136 <= 1
C466: + x121 + x413 <= 1
C467: + x97 + x244 <= 1
C468: + x60 + x402 <= 1
C469: + x225 + x465 <= 1
C470: + x61 + x79 <= 1
C471: + x8 + x413 <= 1
C472: + x93 + x315 <= 1
C473: + x322 + x481 <= 1
C474: + x78 + x246 <= 1
C475: + x7 + x180 <= 1
C476: + x36 + x48 <= 1
C477: + x201 + x420 <= 1
C478: + x274 + x276 <= 1
C479: + x10 + x33 <= 1
C480: + x131 + x445 <= 1
C481: + x32 + x202 <= 1
C482: + x25 + x210 <= 1
C483: + x32 + x261 <= 1
C484: + x59 + x163 <= 1
C485: + x61 + x131 <= 1
C486: + x316 + x395 <= 1
C487: + x129 + x203 <= 1
C488: + x2 + x125 <= 1
C489: + x76 + x214 <= 1
C490: + x129 + x320 <= 1
C491: + x127 + x392 <= 1
C492: + x2 + x160 <= 1
C493: + x65 + x117 <= 1
C494: + x101 + x393 <= 1
C495: + x8 + x482 <= 1
C496: + x141 + x186 <= 1
C497: + x26 + x429 <= 1
C498: + x91 + x99 <= 1
C499: + x107 + x194 <= 1
C500: + x44 + x406 <= 1
C501: + x36 + x72 <= 1
C502: + x67 + x412 <= 1
C503: + x4 + x47 <= 1
C504: + x40 + x195 <= 1
C505: + x196 + x294 <= 1
C506: + x24 + x52 <= 1
C507: + x62 + x253 <= 1
C508: + x89 + x490 <= 1
C509: + x18 + x393 <= 1
C510: + x21 + x313 <= 1
C511: + x4 + x257 <= 1
C512: + x89 + x135 <= 1
C513: + x5 + x147 <= 1
C514: + x9 + x257 <= 1
C515: + x8 + x136 <= 1
C516: + x38 + x372 <= 1
C517: + x40 + x84 <= 1
C518: + x5 + x56 <= 1
C519: + x36 + x180 <= 1
C520: + x85 + x262 <= 1
C521: + x143 + x222 <= 1
C522: + x191 + x423 <= 1
C523: + x47 + x274 <= 1
C524: + x31 + x80 <= 1
C525: + x18 + x171 <= 1
C526: + x20 + x242 <= 1
C527: + x305 + x382 <= 1
C528: + x293 + x485 <= 1
C529: + x380 + x455 <= 1
C530: + x98 + x133 <= 1
C531: + x43 + x179 <= 1
C532: + x2 + x308 <= 1
C533: + x123 + x133 <= 1
C534: + x42 + x96 <= 1
C535: + x115 + x499 <= 1
C536: + x9 + x476 <= 1
C537: + x220 + x260 <= 1
C538: + x67 + x114 <= 1
C539: + x51 + x408 <= 1
C540: + x52 + x480 <= 1
C541: + x5 + x11 <= 1
C542: + x218 + x447 <= 1
C543: + x97 + x111 <= 1
C544: + x115 + x326 <= 1
C545: + x297 + x471 <= 1
C546: + x89 + x497 <= 1
C547: + x90 + x487 <= 1
C548: + x26 + x450 <= 1
C549: + x261 + x471 <= 1
C550: + x10 + x83 <= 1
C551: + x185 + x364 <= 1
C552: + x40 + x73 <= 1
C553: + x98 + x194 <= 1
C554: + x60 + x285 <= 1
C555: + x14 + x214 <= 1
C556: + x18 + x19 <= 1
C557: + x256 + x391 <= 1
C558: + x166 + x352 <= 1
C559: + x118 + x418 <= 1
C560: + x186 + x461 <= 1
C561: + x141 + x217 <= 1
C562: + x32 + x77 <= 1
C563: + x27 + x390 <= 1
C564: + x18 + x164 <= 1
C565: + x106 + x168 + x192 <= 1
C566: + x179 + x201 <= 1
C567: + x16 + x17 <= 1
C568: + x21 + x78 <= 1
C569: + x44 + x357 <= 1
C570: + x65 + x240 <= 1
C571: + x63 + x431 <= 1
C572: + x374 + x471 <= 1
C573: + x128 + x403 <= 1
C574: + x26 + x346 <= 1
C575: + x292 + x480 <= 1
C576: + x115 + x381 <= 1
C577: + x26 + x48 <= 1
C578: + x54 + x146 <= 1
C579: + x98 + x128 <= 1
C580: + x44 + x273 <= 1
C581: + x7 + x165 <= 1
C582: + x63 + x66 <= 1
C583: + x28 + x34 <= 1
C584: + x3 + x221 <= 1
C585: + x221 + x479 <= 1
C586: + x5 + x38 <= 1
C587: + x45 + x141 <= 1
C588: + x16 + x86 <= 1
C589: + x258 + x339 <= 1
C590: + x208 + x297 <= 1
C591: + x83 + x125 <= 1
C592: + x5 + x181 <= 1
C593: + x6 + x195 <= 1
C594: + x8 + x170 <= 1
C595: + x31 + x219 <= 1
C596: + x4 + x90 <= 1
C597: + x37 + x179 <= 1
C598: + x43 + x90 <= 1
C599: + x1 + x295 <= 1
C600: + x14 + x20 <= 1
C601: + x34 + x456 <= 1
C602: + x109 + x152 <= 1
C603: + x1 + x9 <= 1
C604: + x2 + x191 <= 1
C605: + x122 + x138 <= 1
C606: + x4 + x6 <= 1
C607: + x97 + x418 <= 1
C608: + x317 + x453 <= 1
C609: + x139 + x370 <= 1
C610: + x3 + x51 <= 1
C611: + x4 + x376 <= 1
C612: + x28 + x39 <= 1
C613: + x11 + x83 <= 1
C614: + x149 + x299 <= 1
C615: + x134 + x321 <= 1
C616: + x83 + x467 <= 1
C617: + x11 + x312 <= 1
C618: + x166 + x322 <= 1
C619: + x32 + x416 <= 1
C620: + x168 + x312 <= 1
C621: + x209 + x232 <= 1
C622: + x10 + x283 <= 1
C623: + x37 + x43 <= 1
C624: + x175 + x352 <= 1
C625: + x32 + x51 <= 1
C626: + x26 + x288 <= 1
C627: + x82 + x139 <= 1
C628: + x80 + x98 + x387 <= 1
C629: + x2 + x252 <= 1
C630: + x48 + x128 <= 1
C631: + x141 + x436 <= 1
C632: + x224 + x402 <= 1
C633: + x43 + x176 <= 1
C634: + x16 + x103 <= 1
C635: + x164 + x426 <= 1
C636: + x165 + x314 <= 1
C637: + x130 + x330 <= 1
C638: + x103 + x441 <= 1
C639: + x68 + x359 <= 1
C640: + x50 + x216 <= 1
C641: + x157 + x463 <= 1
C642: + x117 + x464 <= 1
C643: + x89 + x343 <= 1
C644: + x5 + x232 <= 1
C645: + x299 + x453 <= 1
C646: + x105 + x183 <= 1
C647: + x336 + x418 <= 1
C648: + x3 + x14 <= 1
C649: + x178 + x471 <= 1
C650: + x25 + x35 <= 1
C651: + x282 + x438 <= 1
C652: + x2 + x33 <= 1
C653: + x25 + x384 <= 1
C654: + x126 + x348 <= 1
C655: + x88 + x389 <= 1
C656: + x113 + x134 <= 1
C657: + x21 + x23 <= 1
C658: + x53 + x195 <= 1
C659: + x2 + x495 <= 1
C660: + x56 + x259 <= 1
C661: + x22 + x415 <= 1
C662: + x154 + x220 <= 1
C663: + x271 + x475 <= 1
C664: + x28 + x76 <= 1
C665: + x13 + x43 <= 1
C666: + x9 + x27 <= 1
C667: + x155 + x474 <= 1
C668: + x5 + x330 <= 1
C669: + x52 + x157 <= 1
C670: + x16 + x157 <= 1
C671: + x27 + x419 <= 1
C672: + x8 + x84 <= 1
C673: + x242 + x343 <= 1
C674: + x157 + x410 <= 1
C675: + x3 + x5 <= 1
C676: + x209 + x327 <= 1
C677: + x71 + x74 <= 1
C678: + x20 + x327 <= 1
C679: + x5 + x19 <= 1
C680: + x354 + x401 <= 1
C681: + x107 + x209 <= 1
C682: + x198 + x365 <= 1
C683: + x137 + x491 <= 1
C684: + x115 + x350 <= 1
C685: + x25 + x89 <= 1
C686: + x36 + x308 <= 1
C687: + x98 + x500 <= 1
C688: + x235 + x284 <= 1
C689: + x407 + x425 <= 1
C690: + x29 + x411 <= 1
C691: + x31 + x403 <= 1
C692: + x5 + x162 <= 1
C693: + x18 + x144 <= 1
C694: + x10 + x59 <= 1
C695: + x20 + x275 <= 1
C696: + x37 + x176 <= 1
C697: + x29 + x93 <= 1
C698: + x149 + x482 <= 1
C699: + x12 + x61 <= 1
C700: + x50 + x194 <= 1
C701: + x18 + x470 <= 1
C702: + x11 + x463 <= 1
C703: + x129 + x241 <= 1
C704: + x122 + x450 <= 1
C705: + x57 + x270 <= 1
C706: + x117 + x371 <= 1
C707: + x60 + x120 <= 1
C708: + x42 + x206 <= 1
C709: + x13 + x264 <= 1
C710: + x8 + x218 <= 1
C711: + x2 + x51 <= 1
C712: + x185 + x271 <= 1
C713: + x229 + x334 <= 1
C714: + x177 + x348 <= 1
C715: + x14 + x243 <= 1
C716: + x17 + x283 <= 1
C717: + x20 + x171 <= 1
C718: + x34 + x53 <= 1
C719: + x43 + x427 <= 1
C720: + x6 + x39 <= 1
C721: + x207 + x308 <= 1
C722: + x55 + x272 <= 1
C723: + x161 + x359 <= 1
C724: + x165 + x343 <= 1
C725: + x20 + x119 <= 1
C726: + x115 + x265 <= 1
C727: + x66 + x320 <= 1
C728: + x5 + x221 <= 1
C729: + x6 + x235 <= 1
C730: + x29 + x203 <= 1
C731: + x178 + x204 <= 1
C732: + x70 + x78 <= 1
C733: + x24 + x99 <= 1
C734: + x91 + x451 <= 1
C735: + x37 + x155 <= 1
C736: + x3 + x23 <= 1
C737: + x131 + x196 <= 1
C738: + x33 + x107 <= 1
C739: + x6 + x124 <= 1
C740: + x19 + x86 <= 1
C741: + x66 + x332 <= 1
C742: + x188 + x382 <= 1
C743: + x15 + x204 <= 1
C744: + x24 + x212 <= 1
C745: + x135 + x307 <= 1
C746: + x3 + x349 <= 1
C747: + x33 + x218 <= 1
C748: + x70 + x114 <= 1
C749: + x90 + x409 <= 1
C750: + x83 + x92 <= 1
C751: + x147 + x357 <= 1
C752: + x130 + x293 <= 1
C753: + x56 + x362 <= 1
C754: + x148 + x399 <= 1
C755: + x46 + x102 <= 1
C756: + x9 + x286 <= 1
C757: + x28 + x492 <= 1
C758: + x21 + x147 <= 1
C759: + x25 + x353 <= 1
C760: + x74 + x456 <= 1
C761: + x309 + x497 <= 1
C762: + x8 + x42 <= 1
C763: + x21 + x120 <= 1
C764: + x55 + x77 <= 1
C765: + x42 + x458 <= 1
C766: + x19 + x62 <= 1
C767: + x309 + x360 <= 1
C768: + x3 + x260 <= 1
C769: + x139 + x444 <= 1
C770: + x75 + x388 <= 1
C771: + x322 + x418 <= 1
C772: + x3 + x18 <= 1
C773: + x86 + x215 <= 1
C774: + x132 + x376 <= 1
C775: + x12 + x265 <= 1
C776: + x10 + x221 <= 1
C777: + x185 + x250 <= 1
C778: + x34 + x199 <= 1
C779: + x150 + x238 <= 1
C780: + x6 + x41 <= 1
C781: + x401 + x434 <= 1
C782: + x10 + x46 <= 1
C783: + x5 + x52 <= 1
C784: + x35 + x64 <= 1
C785: + x307 + x496 <= 1
C786: + x311 + x496 <= 1
C787: + x11 + x62 + x287 <= 1
C788: + x97 + x493 <= 1
C789: + x251 + x419 <= 1
C790: + x70 + x175 <= 1
C791: + x7 + x58 <= 1
C792: + x92 + x338 <= 1
C793: + x55 + x72 <= 1
C794: + x93 + x143 <= 1
C795: + x12 + x342 <= 1
C796: + x207 + x458 <= 1
C797: + x27 + x391 <= 1
C798: + x7 + x304 <= 1
C799: + x2 + x149 <= 1
C800: + x84 + x127 <= 1
C801: + x441 + x490 <= 1
C802: + x40 + x132 <= 1
C803: + x31 + x237 <= 1
C804: + x154 + x466 <= 1
C805: + x37 + x137 <= 1
C806: + x52 + x133 <= 1
C807: + x10 + x472 <= 1
C808: + x112 + x286 <= 1
C809: + x6 + x129 <= 1
C810: + x80 + x453 <= 1
C811: + x274 + x369 <= 1
C812: + x157 + x365 <= 1
C813: + x107 + x291 <= 1
C814: + x32 + x354 <= 1
C815: + x48 + x323 <= 1
C816: + x60 + x182 <= 1
C817: + x81 + x223 <= 1
C818: + x7 + x162 <= 1
C819: + x9 + x268 <= 1
C820: + x33 + x53 <= 1
C821: + x260 + x384 <= 1
C822: + x53 + x93 <= 1
C823: + x186 + x374 <= 1
C824: + x105 + x455 <= 1
C825: + x2 + x67 <= 1
C826: + x12 + x331 <= 1
C827: + x39 + x43 <= 1
C828: + x77 + x301 <= 1
C829: + x5 + x111 <= 1
C830: + x89 + x123 <= 1
C831: + x14 + x337 <= 1
C832: + x11 + x374 <= 1
C833: + x12 + x21 <= 1
C834: + x105 + x499 <= 1
C835: + x42 + x69 <= 1
C836: + x35 + x368 <= 1
C837: + x27 + x305 <= 1
C838: + x84 + x245 <= 1
C839: + x12 + x263 <= 1
C840: + x4 + x230 <= 1
C841: + x35 + x126 <= 1
C842: + x193 + x315 <= 1
C843: + x140 + x486 <= 1
C844: + x178 + x382 <= 1
C845: + x53 + x181 <= 1
C846: + x151 + x283 <= 1
C847: + x6 + x488 <= 1
C848: + x57 + x176 <= 1
C849: + x20 + x38 <= 1
C850: + x392 + x410 <= 1
C851: + x42 + x113 <= 1
C852: + x98 + x116 <= 1
C853: + x329 + x392 <= 1
C854: + x85 + x179 <= 1
C855: + x176 + x230 <= 1
C856: + x42 + x404 <= 1
C857: + x62 + x380 <= 1
C858: + x8 + x21 <= 1
C859: + x56 + x63 <= 1
C860: + x8 + x444 <= 1
C861: + x27 + x70 <= 1
C862: + x2 + x231 <= 1
C863: + x7 + x282 <= 1
C864: + x226 + x385 <= 1
C865: + x9 + x17 <= 1
C866: + x173 + x394 <= 1
C867: + x385 + x440 <= 1
C868: + x186 + x331 <= 1
C869: + x34 + x121 <= 1
C870: + x61 + x256 <= 1
C871: + x2 + x24 <= 1
C872: + x340 + x360 <= 1
C873: + x8 + x90 <= 1
C874: + x29 + x227 <= 1
C875: + x441 + x452 <= 1
C876: + x24 + x91 <= 1
C877: + x57 + x109 <= 1
C878: + x3 + x454 <= 1
C879: + x3 + x15 <= 1
C880: + x50 + x143 <= 1
C881: + x209 + x333 <= 1
C882: + x18 + x275 <= 1
C883: + x83 + x225 <= 1
C884: + x46 + x440 <= 1
C885: + x103 + x232 <= 1
C886: + x3 + x212 <= 1
C887: + x32 + x170 <= 1
C888: + x17 + x298 <= 1
C889: + x26 + x371 <= 1
C890: + x143 + x282 <= 1
C891: + x8 + x14 <= 1
C892: + x49 + x67 <= 1
C893: + x41 + x192 <= 1
C894: + x97 + x498 <= 1
C895: + x10 + x287 <= 1
C896: + x37 + x484 <= 1
C897: + x30 + x271 <= 1
C898: + x149 + x166 <= 1
C899: + x14 + x85 <= 1
C900: + x26 + x484 <= 1
C901: + x36 + x60 <= 1
C902: + x54 + x441 <= 1
C903: + x50 + x257 <= 1
C904: + x5 + x335 <= 1
C905: + x6 + x89 <= 1
C906: + x19 + x488 <= 1
C907: + x367 + x496 <= 1
C908: + x197 + x420 <= 1
C909: + x80 + x101 <= 1
C910: + x27 + x424 <= 1
C911: + x219 + x270 <= 1
C912: + x292 + x498 <= 1
C913: + x20 + x213 <= 1
C914: + x162 + x406 <= 1
C915: + x16 + x55 <= 1
C916: + x62 + x285 <= 1
C917: + x10 + x348 <= 1
C918: + x6 + x13 <= 1
C919: + x181 + x277 <= 1
C920: + x63 + x393 <= 1
C921: + x374 + x489 <= 1
C922: + x2 + x37 <= 1
C923: + x20 + x326 <= 1
C924: + x176 + x236 <= 1
C925: + x32 + x151 <= 1
C926: + x114 + x163 <= 1
C927: + x4 + x160 <= 1
C928: + x8 + x11 <= 1
C929: + x113 + x186 <= 1
C930: + x33 + x260 <= 1
C931: + x350 + x368 <= 1
C932: + x25 + x86 <= 1
C933: + x71 + x230 <= 1
C934: + x11 + x41 <= 1
C935: + x136 + x324 <= 1
C936: + x60 + x149 <= 1
C937: + x6 + x49 <= 1
C938: + x27 + x88 <= 1
C939: + x100 + x225 <= 1
C940: + x20 + x274 <= 1
C941: + x77 + x346 <= 1
C942: + x277 + x319 <= 1
C943: + x50 + x479 <= 1
C944: + x53 + x126 <= 1
C945: + x27 + x233 <= 1
C946: + x273 + x316 <= 1
C947: + x219 + x358 <= 1
C948: + x39 + x185 <= 1
C949: + x70 + x183 <= 1
C950: + x6 + x66 <= 1
C951: + x8 + x350 <= 1
C952: + x393 + x454 <= 1
C953: + x4 + x217 <= 1
C954: + x82 + x180 <= 1
C955: + x38 + x140 <= 1
C956: + x42 + x374 <= 1
C957: + x10 + x349 <= 1
C958: + x2 + x304 <= 1
C959: + x212 + x304 <= 1
C960: + x43 + x124 <= 1
C961: + x6 + x118 <= 1
C962: + x7 + x142 <= 1
C963: + x9 + x296 <= 1
C964: + x36 + x423 <= 1
C965: + x92 + x262 <= 1
C966: + x2 + x62 <= 1
C967: + x5 + x31 <= 1
C968: + x15 + x254 <= 1
C969: + x253 + x345 <= 1
C970: + x81 + x429 <= 1
C971: + x54 + x282 <= 1
C972: + x105 + x110 <= 1
C973: + x31 + x161 <= 1
C974: + x70 + x140 <= 1
C975: + x24 + x61 <= 1
C976: + x318 + x405 <= 1
C977: + x139 + x340 <= 1
C978: + x56 + x169 <= 1
C979: + x21 + x300 <= 1
C980: + x2 + x202 <= 1
C981: + x148 + x151 <= 1
C982: + x225 + x330 <= 1
C983: + x107 + x129 <= 1
C984: + x14 + x170 <= 1
C985: + x26 + x196 <= 1
C986: + x62 + x347 <= 1
C987: + x35 + x47 <= 1
C988: + x37 + x172 <= 1
C989: + x332 + x459 <= 1
C990: + x81 + x134 <= 1
C991: + x62 + x190 <= 1
C992: + x45 + x335 <= 1
C993: + x29 + x427 <= 1
C994: + x30 + x341 <= 1
C995: + x22 + x120 <= 1
C996: + x23 + x112 <= 1
C997: + x125 + x426 <= 1
C998: + x118 + x361 <= 1
C999: + x146 + x387 <= 1
C1000: + x74 + x427 <= 1
C1001: + x49 + x60 <= 1
C1002: + x12 + x130 <= 1
C1003: + x50 + x388 <= 1
C1004: + x107 + x181 <= 1
C1005: + x77 + x261 <= 1
C1006: + x25 + x152 <= 1
C1007: + x54 + x242 <= 1
C1008: + x2 + x289 <= 1
C1009: + x3 + x28 <= 1
C1010: + x29 + x474 <= 1
C1011: + x182 + x405 <= 1
C1012: + x8 + x214 <= 1
C1013: + x11 + x76 <= 1
C1014: + x136 + x289 <= 1
C1015: + x268 + x422 <= 1
C1016: + x86 + x193 <= 1
C1017: + x6 + x365 <= 1
C1018: + x21 + x33 <= 1
C1019: + x82 + x87 <= 1
C1020: + x49 + x282 <= 1
C1021: + x130 + x235 <= 1
C1022: + x14 + x128 <= 1
C1023: + x52 + x322 <= 1
C1024: + x109 + x196 <= 1
C1025: + x10 + x40 <= 1
C1026: + x3 + x241 <= 1
C1027: + x303 + x338 <= 1
C1028: + x60 + x258 <= 1
C1029: + x26 + x197 <= 1
C1030: + x2 + x366 <= 1
C1031: + x29 + x88 <= 1
C1032: + x41 + x278 <= 1
C1033: + x6 + x436 <= 1
C1034: + x128 + x444 <= 1
C1035: + x105 + x371 <= 1
C1036: + x13 + x172 <= 1
C1037: + x52 + x270 <= 1
C1038: + x141 + x300 <= 1
C1039: + x127 + x389 <= 1
C1040: + x45 + x56 <= 1
C1041: + x9 + x156 <= 1
C1042: + x56 + x72 <= 1
C1043: + x148 + x364 <= 1
C1044: + x217 + x490 <= 1
C1045: + x98 + x310 <= 1
C1046: + x24 + x127 <= 1
C1047: + x20 + x71 <= 1
C1048: + x159 + x298 <= 1
C1049: + x5 + x13 <= 1
C1050: + x126 + x355 <= 1
C1051: + x6 + x155 <= 1
C1052: + x109 + x172 <= 1
C1053: + x237 + x497 <= 1
C1054: + x6 + x342 <= 1
C1055: + x7 + x366 <= 1
C1056: + x4 + x18 <= 1
C1057: + x15 + x478 <= 1
C1058: + x118 + x404 <= 1
C1059: + x311 + x378 <= 1
C1060: + x38 + x416 <= 1
C1061: + x86 + x187 <= 1
C1062: + x98 + x109 <= 1
C1063: + x79 + x191 <= 1
C1064: + x210 + x385 <= 1
C1065: + x165 + x229 <= 1
C1066: + x39 + x65 <= 1
C1067: + x5 + x398 <= 1
C1068: + x100 + x115 <= 1
C1069: + x237 + x421 <= 1
C1070: + x328 + x433 <= 1
C1071: + x77 + x428 <= 1
C1072: + x195 + x323 <= 1
C1073: + x39 + x375 <= 1
C1074: + x8 + x329 <= 1
C1075: + x263 + x400 <= 1
C1076: + x37 + x460 <= 1
C1077: + x76 + x206 <= 1
C1078: + x221 + x377 <= 1
C1079: + x48 + x397 <= 1
C1080: + x13 + x163 <= 1
C1081: + x51 + x417 <= 1
C1082: + x17 + x19 + x32 <= 1
C1083: + x19 + x58 <= 1
C1084: + x53 + x159 <= 1
C1085: + x151 + x305 <= 1
C1086: + x27 + x138 <= 1
C1087: + x32 + x472 <= 1
C1088: + x7 + x119 <= 1
C1089: + x92 + x224 <= 1
C1090: + x5 + x12 <= 1
C1091: + x44 + x81 <= 1
C1092: + x18 + x230 <= 1
C1093: + x6 + x351 <= 1
C1094: + x31 + x367 <= 1
C1095: + x32 + x357 <= 1
C1096: + x9 + x428 <= 1
C1097: + x63 + x227 <= 1
C1098: + x74 + x100 <= 1
C1099: + x1 + x473 <= 1
C1100: + x272 + x339 <= 1
C1101: + x76 + x118 <= 1
C1102: + x6 + x259 <= 1
C1103: + x334 + x363 <= 1
C1104: + x15 + x344 <= 1
C1105: + x182 + x185 <= 1
C1106: + x93 + x441 <= 1
C1107: + x167 + x435 <= 1
C1108: + x169 + x473 <= 1
C1109: + x27 + x354 <= 1
C1110: + x64 + x372 <= 1
C1111: + x58 + x153 <= 1
C1112: + x122 + x473 <= 1
C1113: + x261 + x284 <= 1
C1114: + x441 + x494 <= 1
C1115: + x40 + x192 <= 1
C1116: + x43 + x187 <= 1
C1117: + x17 + x186 <= 1
C1118: + x24 + x141 <= 1
C1119: + x54 + x205 <= 1
C1120: + x25 + x237 <= 1
C1121: + x391 + x475 <= 1
C1122: + x69 + x193 <= 1
C1123: + x5 + x350 <= 1
C1124: + x26 + x446 <= 1
C1125: + x80 + x247 <= 1
C1126: + x23 + x484 <= 1
C1127: + x14 + x439 <= 1
C1128: + x36 + x323 <= 1
C1129: + x264 + x347 <= 1
C1130: + x26 + x345 <= 1
C1131: + x6 + x328 <= 1
C1132: + x137 + x395 <= 1
C1133: + x21 + x62 <= 1
C1134: + x97 + x103 <= 1
C1135: + x51 + x190 <= 1
C1136: + x34 + x212 <= 1
C1137: + x298 + x383 <= 1
C1138: + x16 + x40 <= 1
C1139: + x8 + x395 <= 1
C1140: + x287 + x328 <= 1
C1141: + x98 + x127 <= 1
C1142: + x5 + x130 <= 1
C1143: + x264 + x271 <= 1
C1144: + x285 + x453 <= 1
C1145: + x4 + x173 <= 1
C1146: + x35 + x394 <= 1
C1147: + x79 + x415 <= 1
C1148: + x80 + x277 <= 1
C1149: + x53 + x89 <= 1
C1150: + x127 + x228 <= 1
C1151: + x30 + x43 <= 1
C1152: + x323 + x386 <= 1
C1153: + x81 + x354 <= 1
C1154: + x84 + x173 <= 1
C1155: + x420 + x500 <= 1
C1156: + x333 + x336 <= 1
C1157: + x6 + x320 <= 1
C1158: + x62 + x307 <= 1
C1159: + x5 + x424 <= 1
C1160: + x190 + x278 <= 1
C1161: + x105 + x276 <= 1
C1162: + x59 + x102 <= 1
C1163: + x4 + x234 <= 1
C1164: + x5 + x250 <= 1
C1165: + x108 + x271 <= 1
C1166: + x18 + x216 <= 1
C1167: + x1 + x10 <= 1
C1168: + x201 + x370 <= 1
C1169: + x26 + x290 <= 1
C1170: + x26 + x149 <= 1
C1171: + x4 + x5 <= 1
C1172: + x9 + x253 <= 1
C1173: + x6 + x321 <= 1
C1174: + x48 + x70 <= 1
C1175: + x12 + x396 <= 1
C1176: + x39 + x265 <= 1
C1177: + x42 + x117 <= 1
C1178: + x6 + x7 <= 1
C1179: + x8 + x295 <= 1
C1180: + x10 + x68 <= 1
C1181: + x220 + x301 <= 1
C1182: + x8 + x238 <= 1
C1183: + x10 + x191 <= 1
C1184: + x17 + x25 <= 1
C1185: + x118 + x435 <= 1
C1186: + x229 + x236 <= 1
C1187: + x20 + x425 <= 1
C1188: + x89 + x169 <= 1
C1189: + x269 + x378 <= 1
C1190: + x47 + x226 <= 1
C1191: + x43 + x66 <= 1
C1192: + x26 + x158 <= 1
C1193: + x4 + x14 <= 1
C1194: + x70 + x82 <= 1
C1195: + x11 + x429 <= 1
C1196: + x2 + x5 + x6 + x8 <= 1
C1197: + x10 + x434 <= 1
C1198: + x81 + x435 <= 1
C1199: + x8 + x10 <= 1
C1200: + x149 + x408 <= 1
C1201: + x187 + x380 <= 1
C1202: + x32 + x392 <= 1
C1203: + x11 + x46 <= 1
C1204: + x104 + x264 <= 1
C1205: + x14 + x81 <= 1
C1206: + x34 + x389 <= 1
C1207: + x8 + x159 <= 1
C1208: + x146 + x345 <= 1
C1209: + x114 + x154 <= 1
C1210: + x31 + x198 <= 1
C1211: + x98 + x168 <= 1
C1212: + x18 + x49 <= 1
C1213: + x1 + x105 <= 1
C1214: + x54 + x296 <= 1
C1215: + x48 + x219 <= 1
C1216: + x179 + x481 <= 1
C1217: + x197 + x432 <= 1
C1218: + x36 + x469 <= 1
C1219: + x2 + x144 <= 1
C1220: + x30 + x226 <= 1
C1221: + x341 + x381 <= 1
C1222: + x6 + x470 <= 1
C1223: + x7 + x494 <= 1
C1224: + x111 + x324 <= 1
C1225: + x3 + x6 <= 1
C1226: + x178 + x463 <= 1
C1227: + x164 + x377 <= 1
C1228: + x92 + x248 <= 1
C1229: + x8 + x228 <= 1
C1230: + x13 + x239 <= 1
C1231: + x5 + x20 <= 1
C1232: + x261 + x361 <= 1
C1233: + x99 + x288 <= 1
C1234: + x268 + x428 <= 1
C1235: + x51 + x493 <= 1
C1236: + x138 + x484 <= 1
C1237: + x35 + x96 <= 1
C1238: + x256 + x422 <= 1
C1239: + x34 + x36 + x276 <= 1
C1240: + x71 + x218 <= 1
C1241: + x14 + x74 <= 1
C1242: + x409 + x481 <= 1
C1243: + x135 + x465 <= 1
C1244: + x15 + x384 <= 1
C1245: + x7 + x425 <= 1
C1246: + x8 + x59 <= 1
C1247: + x2 + x280 <= 1
C1248: + x76 + x297 <= 1
C1249: + x46 + x132 <= 1
C1250: + x29 + x94 <= 1
C1251: + x47 + x244 <= 1
C1252: + x124 + x346 <= 1
C1253: + x6 + x78 <= 1
C1254: + x62 + x161 <= 1
C1255: + x65 + x205 <= 1
C1256: + x89 + x294 <= 1
C1257: + x2 + x102 <= 1
C1258: + x361 + x478 <= 1
C1259: + x73 + x157 <= 1
C1260: + x27 + x104 <= 1
C1261: + x1 + x31 <= 1
C1262: + x63 + x293 <= 1
C1263: + x60 + x452 <= 1
C1264: + x13 + x23 <= 1
C1265: + x179 + x363 <= 1
C1266: + x44 + x209 <= 1
C1267: + x107 + x424 <= 1
C1268: + x26 + x422 <= 1
C1269: + x10 + x119 <= 1
C1270: + x8 + x217 <= 1
C1271: + x21 + x321 <= 1
C1272: + x5 + x27 <= 1
C1273: + x43 + x281 <= 1
C1274: + x52 + x464 <= 1
C1275: + x307 + x391 <= 1
C1276: + x19 + x253 <= 1
C1277: + x22 + x146 <= 1
C1278: + x24 + x57 <= 1
C1279: + x80 + x144 <= 1
C1280: + x191 + x334 <= 1
C1281: + x130 + x150 <= 1
C1282: + x14 + x67 <= 1
C1283: + x6 + x38 <= 1
C1284: + x120 + x140 <= 1
C1285: + x51 + x476 <= 1
C1286: + x32 + x208 <= 1
C1287: + x4 + x181 <= 1
C1288: + x25 + x208 <= 1
C1289: + x10 + x158 <= 1
C1290: + x5 + x313 <= 1
C1291: + x334 + x479 <= 1
C1292: + x62 + x186 <= 1
C1293: + x172 + x400 <= 1
C1294: + x165 + x437 <= 1
C1295: + x49 + x339 <= 1
C1296: + x34 + x483 <= 1
C1297: + x61 + x358 <= 1
C1298: + x73 + x132 <= 1
C1299: + x24 + x340 <= 1
C1300: + x117 + x379 <= 1
C1301: + x59 + x475 <= 1
C1302: + x33 + x346 <= 1
C1303: + x204 + x376 <= 1
C1304: + x89 + x377 <= 1
C1305: + x10 + x421 <= 1
C1306: + x106 + x180 <= 1
C1307: + x34 + x319 <= 1
C1308: + x58 + x433 <= 1
C1309: + x141 + x450 <= 1
C1310: + x56 + x190 <= 1
C1311: + x59 + x61 <= 1
C1312: + x149 + x191 <= 1
C1313: + x50 + x98 <= 1
C1314: + x24 + x405 <= 1
C1315: + x172 + x376 <= 1
C1316: + x13 + x372 <= 1
C1317: + x1 + x364 <= 1
C1318: + x121 + x366 <= 1
C1319: + x75 + x124 <= 1
C1320: + x2 + x199 <= 1
C1321: + x20 + x292 <= 1
C1322: + x98 + x203 <= 1
C1323: + x21 + x113 <= 1
C1324: + x33 + x151 <= 1
C1325: + x6 + x448 <= 1
C1326: + x91 + x92 <= 1
C1327: + x255 + x353 <= 1
C1328: + x73 + x139 <= 1
C1329: + x165 + x174 <= 1
C1330: + x5 + x122 <= 1
C1331: + x188 + x204 <= 1
C1332: + x25 + x227 <= 1
C1333: + x9 + x125 <= 1
C1334: + x244 + x279 <= 1
C1335: + x116 + x292 <= 1
C1336: + x260 + x317 <= 1
C1337: + x80 + x330 <= 1
C1338: + x32 + x312 <= 1
C1339: + x18 + x88 <= 1
C1340: + x32 + x491 <= 1
C1341: + x21 + x69 <= 1
C1342: + x26 + x440 <= 1
C1343: + x8 + x207 <= 1
C1344: + x5 + x9 <= 1
C1345: + x242 + x437 <= 1
C1346: + x4 + x22 <= 1
C1347: + x312 + x451 <= 1
C1348: + x24 + x79 <= 1
C1349: + x10 + x319 <= 1
C1350: + x75 + x373 <= 1
C1351: + x28 + x325 <= 1
C1352: + x94 + x100 <= 1
C1353: + x29 + x60 <= 1
C1354: + x47 + x150 <= 1
C1355: + x49 + x208 <= 1
C1356: + x6 + x24 <= 1
C1357: + x62 + x91 <= 1
C1358: + x208 + x433 <= 1
C1359: + x28 + x87 <= 1
C1360: + x14 + x117 <= 1
C1361: + x182 + x430 <= 1
C1362: + x272 + x338 <= 1
C1363: + x3 + x200 <= 1
C1364: + x41 + x47 <= 1
C1365: + x83 + x483 <= 1
C1366: + x46 + x239 <= 1
C1367: + x32 + x432 <= 1
C1368: + x7 + x63 <= 1
C1369: + x11 + x54 <= 1
C1370: + x46 + x477 <= 1
C1371: + x413 + x431 <= 1
C1372: + x40 + x480 <= 1
C1373: + x19 + x54 <= 1
C1374: + x165 + x213 <= 1
C1375: + x20 + x245 <= 1
C1376: + x33 + x344 <= 1
C1377: + x387 + x424 <= 1
C1378: + x135 + x147 <= 1
C1379: + x148 + x468 <= 1
C1380: + x123 + x130 <= 1
C1381: + x106 + x259 <= 1
C1382: + x52 + x136 <= 1
C1383: + x60 + x249 <= 1
C1384: + x36 + x322 <= 1
C1385: + x49 + x445 <= 1
C1386: + x268 + x472 <= 1
C1387: + x81 + x406 <= 1
C1388: + x19 + x234 <= 1
C1389: + x131 + x281 <= 1
C1390: + x4 + x27 <= 1
C1391: + x14 + x267 <= 1
C1392: + x5 + x482 <= 1
C1393: + x208 + x283 <= 1
C1394: + x130 + x249 <= 1
C1395: + x6 + x17 <= 1
C1396: + x35 + x298 <= 1
C1397: + x19 + x121 <= 1
C1398: + x148 + x178 <= 1
C1399: + x98 + x197 <= 1
C1400: + x142 + x423 <= 1
C1401: + x16 + x76 <= 1
C1402: + x45 + x147 <= 1
C1403: + x77 + x108 <= 1
C1404: + x186 + x373 <= 1
C1405: + x98 + x491 <= 1
C1406: + x105 + x456 <= 1
C1407: + x89 + x258 <= 1
C1408: + x155 + x423 <= 1
C1409: + x5 + x203 <= 1
C1410: + x216 + x447 <= 1
C1411: + x24 + x383 <= 1
C1412: + x7 + x211 <= 1
C1413: + x111 + x134 <= 1
C1414: + x40 + x188 <= 1
C1415: + x53 + x98 <= 1
C1416: + x36 + x236 <= 1
C1417: + x55 + x207 <= 1
C1418: + x50 + x278 <= 1
C1419: + x7 + x25 + x82 <= 1
C1420: + x130 + x226 + x303 <= 1
C1421: + x2 + x30 <= 1
C1422: + x12 + x314 <= 1
C1423: + x15 + x222 <= 1
C1424: + x149 + x442 <= 1
C1425: + x13 + x444 <= 1
C1426: + x332 + x447 <= 1
C1427: + x226 + x347 <= 1
C1428: + x16 + x36 <= 1
C1429: + x19 + x262 <= 1
C1430: + x120 + x414 <= 1
C1431: + x49 + x254 <= 1
C1432: + x21 + x460 <= 1
C1433: + x19 + x116 <= 1
C1434: + x46 + x446 <= 1
C1435: + x35 + x79 <= 1
C1436: + x226 + x460 <= 1
C1437: + x395 + x486 <= 1
C1438: + x27 + x373 <= 1
C1439: + x37 + x486 <= 1
C1440: + x184 + x375 <= 1
C1441: + x32 + x49 <= 1
C1442: + x19 + x40 <= 1
C1443: + x92 + x177 <= 1
C1444: + x274 + x310 <= 1
C1445: + x112 + x190 <= 1
C1446: + x10 + x11 <= 1
C1447: + x70 + x470 <= 1
C1448: + x32 + x291 <= 1
C1449: + x8 + x460 <= 1
C1450: + x36 + x336 <= 1
C1451: + x92 + x379 <= 1
C1452: + x2 + x23 <= 1
C1453: + x50 + x61 <= 1
C1454: + x214 + x412 <= 1
C1455: + x6 + x333 <= 1
C1456: + x114 + x224 <= 1
C1457: + x69 + x398 <= 1
C1458: + x242 + x352 <= 1
C1459: + x2 + x477 <= 1
C1460: + x50 + x142 <= 1
C1461: + x141 + x152 <= 1
C1462: + x98 + x396 <= 1
C1463: + x81 + x206 <= 1
C1464: + x10 + x397 <= 1
C1465: + x2 + x35 <= 1
C1466: + x54 + x279 <= 1
C1467: + x8 + x13 <= 1
C1468: + x63 + x356 <= 1
C1469: + x133 + x156 <= 1
C1470: + x9 + x394 <= 1
C1471: + x2 + x489 <= 1
C1472: + x139 + x252 <= 1
C1473: + x125 + x449 <= 1
C1474: + x425 + x445 <= 1
C1475: + x271 + x469 <= 1
C1476: + x308 + x331 <= 1
C1477: + x6 + x55 <= 1
C1478: + x2 + x255 <= 1
C1479: + x3 + x229 <= 1
C1480: + x209 + x378 <= 1
C1481: + x115 + x235 <= 1
C1482: + x80 + x399 <= 1
C1483: + x10 + x52 <= 1
C1484: + x6 + x293 <= 1
C1485: + x27 + x239 <= 1
C1486: + x80 + x302 <= 1
C1487: + x19 + x324 <= 1
C1488: + x22 + x258 <= 1
C1489: + x66 + x304 <= 1
C1490: + x136 + x378 <= 1
C1491: + x82 + x269 <= 1
C1492: + x80 + x467 <= 1
C1493: + x1 + x5 <= 1
C1494: + x149 + x336 <= 1
C1495: + x4 + x114 <= 1
C1496: + x40 + x297 <= 1
C1497: + x34 + x226 <= 1
C1498: + x161 + x291 <= 1
C1499: + x22 + x200 <= 1
C1500: + x23 + x353 <= 1
C1501: + x129 + x151 <= 1
C1502: + x9 + x69 <= 1
C1503: + x322 + x473 <= 1
C1504: + x230 + x256 <= 1
C1505: + x34 + x77 <= 1
C1506: + x9 + x290 <= 1
C1507: + x418 + x443 <= 1
C1508: + x146 + x222 <= 1
C1509: + x230 + x438 <= 1
C1510: + x286 + x356 <= 1
C1511: + x17 + x20 <= 1
C1512: + x80 + x134 <= 1
C1513: + x147 + x373 <= 1
C1514: + x93 + x148 <= 1
C1515: + x129 + x280 <= 1
C1516: + x51 + x65 <= 1
C1517: + x34 + x409 <= 1
C1518: + x23 + x26 <= 1
C1519: + x96 + x231 <= 1
C1520: + x10 + x53 <= 1
C1521: + x56 + x445 <= 1
C1522: + x26 + x250 <= 1
C1523: + x203 + x249 <= 1
C1524: + x50 + x196 <= 1
C1525: + x22 + x267 <= 1
C1526: + x159 + x369 <= 1
C1527: + x81 + x144 <= 1
C1528: + x30 + x347 <= 1
C1529: + x125 + x404 <= 1
C1530: + x42 + x208 <= 1
C1531: + x6 + x466 <= 1
C1532: + x316 + x496 <= 1
C1533: + x54 + x248 <= 1
C1534: + x19 + x367 <= 1
C1535: + x191 + x259 <= 1
C1536: + x54 + x454 <= 1
C1537: + x77 + x158 <= 1
C1538: + x78 + x362 <= 1
C1539: + x87 + x98 <= 1
C1540: + x17 + x281 <= 1
C1541: + x52 + x459 <= 1
C1542: + x6 + x152 <= 1
C1543: + x48 + x156 <= 1
C1544: + x79 + x273 <= 1
C1545: + x6 + x390 <= 1
C1546: + x216 + x256 <= 1
C1547: + x49 + x356 <= 1
C1548: + x30 + x288 <= 1
C1549: + x12 + x362 <= 1
C1550: + x20 + x443 <= 1
C1551: + x17 + x440 <= 1
C1552: + x5 + x175 <= 1
C1553: + x36 + x41 <= 1
C1554: + x7 + x260 <= 1
C1555: + x282 + x462 <= 1
C1556: + x94 + x184 <= 1
C1557: + x56 + x438 <= 1
C1558: + x106 + x242 <= 1
C1559: + x371 + x426 <= 1
C1560: + x333 + x369 <= 1
C1561: + x99 + x368 <= 1
C1562: + x27 + x241 <= 1
C1563: + x34 + x168 <= 1
C1564: + x178 + x272 <= 1
C1565: + x4 + x422 <= 1
C1566: + x25 + x106 <= 1
C1567: + x71 + x138 <= 1
C1568: + x79 + x221 <= 1
C1569: + x2 + x122 <= 1
C1570: + x185 + x456 <= 1
C1571: + x123 + x443 <= 1
C1572: + x304 + x309 <= 1
C1573: + x74 + x426 <= 1
C1574: + x94 + x332 <= 1
C1575: + x4 + x128 <= 1
C1576: + x89 + x100 <= 1
C1577: + x325 + x474 <= 1
C1578: + x29 + x110 <= 1
C1579: + x266 + x358 <= 1
C1580: + x8 + x213 <= 1
C1581: + x219 + x400 <= 1
C1582: + x22 + x59 <= 1
C1583: + x5 + x7 <= 1
C1584: + x82 + x299 <= 1
C1585: + x291 + x457 <= 1
C1586: + x10 + x214 <= 1
C1587: + x46 + x197 <= 1
C1588: + x65 + x495 <= 1
C1589: + x4 + x44 <= 1
C1590: + x60 + x71 <= 1
C1591: + x40 + x275 <= 1
C1592: + x51 + x325 <= 1
C1593: + x7 + x21 <= 1
C1594: + x2 + x500 <= 1
C1595: + x221 + x303 <= 1
C1596: + x104 + x306 <= 1
C1597: + x6 + x34 <= 1
C1598: + x62 + x69 <= 1
C1599: + x207 + x309 <= 1
C1600: + x11 + x189 <= 1
C1601: + x47 + x414 <= 1
C1602: + x21 + x145 <= 1
C1603: + x25 + x287 <= 1
C1604: + x179 + x225 <= 1
C1605: + x117 + x141 <= 1
C1606: + x32 + x263 <= 1
C1607: + x56 + x210 <= 1
C1608: + x30 + x95 <= 1
C1609: + x91 + x93 <= 1
C1610: + x11 + x16 <= 1
C1611: + x186 + x449 <= 1
C1612: + x175 + x322 <= 1
C1613: + x358 + x469 <= 1
C1614: + x27 + x434 <= 1
C1615: + x172 + x246 <= 1
C1616: + x8 + x189 <= 1
C1617: + x47 + x106 <= 1
C1618: + x122 + x169 <= 1
C1619: + x139 + x446 <= 1
C1620: + x52 + x428 <= 1
C1621: + x21 + x229 <= 1
C1622: + x115 + x204 <= 1
C1623: + x77 + x317 <= 1
C1624: + x43 + x202 <= 1
C1625: + x42 + x359 <= 1
C1626: + x121 + x148 <= 1
C1627: + x29 + x466 <= 1
C1628: + x42 + x85 <= 1
C1629: + x133 + x233 <= 1
C1630: + x189 + x414 <= 1
C1631: + x14 + x388 <= 1
C1632: + x15 + x52 <= 1
C1633: + x6 + x154 <= 1
C1634: + x35 + x110 <= 1
C1635: + x26 + x129 <= 1
C1636: + x46 + x318 <= 1
C1637: + x7 + x16 <= 1
C1638: + x80 + x145 <= 1
C1639: + x62 + x251 <= 1
C1640: + x127 + x360 <= 1
C1641: + x72 + x216 <= 1
C1642: + x177 + x295 <= 1
C1643: + x20 + x22 <= 1
C1644: + x58 + x280 <= 1
C1645: + x240 + x252 <= 1
C1646: + x18 + x298 <= 1
C1647: + x128 + x467 <= 1
C1648: + x98 + x100 <= 1
C1649: + x55 + x284 <= 1
C1650: + x168 + x182 <= 1
C1651: + x140 + x323 <= 1
C1652: + x98 + x207 <= 1
C1653: + x1 + x114 <= 1
C1654: + x87 + x350 <= 1
C1655: + x2 + x76 <= 1
C1656: + x97 + x184 <= 1
C1657: + x141 + x385 <= 1
C1658: + x171 + x398 <= 1
C1659: + x16 + x22 <= 1
C1660: + x19 + x348 <= 1
C1661: + x11 + x333 <= 1
C1662: + x149 + x449 <= 1
C1663: + x186 + x315 <= 1
C1664: + x79 + x251 <= 1
C1665: + x71 + x184 <= 1
C1666: + x193 + x389 <= 1
C1667: + x77 + x139 <= 1
C1668: + x106 + x185 <= 1
C1669: + x41 + x487 <= 1
C1670: + x4 + x26 <= 1
C1671: + x26 + x37 <= 1
C1672: + x19 + x272 <= 1
C1673: + x66 + x142 <= 1
C1674: + x37 + x115 <= 1
C1675: + x2 + x462 <= 1
C1676: + x30 + x142 <= 1
C1677: + x98 + x200 <= 1
C1678: + x24 + x269 <= 1
C1679: + x8 + x30 <= 1
C1680: + x14 + x450 <= 1
C1681: + x184 + x381 <= 1
C1682: + x22 + x386 <= 1
C1683: + x51 + x89 <= 1
C1684: + x278 + x416 <= 1
C1685: + x25 + x238 <= 1
C1686: + x62 + x313 <= 1
C1687: + x121 + x162 <= 1
C1688: + x29 + x123 <= 1
C1689: + x267 + x279 <= 1
C1690: + x107 + x413 <= 1
C1691: + x68 + x109 <= 1
C1692: + x14 + x25 <= 1
C1693: + x82 + x286 <= 1
C1694: + x135 + x290 <= 1
C1695: + x2 + x188 <= 1
C1696: + x7 + x349 <= 1
C1697: + x97 + x104 <= 1
C1698: + x69 + x81 <= 1
C1699: + x70 + x111 <= 1
C1700: + x81 + x311 <= 1
C1701: + x80 + x359 <= 1
C1702: + x67 + x269 <= 1
C1703: + x148 + x420 <= 1
C1704: + x22 + x455 <= 1
C1705: + x98 + x126 <= 1
C1706: + x6 + x29 <= 1
C1707: + x92 + x317 <= 1
C1708: + x8 + x248 <= 1
C1709: + x249 + x256 <= 1
C1710: + x3 + x10 + x12 <= 1
C1711: + x22 + x26 <= 1
C1712: + x117 + x154 <= 1
C1713: + x24 + x177 <= 1
C1714: + x465 + x480 <= 1
C1715: + x186 + x198 <= 1
C1716: + x312 + x492 <= 1
C1717: + x306 + x383 <= 1
C1718: + x5 + x274 <= 1
C1719: + x27 + x362 <= 1
C1720: + x50 + x68 <= 1
C1721: + x425 + x435 <= 1
C1722: + x32 + x56 <= 1
C1723: + x269 + x415 <= 1
C1724: + x74 + x326 <= 1
C1725: + x129 + x420 <= 1
C1726: + x245 + x411 <= 1
C1727: + x19 + x334 <= 1
C1728: + x287 + x317 <= 1
C1729: + x5 + x251 <= 1
C1730: + x153 + x228 <= 1
C1731: + x6 + x336 <= 1
C1732: + x4 + x8 <= 1
C1733: + x34 + x439 <= 1
C1734: + x71 + x94 <= 1
C1735: + x2 + x46 <= 1
C1736: + x56 + x407 <= 1
C1737: + x136 + x316 <= 1
C1738: + x97 + x238 <= 1
C1739: + x23 + x145 <= 1
C1740: + x6 + x185 <= 1
C1741: + x117 + x225 <= 1
C1742: + x27 + x224 <= 1
C1743: + x46 + x442 <= 1
C1744: + x106 + x215 <= 1
C1745: + x307 + x411 <= 1
C1746: + x12 + x85 <= 1
C1747: + x60 + x63 <= 1
C1748: + x216 + x237 <= 1
C1749: + x11 + x36 <= 1
C1750: + x138 + x231 <= 1
C1751: + x95 + x174 <= 1
C1752: + x6 + x202 <= 1
C1753: + x73 + x164 <= 1
C1754: + x110 + x390 <= 1
C1755: + x40 + x351 <= 1
C1756: + x161 + x433 <= 1
C1757: + x6 + x91 <= 1
C1758: + x24 + x481 <= 1
C1759: + x57 + x205 <= 1
C1760: + x2 + x107 <= 1
C1761: + x12 + x307 <= 1
C1762: + x299 + x451 <= 1
C1763: + x74 + x443 <= 1
C1764: + x10 + x342 <= 1
C1765: + x16 + x53 <= 1
C1766: + x85 + x437 <= 1
C1767: + x71 + x300 <= 1
C1768: + x37 + x112 <= 1
C1769: + x221 + x266 <= 1
C1770: + x345 + x474 <= 1
C1771: + x6 + x15 <= 1
C1772: + x37 + x410 <= 1
C1773: + x112 + x243 <= 1
C1774: + x176 + x234 <= 1
C1775: + x5 + x22 <= 1
C1776: + x260 + x337 <= 1
C1777: + x27 + x39 <= 1
C1778: + x8 + x9 <= 1
C1779: + x55 + x129 <= 1
C1780: + x4 + x57 <= 1
C1781: + x103 + x108 <= 1
C1782: + x50 + x126 <= 1
C1783: + x264 + x397 <= 1
C1784: + x87 + x219 <= 1
C1785: + x180 + x421 <= 1
C1786: + x7 + x193 <= 1
C1787: + x21 + x136 <= 1
C1788: + x124 + x178 <= 1
C1789: + x52 + x397 <= 1
C1790: + x42 + x332 <= 1
C1791: + x37 + x163 <= 1
C1792: + x391 + x461 <= 1
C1793: + x21 + x101 <= 1
C1794: + x114 + x399 <= 1
C1795: + x28 + x30 + x45 <= 1
C1796: + x25 + x32 <= 1
C1797: + x6 + x68 <= 1
C1798: + x62 + x167 <= 1
C1799: + x87 + x310 <= 1
C1800: + x41 + x451 <= 1
C1801: + x5 + x233 <= 1
C1802: + x26 + x307 <= 1
C1803: + x271 + x485 <= 1
C1804: + x27 + x417 <= 1
C1805: + x2 + x143 <= 1
C1806: + x136 + x409 <= 1
C1807: + x29 + x247 <= 1
C1808: + x48 + x75 <= 1
C1809: + x20 + x55 <= 1
C1810: + x25 + x44 <= 1
C1811: + x6 + x120 <= 1
C1812: + x74 + x250 <= 1
C1813: + x65 + x131 <= 1
C1814: + x57 + x341 <= 1
C1815: + x10 + x442 <= 1
C1816: + x117 + x247 <= 1
C1817: + x12 + x67 <= 1
C1818: + x40 + x206 <= 1
C1819: + x42 + x292 <= 1
C1820: + x17 + x24 <= 1
C1821: + x183 + x421 <= 1
C1822: + x56 + x175 <= 1
C1823: + x221 + x240 <= 1
C1824: + x58 + x257 <= 1
C1825: + x34 + x413 <= 1
C1826: + x6 + x60 <= 1
C1827: + x46 + x352 <= 1
C1828: + x107 + x131 <= 1
C1829: + x5 + x65 <= 1
C1830: + x18 + x41 <= 1
C1831: + x65 + x417 <= 1
C1832: + x21 + x26 + x29 <= 1
C1833: + x157 + x479 <= 1
C1834: + x12 + x454 <= 1
C1835: + x279 + x306 <= 1
C1836: + x7 + x75 <= 1
C1837: + x11 + x461 <= 1
C1838: + x38 + x468 <= 1
C1839: + x97 + x167 <= 1
C1840: + x6 + x240 <= 1
C1841: + x145 + x182 <= 1
C1842: + x92 + x95 <= 1
C1843: + x105 + x167 <= 1
C1844: + x14 + x160 <= 1
C1845: + x81 + x275 <= 1
C1846: + x399 + x439 <= 1
C1847: + x55 + x228 <= 1
C1848: + x25 + x51 <= 1
C1849: + x51 + x485 <= 1
C1850: + x5 + x28 <= 1
C1851: + x354 + x432 <= 1
C1852: + x278 + x489 <= 1
C1853: + x32 + x155 <= 1
C1854: + x28 + x171 <= 1
C1855: + x125 + x356 <= 1
C1856: + x29 + x130 <= 1
C1857: + x58 + x431 <= 1
C1858: + x21 + x39 <= 1
C1859: + x171 + x449 <= 1
C1860: + x37 + x56 + x107 <= 1
C1861: + x5 + x171 <= 1
C1862: + x6 + x37 <= 1
C1863: + x355 + x391 <= 1
C1864: + x52 + x384 <= 1
C1865: + x28 + x92 <= 1
C1866: + x181 + x301 <= 1
C1867: + x269 + x360 <= 1
C1868: + x5 + x80 <= 1
C1869: + x227 + x277 <= 1
C1870: + x20 + x121 <= 1
C1871: + x314 + x412 <= 1
C1872: + x5 + x314 <= 1
C1873: + x208 + x339 <= 1
C1874: + x9 + x488 <= 1
C1875: + x164 + x318 <= 1
C1876: + x37 + x54 <= 1
C1877: + x129 + x319 <= 1
C1878: + x21 + x261 <= 1
C1879: + x5 + x223 <= 1
C1880: + x29 + x197 <= 1
C1881: + x5 + x116 <= 1
C1882: + x80 + x324 <= 1
C1883: + x18 + x94 <= 1
C1884: + x46 + x176 <= 1
C1885: + x29 + x106 <= 1
C1886: + x59 + x234 <= 1
C1887: + x2 + x10 <= 1
C1888: + x148 + x215 <= 1
C1889: + x21 + x329 <= 1
C1890: + x39 + x407 <= 1
C1891: + x26 + x329 <= 1
C1892: + x251 + x470 <= 1
C1893: + x318 + x425 <= 1
C1894: + x37 + x73 <= 1
C1895: + x69 + x133 <= 1
C1896: + x5 + x146 <= 1
C1897: + x1 + x365 <= 1
C1898: + x56 + x399 <= 1
C1899: + x42 + x447 <= 1
C1900: + x52 + x87 <= 1
C1901: + x34 + x189 <= 1
C1902: + x14 + x361 <= 1
C1903: + x106 + x493 <= 1
C1904: + x25 + x117 <= 1
C1905: + x1 + x284 <= 1
C1906: + x136 + x150 <= 1
C1907: + x50 + x93 <= 1
C1908: + x24 + x364 <= 1
C1909: + x27 + x119 <= 1
C1910: + x110 + x251 <= 1
C1911: + x227 + x415 <= 1
C1912: + x116 + x291 <= 1
C1913: + x45 + x210 <= 1
C1914: + x254 + x483 <= 1
C1915: + x72 + x160 <= 1
C1916: + x85 + x457 <= 1
C1917: + x133 + x213 <= 1
C1918: + x80 + x240 <= 1
C1919: + x255 + x302 <= 1
C1920: + x128 + x491 <= 1
C1921: + x149 + x216 <= 1
C1922: + x114 + x329 <= 1
C1923: + x98 + x247 <= 1
C1924: + x2 + x457 <= 1
C1925: + x3 + x36 <= 1
C1926: + x412 + x492 <= 1
C1927: + x262 + x482 <= 1
C1928: + x71 + x109 <= 1
C1929: + x28 + x42 <= 1
C1930: + x21 + x156 <= 1
C1931: + x232 + x266 <= 1
C1932: + x59 + x410 <= 1
C1933: + x130 + x429 <= 1
C1934: + x12 + x38 <= 1
C1935: + x10 + x490 <= 1
C1936: + x84 + x367 <= 1
C1937: + x77 + x211 <= 1
C1938: + x112 + x332 <= 1
C1939: + x25 + x409 <= 1
C1940: + x115 + x414 <= 1
C1941: + x2 + x235 <= 1
C1942: + x115 + x255 <= 1
C1943: + x168 + x408 <= 1
C1944: + x9 + x101 <= 1
C1945: + x10 + x379 <= 1
C1946: + x326 + x452 <= 1
C1947: + x2 + x28 <= 1
C1948: + x77 + x135 <= 1
C1949: + x115 + x179 <= 1
C1950: + x169 + x402 <= 1
C1951: + x125 + x155 <= 1
C1952: + x35 + x198 <= 1
C1953: + x72 + x201 <= 1

binary
x1 x2 x3 x4 x5 x6 x7 x8 x9 x10 x11 x12 x13 x14 x15 x16 x17 x18 x19 x20 x21 x22 x23 x24 x25 x26 x27 x28 x29 x30 x31 x32 x33 x34 x35 x36 x37 x38 x39 x40 x41 x42 x43 x44 x45 x46 x47 x48 x49 x50 x51 x52 x53 x54 x55 x56 x57 x58 x59 x60 x61 x62 x63 x64 x65 x66 x67 x68 x69 x70 x71 x72 x73 x74 x75 x76 x77 x78 x79 x80 x81 x82 x83 x84 x85 x86 x87 x88 x89 x90 x91 x92 x93 x94 x95 x96 x97 x98 x99 x100 x101 x102 x103 x104 x105 x106 x107 x108 x109 x110 x111 x112 x113 x114 x115 x116 x117 x118 x119 x120 x121 x122 x123 x124 x125 x126 x127 x128 x129 x130 x131 x132 x133 x134 x135 x136 x137 x138 x139 x140 x141 x142 x143 x144 x145 x146 x147 x148 x149 x150 x151 x152 x153 x154 x155 x156 x157 x158 x159 x160 x161 x162 x163 x164 x165 x166 x167 x168 x169 x170 x171 x172 x173 x174 x175 x176 x177 x178 x179 x180 x181 x182 x183 x184 x185 x186 x187 x188 x189 x190 x191 x192 x193 x194 x195 x196 x197 x198 x199 x200 x201 x202 x203 x204 x205 x206 x207 x208 x209 x210 x211 x212 x213 x214 x215 x216 x217 x218 x219 x220 x221 x222 x223 x224 x225 x226 x227 x228 x229 x230 x231 x232 x233 x234 x235 x236 x237 x238 x239 x240 x241 x242 x243 x244 x245 x246 x247 x248 x249 x250 x251 x252 x253 x254 x255 x256 x257 x258 x259 x260 x261 x262 x263 x264 x265 x266 x267 x268 x269 x270 x271 x272 x273 x274 x275 x276 x277 x278 x279 x280 x281 x282 x283 x284 x285 x286 x287 x288 x289 x290 x291 x292 x293 x294 x295 x296 x297 x298 x299 x300 x301 x302 x303 x304 x305 x306 x307 x308 x309 x310 x311 x312 x313 x314 x315 x316 x317 x318 x319 x320 x321 x322 x323 x324 x325 x326 x327 x328 x329 x330 x331 x332 x333 x334 x335 x336 x337 x338 x339 x340 x341 x342 x343 x344 x345 x346 x347 x348 x349 x350 x351 x352 x353 x354 x355 x356 x357 x358 x359 x360 x361 x362 x363 x364 x365 x366 x367 x368 x369 x370 x371 x372 x373 x374 x375 x376 x377 x378 x379 x380 x381 x382 x383 x384 x385 x386 x387 x388 x389 x390 x391 x392 x393 x394 x395 x396 x397 x398 x399 x400 x401 x402 x403 x404 x405 x406 x407 x408 x409 x410 x411 x412 x413 x414 x415 x416 x417 x418 x419 x420 x421 x422 x423 x424 x425 x426 x427 x428 x429 x430 x431 x432 x433 x434 x435 x436 x437 x438 x439 x440 x441 x442 x443 x444 x445 x446 x447 x448 x449 x450 x451 x452 x453 x454 x455 x456 x457 x458 x459 x460 x461 x462 x463 x464 x465 x466 x467 x468 x469 x470 x471 x472 x473 x474 x475 x476 x477 x478 x479 x480 x481 x482 x483 x484 x485 x486 x487 x488 x489 x490 x491 x492 x493 x494 x495 x496 x497 x498 x499 x500
