maximize
OBJ: + 1 x1 + 1 x2 + 1 x3 + 1 x4 + 1 x5 + 1 x6 + 1 x7 + 1 x8 + 1 x9 + 1 x10 + 1 x11 + 1 x12 + 1 x13 + 1 x14 + 1 x15 + 1 x16 + 1 x17 + 1 x18 + 1 x19 + 1 x20 + 1 x21 + 1 x22 + 1 x23 + 1 x24 + 1 x25 + 1 x26 + 1 x27 + 1 x28 + 1 x29 + 1 x30 + 1 x31 + 1 x32 + 1 x33 + 1 x34 + 1 x35 + 1 x36 + 1 x37 + 1 x38 + 1 x39 + 1 x40 + 1 x41 + 1 x42 + 1 x43 + 1 x44 + 1 x45 + 1 x46 + 1 x47 + 1 x48 + 1 x49 + 1 x50 + 1 x51 + 1 x52 + 1 x53 + 1 x54 + 1 x55 + 1 x56 + 1 x57 + 1 x58 + 1 x59 + 1 x60 + 1 x61 + 1 x62 + 1 x63 + 1 x64 + 1 x65 + 1 x66 + 1 x67 + 1 x68 + 1 x69 + 1 x70 + 1 x71 + 1 x72 + 1 x73 + 1 x74 + 1 x75 + 1 x76 + 1 x77 + 1 x78 + 1 x79 + 1 x80 + 1 x81 + 1 x82 + 1 x83 + 1 x84 + 1 x85 + 1 x86 + 1 x87 + 1 x88 + 1 x89 + 1 x90 + 1 x91 + 1 x92 + 1 x93 + 1 x94 + 1 x95 + 1 x96 + 1 x97 + 1 x98 + 1 x99 + 1 x100 + 1 x101 + 1 x102 + 1 x103 + 1 x104 + 1 x105 + 1 x106 + 1 x107 + 1 x108 + 1 x109 + 1 x110 + 1 x111 + 1 x112 + 1 x113 + 1 x114 + 1 x115 + 1 x116 + 1 x117 + 1 x118 + 1 x119 + 1 x120 + 1 x121 + 1 x122 + 1 x123 + 1 x124 + 1 x125 + 1 x126 + 1 x127 + 1 x128 + 1 x129 + 1 x130 + 1 x131 + 1 x132 + 1 x133 + 1 x134 + 1 x135 + 1 x136 + 1 x137 + 1 x138 + 1 x139 + 1 x140 + 1 x141 + 1 x142 + 1 x143 + 1 x144 + 1 x145 + 1 x146 + 1 x147 + 1 x148 + 1 x149 + 1 x150 + 1 x151 + 1 x152 + 1 x153 + 1 x154 + 1 x155 + 1 x156 + 1 x157 + 1 x158 + 1 x159 + 1 x160 + 1 x161 + 1 x162 + 1 x163 + 1 x164 + 1 x165 + 1 x166 + 1 x167 + 1 x168 + 1 x169 + 1 x170 + 1 x171 + 1 x172 + 1 x173 + 1 x174 + 1 x175 + 1 x176 + 1 x177 + 1 x178 + 1 x179 + 1 x180 + 1 x181 + 1 x182 + 1 x183 + 1 x184 + 1 x185 + 1 x186 + 1 x187 + 1 x188 + 1 x189 + 1 x190 + 1 x191 + 1 x192 + 1 x193 + 1 x194 + 1 x195 + 1 x196 + 1 x197 + 1 x198 + 1 x199 + 1 x200 + 1 x201 + 1 x202 + 1 x203 + 1 x204 + 1 x205 + 1 x206 + 1 x207 + 1 x208 + 1 x209 + 1 x210 + 1 x211 + 1 x212 + 1 x213 + 1 x214 + 1 x215 + 1 x216 + 1 x217 + 1 x218 + 1 x219 + 1 x220 + 1 x221 + 1 x222 + 1 x223 + 1 x224 + 1 x225 + 1 x226 + 1 x227 + 1 x228 + 1 x229 + 1 x230 + 1 x231 + 1 x232 + 1 x233 + 1 x234 + 1 x235 + 1 x236 + 1 x237 + 1 x238 + 1 x239 + 1 x240 + 1 x241 + 1 x242 + 1 x243 + 1 x244 + 1 x245 + 1 x246 + 1 x247 + 1 x248 + 1 x249 + 1 x250 + 1 x251 + 1 x252 + 1 x253 + 1 x254 + 1 x255 + 1 x256 + 1 x257 + 1 x258 + 1 x259 + 1 x260 + 1 x261 + 1 x262 + 1 x263 + 1 x264 + 1 x265 + 1 x266 + 1 x267 + 1 x268 + 1 x269 + 1 x270 + 1 x271 + 1 x272 + 1 x273 + 1 x274 + 1 x275 + 1 x276 + 1 x277 + 1 x278 + 1 x279 + 1 x280 + 1 x281 + 1 x282 + 1 x283 + 1 x284 + 1 x285 + 1 x286 + 1 x287 + 1 x288 + 1 x289 + 1 x290 + 1 x291 + 1 x292 + 1 x293 + 1 x294 + 1 x295 + 1 x296 + 1 x297 + 1 x298 + 1 x299 + 1 x300 + 1 x301 + 1 x302 + 1 x303 + 1 x304 + 1 x305 + 1 x306 + 1 x307 + 1 x308 + 1 x309 + 1 x310 + 1 x311 + 1 x312 + 1 x313 + 1 x314 + 1 x315 + 1 x316 + 1 x317 + 1 x318 + 1 x319 + 1 x320 + 1 x321 + 1 x322 + 1 x323 + 1 x324 + 1 x325 + 1 x326 + 1 x327 + 1 x328 + 1 x329 + 1 x330 + 1 x331 + 1 x332 + 1 x333 + 1 x334 + 1 x335 + 1 x336 + 1 x337 + 1 x338 + 1 x339 + 1 x340 + 1 x341 + 1 x342 + 1 x343 + 1 x344 + 1 x345 + 1 x346 + 1 x347 + 1 x348 + 1 x349 + 1 x350 + 1 x351 + 1 x352 + 1 x353 + 1 x354 + 1 x355 + 1 x356 + 1 x357 + 1 x358 + 1 x359 + 1 x360 + 1 x361 + 1 x362 + 1 x363 + 1 x364 + 1 x365 + 1 x366 + 1 x367 + 1 x368 + 1 x369 + 1 x370 + 1 x371 + 1 x372 + 1 x373 + 1 x374 + 1 x375 + 1 x376 + 1 x377 + 1 x378 + 1 x379 + 1 x380 + 1 x381 + 1 x382 + 1 x383 + 1 x384 + 1 x385 + 1 x386 + 1 x387 + 1 x388 + 1 x389 + 1 x390 + 1 x391 + 1 x392 + 1 x393 + 1 x394 + 1 x395 + 1 x396 + 1 x397 + 1 x398 + 1 x399 + 1 x400 + 1 x401 + 1 x402 + 1 x403 + 1 x404 + 1 x405 + 1 x406 + 1 x407 + 1 x408 + 1 x409 + 1 x410 + 1 x411 + 1 x412 + 1 x413 + 1 x414 + 1 x415 + 1 x416 + 1 x417 + 1 x418 + 1 x419 + 1 x420 + 1 x421 + 1 x422 + 1 x423 + 1 x424 + 1 x425 + 1 x426 + 1 x427 + 1 x428 + 1 x429 + 1 x430 + 1 x431 + 1 x432 + 1 x433 + 1 x434 + 1 x435 + 1 x436 + 1 x437 + 1 x438 + 1 x439 + 1 x440 + 1 x441 + 1 x442 + 1 x443 + 1 x444 + 1 x445 + 1 x446 + 1 x447 + 1 x448 + 1 x449 + 1 x450 + 1 x451 + 1 x452 + 1 x453 + 1 x454 + 1 x455 + 1 x456 + 1 x457 + 1 x458 + 1 x459 + 1 x460 + 1 x461 + 1 x462 + 1 x463 + 1 x464 + 1 x465 + 1 x466 + 1 x467 + 1 x468 + 1 x469 + 1 x470 + 1 x471 + 1 x472 + 1 x473 + 1 x474 + 1 x475 + 1 x476 + 1 x477 + 1 x478 + 1 x479 + 1 x480 + 1 x481 + 1 x482 + 1 x483 + 1 x484 + 1 x485 + 1 x486 + 1 x487 + 1 x488 + 1 x489 + 1 x490 + 1 x491 + 1 x492 + 1 x493 + 1 x494 + 1 x495 + 1 x496 + 1 x497 + 1 x498 + 1 x499 + 1 x500

subject to
C1: + x105 + x442 <= 1
C2: + x39 + x276 <= 1
C3: + x28 + x47 <= 1
C4: + x198 + x371 <= 1
C5: + x8 + x26 <= 1
C6: + x37 + x206 <= 1
C7: + x50 + x228 <= 1
C8: + x41 + x265 <= 1
C9: + x115 + x308 <= 1
C10: + x244 + x375 <= 1
C11: + x219 + x232 <= 1
C12: + x11 + x62 <= 1
C13: + x102 + x125 <= 1
C14: + x77 + x202 <= 1
C15: + x5 + x204 <= 1
C16: + x313 + x318 <= 1
C17: + x52 + x113 <= 1
C18: + x34 + x155 <= 1
C19: + x27 + x158 <= 1
C20: + x82 + x385 <= 1
C21: + x2 + x271 <= 1
C22: + x52 + x144 <= 1
C23: + x155 + x364 <= 1
C24: + x410 + x431 <= 1
C25: + x174 + x446 <= 1
C26: + x105 + x274 <= 1
C27: + x59 + x104 <= 1
C28: + x4 + x232 <= 1
C29: + x426 + x500 <= 1
C30: + x7 + x337 <= 1
C31: + x111 + x215 <= 1
C32: + x135 + x199 <= 1
C33: + x8 + x386 <= 1
C34: + x72 + x194 <= 1
C35: + x20 + x40 <= 1
C36: + x69 + x242 <= 1
C37: + x106 + x311 <= 1
C38: + x15 + x78 <= 1
C39: + x8 + x244 <= 1
C40: + x5 + x36 <= 1
C41: + x23 + x158 <= 1
C42: + x43 + x290 <= 1
C43: + x12 + x84 <= 1
C44: + x41 + x187 <= 1
C45: + x7 + x42 <= 1
C46: + x2 + x407 <= 1
C47: + x102 + x427 <= 1
C48: + x62 + x64 <= 1
C49: + x44 + x53 <= 1
C50: + x9 + x19 <= 1
C51: + x248 + x269 <= 1
C52: + x21 + x400 <= 1
C53: + x88 + x168 <= 1
C54: + x8 + x362 <= 1
C55: + x93 + x211 <= 1
C56: + x358 + x448 <= 1
C57: + x32 + x104 <= 1
C58: + x79 + x102 <= 1
C59: + x261 + x308 <= 1
C60: + x317 + x382 <= 1
C61: + x43 + x211 <= 1
C62: + x88 + x277 <= 1
C63: + x12 + x399 <= 1
C64: + x15 + x85 <= 1
C65: + x1 + x190 <= 1
C66: + x54 + x499 <= 1
C67: + x250 + x253 <= 1
C68: + x12 + x238 <= 1
C69: + x81 + x108 <= 1
C70: + x8 + x16 <= 1
C71: + x72 + x336 <= 1
C72: + x59 + x280 <= 1
C73: + x304 + x452 <= 1
C74: + x4 + x56 <= 1
C75: + x89 + x273 <= 1
C76: + x398 + x454 <= 1
C77: + x7 + x33 <= 1
C78: + x37 + x494 <= 1
C79: + x50 + x121 <= 1
C80: + x70 + x315 <= 1
C81: + x6 + x54 <= 1
C82: + x240 + x326 <= 1
C83: + x25 + x256 <= 1
C84: + x77 + x79 <= 1
C85: + x88 + x189 <= 1
C86: + x27 + x257 <= 1
C87: + x408 + x471 <= 1
C88: + x55 + x123 <= 1
C89: + x11 + x20 <= 1
C90: + x7 + x250 <= 1
C91: + x27 + x422 <= 1
C92: + x8 + x81 <= 1
C93: + x304 + x389 <= 1
C94: + x15 + x387 <= 1
C95: + x336 + x432 <= 1
C96: + x46 + x65 <= 1
C97: + x12 + x392 <= 1
C98: + x56 + x325 <= 1
C99: + x52 + x170 <= 1
C100: + x10 + x80 <= 1
C101: + x46 + x431 <= 1
C102: + x3 + x169 <= 1
C103: + x98 + x239 <= 1
C104: + x6 + x174 <= 1
C105: + x45 + x121 <= 1
C106: + x172 + x190 <= 1
C107: + x300 + x385 <= 1
C108: + x12 + x66 <= 1
C109: + x17 + x21 <= 1
C110: + x190 + x367 <= 1
C111: + x54 + x178 <= 1
C112: + x28 + x384 <= 1
C113: + x67 + x303 <= 1
C114: + x112 + x368 <= 1
C115: + x52 + x374 <= 1
C116: + x73 + x356 <= 1
C117: + x10 + x60 <= 1
C118: + x92 + x130 <= 1
C119: + x125 + x318 <= 1
C120: + x34 + x174 <= 1
C121: + x255 + x369 <= 1
C122: + x12 + x304 <= 1
C123: + x31 + x90 <= 1
C124: + x41 + x455 <= 1
C125: + x22 + x109 <= 1
C126: + x16 + x304 <= 1
C127: + x7 + x241 <= 1
C128: + x312 + x319 <= 1
C129: + x125 + x191 <= 1
C130: + x82 + x424 <= 1
C131: + x2 + x302 <= 1
C132: + x4 + x364 <= 1
C133: + x5 + x380 <= 1
C134: + x7 + x132 <= 1
C135: + x45 + x390 <= 1
C136: + x300 + x347 <= 1
C137: + x5 + x25 <= 1
C138: + x9 + x220 <= 1
C139: + x19 + x255 <= 1
C140: + x157 + x263 <= 1
C141: + x94 + x262 <= 1
C142: + x13 + x73 <= 1
C143: + x97 + x386 <= 1
C144: + x139 + x338 <= 1
C145: + x15 + x115 <= 1
C146: + x288 + x358 <= 1
C147: + x280 + x419 <= 1
C148: + x12 + x216 <= 1
C149: + x5 + x77 <= 1
C150: + x52 + x77 <= 1
C151: + x7 + x430 <= 1
C152: + x302 + x330 <= 1
C153: + x35 + x370 <= 1
C154: + x54 + x79 <= 1
C155: + x136 + x164 <= 1
C156: + x130 + x164 <= 1
C157: + x59 + x124 <= 1
C158: + x13 + x175 <= 1
C159: + x89 + x200 <= 1
C160: + x70 + x337 <= 1
C161: + x5 + x212 <= 1
C162: + x8 + x71 <= 1
C163: + x11 + x231 <= 1
C164: + x137 + x428 <= 1
C165: + x79 + x333 <= 1
C166: + x210 + x228 <= 1
C167: + x8 + x486 <= 1
C168: + x40 + x445 <= 1
C169: + x48 + x50 + x99 <= 1
C170: + x81 + x180 <= 1
C171: + x41 + x81 + x88 <= 1
C172: + x8 + x265 <= 1
C173: + x68 + x121 <= 1
C174: + x52 + x467 <= 1
C175: + x36 + x68 <= 1
C176: + x8 + x123 <= 1
C177: + x13 + x21 + x28 <= 1
C178: + x12 + x128 <= 1
C179: + x22 + x157 <= 1
C180: + x481 + x499 <= 1
C181: + x7 + x22 <= 1
C182: + x3 + x481 <= 1
C183: + x3 + x46 <= 1
C184: + x5 + x151 <= 1
C185: + x34 + x426 <= 1
C186: + x152 + x194 <= 1
C187: + x347 + x488 <= 1
C188: + x330 + x412 + x439 <= 1
C189: + x39 + x80 <= 1
C190: + x93 + x421 <= 1
C191: + x12 + x44 <= 1
C192: + x77 + x124 <= 1
C193: + x81 + x383 <= 1
C194: + x139 + x218 <= 1
C195: + x22 + x127 <= 1
C196: + x14 + x50 <= 1
C197: + x6 + x213 <= 1
C198: + x36 + x458 <= 1
C199: + x63 + x465 <= 1
C200: + x3 + x259 <= 1
C201: + x12 + x185 <= 1
C202: + x51 + x265 <= 1
C203: + x72 + x163 <= 1
C204: + x110 + x417 <= 1
C205: + x185 + x447 <= 1
C206: + x144 + x154 <= 1
C207: + x8 + x258 <= 1
C208: + x20 + x347 <= 1
C209: + x23 + x177 <= 1
C210: + x151 + x431 <= 1
C211: + x463 + x493 <= 1
C212: + x293 + x429 <= 1
C213: + x12 + x117 <= 1
C214: + x195 + x196 <= 1
C215: + x58 + x444 <= 1
C216: + x170 + x320 <= 1
C217: + x7 + x13 <= 1
C218: + x12 + x359 <= 1
C219: + x48 + x443 <= 1
C220: + x61 + x294 <= 1
C221: + x151 + x213 <= 1
C222: + x43 + x416 <= 1
C223: + x359 + x495 <= 1
C224: + x2 + x218 <= 1
C225: + x76 + x127 <= 1
C226: + x242 + x264 <= 1
C227: + x22 + x23 <= 1
C228: + x456 + x475 <= 1
C229: + x125 + x248 <= 1
C230: + x317 + x426 <= 1
C231: + x8 + x40 <= 1
C232: + x46 + x241 <= 1
C233: + x294 + x367 <= 1
C234: + x73 + x83 <= 1
C235: + x37 + x57 <= 1
C236: + x419 + x496 <= 1
C237: + x38 + x450 <= 1
C238: + x360 + x425 <= 1
C239: + x23 + x128 <= 1
C240: + x18 + x176 <= 1
C241: + x40 + x129 <= 1
C242: + x34 + x141 <= 1
C243: + x41 + x246 <= 1
C244: + x105 + x395 <= 1
C245: + x172 + x440 <= 1
C246: + x8 + x198 <= 1
C247: + x2 + x7 <= 1
C248: + x96 + x181 <= 1
C249: + x253 + x360 <= 1
C250: + x83 + x428 <= 1
C251: + x2 + x162 <= 1
C252: + x12 + x110 <= 1
C253: + x304 + x493 <= 1
C254: + x51 + x129 <= 1
C255: + x124 + x280 <= 1
C256: + x22 + x175 <= 1
C257: + x7 + x8 <= 1
C258: + x148 + x414 <= 1
C259: + x3 + x64 <= 1
C260: + x191 + x478 <= 1
C261: + x1 + x360 <= 1
C262: + x43 + x316 <= 1
C263: + x100 + x126 <= 1
C264: + x75 + x91 + x338 <= 1
C265: + x46 + x234 <= 1
C266: + x40 + x376 <= 1
C267: + x23 + x406 <= 1
C268: + x4 + x412 <= 1
C269: + x27 + x368 <= 1
C270: + x160 + x354 <= 1
C271: + x11 + x63 <= 1
C272: + x87 + x183 <= 1
C273: + x162 + x187 <= 1
C274: + x90 + x211 <= 1
C275: + x16 + x255 <= 1
C276: + x197 + x393 <= 1
C277: + x27 + x126 <= 1
C278: + x9 + x140 <= 1
C279: + x8 + x174 <= 1
C280: + x43 + x368 <= 1
C281: + x62 + x312 <= 1
C282: + x43 + x94 <= 1
C283: + x6 + x88 <= 1
C284: + x144 + x347 <= 1
C285: + x202 + x488 <= 1
C286: + x136 + x266 <= 1
C287: + x32 + x126 <= 1
C288: + x151 + x441 <= 1
C289: + x45 + x92 <= 1
C290: + x170 + x202 + x253 <= 1
C291: + x3 + x297 <= 1
C292: + x46 + x82 <= 1
C293: + x174 + x466 <= 1
C294: + x13 + x287 <= 1
C295: + x5 + x132 <= 1
C296: + x106 + x306 <= 1
C297: + x15 + x79 <= 1
C298: + x16 + x325 <= 1
C299: + x126 + x484 <= 1
C300: + x197 + x353 <= 1
C301: + x81 + x114 <= 1
C302: + x53 + x91 <= 1
C303: + x79 + x413 <= 1
C304: + x40 + x365 <= 1
C305: + x4 + x320 <= 1
C306: + x8 + x171 <= 1
C307: + x27 + x154 <= 1
C308: + x12 + x466 <= 1
C309: + x415 + x470 <= 1
C310: + x8 + x365 <= 1
C311: + x58 + x116 <= 1
C312: + x112 + x289 <= 1
C313: + x30 + x331 <= 1
C314: + x44 + x65 <= 1
C315: + x213 + x391 <= 1
C316: + x4 + x7 <= 1
C317: + x60 + x447 <= 1
C318: + x26 + x54 <= 1
C319: + x484 + x485 <= 1
C320: + x56 + x371 <= 1
C321: + x131 + x251 <= 1
C322: + x204 + x334 <= 1
C323: + x251 + x336 <= 1
C324: + x216 + x383 <= 1
C325: + x7 + x147 <= 1
C326: + x10 + x66 <= 1
C327: + x11 + x82 <= 1
C328: + x356 + x407 <= 1
C329: + x37 + x404 <= 1
C330: + x5 + x48 <= 1
C331: + x8 + x19 <= 1
C332: + x11 + x307 <= 1
C333: + x13 + x485 <= 1
C334: + x151 + x361 <= 1
C335: + x163 + x474 <= 1
C336: + x2 + x94 <= 1
C337: + x37 + x483 <= 1
C338: + x4 + x5 + x12 <= 1
C339: + x22 + x403 <= 1
C340: + x159 + x249 <= 1
C341: + x114 + x231 <= 1
C342: + x33 + x379 <= 1
C343: + x206 + x377 <= 1
C344: + x5 + x425 <= 1
C345: + x34 + x152 <= 1
C346: + x125 + x209 <= 1
C347: + x2 + x284 <= 1
C348: + x47 + x232 <= 1
C349: + x222 + x310 <= 1
C350: + x5 + x334 <= 1
C351: + x2 + x423 <= 1
C352: + x4 + x209 <= 1
C353: + x23 + x93 <= 1
C354: + x96 + x164 <= 1
C355: + x44 + x499 <= 1
C356: + x20 + x214 <= 1
C357: + x311 + x447 <= 1
C358: + x97 + x119 <= 1
C359: + x43 + x46 + x52 <= 1
C360: + x116 + x330 <= 1
C361: + x118 + x265 <= 1
C362: + x10 + x440 <= 1
C363: + x91 + x138 <= 1
C364: + x182 + x388 <= 1
C365: + x197 + x343 <= 1
C366: + x293 + x437 <= 1
C367: + x13 + x87 <= 1
C368: + x31 + x185 <= 1
C369: + x10 + x257 <= 1
C370: + x42 + x48 <= 1
C371: + x151 + x205 <= 1
C372: + x127 + x426 <= 1
C373: + x30 + x172 <= 1
C374: + x133 + x475 <= 1
C375: + x23 + x298 <= 1
C376: + x24 + x150 <= 1
C377: + x9 + x30 <= 1
C378: + x27 + x236 <= 1
C379: + x61 + x483 <= 1
C380: + x179 + x241 <= 1
C381: + x16 + x105 <= 1
C382: + x104 + x407 <= 1
C383: + x15 + x24 <= 1
C384: + x6 + x67 <= 1
C385: + x204 + x491 <= 1
C386: + x30 + x349 <= 1
C387: + x62 + x436 <= 1
C388: + x85 + x352 <= 1
C389: + x20 + x219 <= 1
C390: + x16 + x61 <= 1
C391: + x8 + x500 <= 1
C392: + x20 + x58 <= 1
C393: + x12 + x444 <= 1
C394: + x4 + x359 <= 1
C395: + x176 + x275 <= 1
C396: + x270 + x351 <= 1
C397: + x100 + x360 <= 1
C398: + x164 + x379 <= 1
C399: + x155 + x199 <= 1
C400: + x11 + x68 <= 1
C401: + x92 + x202 <= 1
C402: + x129 + x382 <= 1
C403: + x95 + x270 <= 1
C404: + x99 + x209 <= 1
C405: + x22 + x151 <= 1
C406: + x31 + x373 <= 1
C407: + x34 + x49 <= 1
C408: + x7 + x32 <= 1
C409: + x82 + x95 <= 1
C410: + x385 + x493 <= 1
C411: + x118 + x145 <= 1
C412: + x154 + x277 <= 1
C413: + x75 + x120 <= 1
C414: + x2 + x203 <= 1
C415: + x240 + x335 <= 1
C416: + x42 + x436 <= 1
C417: + x102 + x247 <= 1
C418: + x103 + x205 <= 1
C419: + x213 + x464 <= 1
C420: + x32 + x193 <= 1
C421: + x8 + x53 <= 1
C422: + x20 + x115 <= 1
C423: + x39 + x179 <= 1
C424: + x41 + x217 <= 1
C425: + x204 + x261 <= 1
C426: + x332 + x460 <= 1
C427: + x71 + x140 <= 1
C428: + x19 + x473 <= 1
C429: + x37 + x453 <= 1
C430: + x3 + x108 <= 1
C431: + x158 + x214 <= 1
C432: + x7 + x245 <= 1
C433: + x45 + x499 <= 1
C434: + x211 + x340 <= 1
C435: + x85 + x359 <= 1
C436: + x5 + x451 <= 1
C437: + x15 + x394 <= 1
C438: + x6 + x477 <= 1
C439: + x3 + x27 <= 1
C440: + x29 + x473 <= 1
C441: + x324 + x355 <= 1
C442: + x15 + x43 <= 1
C443: + x89 + x372 <= 1
C444: + x255 + x289 <= 1
C445: + x10 + x117 <= 1
C446: + x198 + x448 <= 1
C447: + x217 + x401 <= 1
C448: + x90 + x135 <= 1
C449: + x88 + x408 <= 1
C450: + x16 + x171 <= 1
C451: + x172 + x183 <= 1
C452: + x185 + x239 <= 1
C453: + x38 + x250 <= 1
C454: + x85 + x299 <= 1
C455: + x60 + x69 <= 1
C456: + x171 + x450 <= 1
C457: + x73 + x125 <= 1
C458: + x46 + x106 <= 1
C459: + x15 + x119 <= 1
C460: + x9 + x282 <= 1
C461: + x273 + x396 <= 1
C462: + x8 + x143 <= 1
C463: + x12 + x204 <= 1
C464: + x98 + x184 <= 1
C465: + x25 + x210 <= 1
C466: + x24 + x172 <= 1
C467: + x227 + x278 <= 1
C468: + x15 + x325 <= 1
C469: + x73 + x460 <= 1
C470: + x47 + x249 <= 1
C471: + x104 + x389 <= 1
C472: + x5 + x315 <= 1
C473: + x7 + x67 <= 1
C474: + x1 + x262 <= 1
C475: + x57 + x280 <= 1
C476: + x56 + x290 <= 1
C477: + x23 + x98 <= 1
C478: + x91 + x301 <= 1
C479: + x8 + x67 <= 1
C480: + x13 + x16 <= 1
C481: + x89 + x105 <= 1
C482: + x14 + x152 <= 1
C483: + x236 + x351 <= 1
C484: + x3 + x22 <= 1
C485: + x59 + x247 <= 1
C486: + x231 + x235 <= 1
C487: + x25 + x59 <= 1
C488: + x34 + x82 <= 1
C489: + x8 + x261 <= 1
C490: + x155 + x201 <= 1
C491: + x275 + x487 <= 1
C492: + x12 + x277 <= 1
C493: + x15 + x260 <= 1
C494: + x18 + x238 <= 1
C495: + x88 + x429 <= 1
C496: + x93 + x109 <= 1
C497: + x64 + x406 <= 1
C498: + x12 + x116 <= 1
C499: + x4 + x47 <= 1
C500: + x13 + x68 <= 1
C501: + x89 + x133 + x299 <= 1
C502: + x332 + x361 <= 1
C503: + x133 + x275 <= 1
C504: + x206 + x285 <= 1
C505: + x17 + x150 <= 1
C506: + x236 + x284 <= 1
C507: + x15 + x336 <= 1
C508: + x108 + x341 <= 1
C509: + x2 + x360 <= 1
C510: + x41 + x199 <= 1
C511: + x237 + x428 <= 1
C512: + x31 + x275 <= 1
C513: + x142 + x435 <= 1
C514: + x116 + x437 <= 1
C515: + x79 + x297 <= 1
C516: + x358 + x480 <= 1
C517: + x304 + x313 <= 1
C518: + x51 + x420 <= 1
C519: + x90 + x197 <= 1
C520: + x5 + x433 <= 1
C521: + x339 + x359 <= 1
C522: + x34 + x107 <= 1
C523: + x6 + x98 <= 1
C524: + x143 + x234 <= 1
C525: + x8 + x382 <= 1
C526: + x8 + x201 <= 1
C527: + x134 + x181 + x314 <= 1
C528: + x7 + x15 + x34 <= 1
C529: + x15 + x210 <= 1
C530: + x55 + x366 <= 1
C531: + x97 + x111 <= 1
C532: + x70 + x104 <= 1
C533: + x47 + x156 <= 1
C534: + x3 + x33 <= 1
C535: + x172 + x367 <= 1
C536: + x436 + x481 <= 1
C537: + x54 + x487 <= 1
C538: + x143 + x268 <= 1
C539: + x300 + x424 <= 1
C540: + x276 + x317 <= 1
C541: + x21 + x439 <= 1
C542: + x52 + x254 <= 1
C543: + x17 + x42 <= 1
C544: + x143 + x165 <= 1
C545: + x71 + x253 <= 1
C546: + x24 + x29 <= 1
C547: + x7 + x61 <= 1
C548: + x138 + x247 <= 1
C549: + x43 + x464 <= 1
C550: + x9 + x372 <= 1
C551: + x10 + x31 <= 1
C552: + x11 + x149 <= 1
C553: + x8 + x177 <= 1
C554: + x40 + x189 <= 1
C555: + x188 + x195 <= 1
C556: + x7 + x464 <= 1
C557: + x10 + x378 <= 1
C558: + x319 + x462 <= 1
C559: + x76 + x270 <= 1
C560: + x30 + x103 <= 1
C561: + x86 + x463 <= 1
C562: + x414 + x456 <= 1
C563: + x83 + x186 <= 1
C564: + x8 + x194 <= 1
C565: + x246 + x284 <= 1
C566: + x14 + x27 <= 1
C567: + x117 + x287 <= 1
C568: + x44 + x87 <= 1
C569: + x72 + x293 <= 1
C570: + x4 + x29 <= 1
C571: + x13 + x114 <= 1
C572: + x98 + x285 <= 1
C573: + x162 + x392 <= 1
C574: + x155 + x401 <= 1
C575: + x340 + x460 <= 1
C576: + x164 + x323 <= 1
C577: + x6 + x269 <= 1
C578: + x9 + x33 <= 1
C579: + x53 + x96 <= 1
C580: + x16 + x86 <= 1
C581: + x54 + x259 <= 1
C582: + x243 + x382 <= 1
C583: + x45 + x306 <= 1
C584: + x147 + x211 <= 1
C585: + x46 + x468 <= 1
C586: + x51 + x86 <= 1
C587: + x70 + x312 <= 1
C588: + x34 + x396 <= 1
C589: + x7 + x294 <= 1
C590: + x62 + x465 <= 1
C591: + x74 + x328 <= 1
C592: + x41 + x68 <= 1
C593: + x89 + x435 <= 1
C594: + x15 + x358 <= 1
C595: + x18 + x72 <= 1
C596: + x6 + x305 <= 1
C597: + x9 + x109 <= 1
C598: + x21 + x85 <= 1
C599: + x12 + x477 <= 1
C600: + x189 + x425 <= 1
C601: + x134 + x175 <= 1
C602: + x45 + x358 <= 1
C603: + x18 + x483 <= 1
C604: + x74 + x158 <= 1
C605: + x221 + x386 <= 1
C606: + x79 + x100 <= 1
C607: + x4 + x6 <= 1
C608: + x51 + x363 <= 1
C609: + x219 + x220 <= 1
C610: + x376 + x381 <= 1
C611: + x88 + x254 <= 1
C612: + x6 + x8 <= 1
C613: + x135 + x438 <= 1
C614: + x21 + x171 <= 1
C615: + x4 + x147 <= 1
C616: + x8 + x18 <= 1
C617: + x3 + x377 <= 1
C618: + x12 + x83 <= 1
C619: + x140 + x467 <= 1
C620: + x52 + x204 <= 1
C621: + x34 + x397 <= 1
C622: + x181 + x342 <= 1
C623: + x41 + x75 <= 1
C624: + x235 + x441 <= 1
C625: + x44 + x56 <= 1
C626: + x8 + x454 <= 1
C627: + x84 + x493 <= 1
C628: + x12 + x15 <= 1
C629: + x12 + x470 <= 1
C630: + x251 + x392 <= 1
C631: + x133 + x195 <= 1
C632: + x71 + x155 <= 1
C633: + x46 + x54 <= 1
C634: + x55 + x470 <= 1
C635: + x43 + x486 <= 1
C636: + x99 + x135 <= 1
C637: + x44 + x69 <= 1
C638: + x16 + x152 <= 1
C639: + x236 + x460 <= 1
C640: + x81 + x390 <= 1
C641: + x10 + x245 <= 1
C642: + x77 + x283 <= 1
C643: + x246 + x385 <= 1
C644: + x43 + x212 <= 1
C645: + x10 + x344 <= 1
C646: + x121 + x122 <= 1
C647: + x212 + x240 <= 1
C648: + x185 + x420 <= 1
C649: + x116 + x484 <= 1
C650: + x345 + x472 <= 1
C651: + x71 + x87 <= 1
C652: + x137 + x263 <= 1
C653: + x4 + x156 <= 1
C654: + x198 + x356 <= 1
C655: + x8 + x15 <= 1
C656: + x51 + x346 <= 1
C657: + x4 + x55 <= 1
C658: + x77 + x249 <= 1
C659: + x6 + x53 <= 1
C660: + x100 + x298 <= 1
C661: + x15 + x98 <= 1
C662: + x10 + x50 <= 1
C663: + x8 + x160 <= 1
C664: + x193 + x384 <= 1
C665: + x4 + x72 <= 1
C666: + x23 + x226 <= 1
C667: + x14 + x384 <= 1
C668: + x15 + x376 <= 1
C669: + x206 + x373 <= 1
C670: + x44 + x45 <= 1
C671: + x9 + x27 <= 1
C672: + x123 + x153 <= 1
C673: + x4 + x442 <= 1
C674: + x43 + x76 <= 1
C675: + x345 + x403 <= 1
C676: + x80 + x195 <= 1
C677: + x8 + x354 <= 1
C678: + x46 + x47 <= 1
C679: + x265 + x407 <= 1
C680: + x29 + x344 <= 1
C681: + x118 + x449 <= 1
C682: + x181 + x222 <= 1
C683: + x22 + x369 <= 1
C684: + x4 + x455 <= 1
C685: + x171 + x408 <= 1
C686: + x249 + x257 <= 1
C687: + x3 + x476 <= 1
C688: + x3 + x5 <= 1
C689: + x130 + x194 <= 1
C690: + x88 + x244 <= 1
C691: + x92 + x258 <= 1
C692: + x3 + x170 <= 1
C693: + x189 + x344 <= 1
C694: + x18 + x255 <= 1
C695: + x144 + x416 <= 1
C696: + x3 + x331 <= 1
C697: + x21 + x30 <= 1
C698: + x13 + x83 <= 1
C699: + x51 + x337 <= 1
C700: + x39 + x196 <= 1
C701: + x15 + x464 <= 1
C702: + x181 + x391 <= 1
C703: + x72 + x235 <= 1
C704: + x2 + x488 <= 1
C705: + x6 + x411 <= 1
C706: + x3 + x89 <= 1
C707: + x138 + x352 <= 1
C708: + x10 + x59 <= 1
C709: + x447 + x450 <= 1
C710: + x3 + x254 <= 1
C711: + x21 + x141 <= 1
C712: + x107 + x133 <= 1
C713: + x52 + x404 <= 1
C714: + x215 + x441 <= 1
C715: + x18 + x43 <= 1
C716: + x113 + x268 <= 1
C717: + x99 + x339 <= 1
C718: + x189 + x438 <= 1
C719: + x142 + x231 <= 1
C720: + x318 + x365 <= 1
C721: + x31 + x95 <= 1
C722: + x106 + x160 <= 1
C723: + x108 + x176 <= 1
C724: + x13 + x177 <= 1
C725: + x4 + x222 <= 1
C726: + x60 + x358 <= 1
C727: + x172 + x307 <= 1
C728: + x41 + x101 <= 1
C729: + x297 + x442 <= 1
C730: + x12 + x142 <= 1
C731: + x13 + x419 <= 1
C732: + x111 + x326 <= 1
C733: + x194 + x411 <= 1
C734: + x3 + x32 <= 1
C735: + x5 + x357 <= 1
C736: + x333 + x397 <= 1
C737: + x255 + x318 <= 1
C738: + x2 + x51 <= 1
C739: + x3 + x161 <= 1
C740: + x15 + x193 <= 1
C741: + x62 + x388 <= 1
C742: + x8 + x125 <= 1
C743: + x16 + x170 <= 1
C744: + x29 + x136 <= 1
C745: + x92 + x105 <= 1
C746: + x133 + x140 <= 1
C747: + x150 + x377 <= 1
C748: + x199 + x340 <= 1
C749: + x46 + x109 <= 1
C750: + x67 + x148 <= 1
C751: + x13 + x380 <= 1
C752: + x89 + x189 <= 1
C753: + x10 + x36 <= 1
C754: + x30 + x161 <= 1
C755: + x158 + x289 <= 1
C756: + x107 + x345 <= 1
C757: + x150 + x490 <= 1
C758: + x26 + x193 <= 1
C759: + x12 + x54 <= 1
C760: + x59 + x168 <= 1
C761: + x30 + x399 <= 1
C762: + x51 + x201 <= 1
C763: + x31 + x293 <= 1
C764: + x4 + x195 <= 1
C765: + x96 + x158 <= 1
C766: + x427 + x485 <= 1
C767: + x28 + x305 <= 1
C768: + x41 + x350 <= 1
C769: + x7 + x124 <= 1
C770: + x1 + x351 <= 1
C771: + x208 + x357 <= 1
C772: + x338 + x398 <= 1
C773: + x3 + x188 <= 1
C774: + x148 + x213 <= 1
C775: + x84 + x226 <= 1
C776: + x12 + x276 <= 1
C777: + x130 + x240 <= 1
C778: + x59 + x64 <= 1
C779: + x41 + x394 <= 1
C780: + x23 + x42 <= 1
C781: + x47 + x327 <= 1
C782: + x10 + x37 <= 1
C783: + x8 + x139 <= 1
C784: + x57 + x429 <= 1
C785: + x151 + x481 <= 1
C786: + x165 + x350 <= 1
C787: + x313 + x447 <= 1
C788: + x230 + x362 <= 1
C789: + x7 + x71 <= 1
C790: + x11 + x497 <= 1
C791: + x64 + x335 <= 1
C792: + x89 + x208 <= 1
C793: + x16 + x236 <= 1
C794: + x45 + x51 <= 1
C795: + x8 + x191 <= 1
C796: + x23 + x199 <= 1
C797: + x79 + x341 <= 1
C798: + x319 + x456 <= 1
C799: + x3 + x421 <= 1
C800: + x192 + x491 <= 1
C801: + x5 + x363 <= 1
C802: + x88 + x159 <= 1
C803: + x6 + x101 <= 1
C804: + x74 + x239 <= 1
C805: + x19 + x77 <= 1
C806: + x406 + x469 <= 1
C807: + x59 + x88 <= 1
C808: + x180 + x197 <= 1
C809: + x9 + x203 <= 1
C810: + x10 + x221 <= 1
C811: + x39 + x245 <= 1
C812: + x22 + x352 <= 1
C813: + x170 + x319 <= 1
C814: + x108 + x444 <= 1
C815: + x24 + x80 <= 1
C816: + x200 + x338 <= 1
C817: + x7 + x14 <= 1
C818: + x8 + x402 <= 1
C819: + x3 + x38 <= 1
C820: + x94 + x101 <= 1
C821: + x21 + x453 <= 1
C822: + x40 + x489 <= 1
C823: + x6 + x41 <= 1
C824: + x9 + x261 <= 1
C825: + x71 + x111 <= 1
C826: + x174 + x205 <= 1
C827: + x25 + x221 <= 1
C828: + x9 + x55 <= 1
C829: + x8 + x39 <= 1
C830: + x79 + x301 <= 1
C831: + x7 + x58 <= 1
C832: + x54 + x96 <= 1
C833: + x93 + x322 <= 1
C834: + x3 + x122 <= 1
C835: + x39 + x471 <= 1
C836: + x60 + x137 <= 1
C837: + x10 + x26 <= 1
C838: + x31 + x237 <= 1
C839: + x107 + x166 <= 1
C840: + x34 + x345 <= 1
C841: + x24 + x113 <= 1
C842: + x45 + x207 <= 1
C843: + x11 + x331 <= 1
C844: + x12 + x32 <= 1
C845: + x68 + x203 <= 1
C846: + x367 + x378 <= 1
C847: + x15 + x57 <= 1
C848: + x81 + x163 <= 1
C849: + x10 + x472 <= 1
C850: + x164 + x169 <= 1
C851: + x10 + x107 <= 1
C852: + x46 + x402 <= 1
C853: + x14 + x30 <= 1
C854: + x45 + x94 <= 1
C855: + x8 + x108 <= 1
C856: + x280 + x348 <= 1
C857: + x67 + x495 <= 1
C858: + x300 + x496 <= 1
C859: + x91 + x328 <= 1
C860: + x2 + x161 <= 1
C861: + x32 + x354 <= 1
C862: + x35 + x200 <= 1
C863: + x112 + x113 <= 1
C864: + x29 + x50 <= 1
C865: + x185 + x403 <= 1
C866: + x6 + x18 <= 1
C867: + x30 + x140 <= 1
C868: + x16 + x73 <= 1
C869: + x3 + x355 <= 1
C870: + x347 + x410 <= 1
C871: + x27 + x386 <= 1
C872: + x3 + x278 <= 1
C873: + x233 + x257 <= 1
C874: + x4 + x85 <= 1
C875: + x6 + x308 <= 1
C876: + x65 + x71 <= 1
C877: + x59 + x133 <= 1
C878: + x359 + x430 <= 1
C879: + x78 + x169 <= 1
C880: + x169 + x264 <= 1
C881: + x187 + x434 <= 1
C882: + x9 + x455 <= 1
C883: + x263 + x434 <= 1
C884: + x6 + x325 <= 1
C885: + x62 + x424 <= 1
C886: + x8 + x97 <= 1
C887: + x38 + x116 <= 1
C888: + x56 + x138 <= 1
C889: + x22 + x453 <= 1
C890: + x71 + x89 <= 1
C891: + x1 + x165 <= 1
C892: + x119 + x132 <= 1
C893: + x75 + x457 <= 1
C894: + x307 + x323 <= 1
C895: + x43 + x435 <= 1
C896: + x17 + x322 <= 1
C897: + x180 + x345 <= 1
C898: + x227 + x430 <= 1
C899: + x74 + x332 <= 1
C900: + x202 + x287 <= 1
C901: + x4 + x94 <= 1
C902: + x116 + x312 <= 1
C903: + x44 + x51 <= 1
C904: + x9 + x17 <= 1
C905: + x263 + x272 <= 1
C906: + x75 + x445 <= 1
C907: + x12 + x14 <= 1
C908: + x26 + x396 <= 1
C909: + x7 + x104 <= 1
C910: + x34 + x476 <= 1
C911: + x34 + x234 <= 1
C912: + x57 + x183 <= 1
C913: + x20 + x43 <= 1
C914: + x58 + x63 <= 1
C915: + x5 + x41 <= 1
C916: + x81 + x106 <= 1
C917: + x8 + x14 <= 1
C918: + x30 + x33 <= 1
C919: + x168 + x308 <= 1
C920: + x52 + x208 <= 1
C921: + x80 + x190 <= 1
C922: + x135 + x248 <= 1
C923: + x263 + x376 <= 1
C924: + x221 + x321 <= 1
C925: + x13 + x331 <= 1
C926: + x89 + x172 <= 1
C927: + x160 + x246 <= 1
C928: + x70 + x317 <= 1
C929: + x96 + x255 <= 1
C930: + x352 + x438 <= 1
C931: + x9 + x187 <= 1
C932: + x10 + x13 <= 1
C933: + x41 + x79 <= 1
C934: + x178 + x233 <= 1
C935: + x124 + x333 <= 1
C936: + x52 + x156 <= 1
C937: + x401 + x482 <= 1
C938: + x93 + x355 <= 1
C939: + x10 + x459 <= 1
C940: + x39 + x440 <= 1
C941: + x30 + x323 <= 1
C942: + x126 + x260 <= 1
C943: + x265 + x369 <= 1
C944: + x4 + x15 <= 1
C945: + x115 + x162 <= 1
C946: + x63 + x155 <= 1
C947: + x93 + x274 <= 1
C948: + x2 + x471 <= 1
C949: + x86 + x92 <= 1
C950: + x151 + x242 <= 1
C951: + x8 + x281 <= 1
C952: + x146 + x223 <= 1
C953: + x11 + x90 <= 1
C954: + x1 + x334 <= 1
C955: + x234 + x350 <= 1
C956: + x61 + x432 <= 1
C957: + x15 + x251 <= 1
C958: + x198 + x368 <= 1
C959: + x36 + x84 <= 1
C960: + x171 + x316 <= 1
C961: + x8 + x11 <= 1
C962: + x60 + x74 <= 1
C963: + x7 + x38 <= 1
C964: + x102 + x106 <= 1
C965: + x159 + x225 <= 1
C966: + x45 + x449 <= 1
C967: + x59 + x388 <= 1
C968: + x4 + x76 <= 1
C969: + x69 + x463 <= 1
C970: + x5 + x401 <= 1
C971: + x17 + x162 <= 1
C972: + x180 + x185 <= 1
C973: + x10 + x145 <= 1
C974: + x37 + x173 <= 1
C975: + x3 + x388 <= 1
C976: + x54 + x72 <= 1
C977: + x156 + x381 <= 1
C978: + x340 + x374 <= 1
C979: + x22 + x111 <= 1
C980: + x10 + x226 <= 1
C981: + x72 + x272 <= 1
C982: + x88 + x297 <= 1
C983: + x81 + x286 <= 1
C984: + x110 + x433 <= 1
C985: + x10 + x349 <= 1
C986: + x230 + x303 <= 1
C987: + x12 + x443 <= 1
C988: + x33 + x81 <= 1
C989: + x75 + x129 <= 1
C990: + x22 + x51 <= 1
C991: + x188 + x356 <= 1
C992: + x16 + x173 <= 1
C993: + x64 + x103 <= 1
C994: + x18 + x414 <= 1
C995: + x11 + x391 <= 1
C996: + x116 + x267 <= 1
C997: + x159 + x474 <= 1
C998: + x236 + x301 <= 1
C999: + x46 + x129 <= 1
C1000: + x20 + x118 <= 1
C1001: + x12 + x49 <= 1
C1002: + x12 + x456 <= 1
C1003: + x43 + x63 <= 1
C1004: + x12 + x291 <= 1
C1005: + x295 + x363 <= 1
C1006: + x30 + x341 <= 1
C1007: + x246 + x415 <= 1
C1008: + x146 + x387 <= 1
C1009: + x13 + x18 <= 1
C1010: + x34 + x330 <= 1
C1011: + x5 + x452 <= 1
C1012: + x79 + x236 <= 1
C1013: + x117 + x494 <= 1
C1014: + x109 + x323 <= 1
C1015: + x112 + x259 <= 1
C1016: + x5 + x6 <= 1
C1017: + x116 + x145 <= 1
C1018: + x154 + x372 <= 1
C1019: + x72 + x313 <= 1
C1020: + x144 + x481 <= 1
C1021: + x64 + x112 <= 1
C1022: + x70 + x117 <= 1
C1023: + x397 + x485 <= 1
C1024: + x177 + x303 <= 1
C1025: + x31 + x410 <= 1
C1026: + x5 + x149 <= 1
C1027: + x151 + x224 <= 1
C1028: + x91 + x173 <= 1
C1029: + x18 + x133 <= 1
C1030: + x91 + x282 <= 1
C1031: + x100 + x348 <= 1
C1032: + x9 + x176 <= 1
C1033: + x10 + x40 <= 1
C1034: + x5 + x74 <= 1
C1035: + x54 + x311 <= 1
C1036: + x2 + x366 <= 1
C1037: + x35 + x139 <= 1
C1038: + x298 + x312 <= 1
C1039: + x5 + x217 <= 1
C1040: + x418 + x478 <= 1
C1041: + x11 + x228 <= 1
C1042: + x98 + x131 <= 1
C1043: + x125 + x179 <= 1
C1044: + x350 + x458 <= 1
C1045: + x8 + x264 <= 1
C1046: + x63 + x446 <= 1
C1047: + x348 + x369 <= 1
C1048: + x5 + x13 <= 1
C1049: + x154 + x373 <= 1
C1050: + x1 + x37 <= 1
C1051: + x285 + x328 <= 1
C1052: + x106 + x423 <= 1
C1053: + x9 + x421 <= 1
C1054: + x3 + x39 <= 1
C1055: + x12 + x357 <= 1
C1056: + x103 + x256 <= 1
C1057: + x213 + x479 <= 1
C1058: + x227 + x302 <= 1
C1059: + x48 + x243 <= 1
C1060: + x6 + x445 <= 1
C1061: + x30 + x295 <= 1
C1062: + x162 + x164 <= 1
C1063: + x10 + x21 <= 1
C1064: + x12 + x192 <= 1
C1065: + x89 + x422 <= 1
C1066: + x71 + x278 <= 1
C1067: + x210 + x224 <= 1
C1068: + x3 + x417 <= 1
C1069: + x21 + x72 <= 1
C1070: + x112 + x446 <= 1
C1071: + x103 + x405 <= 1
C1072: + x8 + x381 <= 1
C1073: + x124 + x239 <= 1
C1074: + x4 + x494 <= 1
C1075: + x25 + x178 <= 1
C1076: + x43 + x232 <= 1
C1077: + x23 + x348 <= 1
C1078: + x89 + x498 <= 1
C1079: + x17 + x127 <= 1
C1080: + x3 + x34 <= 1
C1081: + x3 + x8 + x10 + x17 <= 1
C1082: + x133 + x283 <= 1
C1083: + x345 + x452 <= 1
C1084: + x6 + x21 <= 1
C1085: + x7 + x163 <= 1
C1086: + x92 + x236 <= 1
C1087: + x155 + x229 <= 1
C1088: + x8 + x35 <= 1
C1089: + x74 + x461 <= 1
C1090: + x12 + x40 <= 1
C1091: + x195 + x350 <= 1
C1092: + x4 + x410 <= 1
C1093: + x17 + x43 <= 1
C1094: + x253 + x415 <= 1
C1095: + x15 + x497 <= 1
C1096: + x102 + x423 <= 1
C1097: + x11 + x49 <= 1
C1098: + x3 + x118 <= 1
C1099: + x114 + x268 <= 1
C1100: + x39 + x459 <= 1
C1101: + x34 + x498 <= 1
C1102: + x181 + x321 <= 1
C1103: + x273 + x439 <= 1
C1104: + x202 + x273 <= 1
C1105: + x442 + x482 <= 1
C1106: + x32 + x227 <= 1
C1107: + x23 + x222 <= 1
C1108: + x5 + x441 <= 1
C1109: + x133 + x484 <= 1
C1110: + x9 + x103 <= 1
C1111: + x147 + x415 <= 1
C1112: + x130 + x383 <= 1
C1113: + x103 + x400 <= 1
C1114: + x50 + x274 <= 1
C1115: + x22 + x500 <= 1
C1116: + x116 + x457 <= 1
C1117: + x231 + x337 <= 1
C1118: + x251 + x371 <= 1
C1119: + x88 + x148 <= 1
C1120: + x8 + x193 <= 1
C1121: + x280 + x497 <= 1
C1122: + x51 + x400 <= 1
C1123: + x52 + x296 <= 1
C1124: + x88 + x119 <= 1
C1125: + x2 + x165 <= 1
C1126: + x21 + x62 <= 1
C1127: + x12 + x97 <= 1
C1128: + x33 + x73 <= 1
C1129: + x115 + x479 <= 1
C1130: + x127 + x462 <= 1
C1131: + x165 + x235 <= 1
C1132: + x113 + x300 <= 1
C1133: + x31 + x48 <= 1
C1134: + x235 + x395 <= 1
C1135: + x157 + x317 <= 1
C1136: + x18 + x438 <= 1
C1137: + x5 + x182 <= 1
C1138: + x43 + x440 <= 1
C1139: + x16 + x198 <= 1
C1140: + x144 + x305 <= 1
C1141: + x42 + x347 <= 1
C1142: + x11 + x370 <= 1
C1143: + x68 + x184 <= 1
C1144: + x238 + x327 <= 1
C1145: + x12 + x315 <= 1
C1146: + x59 + x102 <= 1
C1147: + x79 + x97 <= 1
C1148: + x290 + x488 <= 1
C1149: + x171 + x419 <= 1
C1150: + x29 + x498 <= 1
C1151: + x3 + x52 <= 1
C1152: + x106 + x309 <= 1
C1153: + x180 + x401 <= 1
C1154: + x6 + x7 <= 1
C1155: + x22 + x36 <= 1
C1156: + x42 + x408 <= 1
C1157: + x278 + x479 <= 1
C1158: + x88 + x399 <= 1
C1159: + x141 + x478 <= 1
C1160: + x178 + x302 <= 1
C1161: + x159 + x346 <= 1
C1162: + x17 + x25 <= 1
C1163: + x4 + x49 <= 1
C1164: + x168 + x311 <= 1
C1165: + x57 + x256 <= 1
C1166: + x23 + x418 <= 1
C1167: + x358 + x458 <= 1
C1168: + x36 + x55 <= 1
C1169: + x10 + x16 <= 1
C1170: + x2 + x251 <= 1
C1171: + x4 + x66 <= 1
C1172: + x217 + x454 <= 1
C1173: + x88 + x451 <= 1
C1174: + x37 + x187 <= 1
C1175: + x41 + x318 <= 1
C1176: + x39 + x344 <= 1
C1177: + x12 + x469 <= 1
C1178: + x189 + x417 <= 1
C1179: + x16 + x389 <= 1
C1180: + x55 + x98 <= 1
C1181: + x2 + x108 <= 1
C1182: + x97 + x152 <= 1
C1183: + x126 + x263 <= 1
C1184: + x216 + x389 <= 1
C1185: + x36 + x99 <= 1
C1186: + x73 + x292 <= 1
C1187: + x48 + x67 <= 1
C1188: + x4 + x14 <= 1
C1189: + x350 + x351 <= 1
C1190: + x28 + x301 <= 1
C1191: + x46 + x70 <= 1
C1192: + x3 + x11 <= 1
C1193: + x14 + x413 <= 1
C1194: + x15 + x91 <= 1
C1195: + x18 + x279 <= 1
C1196: + x74 + x242 <= 1
C1197: + x25 + x36 <= 1
C1198: + x133 + x248 <= 1
C1199: + x352 + x398 <= 1
C1200: + x23 + x458 <= 1
C1201: + x11 + x91 <= 1
C1202: + x30 + x154 <= 1
C1203: + x34 + x300 <= 1
C1204: + x27 + x218 <= 1
C1205: + x365 + x433 <= 1
C1206: + x135 + x335 <= 1
C1207: + x22 + x144 <= 1
C1208: + x51 + x228 <= 1
C1209: + x125 + x127 <= 1
C1210: + x5 + x263 <= 1
C1211: + x7 + x39 <= 1
C1212: + x78 + x198 <= 1
C1213: + x52 + x367 <= 1
C1214: + x8 + x159 <= 1
C1215: + x11 + x143 <= 1
C1216: + x237 + x288 <= 1
C1217: + x158 + x302 <= 1
C1218: + x9 + x28 <= 1
C1219: + x19 + x191 <= 1
C1220: + x46 + x139 <= 1
C1221: + x25 + x31 <= 1
C1222: + x52 + x160 <= 1
C1223: + x34 + x465 <= 1
C1224: + x9 + x342 <= 1
C1225: + x109 + x135 <= 1
C1226: + x45 + x71 <= 1
C1227: + x240 + x268 <= 1
C1228: + x213 + x395 <= 1
C1229: + x35 + x237 <= 1
C1230: + x256 + x469 <= 1
C1231: + x3 + x473 <= 1
C1232: + x3 + x6 <= 1
C1233: + x58 + x233 <= 1
C1234: + x13 + x266 <= 1
C1235: + x22 + x467 <= 1
C1236: + x28 + x56 <= 1
C1237: + x11 + x70 <= 1
C1238: + x10 + x78 <= 1
C1239: + x59 + x444 <= 1
C1240: + x135 + x421 <= 1
C1241: + x5 + x20 <= 1
C1242: + x98 + x237 <= 1
C1243: + x117 + x246 <= 1
C1244: + x25 + x90 <= 1
C1245: + x8 + x422 <= 1
C1246: + x137 + x379 <= 1
C1247: + x11 + x138 <= 1
C1248: + x94 + x188 <= 1
C1249: + x30 + x167 <= 1
C1250: + x13 + x35 <= 1
C1251: + x275 + x427 <= 1
C1252: + x23 + x250 <= 1
C1253: + x16 + x120 <= 1
C1254: + x39 + x322 <= 1
C1255: + x48 + x287 <= 1
C1256: + x79 + x217 <= 1
C1257: + x45 + x340 <= 1
C1258: + x52 + x229 <= 1
C1259: + x15 + x25 <= 1
C1260: + x11 + x25 <= 1
C1261: + x2 + x435 <= 1
C1262: + x12 + x290 <= 1
C1263: + x5 + x215 <= 1
C1264: + x143 + x420 <= 1
C1265: + x10 + x230 <= 1
C1266: + x13 + x23 <= 1
C1267: + x16 + x60 <= 1
C1268: + x8 + x495 <= 1
C1269: + x38 + x107 <= 1
C1270: + x3 + x29 <= 1
C1271: + x159 + x292 <= 1
C1272: + x35 + x329 <= 1
C1273: + x133 + x230 <= 1
C1274: + x98 + x411 <= 1
C1275: + x72 + x409 <= 1
C1276: + x155 + x279 <= 1
C1277: + x68 + x118 <= 1
C1278: + x8 + x128 <= 1
C1279: + x12 + x121 <= 1
C1280: + x41 + x146 <= 1
C1281: + x6 + x387 <= 1
C1282: + x9 + x443 <= 1
C1283: + x130 + x291 <= 1
C1284: + x95 + x130 <= 1
C1285: + x105 + x324 <= 1
C1286: + x23 + x24 <= 1
C1287: + x5 + x170 <= 1
C1288: + x360 + x449 <= 1
C1289: + x71 + x126 <= 1
C1290: + x148 + x155 <= 1
C1291: + x105 + x225 <= 1
C1292: + x287 + x393 <= 1
C1293: + x43 + x154 <= 1
C1294: + x9 + x10 <= 1
C1295: + x8 + x52 <= 1
C1296: + x204 + x316 <= 1
C1297: + x137 + x188 <= 1
C1298: + x139 + x221 <= 1
C1299: + x13 + x169 <= 1
C1300: + x5 + x222 <= 1
C1301: + x14 + x293 <= 1
C1302: + x227 + x364 <= 1
C1303: + x3 + x427 <= 1
C1304: + x9 + x467 <= 1
C1305: + x144 + x147 <= 1
C1306: + x8 + x267 <= 1
C1307: + x2 + x11 <= 1
C1308: + x157 + x251 <= 1
C1309: + x30 + x357 <= 1
C1310: + x34 + x319 <= 1
C1311: + x171 + x221 <= 1
C1312: + x117 + x271 <= 1
C1313: + x45 + x105 <= 1
C1314: + x10 + x219 <= 1
C1315: + x102 + x362 <= 1
C1316: + x294 + x320 <= 1
C1317: + x95 + x411 <= 1
C1318: + x23 + x334 <= 1
C1319: + x35 + x179 <= 1
C1320: + x181 + x406 <= 1
C1321: + x8 + x412 <= 1
C1322: + x37 + x80 <= 1
C1323: + x5 + x145 <= 1
C1324: + x63 + x82 <= 1
C1325: + x10 + x44 <= 1
C1326: + x8 + x134 <= 1
C1327: + x8 + x319 <= 1
C1328: + x164 + x339 <= 1
C1329: + x8 + x41 <= 1
C1330: + x29 + x84 <= 1
C1331: + x8 + x336 <= 1
C1332: + x2 + x120 <= 1
C1333: + x7 + x225 <= 1
C1334: + x281 + x496 <= 1
C1335: + x83 + x379 <= 1
C1336: + x49 + x55 <= 1
C1337: + x39 + x58 <= 1
C1338: + x22 + x224 <= 1
C1339: + x6 + x449 <= 1
C1340: + x9 + x125 <= 1
C1341: + x119 + x332 <= 1
C1342: + x20 + x75 <= 1
C1343: + x358 + x390 <= 1
C1344: + x31 + x118 <= 1
C1345: + x79 + x453 <= 1
C1346: + x181 + x256 <= 1
C1347: + x8 + x110 <= 1
C1348: + x92 + x122 <= 1
C1349: + x29 + x151 <= 1
C1350: + x41 + x160 <= 1
C1351: + x4 + x22 <= 1
C1352: + x51 + x136 <= 1
C1353: + x32 + x380 <= 1
C1354: + x36 + x298 <= 1
C1355: + x67 + x227 <= 1
C1356: + x60 + x192 <= 1
C1357: + x96 + x223 <= 1
C1358: + x4 + x264 <= 1
C1359: + x17 + x409 <= 1
C1360: + x28 + x87 <= 1
C1361: + x92 + x151 <= 1
C1362: + x69 + x296 <= 1
C1363: + x197 + x381 <= 1
C1364: + x113 + x159 <= 1
C1365: + x204 + x227 <= 1
C1366: + x235 + x314 <= 1
C1367: + x46 + x477 <= 1
C1368: + x140 + x213 <= 1
C1369: + x51 + x93 <= 1
C1370: + x22 + x390 <= 1
C1371: + x265 + x273 <= 1
C1372: + x23 + x260 <= 1
C1373: + x116 + x297 <= 1
C1374: + x99 + x433 <= 1
C1375: + x101 + x445 <= 1
C1376: + x54 + x208 <= 1
C1377: + x59 + x322 <= 1
C1378: + x41 + x333 <= 1
C1379: + x2 + x6 + x9 <= 1
C1380: + x89 + x327 <= 1
C1381: + x2 + x5 <= 1
C1382: + x125 + x400 <= 1
C1383: + x15 + x272 <= 1
C1384: + x88 + x417 <= 1
C1385: + x235 + x476 <= 1
C1386: + x67 + x496 <= 1
C1387: + x12 + x112 <= 1
C1388: + x13 + x120 <= 1
C1389: + x21 + x461 <= 1
C1390: + x4 + x269 <= 1
C1391: + x23 + x57 <= 1
C1392: + x199 + x487 <= 1
C1393: + x8 + x252 <= 1
C1394: + x112 + x225 <= 1
C1395: + x77 + x378 <= 1
C1396: + x8 + x31 <= 1
C1397: + x133 + x150 <= 1
C1398: + x284 + x375 <= 1
C1399: + x175 + x343 <= 1
C1400: + x413 + x422 <= 1
C1401: + x3 + x114 <= 1
C1402: + x227 + x404 <= 1
C1403: + x11 + x146 <= 1
C1404: + x23 + x283 <= 1
C1405: + x4 + x330 <= 1
C1406: + x52 + x141 <= 1
C1407: + x2 + x30 <= 1
C1408: + x44 + x78 <= 1
C1409: + x6 + x324 <= 1
C1410: + x35 + x123 <= 1
C1411: + x193 + x316 <= 1
C1412: + x235 + x451 <= 1
C1413: + x57 + x468 <= 1
C1414: + x3 + x295 <= 1
C1415: + x79 + x141 <= 1
C1416: + x151 + x229 <= 1
C1417: + x8 + x294 <= 1
C1418: + x228 + x349 <= 1
C1419: + x352 + x412 <= 1
C1420: + x191 + x459 <= 1
C1421: + x91 + x134 <= 1
C1422: + x3 + x218 <= 1
C1423: + x38 + x353 <= 1
C1424: + x25 + x375 <= 1
C1425: + x16 + x81 <= 1
C1426: + x19 + x149 <= 1
C1427: + x8 + x24 <= 1
C1428: + x20 + x150 <= 1
C1429: + x166 + x324 <= 1
C1430: + x10 + x186 <= 1
C1431: + x30 + x39 <= 1
C1432: + x5 + x285 <= 1
C1433: + x102 + x428 <= 1
C1434: + x124 + x474 <= 1
C1435: + x4 + x290 <= 1
C1436: + x71 + x479 <= 1
C1437: + x238 + x434 <= 1
C1438: + x85 + x136 <= 1
C1439: + x17 + x181 <= 1
C1440: + x3 + x399 <= 1
C1441: + x12 + x13 <= 1
C1442: + x78 + x161 <= 1
C1443: + x28 + x443 <= 1
C1444: + x3 + x157 <= 1
C1445: + x5 + x230 <= 1
C1446: + x279 + x397 <= 1
C1447: + x52 + x305 <= 1
C1448: + x15 + x282 <= 1
C1449: + x166 + x281 <= 1
C1450: + x114 + x224 <= 1
C1451: + x13 + x102 <= 1
C1452: + x196 + x288 <= 1
C1453: + x70 + x85 <= 1
C1454: + x341 + x363 <= 1
C1455: + x369 + x413 <= 1
C1456: + x23 + x362 <= 1
C1457: + x2 + x477 <= 1
C1458: + x56 + x130 <= 1
C1459: + x195 + x313 <= 1
C1460: + x340 + x472 <= 1
C1461: + x52 + x162 <= 1
C1462: + x8 + x291 <= 1
C1463: + x28 + x62 <= 1
C1464: + x11 + x96 <= 1
C1465: + x10 + x397 <= 1
C1466: + x37 + x414 <= 1
C1467: + x3 + x209 <= 1
C1468: + x5 + x42 <= 1
C1469: + x180 + x231 <= 1
C1470: + x16 + x90 <= 1
C1471: + x26 + x165 <= 1
C1472: + x85 + x288 <= 1
C1473: + x133 + x156 <= 1
C1474: + x52 + x207 <= 1
C1475: + x8 + x436 <= 1
C1476: + x141 + x204 <= 1
C1477: + x164 + x185 + x332 <= 1
C1478: + x15 + x100 <= 1
C1479: + x88 + x205 <= 1
C1480: + x82 + x142 <= 1
C1481: + x28 + x74 <= 1
C1482: + x192 + x288 <= 1
C1483: + x4 + x70 <= 1
C1484: + x477 + x497 <= 1
C1485: + x159 + x266 <= 1
C1486: + x15 + x19 <= 1
C1487: + x2 + x112 <= 1
C1488: + x43 + x495 <= 1
C1489: + x125 + x405 <= 1
C1490: + x35 + x452 <= 1
C1491: + x45 + x76 <= 1
C1492: + x11 + x248 <= 1
C1493: + x1 + x5 <= 1
C1494: + x20 + x216 <= 1
C1495: + x61 + x103 <= 1
C1496: + x6 + x489 <= 1
C1497: + x127 + x135 <= 1
C1498: + x38 + x448 <= 1
C1499: + x133 + x244 <= 1
C1500: + x15 + x95 <= 1
C1501: + x8 + x284 <= 1
C1502: + x63 + x394 <= 1
C1503: + x74 + x246 <= 1
C1504: + x295 + x310 <= 1
C1505: + x224 + x466 <= 1
C1506: + x24 + x277 <= 1
C1507: + x16 + x167 <= 1
C1508: + x144 + x414 <= 1
C1509: + x37 + x250 <= 1
C1510: + x82 + x313 <= 1
C1511: + x276 + x343 <= 1
C1512: + x4 + x62 <= 1
C1513: + x7 + x378 <= 1
C1514: + x29 + x143 <= 1
C1515: + x31 + x191 <= 1
C1516: + x208 + x262 <= 1
C1517: + x106 + x366 <= 1
C1518: + x15 + x107 <= 1
C1519: + x73 + x174 <= 1
C1520: + x280 + x427 <= 1
C1521: + x5 + x69 <= 1
C1522: + x23 + x304 <= 1
C1523: + x197 + x261 <= 1
C1524: + x27 + x234 <= 1
C1525: + x8 + x58 <= 1
C1526: + x319 + x492 <= 1
C1527: + x125 + x317 <= 1
C1528: + x108 + x356 <= 1
C1529: + x113 + x119 <= 1
C1530: + x51 + x212 <= 1
C1531: + x70 + x182 <= 1
C1532: + x151 + x190 <= 1
C1533: + x128 + x437 <= 1
C1534: + x356 + x475 <= 1
C1535: + x59 + x116 <= 1
C1536: + x43 + x490 <= 1
C1537: + x18 + x198 <= 1
C1538: + x192 + x201 <= 1
C1539: + x6 + x466 <= 1
C1540: + x212 + x252 <= 1
C1541: + x14 + x402 <= 1
C1542: + x83 + x212 <= 1
C1543: + x148 + x206 <= 1
C1544: + x225 + x383 <= 1
C1545: + x179 + x182 <= 1
C1546: + x116 + x139 <= 1
C1547: + x43 + x286 <= 1
C1548: + x151 + x416 <= 1
C1549: + x9 + x219 <= 1
C1550: + x187 + x271 <= 1
C1551: + x133 + x138 <= 1
C1552: + x61 + x178 <= 1
C1553: + x40 + x278 <= 1
C1554: + x46 + x111 <= 1
C1555: + x95 + x131 <= 1
C1556: + x6 + x57 <= 1
C1557: + x118 + x159 <= 1
C1558: + x8 + x148 <= 1
C1559: + x117 + x134 <= 1
C1560: + x111 + x259 <= 1
C1561: + x39 + x326 <= 1
C1562: + x14 + x471 <= 1
C1563: + x88 + x180 <= 1
C1564: + x95 + x207 <= 1
C1565: + x12 + x294 <= 1
C1566: + x168 + x252 <= 1
C1567: + x6 + x237 <= 1
C1568: + x224 + x276 <= 1
C1569: + x106 + x131 <= 1
C1570: + x59 + x480 <= 1
C1571: + x4 + x128 <= 1
C1572: + x32 + x247 <= 1
C1573: + x218 + x258 <= 1
C1574: + x8 + x491 <= 1
C1575: + x20 + x65 <= 1
C1576: + x157 + x494 <= 1
C1577: + x184 + x391 <= 1
C1578: + x43 + x100 <= 1
C1579: + x1 + x130 <= 1
C1580: + x93 + x243 <= 1
C1581: + x12 + x274 <= 1
C1582: + x22 + x59 <= 1
C1583: + x5 + x7 <= 1
C1584: + x116 + x148 <= 1
C1585: + x46 + x197 <= 1
C1586: + x29 + x157 <= 1
C1587: + x125 + x137 <= 1
C1588: + x35 + x184 <= 1
C1589: + x19 + x286 <= 1
C1590: + x248 + x353 <= 1
C1591: + x3 + x45 <= 1
C1592: + x112 + x371 <= 1
C1593: + x23 + x44 <= 1
C1594: + x17 + x431 <= 1
C1595: + x73 + x220 <= 1
C1596: + x144 + x166 <= 1
C1597: + x6 + x34 <= 1
C1598: + x112 + x210 <= 1
C1599: + x34 + x374 <= 1
C1600: + x43 + x134 <= 1
C1601: + x299 + x300 <= 1
C1602: + x12 + x41 <= 1
C1603: + x30 + x394 <= 1
C1604: + x106 + x489 <= 1
C1605: + x41 + x279 <= 1
C1606: + x45 + x327 <= 1
C1607: + x110 + x273 <= 1
C1608: + x137 + x192 <= 1
C1609: + x2 + x115 <= 1
C1610: + x130 + x166 <= 1
C1611: + x8 + x339 <= 1
C1612: + x238 + x295 <= 1
C1613: + x411 + x425 <= 1
C1614: + x39 + x59 <= 1
C1615: + x95 + x339 <= 1
C1616: + x125 + x180 <= 1
C1617: + x29 + x101 <= 1
C1618: + x3 + x20 <= 1
C1619: + x230 + x235 <= 1
C1620: + x30 + x353 <= 1
C1621: + x39 + x406 <= 1
C1622: + x161 + x242 <= 1
C1623: + x52 + x473 <= 1
C1624: + x443 + x448 <= 1
C1625: + x37 + x279 <= 1
C1626: + x339 + x418 <= 1
C1627: + x102 + x457 <= 1
C1628: + x77 + x227 <= 1
C1629: + x11 + x16 + x23 <= 1
C1630: + x211 + x272 <= 1
C1631: + x85 + x163 <= 1
C1632: + x223 + x483 <= 1
C1633: + x107 + x244 <= 1
C1634: + x53 + x76 <= 1
C1635: + x8 + x37 <= 1
C1636: + x185 + x196 <= 1
C1637: + x204 + x226 <= 1
C1638: + x17 + x53 <= 1
C1639: + x7 + x60 <= 1
C1640: + x46 + x480 <= 1
C1641: + x175 + x329 <= 1
C1642: + x217 + x341 <= 1
C1643: + x44 + x465 <= 1
C1644: + x10 + x28 <= 1
C1645: + x265 + x366 <= 1
C1646: + x237 + x309 <= 1
C1647: + x220 + x405 <= 1
C1648: + x23 + x220 <= 1
C1649: + x133 + x486 <= 1
C1650: + x16 + x22 <= 1
C1651: + x81 + x260 <= 1
C1652: + x208 + x214 <= 1
C1653: + x11 + x333 <= 1
C1654: + x21 + x65 <= 1
C1655: + x4 + x352 <= 1
C1656: + x6 + x112 <= 1
C1657: + x261 + x429 <= 1
C1658: + x8 + x203 <= 1
C1659: + x110 + x137 <= 1
C1660: + x2 + x8 <= 1
C1661: + x3 + x144 <= 1
C1662: + x133 + x373 <= 1
C1663: + x6 + x131 <= 1
C1664: + x211 + x376 <= 1
C1665: + x59 + x310 <= 1
C1666: + x4 + x26 <= 1
C1667: + x57 + x167 <= 1
C1668: + x392 + x423 <= 1
C1669: + x41 + x374 <= 1
C1670: + x23 + x38 <= 1
C1671: + x43 + x410 <= 1
C1672: + x71 + x100 <= 1
C1673: + x137 + x223 <= 1
C1674: + x135 + x442 <= 1
C1675: + x30 + x142 <= 1
C1676: + x368 + x403 <= 1
C1677: + x12 + x252 <= 1
C1678: + x6 + x183 <= 1
C1679: + x154 + x393 <= 1
C1680: + x191 + x243 <= 1
C1681: + x114 + x432 <= 1
C1682: + x5 + x299 <= 1
C1683: + x45 + x309 <= 1
C1684: + x200 + x385 <= 1
C1685: + x28 + x405 <= 1
C1686: + x366 + x484 <= 1
C1687: + x211 + x315 <= 1
C1688: + x240 + x300 <= 1
C1689: + x12 + x19 <= 1
C1690: + x204 + x282 <= 1
C1691: + x78 + x171 <= 1
C1692: + x92 + x216 <= 1
C1693: + x111 + x114 <= 1
C1694: + x126 + x372 <= 1
C1695: + x228 + x459 <= 1
C1696: + x65 + x500 <= 1
C1697: + x51 + x370 <= 1
C1698: + x31 + x343 <= 1
C1699: + x116 + x377 <= 1
C1700: + x204 + x342 <= 1
C1701: + x34 + x446 <= 1
C1702: + x6 + x29 <= 1
C1703: + x16 + x326 <= 1
C1704: + x31 + x45 <= 1
C1705: + x11 + x267 <= 1
C1706: + x34 + x47 <= 1
C1707: + x17 + x35 <= 1
C1708: + x37 + x46 <= 1
C1709: + x99 + x186 <= 1
C1710: + x48 + x113 <= 1
C1711: + x161 + x349 <= 1
C1712: + x18 + x70 <= 1
C1713: + x62 + x306 <= 1
C1714: + x8 + x463 <= 1
C1715: + x174 + x280 <= 1
C1716: + x39 + x137 <= 1
C1717: + x123 + x149 <= 1
C1718: + x93 + x215 <= 1
C1719: + x97 + x146 <= 1
C1720: + x34 + x454 <= 1
C1721: + x4 + x233 <= 1
C1722: + x15 + x283 <= 1
C1723: + x18 + x215 <= 1
C1724: + x6 + x245 <= 1
C1725: + x44 + x66 <= 1
C1726: + x9 + x254 <= 1
C1727: + x132 + x392 <= 1
C1728: + x24 + x89 <= 1
C1729: + x88 + x281 <= 1
C1730: + x16 + x48 <= 1
C1731: + x2 + x480 <= 1
C1732: + x366 + x418 <= 1
C1733: + x110 + x175 <= 1
C1734: + x119 + x124 <= 1
C1735: + x62 + x375 <= 1
C1736: + x8 + x20 <= 1
C1737: + x232 + x416 <= 1
C1738: + x13 + x492 <= 1
C1739: + x51 + x75 <= 1
C1740: + x13 + x329 <= 1
C1741: + x79 + x93 <= 1
C1742: + x65 + x310 <= 1
C1743: + x192 + x275 <= 1
C1744: + x5 + x83 <= 1
C1745: + x116 + x200 <= 1
C1746: + x253 + x285 <= 1
C1747: + x16 + x97 <= 1
C1748: + x72 + x136 <= 1
C1749: + x37 + x188 <= 1
C1750: + x80 + x289 <= 1
C1751: + x28 + x276 <= 1
C1752: + x12 + x472 <= 1
C1753: + x70 + x208 <= 1
C1754: + x7 + x89 <= 1
C1755: + x320 + x498 <= 1
C1756: + x318 + x345 <= 1
C1757: + x11 + x24 <= 1
C1758: + x71 + x153 <= 1
C1759: + x181 + x455 <= 1
C1760: + x2 + x424 <= 1
C1761: + x39 + x434 <= 1
C1762: + x4 + x210 <= 1
C1763: + x133 + x354 <= 1
C1764: + x141 + x482 <= 1
C1765: + x31 + x321 <= 1
C1766: + x5 + x468 <= 1
C1767: + x142 + x324 <= 1
C1768: + x3 + x12 <= 1
C1769: + x63 + x395 <= 1
C1770: + x30 + x153 <= 1
C1771: + x88 + x92 <= 1
C1772: + x15 + x298 <= 1
C1773: + x8 + x9 <= 1
C1774: + x22 + x314 <= 1
C1775: + x35 + x167 <= 1
C1776: + x73 + x78 <= 1
C1777: + x8 + x432 <= 1
C1778: + x30 + x266 <= 1
C1779: + x23 + x27 <= 1
C1780: + x216 + x329 <= 1
C1781: + x9 + x192 <= 1
C1782: + x29 + x291 <= 1
C1783: + x384 + x476 <= 1
C1784: + x4 + x74 <= 1
C1785: + x126 + x217 <= 1
C1786: + x99 + x346 <= 1
C1787: + x151 + x478 <= 1
C1788: + x8 + x61 <= 1
C1789: + x12 + x461 <= 1
C1790: + x11 + x31 <= 1
C1791: + x31 + x86 <= 1
C1792: + x43 + x491 <= 1
C1793: + x15 + x180 <= 1
C1794: + x238 + x475 <= 1
C1795: + x166 + x270 <= 1
C1796: + x58 + x474 <= 1
C1797: + x48 + x75 <= 1
C1798: + x4 + x457 <= 1
C1799: + x178 + x355 <= 1
C1800: + x155 + x492 <= 1
C1801: + x15 + x35 <= 1
C1802: + x155 + x269 <= 1
C1803: + x238 + x364 <= 1
C1804: + x3 + x168 <= 1
C1805: + x85 + x206 <= 1
C1806: + x142 + x462 <= 1
C1807: + x62 + x393 <= 1
C1808: + x228 + x430 <= 1
C1809: + x391 + x396 <= 1
C1810: + x59 + x286 <= 1
C1811: + x72 + x229 <= 1
C1812: + x332 + x380 <= 1
C1813: + x133 + x292 <= 1
C1814: + x157 + x186 <= 1
C1815: + x30 + x166 <= 1
C1816: + x86 + x270 <= 1
C1817: + x141 + x420 <= 1
C1818: + x52 + x73 <= 1
C1819: + x22 + x249 <= 1
C1820: + x29 + x95 <= 1
C1821: + x12 + x63 <= 1
C1822: + x81 + x132 <= 1
C1823: + x15 + x26 <= 1
C1824: + x89 + x196 <= 1
C1825: + x23 + x106 <= 1
C1826: + x6 + x240 <= 1
C1827: + x1 + x32 <= 1
C1828: + x300 + x463 <= 1
C1829: + x77 + x267 <= 1
C1830: + x4 + x123 <= 1
C1831: + x60 + x451 <= 1
C1832: + x12 + x144 <= 1
C1833: + x20 + x64 <= 1
C1834: + x185 + x436 <= 1
C1835: + x176 + x281 <= 1
C1836: + x14 + x398 <= 1
C1837: + x15 + x38 <= 1
C1838: + x4 + x365 <= 1
C1839: + x104 + x168 <= 1
C1840: + x87 + x102 <= 1
C1841: + x34 + x293 <= 1
C1842: + x137 + x404 <= 1
C1843: + x46 + x200 <= 1
C1844: + x51 + x147 <= 1
C1845: + x407 + x418 <= 1
C1846: + x184 + x346 <= 1
C1847: + x6 + x37 <= 1
C1848: + x11 + x178 <= 1
C1849: + x89 + x92 <= 1
C1850: + x153 + x262 <= 1
C1851: + x9 + x11 <= 1
C1852: + x102 + x340 <= 1
C1853: + x241 + x482 <= 1
C1854: + x29 + x86 <= 1
C1855: + x137 + x189 <= 1
C1856: + x356 + x456 <= 1
C1857: + x32 + x96 <= 1
C1858: + x44 + x487 <= 1
C1859: + x10 + x238 <= 1
C1860: + x37 + x296 <= 1
C1861: + x41 + x110 <= 1
C1862: + x112 + x153 <= 1
C1863: + x22 + x214 <= 1
C1864: + x25 + x157 <= 1
C1865: + x260 + x311 <= 1
C1866: + x125 + x177 <= 1
C1867: + x254 + x490 <= 1
C1868: + x133 + x238 <= 1
C1869: + x7 + x122 <= 1
C1870: + x163 + x398 <= 1
C1871: + x2 + x10 <= 1
C1872: + x45 + x384 <= 1
C1873: + x11 + x117 <= 1
C1874: + x103 + x142 <= 1
C1875: + x15 + x202 <= 1
C1876: + x102 + x361 <= 1
C1877: + x251 + x470 <= 1
C1878: + x40 + x271 <= 1
C1879: + x7 + x9 <= 1
C1880: + x129 + x181 <= 1
C1881: + x192 + x468 <= 1
C1882: + x21 + x320 <= 1
C1883: + x4 + x258 <= 1
C1884: + x177 + x292 <= 1
C1885: + x6 + x46 <= 1
C1886: + x88 + x216 <= 1
C1887: + x160 + x240 <= 1
C1888: + x210 + x387 <= 1
C1889: + x3 + x206 <= 1
C1890: + x105 + x233 <= 1
C1891: + x32 + x184 <= 1
C1892: + x14 + x361 <= 1
C1893: + x15 + x335 <= 1
C1894: + x71 + x348 <= 1
C1895: + x8 + x44 <= 1
C1896: + x213 + x306 <= 1
C1897: + x12 + x45 <= 1
C1898: + x42 + x173 <= 1
C1899: + x15 + x492 <= 1
C1900: + x7 + x69 <= 1
C1901: + x101 + x296 <= 1
C1902: + x11 + x12 <= 1
C1903: + x139 + x197 <= 1
C1904: + x356 + x461 <= 1
C1905: + x304 + x413 <= 1
C1906: + x14 + x146 <= 1
C1907: + x43 + x182 <= 1
C1908: + x10 + x370 <= 1
C1909: + x3 + x419 <= 1
C1910: + x89 + x321 <= 1
C1911: + x15 + x56 <= 1
C1912: + x6 + x99 <= 1
C1913: + x63 + x110 <= 1
C1914: + x134 + x207 <= 1
C1915: + x9 + x426 <= 1
C1916: + x46 + x93 <= 1
C1917: + x159 + x223 <= 1
C1918: + x89 + x415 <= 1
C1919: + x23 + x309 <= 1
C1920: + x79 + x402 <= 1
C1921: + x10 + x143 <= 1
C1922: + x30 + x84 <= 1
C1923: + x12 + x489 <= 1
C1924: + x4 + x408 <= 1
C1925: + x133 + x176 <= 1
C1926: + x5 + x304 <= 1
C1927: + x8 + x328 <= 1
C1928: + x10 + x490 <= 1
C1929: + x37 + x60 <= 1
C1930: + x147 + x219 <= 1
C1931: + x20 + x409 <= 1
C1932: + x402 + x469 <= 1
C1933: + x4 + x307 <= 1
C1934: + x17 + x342 <= 1
C1935: + x417 + x486 <= 1
C1936: + x23 + x115 <= 1
C1937: + x25 + x409 <= 1
C1938: + x12 + x179 <= 1
C1939: + x13 + x61 <= 1
C1940: + x150 + x462 <= 1
C1941: + x16 + x18 <= 1
C1942: + x21 + x77 <= 1
C1943: + x13 + x303 <= 1
C1944: + x71 + x172 <= 1
C1945: + x16 + x437 <= 1
C1946: + x5 + x241 <= 1
C1947: + x46 + x307 <= 1
C1948: + x58 + x450 <= 1
C1949: + x44 + x243 <= 1
C1950: + x208 + x230 <= 1
C1951: + x10 + x295 <= 1

binary
x1 x2 x3 x4 x5 x6 x7 x8 x9 x10 x11 x12 x13 x14 x15 x16 x17 x18 x19 x20 x21 x22 x23 x24 x25 x26 x27 x28 x29 x30 x31 x32 x33 x34 x35 x36 x37 x38 x39 x40 x41 x42 x43 x44 x45 x46 x47 x48 x49 x50 x51 x52 x53 x54 x55 x56 x57 x58 x59 x60 x61 x62 x63 x64 x65 x66 x67 x68 x69 x70 x71 x72 x73 x74 x75 x76 x77 x78 x79 x80 x81 x82 x83 x84 x85 x86 x87 x88 x89 x90 x91 x92 x93 x94 x95 x96 x97 x98 x99 x100 x101 x102 x103 x104 x105 x106 x107 x108 x109 x110 x111 x112 x113 x114 x115 x116 x117 x118 x119 x120 x121 x122 x123 x124 x125 x126 x127 x128 x129 x130 x131 x132 x133 x134 x135 x136 x137 x138 x139 x140 x141 x142 x143 x144 x145 x146 x147 x148 x149 x150 x151 x152 x153 x154 x155 x156 x157 x158 x159 x160 x161 x162 x163 x164 x165 x166 x167 x168 x169 x170 x171 x172 x173 x174 x175 x176 x177 x178 x179 x180 x181 x182 x183 x184 x185 x186 x187 x188 x189 x190 x191 x192 x193 x194 x195 x196 x197 x198 x199 x200 x201 x202 x203 x204 x205 x206 x207 x208 x209 x210 x211 x212 x213 x214 x215 x216 x217 x218 x219 x220 x221 x222 x223 x224 x225 x226 x227 x228 x229 x230 x231 x232 x233 x234 x235 x236 x237 x238 x239 x240 x241 x242 x243 x244 x245 x246 x247 x248 x249 x250 x251 x252 x253 x254 x255 x256 x257 x258 x259 x260 x261 x262 x263 x264 x265 x266 x267 x268 x269 x270 x271 x272 x273 x274 x275 x276 x277 x278 x279 x280 x281 x282 x283 x284 x285 x286 x287 x288 x289 x290 x291 x292 x293 x294 x295 x296 x297 x298 x299 x300 x301 x302 x303 x304 x305 x306 x307 x308 x309 x310 x311 x312 x313 x314 x315 x316 x317 x318 x319 x320 x321 x322 x323 x324 x325 x326 x327 x328 x329 x330 x331 x332 x333 x334 x335 x336 x337 x338 x339 x340 x341 x342 x343 x344 x345 x346 x347 x348 x349 x350 x351 x352 x353 x354 x355 x356 x357 x358 x359 x360 x361 x362 x363 x364 x365 x366 x367 x368 x369 x370 x371 x372 x373 x374 x375 x376 x377 x378 x379 x380 x381 x382 x383 x384 x385 x386 x387 x388 x389 x390 x391 x392 x393 x394 x395 x396 x397 x398 x399 x400 x401 x402 x403 x404 x405 x406 x407 x408 x409 x410 x411 x412 x413 x414 x415 x416 x417 x418 x419 x420 x421 x422 x423 x424 x425 x426 x427 x428 x429 x430 x431 x432 x433 x434 x435 x436 x437 x438 x439 x440 x441 x442 x443 x444 x445 x446 x447 x448 x449 x450 x451 x452 x453 x454 x455 x456 x457 x458 x459 x460 x461 x462 x463 x464 x465 x466 x467 x468 x469 x470 x471 x472 x473 x474 x475 x476 x477 x478 x479 x480 x481 x482 x483 x484 x485 x486 x487 x488 x489 x490 x491 x492 x493 x494 x495 x496 x497 x498 x499 x500
