maximize
OBJ: + 1 x1 + 1 x2 + 1 x3 + 1 x4 + 1 x5 + 1 x6 + 1 x7 + 1 x8 + 1 x9 + 1 x10 + 1 x11 + 1 x12 + 1 x13 + 1 x14 + 1 x15 + 1 x16 + 1 x17 + 1 x18 + 1 x19 + 1 x20 + 1 x21 + 1 x22 + 1 x23 + 1 x24 + 1 x25 + 1 x26 + 1 x27 + 1 x28 + 1 x29 + 1 x30 + 1 x31 + 1 x32 + 1 x33 + 1 x34 + 1 x35 + 1 x36 + 1 x37 + 1 x38 + 1 x39 + 1 x40 + 1 x41 + 1 x42 + 1 x43 + 1 x44 + 1 x45 + 1 x46 + 1 x47 + 1 x48 + 1 x49 + 1 x50 + 1 x51 + 1 x52 + 1 x53 + 1 x54 + 1 x55 + 1 x56 + 1 x57 + 1 x58 + 1 x59 + 1 x60 + 1 x61 + 1 x62 + 1 x63 + 1 x64 + 1 x65 + 1 x66 + 1 x67 + 1 x68 + 1 x69 + 1 x70 + 1 x71 + 1 x72 + 1 x73 + 1 x74 + 1 x75 + 1 x76 + 1 x77 + 1 x78 + 1 x79 + 1 x80 + 1 x81 + 1 x82 + 1 x83 + 1 x84 + 1 x85 + 1 x86 + 1 x87 + 1 x88 + 1 x89 + 1 x90 + 1 x91 + 1 x92 + 1 x93 + 1 x94 + 1 x95 + 1 x96 + 1 x97 + 1 x98 + 1 x99 + 1 x100 + 1 x101 + 1 x102 + 1 x103 + 1 x104 + 1 x105 + 1 x106 + 1 x107 + 1 x108 + 1 x109 + 1 x110 + 1 x111 + 1 x112 + 1 x113 + 1 x114 + 1 x115 + 1 x116 + 1 x117 + 1 x118 + 1 x119 + 1 x120 + 1 x121 + 1 x122 + 1 x123 + 1 x124 + 1 x125 + 1 x126 + 1 x127 + 1 x128 + 1 x129 + 1 x130 + 1 x131 + 1 x132 + 1 x133 + 1 x134 + 1 x135 + 1 x136 + 1 x137 + 1 x138 + 1 x139 + 1 x140 + 1 x141 + 1 x142 + 1 x143 + 1 x144 + 1 x145 + 1 x146 + 1 x147 + 1 x148 + 1 x149 + 1 x150 + 1 x151 + 1 x152 + 1 x153 + 1 x154 + 1 x155 + 1 x156 + 1 x157 + 1 x158 + 1 x159 + 1 x160 + 1 x161 + 1 x162 + 1 x163 + 1 x164 + 1 x165 + 1 x166 + 1 x167 + 1 x168 + 1 x169 + 1 x170 + 1 x171 + 1 x172 + 1 x173 + 1 x174 + 1 x175 + 1 x176 + 1 x177 + 1 x178 + 1 x179 + 1 x180 + 1 x181 + 1 x182 + 1 x183 + 1 x184 + 1 x185 + 1 x186 + 1 x187 + 1 x188 + 1 x189 + 1 x190 + 1 x191 + 1 x192 + 1 x193 + 1 x194 + 1 x195 + 1 x196 + 1 x197 + 1 x198 + 1 x199 + 1 x200 + 1 x201 + 1 x202 + 1 x203 + 1 x204 + 1 x205 + 1 x206 + 1 x207 + 1 x208 + 1 x209 + 1 x210 + 1 x211 + 1 x212 + 1 x213 + 1 x214 + 1 x215 + 1 x216 + 1 x217 + 1 x218 + 1 x219 + 1 x220 + 1 x221 + 1 x222 + 1 x223 + 1 x224 + 1 x225 + 1 x226 + 1 x227 + 1 x228 + 1 x229 + 1 x230 + 1 x231 + 1 x232 + 1 x233 + 1 x234 + 1 x235 + 1 x236 + 1 x237 + 1 x238 + 1 x239 + 1 x240 + 1 x241 + 1 x242 + 1 x243 + 1 x244 + 1 x245 + 1 x246 + 1 x247 + 1 x248 + 1 x249 + 1 x250 + 1 x251 + 1 x252 + 1 x253 + 1 x254 + 1 x255 + 1 x256 + 1 x257 + 1 x258 + 1 x259 + 1 x260 + 1 x261 + 1 x262 + 1 x263 + 1 x264 + 1 x265 + 1 x266 + 1 x267 + 1 x268 + 1 x269 + 1 x270 + 1 x271 + 1 x272 + 1 x273 + 1 x274 + 1 x275 + 1 x276 + 1 x277 + 1 x278 + 1 x279 + 1 x280 + 1 x281 + 1 x282 + 1 x283 + 1 x284 + 1 x285 + 1 x286 + 1 x287 + 1 x288 + 1 x289 + 1 x290 + 1 x291 + 1 x292 + 1 x293 + 1 x294 + 1 x295 + 1 x296 + 1 x297 + 1 x298 + 1 x299 + 1 x300 + 1 x301 + 1 x302 + 1 x303 + 1 x304 + 1 x305 + 1 x306 + 1 x307 + 1 x308 + 1 x309 + 1 x310 + 1 x311 + 1 x312 + 1 x313 + 1 x314 + 1 x315 + 1 x316 + 1 x317 + 1 x318 + 1 x319 + 1 x320 + 1 x321 + 1 x322 + 1 x323 + 1 x324 + 1 x325 + 1 x326 + 1 x327 + 1 x328 + 1 x329 + 1 x330 + 1 x331 + 1 x332 + 1 x333 + 1 x334 + 1 x335 + 1 x336 + 1 x337 + 1 x338 + 1 x339 + 1 x340 + 1 x341 + 1 x342 + 1 x343 + 1 x344 + 1 x345 + 1 x346 + 1 x347 + 1 x348 + 1 x349 + 1 x350 + 1 x351 + 1 x352 + 1 x353 + 1 x354 + 1 x355 + 1 x356 + 1 x357 + 1 x358 + 1 x359 + 1 x360 + 1 x361 + 1 x362 + 1 x363 + 1 x364 + 1 x365 + 1 x366 + 1 x367 + 1 x368 + 1 x369 + 1 x370 + 1 x371 + 1 x372 + 1 x373 + 1 x374 + 1 x375 + 1 x376 + 1 x377 + 1 x378 + 1 x379 + 1 x380 + 1 x381 + 1 x382 + 1 x383 + 1 x384 + 1 x385 + 1 x386 + 1 x387 + 1 x388 + 1 x389 + 1 x390 + 1 x391 + 1 x392 + 1 x393 + 1 x394 + 1 x395 + 1 x396 + 1 x397 + 1 x398 + 1 x399 + 1 x400 + 1 x401 + 1 x402 + 1 x403 + 1 x404 + 1 x405 + 1 x406 + 1 x407 + 1 x408 + 1 x409 + 1 x410 + 1 x411 + 1 x412 + 1 x413 + 1 x414 + 1 x415 + 1 x416 + 1 x417 + 1 x418 + 1 x419 + 1 x420 + 1 x421 + 1 x422 + 1 x423 + 1 x424 + 1 x425 + 1 x426 + 1 x427 + 1 x428 + 1 x429 + 1 x430 + 1 x431 + 1 x432 + 1 x433 + 1 x434 + 1 x435 + 1 x436 + 1 x437 + 1 x438 + 1 x439 + 1 x440 + 1 x441 + 1 x442 + 1 x443 + 1 x444 + 1 x445 + 1 x446 + 1 x447 + 1 x448 + 1 x449 + 1 x450 + 1 x451 + 1 x452 + 1 x453 + 1 x454 + 1 x455 + 1 x456 + 1 x457 + 1 x458 + 1 x459 + 1 x460 + 1 x461 + 1 x462 + 1 x463 + 1 x464 + 1 x465 + 1 x466 + 1 x467 + 1 x468 + 1 x469 + 1 x470 + 1 x471 + 1 x472 + 1 x473 + 1 x474 + 1 x475 + 1 x476 + 1 x477 + 1 x478 + 1 x479 + 1 x480 + 1 x481 + 1 x482 + 1 x483 + 1 x484 + 1 x485 + 1 x486 + 1 x487 + 1 x488 + 1 x489 + 1 x490 + 1 x491 + 1 x492 + 1 x493 + 1 x494 + 1 x495 + 1 x496 + 1 x497 + 1 x498 + 1 x499 + 1 x500

subject to
C1: + x7 + x168 <= 1
C2: + x219 + x418 <= 1
C3: + x101 + x148 <= 1
C4: + x264 + x269 <= 1
C5: + x205 + x392 <= 1
C6: + x23 + x155 <= 1
C7: + x17 + x131 <= 1
C8: + x7 + x55 <= 1
C9: + x175 + x344 <= 1
C10: + x60 + x132 <= 1
C11: + x99 + x187 <= 1
C12: + x15 + x151 <= 1
C13: + x2 + x228 <= 1
C14: + x38 + x171 <= 1
C15: + x126 + x202 <= 1
C16: + x9 + x108 <= 1
C17: + x27 + x158 <= 1
C18: + x231 + x342 <= 1
C19: + x271 + x379 <= 1
C20: + x19 + x500 <= 1
C21: + x212 + x430 <= 1
C22: + x50 + x59 <= 1
C23: + x68 + x81 <= 1
C24: + x56 + x450 <= 1
C25: + x35 + x463 <= 1
C26: + x108 + x269 <= 1
C27: + x167 + x205 <= 1
C28: + x9 + x251 <= 1
C29: + x151 + x281 <= 1
C30: + x27 + x162 <= 1
C31: + x58 + x294 <= 1
C32: + x67 + x246 <= 1
C33: + x3 + x54 <= 1
C34: + x176 + x257 <= 1
C35: + x150 + x254 <= 1
C36: + x92 + x232 <= 1
C37: + x46 + x445 <= 1
C38: + x29 + x277 <= 1
C39: + x5 + x36 <= 1
C40: + x15 + x19 + x45 <= 1
C41: + x8 + x23 <= 1
C42: + x391 + x411 <= 1
C43: + x310 + x456 <= 1
C44: + x17 + x39 <= 1
C45: + x151 + x341 <= 1
C46: + x66 + x215 <= 1
C47: + x11 + x37 <= 1
C48: + x6 + x205 <= 1
C49: + x18 + x159 <= 1
C50: + x88 + x449 <= 1
C51: + x18 + x58 <= 1
C52: + x29 + x78 <= 1
C53: + x86 + x466 <= 1
C54: + x122 + x305 <= 1
C55: + x112 + x302 <= 1
C56: + x6 + x332 <= 1
C57: + x143 + x468 <= 1
C58: + x29 + x253 <= 1
C59: + x169 + x416 <= 1
C60: + x51 + x178 <= 1
C61: + x18 + x118 <= 1
C62: + x71 + x309 <= 1
C63: + x136 + x198 <= 1
C64: + x129 + x145 <= 1
C65: + x49 + x315 <= 1
C66: + x57 + x185 <= 1
C67: + x1 + x428 <= 1
C68: + x25 + x34 <= 1
C69: + x16 + x335 <= 1
C70: + x10 + x71 <= 1
C71: + x116 + x192 <= 1
C72: + x26 + x172 <= 1
C73: + x227 + x308 <= 1
C74: + x101 + x103 <= 1
C75: + x64 + x115 <= 1
C76: + x194 + x248 <= 1
C77: + x305 + x394 <= 1
C78: + x83 + x461 <= 1
C79: + x20 + x158 <= 1
C80: + x21 + x22 <= 1
C81: + x35 + x172 <= 1
C82: + x71 + x225 <= 1
C83: + x200 + x371 <= 1
C84: + x5 + x261 <= 1
C85: + x80 + x192 <= 1
C86: + x3 + x65 <= 1
C87: + x64 + x365 <= 1
C88: + x234 + x236 <= 1
C89: + x65 + x266 <= 1
C90: + x13 + x42 <= 1
C91: + x11 + x358 <= 1
C92: + x58 + x364 <= 1
C93: + x29 + x69 <= 1
C94: + x50 + x53 <= 1
C95: + x421 + x444 <= 1
C96: + x32 + x109 <= 1
C97: + x260 + x425 <= 1
C98: + x1 + x6 <= 1
C99: + x66 + x458 <= 1
C100: + x3 + x314 <= 1
C101: + x4 + x113 <= 1
C102: + x32 + x351 <= 1
C103: + x27 + x180 <= 1
C104: + x10 + x346 <= 1
C105: + x3 + x8 <= 1
C106: + x68 + x240 <= 1
C107: + x18 + x266 <= 1
C108: + x280 + x466 <= 1
C109: + x21 + x192 <= 1
C110: + x5 + x18 <= 1
C111: + x81 + x99 <= 1
C112: + x12 + x66 <= 1
C113: + x21 + x29 <= 1
C114: + x320 + x406 <= 1
C115: + x15 + x108 <= 1
C116: + x45 + x451 <= 1
C117: + x8 + x150 <= 1
C118: + x11 + x140 <= 1
C119: + x92 + x130 <= 1
C120: + x72 + x470 <= 1
C121: + x369 + x480 <= 1
C122: + x190 + x224 <= 1
C123: + x29 + x68 <= 1
C124: + x21 + x97 <= 1
C125: + x67 + x322 <= 1
C126: + x302 + x337 <= 1
C127: + x279 + x307 <= 1
C128: + x2 + x445 <= 1
C129: + x138 + x224 <= 1
C130: + x15 + x184 <= 1
C131: + x245 + x284 <= 1
C132: + x76 + x392 <= 1
C133: + x31 + x251 <= 1
C134: + x5 + x455 <= 1
C135: + x316 + x495 <= 1
C136: + x290 + x344 <= 1
C137: + x65 + x122 <= 1
C138: + x211 + x249 <= 1
C139: + x411 + x471 <= 1
C140: + x3 + x31 <= 1
C141: + x88 + x138 <= 1
C142: + x200 + x468 <= 1
C143: + x219 + x390 <= 1
C144: + x10 + x446 <= 1
C145: + x58 + x79 <= 1
C146: + x368 + x435 <= 1
C147: + x6 + x354 <= 1
C148: + x27 + x46 <= 1
C149: + x88 + x412 <= 1
C150: + x76 + x500 <= 1
C151: + x40 + x202 <= 1
C152: + x150 + x378 <= 1
C153: + x15 + x466 <= 1
C154: + x7 + x19 <= 1
C155: + x19 + x292 <= 1
C156: + x57 + x147 <= 1
C157: + x111 + x401 <= 1
C158: + x82 + x84 <= 1
C159: + x70 + x301 <= 1
C160: + x6 + x40 <= 1
C161: + x8 + x147 <= 1
C162: + x54 + x393 <= 1
C163: + x3 + x248 <= 1
C164: + x217 + x473 <= 1
C165: + x25 + x206 <= 1
C166: + x11 + x280 <= 1
C167: + x56 + x220 <= 1
C168: + x95 + x474 <= 1
C169: + x47 + x245 <= 1
C170: + x17 + x456 <= 1
C171: + x144 + x205 <= 1
C172: + x7 + x317 <= 1
C173: + x1 + x20 <= 1
C174: + x72 + x263 <= 1
C175: + x8 + x71 <= 1
C176: + x43 + x208 <= 1
C177: + x62 + x301 <= 1
C178: + x47 + x374 <= 1
C179: + x192 + x483 <= 1
C180: + x17 + x273 <= 1
C181: + x35 + x84 <= 1
C182: + x240 + x484 <= 1
C183: + x31 + x355 <= 1
C184: + x85 + x395 <= 1
C185: + x101 + x342 <= 1
C186: + x105 + x230 <= 1
C187: + x169 + x251 <= 1
C188: + x9 + x15 <= 1
C189: + x8 + x47 <= 1
C190: + x80 + x316 <= 1
C191: + x29 + x82 <= 1
C192: + x285 + x287 <= 1
C193: + x77 + x124 <= 1
C194: + x22 + x284 <= 1
C195: + x169 + x493 <= 1
C196: + x62 + x338 <= 1
C197: + x82 + x486 <= 1
C198: + x17 + x63 <= 1
C199: + x11 + x13 <= 1
C200: + x136 + x360 <= 1
C201: + x184 + x362 <= 1
C202: + x276 + x417 <= 1
C203: + x9 + x123 <= 1
C204: + x45 + x215 <= 1
C205: + x67 + x209 <= 1
C206: + x3 + x17 <= 1
C207: + x37 + x435 <= 1
C208: + x3 + x182 <= 1
C209: + x5 + x15 <= 1
C210: + x14 + x230 <= 1
C211: + x174 + x189 <= 1
C212: + x127 + x357 <= 1
C213: + x3 + x37 <= 1
C214: + x145 + x236 <= 1
C215: + x54 + x411 <= 1
C216: + x11 + x165 <= 1
C217: + x175 + x223 <= 1
C218: + x60 + x281 <= 1
C219: + x34 + x177 <= 1
C220: + x71 + x352 <= 1
C221: + x64 + x91 <= 1
C222: + x29 + x169 <= 1
C223: + x44 + x181 <= 1
C224: + x49 + x335 <= 1
C225: + x27 + x115 <= 1
C226: + x122 + x177 <= 1
C227: + x276 + x426 <= 1
C228: + x4 + x109 <= 1
C229: + x296 + x464 <= 1
C230: + x59 + x495 <= 1
C231: + x35 + x243 <= 1
C232: + x16 + x21 <= 1
C233: + x19 + x345 <= 1
C234: + x240 + x385 <= 1
C235: + x45 + x371 <= 1
C236: + x164 + x275 <= 1
C237: + x438 + x454 <= 1
C238: + x5 + x246 <= 1
C239: + x99 + x249 <= 1
C240: + x207 + x405 <= 1
C241: + x154 + x324 <= 1
C242: + x70 + x375 <= 1
C243: + x31 + x156 <= 1
C244: + x60 + x417 <= 1
C245: + x125 + x160 <= 1
C246: + x44 + x242 <= 1
C247: + x10 + x290 <= 1
C248: + x47 + x159 <= 1
C249: + x60 + x179 <= 1
C250: + x16 + x384 <= 1
C251: + x8 + x250 <= 1
C252: + x11 + x176 <= 1
C253: + x29 + x259 <= 1
C254: + x231 + x442 <= 1
C255: + x21 + x168 <= 1
C256: + x43 + x316 <= 1
C257: + x19 + x160 <= 1
C258: + x8 + x29 <= 1
C259: + x3 + x358 <= 1
C260: + x68 + x306 <= 1
C261: + x50 + x239 <= 1
C262: + x3 + x116 <= 1
C263: + x22 + x385 <= 1
C264: + x16 + x255 <= 1
C265: + x27 + x126 <= 1
C266: + x100 + x203 <= 1
C267: + x148 + x380 <= 1
C268: + x12 + x183 <= 1
C269: + x68 + x479 <= 1
C270: + x5 + x110 <= 1
C271: + x5 + x443 <= 1
C272: + x24 + x143 <= 1
C273: + x6 + x309 <= 1
C274: + x7 + x451 <= 1
C275: + x66 + x74 <= 1
C276: + x12 + x22 <= 1
C277: + x31 + x453 <= 1
C278: + x43 + x94 <= 1
C279: + x6 + x88 <= 1
C280: + x71 + x176 <= 1
C281: + x16 + x433 <= 1
C282: + x137 + x304 <= 1
C283: + x66 + x352 <= 1
C284: + x20 + x361 <= 1
C285: + x46 + x396 <= 1
C286: + x183 + x389 <= 1
C287: + x4 + x372 <= 1
C288: + x82 + x219 <= 1
C289: + x191 + x453 <= 1
C290: + x83 + x310 <= 1
C291: + x73 + x242 <= 1
C292: + x19 + x118 <= 1
C293: + x40 + x67 <= 1
C294: + x5 + x33 <= 1
C295: + x35 + x49 <= 1
C296: + x12 + x95 <= 1
C297: + x7 + x43 <= 1
C298: + x11 + x58 <= 1
C299: + x3 + x75 <= 1
C300: + x184 + x373 <= 1
C301: + x32 + x55 <= 1
C302: + x18 + x154 <= 1
C303: + x8 + x171 <= 1
C304: + x32 + x214 <= 1
C305: + x32 + x289 <= 1
C306: + x20 + x96 <= 1
C307: + x4 + x333 <= 1
C308: + x8 + x365 <= 1
C309: + x75 + x273 <= 1
C310: + x11 + x465 <= 1
C311: + x13 + x135 <= 1
C312: + x14 + x17 <= 1
C313: + x135 + x282 <= 1
C314: + x11 + x207 <= 1
C315: + x242 + x346 <= 1
C316: + x17 + x111 <= 1
C317: + x317 + x456 <= 1
C318: + x329 + x337 <= 1
C319: + x46 + x75 <= 1
C320: + x105 + x421 <= 1
C321: + x8 + x289 <= 1
C322: + x101 + x330 <= 1
C323: + x191 + x464 <= 1
C324: + x88 + x94 <= 1
C325: + x9 + x43 <= 1
C326: + x113 + x130 <= 1
C327: + x161 + x486 <= 1
C328: + x17 + x27 <= 1
C329: + x346 + x373 <= 1
C330: + x64 + x213 <= 1
C331: + x11 + x33 <= 1
C332: + x5 + x191 <= 1
C333: + x279 + x438 <= 1
C334: + x344 + x378 <= 1
C335: + x229 + x392 <= 1
C336: + x165 + x200 <= 1
C337: + x4 + x68 <= 1
C338: + x312 + x440 <= 1
C339: + x78 + x92 <= 1
C340: + x259 + x363 <= 1
C341: + x209 + x279 <= 1
C342: + x129 + x299 <= 1
C343: + x58 + x117 <= 1
C344: + x354 + x449 <= 1
C345: + x15 + x170 <= 1
C346: + x285 + x422 <= 1
C347: + x4 + x16 <= 1
C348: + x18 + x106 <= 1
C349: + x7 + x489 <= 1
C350: + x3 + x9 <= 1
C351: + x194 + x398 <= 1
C352: + x68 + x235 <= 1
C353: + x159 + x312 <= 1
C354: + x44 + x260 <= 1
C355: + x145 + x216 <= 1
C356: + x39 + x57 + x299 <= 1
C357: + x93 + x227 <= 1
C358: + x5 + x23 <= 1
C359: + x6 + x161 <= 1
C360: + x99 + x218 <= 1
C361: + x8 + x12 <= 1
C362: + x64 + x127 <= 1
C363: + x166 + x376 <= 1
C364: + x11 + x318 <= 1
C365: + x124 + x196 <= 1
C366: + x163 + x465 <= 1
C367: + x11 + x415 <= 1
C368: + x339 + x439 <= 1
C369: + x357 + x487 <= 1
C370: + x86 + x161 <= 1
C371: + x42 + x48 <= 1
C372: + x23 + x28 <= 1
C373: + x6 + x50 <= 1
C374: + x5 + x166 <= 1
C375: + x27 + x87 <= 1
C376: + x309 + x322 <= 1
C377: + x8 + x153 <= 1
C378: + x9 + x161 <= 1
C379: + x40 + x450 <= 1
C380: + x133 + x475 <= 1
C381: + x111 + x374 <= 1
C382: + x67 + x323 <= 1
C383: + x20 + x110 <= 1
C384: + x176 + x463 <= 1
C385: + x43 + x55 <= 1
C386: + x1 + x312 <= 1
C387: + x266 + x494 <= 1
C388: + x431 + x491 <= 1
C389: + x23 + x88 <= 1
C390: + x13 + x26 <= 1
C391: + x124 + x308 <= 1
C392: + x141 + x410 <= 1
C393: + x17 + x93 <= 1
C394: + x223 + x312 <= 1
C395: + x60 + x116 <= 1
C396: + x102 + x277 <= 1
C397: + x157 + x405 <= 1
C398: + x62 + x122 <= 1
C399: + x155 + x270 <= 1
C400: + x148 + x204 <= 1
C401: + x21 + x188 <= 1
C402: + x13 + x233 <= 1
C403: + x277 + x497 <= 1
C404: + x23 + x164 <= 1
C405: + x100 + x154 <= 1
C406: + x137 + x494 <= 1
C407: + x243 + x358 <= 1
C408: + x79 + x275 <= 1
C409: + x80 + x129 <= 1
C410: + x10 + x266 <= 1
C411: + x3 + x88 <= 1
C412: + x30 + x258 <= 1
C413: + x31 + x402 <= 1
C414: + x217 + x313 <= 1
C415: + x95 + x157 <= 1
C416: + x22 + x421 <= 1
C417: + x10 + x64 <= 1
C418: + x88 + x467 <= 1
C419: + x18 + x48 <= 1
C420: + x471 + x479 <= 1
C421: + x149 + x493 <= 1
C422: + x106 + x482 <= 1
C423: + x52 + x231 <= 1
C424: + x345 + x413 <= 1
C425: + x22 + x278 <= 1
C426: + x5 + x308 <= 1
C427: + x55 + x114 <= 1
C428: + x7 + x76 <= 1
C429: + x66 + x241 <= 1
C430: + x5 + x209 <= 1
C431: + x246 + x416 <= 1
C432: + x193 + x262 <= 1
C433: + x197 + x310 <= 1
C434: + x307 + x310 <= 1
C435: + x54 + x243 <= 1
C436: + x336 + x433 <= 1
C437: + x94 + x401 <= 1
C438: + x120 + x360 <= 1
C439: + x35 + x327 <= 1
C440: + x8 + x272 <= 1
C441: + x113 + x330 <= 1
C442: + x354 + x431 <= 1
C443: + x2 + x339 <= 1
C444: + x323 + x484 <= 1
C445: + x14 + x286 <= 1
C446: + x7 + x23 <= 1
C447: + x1 + x458 <= 1
C448: + x4 + x7 + x8 <= 1
C449: + x67 + x239 <= 1
C450: + x95 + x136 <= 1
C451: + x27 + x89 <= 1
C452: + x127 + x202 <= 1
C453: + x249 + x326 <= 1
C454: + x320 + x496 <= 1
C455: + x86 + x489 <= 1
C456: + x13 + x454 <= 1
C457: + x16 + x414 <= 1
C458: + x335 + x411 <= 1
C459: + x136 + x160 <= 1
C460: + x95 + x180 <= 1
C461: + x40 + x44 <= 1
C462: + x7 + x240 <= 1
C463: + x262 + x419 <= 1
C464: + x62 + x454 <= 1
C465: + x109 + x247 <= 1
C466: + x218 + x490 <= 1
C467: + x107 + x191 <= 1
C468: + x32 + x329 <= 1
C469: + x5 + x125 <= 1
C470: + x18 + x93 <= 1
C471: + x127 + x182 <= 1
C472: + x263 + x295 <= 1
C473: + x390 + x492 <= 1
C474: + x113 + x484 <= 1
C475: + x23 + x24 + x321 <= 1
C476: + x40 + x441 <= 1
C477: + x96 + x304 <= 1
C478: + x44 + x375 <= 1
C479: + x51 + x60 <= 1
C480: + x232 + x249 <= 1
C481: + x20 + x346 <= 1
C482: + x175 + x272 <= 1
C483: + x12 + x277 <= 1
C484: + x15 + x207 <= 1
C485: + x17 + x218 <= 1
C486: + x150 + x399 <= 1
C487: + x7 + x10 <= 1
C488: + x80 + x151 <= 1
C489: + x9 + x420 <= 1
C490: + x29 + x63 <= 1
C491: + x5 + x147 <= 1
C492: + x74 + x215 <= 1
C493: + x211 + x274 <= 1
C494: + x56 + x394 <= 1
C495: + x276 + x473 <= 1
C496: + x30 + x183 <= 1
C497: + x81 + x470 <= 1
C498: + x29 + x174 <= 1
C499: + x3 + x368 <= 1
C500: + x12 + x499 <= 1
C501: + x106 + x468 <= 1
C502: + x39 + x173 <= 1
C503: + x168 + x265 <= 1
C504: + x137 + x165 <= 1
C505: + x65 + x221 <= 1
C506: + x3 + x126 <= 1
C507: + x51 + x420 <= 1
C508: + x143 + x436 <= 1
C509: + x8 + x188 <= 1
C510: + x56 + x94 <= 1
C511: + x48 + x97 <= 1
C512: + x22 + x222 <= 1
C513: + x260 + x319 <= 1
C514: + x197 + x241 <= 1
C515: + x10 + x369 <= 1
C516: + x249 + x281 <= 1
C517: + x39 + x153 <= 1
C518: + x30 + x473 <= 1
C519: + x15 + x53 <= 1
C520: + x71 + x178 <= 1
C521: + x69 + x382 <= 1
C522: + x32 + x140 <= 1
C523: + x14 + x226 <= 1
C524: + x15 + x267 <= 1
C525: + x108 + x203 <= 1
C526: + x292 + x471 <= 1
C527: + x3 + x339 <= 1
C528: + x43 + x265 <= 1
C529: + x210 + x362 <= 1
C530: + x170 + x292 <= 1
C531: + x17 + x126 <= 1
C532: + x16 + x480 <= 1
C533: + x66 + x144 <= 1
C534: + x33 + x49 <= 1
C535: + x4 + x165 <= 1
C536: + x14 + x353 <= 1
C537: + x148 + x266 <= 1
C538: + x32 + x426 <= 1
C539: + x80 + x164 <= 1
C540: + x182 + x477 <= 1
C541: + x57 + x294 <= 1
C542: + x39 + x470 <= 1
C543: + x372 + x400 <= 1
C544: + x7 + x291 <= 1
C545: + x12 + x182 <= 1
C546: + x61 + x475 <= 1
C547: + x53 + x101 <= 1
C548: + x201 + x251 <= 1
C549: + x46 + x161 <= 1
C550: + x20 + x86 <= 1
C551: + x14 + x440 <= 1
C552: + x137 + x152 <= 1
C553: + x8 + x194 <= 1
C554: + x137 + x301 <= 1
C555: + x5 + x242 <= 1
C556: + x6 + x345 <= 1
C557: + x81 + x408 <= 1
C558: + x202 + x350 <= 1
C559: + x20 + x195 <= 1
C560: + x4 + x29 <= 1
C561: + x69 + x87 <= 1
C562: + x207 + x239 <= 1
C563: + x244 + x302 <= 1
C564: + x191 + x357 <= 1
C565: + x17 + x117 <= 1
C566: + x16 + x37 <= 1
C567: + x58 + x215 <= 1
C568: + x109 + x355 <= 1
C569: + x291 + x327 <= 1
C570: + x383 + x496 <= 1
C571: + x6 + x178 <= 1
C572: + x6 + x269 <= 1
C573: + x80 + x278 <= 1
C574: + x8 + x25 <= 1
C575: + x101 + x114 <= 1
C576: + x68 + x137 <= 1
C577: + x174 + x393 <= 1
C578: + x125 + x461 <= 1
C579: + x207 + x472 <= 1
C580: + x320 + x364 <= 1
C581: + x39 + x42 <= 1
C582: + x179 + x196 <= 1
C583: + x32 + x296 <= 1
C584: + x90 + x293 <= 1
C585: + x473 + x477 <= 1
C586: + x5 + x423 <= 1
C587: + x339 + x345 <= 1
C588: + x56 + x247 <= 1
C589: + x33 + x115 <= 1
C590: + x133 + x220 <= 1
C591: + x18 + x483 <= 1
C592: + x38 + x315 <= 1
C593: + x39 + x441 <= 1
C594: + x31 + x102 <= 1
C595: + x83 + x415 <= 1
C596: + x47 + x73 <= 1
C597: + x4 + x6 <= 1
C598: + x60 + x446 <= 1
C599: + x6 + x485 <= 1
C600: + x85 + x420 <= 1
C601: + x197 + x464 <= 1
C602: + x6 + x8 <= 1
C603: + x54 + x489 <= 1
C604: + x21 + x171 <= 1
C605: + x86 + x298 <= 1
C606: + x8 + x18 <= 1
C607: + x122 + x214 <= 1
C608: + x4 + x389 <= 1
C609: + x17 + x40 <= 1
C610: + x6 + x425 <= 1
C611: + x54 + x175 <= 1
C612: + x58 + x172 <= 1
C613: + x113 + x433 <= 1
C614: + x140 + x197 <= 1
C615: + x107 + x114 <= 1
C616: + x35 + x499 <= 1
C617: + x8 + x167 <= 1
C618: + x249 + x302 <= 1
C619: + x42 + x179 <= 1
C620: + x315 + x369 <= 1
C621: + x66 + x226 <= 1
C622: + x149 + x238 <= 1
C623: + x39 + x436 <= 1
C624: + x279 + x387 <= 1
C625: + x11 + x203 <= 1
C626: + x3 + x320 <= 1
C627: + x148 + x337 <= 1
C628: + x277 + x384 <= 1
C629: + x283 + x443 <= 1
C630: + x24 + x88 <= 1
C631: + x38 + x122 <= 1
C632: + x3 + x14 <= 1
C633: + x414 + x494 <= 1
C634: + x5 + x375 <= 1
C635: + x63 + x116 <= 1
C636: + x10 + x70 <= 1
C637: + x3 + x175 <= 1
C638: + x5 + x44 <= 1
C639: + x188 + x343 <= 1
C640: + x133 + x428 <= 1
C641: + x15 + x247 <= 1
C642: + x12 + x76 <= 1
C643: + x53 + x195 <= 1
C644: + x215 + x325 <= 1
C645: + x7 + x195 <= 1
C646: + x27 + x415 <= 1
C647: + x109 + x210 <= 1
C648: + x254 + x291 <= 1
C649: + x15 + x376 <= 1
C650: + x36 + x156 <= 1
C651: + x127 + x217 <= 1
C652: + x29 + x70 <= 1
C653: + x322 + x387 <= 1
C654: + x167 + x403 <= 1
C655: + x17 + x459 <= 1
C656: + x410 + x448 <= 1
C657: + x256 + x325 <= 1
C658: + x3 + x150 <= 1
C659: + x32 + x112 <= 1
C660: + x215 + x273 <= 1
C661: + x5 + x239 <= 1
C662: + x134 + x399 <= 1
C663: + x66 + x457 <= 1
C664: + x20 + x35 + x61 <= 1
C665: + x13 + x31 <= 1
C666: + x81 + x282 <= 1
C667: + x82 + x430 <= 1
C668: + x6 + x471 <= 1
C669: + x320 + x417 <= 1
C670: + x142 + x383 <= 1
C671: + x22 + x468 <= 1
C672: + x6 + x10 <= 1
C673: + x11 + x69 <= 1
C674: + x50 + x488 <= 1
C675: + x32 + x148 <= 1
C676: + x15 + x250 <= 1
C677: + x35 + x95 <= 1
C678: + x109 + x186 <= 1
C679: + x30 + x55 <= 1
C680: + x12 + x65 <= 1
C681: + x33 + x204 <= 1
C682: + x21 + x30 <= 1
C683: + x56 + x173 <= 1
C684: + x6 + x62 <= 1
C685: + x16 + x283 <= 1
C686: + x8 + x149 <= 1
C687: + x19 + x24 <= 1
C688: + x4 + x77 <= 1
C689: + x15 + x383 <= 1
C690: + x236 + x297 <= 1
C691: + x7 + x428 <= 1
C692: + x57 + x124 <= 1
C693: + x58 + x372 <= 1
C694: + x12 + x61 <= 1
C695: + x11 + x28 <= 1
C696: + x77 + x172 <= 1
C697: + x4 + x222 <= 1
C698: + x148 + x351 <= 1
C699: + x150 + x437 <= 1
C700: + x53 + x141 <= 1
C701: + x15 + x395 <= 1
C702: + x65 + x123 <= 1
C703: + x5 + x357 <= 1
C704: + x88 + x137 <= 1
C705: + x169 + x201 <= 1
C706: + x5 + x26 <= 1
C707: + x44 + x111 <= 1
C708: + x6 + x353 <= 1
C709: + x15 + x310 <= 1
C710: + x35 + x90 <= 1
C711: + x103 + x370 <= 1
C712: + x12 + x122 <= 1
C713: + x128 + x149 <= 1
C714: + x31 + x377 <= 1
C715: + x21 + x37 <= 1
C716: + x187 + x212 <= 1
C717: + x20 + x410 <= 1
C718: + x55 + x58 <= 1
C719: + x34 + x408 <= 1
C720: + x71 + x125 <= 1
C721: + x18 + x36 <= 1
C722: + x8 + x49 <= 1
C723: + x17 + x57 <= 1
C724: + x7 + x80 <= 1
C725: + x173 + x279 <= 1
C726: + x200 + x408 <= 1
C727: + x232 + x367 <= 1
C728: + x14 + x56 <= 1
C729: + x32 + x94 <= 1
C730: + x43 + x479 <= 1
C731: + x73 + x344 <= 1
C732: + x1 + x21 <= 1
C733: + x57 + x498 <= 1
C734: + x3 + x265 <= 1
C735: + x37 + x155 <= 1
C736: + x3 + x23 <= 1
C737: + x30 + x451 <= 1
C738: + x5 + x356 <= 1
C739: + x72 + x407 <= 1
C740: + x185 + x278 <= 1
C741: + x103 + x144 <= 1
C742: + x22 + x57 <= 1
C743: + x105 + x315 <= 1
C744: + x125 + x377 <= 1
C745: + x11 + x300 <= 1
C746: + x150 + x386 <= 1
C747: + x6 + x397 <= 1
C748: + x96 + x436 <= 1
C749: + x1 + x462 <= 1
C750: + x12 + x353 <= 1
C751: + x101 + x343 <= 1
C752: + x55 + x263 <= 1
C753: + x30 + x186 <= 1
C754: + x188 + x330 <= 1
C755: + x5 + x386 <= 1
C756: + x273 + x301 <= 1
C757: + x74 + x456 <= 1
C758: + x472 + x474 <= 1
C759: + x224 + x232 <= 1
C760: + x17 + x64 <= 1
C761: + x75 + x305 <= 1
C762: + x11 + x14 <= 1
C763: + x232 + x360 <= 1
C764: + x34 + x485 <= 1
C765: + x35 + x491 <= 1
C766: + x5 + x220 <= 1
C767: + x34 + x139 <= 1
C768: + x218 + x265 <= 1
C769: + x20 + x76 <= 1
C770: + x207 + x370 <= 1
C771: + x3 + x179 <= 1
C772: + x5 + x16 <= 1
C773: + x207 + x403 <= 1
C774: + x113 + x162 <= 1
C775: + x68 + x288 <= 1
C776: + x4 + x19 <= 1
C777: + x259 + x311 <= 1
C778: + x97 + x401 <= 1
C779: + x225 + x492 <= 1
C780: + x7 + x14 <= 1
C781: + x212 + x216 <= 1
C782: + x244 + x255 <= 1
C783: + x65 + x279 <= 1
C784: + x8 + x132 <= 1
C785: + x5 + x52 <= 1
C786: + x61 + x396 <= 1
C787: + x99 + x384 <= 1
C788: + x16 + x68 <= 1
C789: + x19 + x166 <= 1
C790: + x29 + x170 <= 1
C791: + x386 + x400 <= 1
C792: + x87 + x340 <= 1
C793: + x206 + x490 <= 1
C794: + x9 + x134 <= 1
C795: + x7 + x304 <= 1
C796: + x202 + x365 <= 1
C797: + x265 + x368 <= 1
C798: + x39 + x52 <= 1
C799: + x210 + x434 <= 1
C800: + x296 + x463 <= 1
C801: + x35 + x244 <= 1
C802: + x80 + x344 <= 1
C803: + x7 + x457 <= 1
C804: + x121 + x157 <= 1
C805: + x11 + x331 <= 1
C806: + x12 + x32 <= 1
C807: + x16 + x24 <= 1
C808: + x173 + x313 <= 1
C809: + x10 + x472 <= 1
C810: + x69 + x378 <= 1
C811: + x14 + x30 <= 1
C812: + x10 + x198 <= 1
C813: + x39 + x240 <= 1
C814: + x22 + x174 <= 1
C815: + x52 + x54 <= 1
C816: + x18 + x390 <= 1
C817: + x164 + x483 <= 1
C818: + x106 + x336 <= 1
C819: + x151 + x237 <= 1
C820: + x10 + x388 <= 1
C821: + x135 + x448 <= 1
C822: + x201 + x470 <= 1
C823: + x94 + x99 + x121 <= 1
C824: + x184 + x202 <= 1
C825: + x126 + x333 <= 1
C826: + x345 + x356 <= 1
C827: + x99 + x206 <= 1
C828: + x9 + x62 <= 1
C829: + x11 + x258 <= 1
C830: + x50 + x347 <= 1
C831: + x44 + x173 <= 1
C832: + x62 + x198 <= 1
C833: + x8 + x323 <= 1
C834: + x6 + x419 <= 1
C835: + x102 + x127 <= 1
C836: + x325 + x418 <= 1
C837: + x18 + x434 <= 1
C838: + x164 + x303 <= 1
C839: + x275 + x289 <= 1
C840: + x4 + x314 <= 1
C841: + x100 + x206 <= 1
C842: + x111 + x133 <= 1
C843: + x21 + x245 <= 1
C844: + x4 + x85 <= 1
C845: + x442 + x487 <= 1
C846: + x68 + x450 <= 1
C847: + x197 + x252 <= 1
C848: + x126 + x204 <= 1
C849: + x32 + x315 <= 1
C850: + x66 + x73 <= 1
C851: + x15 + x359 <= 1
C852: + x107 + x378 <= 1
C853: + x232 + x235 <= 1
C854: + x5 + x345 <= 1
C855: + x164 + x283 <= 1
C856: + x15 + x274 <= 1
C857: + x18 + x212 <= 1
C858: + x56 + x107 <= 1
C859: + x15 + x435 <= 1
C860: + x8 + x392 <= 1
C861: + x20 + x38 <= 1
C862: + x49 + x253 <= 1
C863: + x21 + x459 <= 1
C864: + x139 + x144 <= 1
C865: + x10 + x96 <= 1
C866: + x3 + x217 <= 1
C867: + x205 + x445 <= 1
C868: + x6 + x190 <= 1
C869: + x53 + x92 <= 1
C870: + x16 + x82 <= 1
C871: + x298 + x397 <= 1
C872: + x8 + x21 <= 1
C873: + x166 + x325 <= 1
C874: + x135 + x340 <= 1
C875: + x41 + x270 <= 1
C876: + x5 + x276 <= 1
C877: + x12 + x324 <= 1
C878: + x18 + x153 <= 1
C879: + x309 + x381 <= 1
C880: + x75 + x92 <= 1
C881: + x57 + x398 <= 1
C882: + x369 + x432 <= 1
C883: + x13 + x49 <= 1
C884: + x44 + x51 <= 1
C885: + x45 + x189 <= 1
C886: + x135 + x144 <= 1
C887: + x43 + x70 <= 1
C888: + x163 + x404 <= 1
C889: + x400 + x419 <= 1
C890: + x57 + x381 <= 1
C891: + x37 + x425 <= 1
C892: + x140 + x192 <= 1
C893: + x44 + x68 <= 1
C894: + x7 + x342 <= 1
C895: + x202 + x331 <= 1
C896: + x449 + x487 <= 1
C897: + x94 + x354 <= 1
C898: + x95 + x370 <= 1
C899: + x115 + x167 <= 1
C900: + x40 + x305 <= 1
C901: + x298 + x357 <= 1
C902: + x99 + x410 <= 1
C903: + x200 + x317 <= 1
C904: + x1 + x426 <= 1
C905: + x20 + x43 <= 1
C906: + x3 + x15 <= 1
C907: + x58 + x297 <= 1
C908: + x17 + x397 <= 1
C909: + x28 + x59 <= 1
C910: + x2 + x36 <= 1
C911: + x3 + x212 <= 1
C912: + x40 + x123 <= 1
C913: + x5 + x41 <= 1
C914: + x81 + x106 <= 1
C915: + x3 + x373 <= 1
C916: + x30 + x33 <= 1
C917: + x4 + x54 <= 1
C918: + x5 + x283 <= 1
C919: + x129 + x288 <= 1
C920: + x192 + x442 <= 1
C921: + x12 + x377 <= 1
C922: + x106 + x358 <= 1
C923: + x27 + x404 <= 1
C924: + x18 + x146 <= 1
C925: + x137 + x336 <= 1
C926: + x125 + x293 <= 1
C927: + x17 + x171 <= 1
C928: + x102 + x295 <= 1
C929: + x47 + x229 <= 1
C930: + x52 + x156 <= 1
C931: + x398 + x444 <= 1
C932: + x1 + x306 <= 1
C933: + x181 + x449 <= 1
C934: + x46 + x50 <= 1
C935: + x66 + x230 <= 1
C936: + x319 + x349 <= 1
C937: + x33 + x491 <= 1
C938: + x52 + x311 <= 1
C939: + x279 + x391 <= 1
C940: + x63 + x314 <= 1
C941: + x84 + x98 <= 1
C942: + x77 + x279 <= 1
C943: + x13 + x100 <= 1
C944: + x341 + x369 <= 1
C945: + x4 + x15 <= 1
C946: + x3 + x10 <= 1
C947: + x394 + x400 <= 1
C948: + x12 + x225 <= 1
C949: + x5 + x24 <= 1
C950: + x345 + x377 <= 1
C951: + x8 + x11 <= 1
C952: + x50 + x334 <= 1
C953: + x106 + x121 <= 1
C954: + x168 + x297 <= 1
C955: + x342 + x435 <= 1
C956: + x57 + x138 <= 1
C957: + x139 + x230 <= 1
C958: + x7 + x268 <= 1
C959: + x66 + x433 <= 1
C960: + x269 + x372 <= 1
C961: + x6 + x303 <= 1
C962: + x16 + x108 <= 1
C963: + x29 + x66 <= 1
C964: + x12 + x60 <= 1
C965: + x41 + x296 <= 1
C966: + x31 + x319 <= 1
C967: + x272 + x496 <= 1
C968: + x148 + x255 <= 1
C969: + x39 + x431 <= 1
C970: + x116 + x128 <= 1
C971: + x35 + x478 <= 1
C972: + x80 + x110 <= 1
C973: + x16 + x153 <= 1
C974: + x19 + x205 <= 1
C975: + x12 + x137 <= 1
C976: + x4 + x120 <= 1
C977: + x4 + x459 <= 1
C978: + x43 + x199 <= 1
C979: + x18 + x98 <= 1
C980: + x73 + x395 <= 1
C981: + x65 + x104 <= 1
C982: + x20 + x57 <= 1
C983: + x68 + x211 <= 1
C984: + x13 + x261 <= 1
C985: + x91 + x146 <= 1
C986: + x63 + x127 <= 1
C987: + x35 + x402 <= 1
C988: + x38 + x256 <= 1
C989: + x39 + x200 <= 1
C990: + x122 + x236 <= 1
C991: + x29 + x42 <= 1
C992: + x12 + x375 <= 1
C993: + x17 + x439 <= 1
C994: + x72 + x465 <= 1
C995: + x11 + x181 <= 1
C996: + x21 + x137 <= 1
C997: + x106 + x243 <= 1
C998: + x5 + x67 <= 1
C999: + x5 + x416 <= 1
C1000: + x90 + x260 <= 1
C1001: + x15 + x323 <= 1
C1002: + x72 + x376 <= 1
C1003: + x289 + x425 <= 1
C1004: + x203 + x227 <= 1
C1005: + x7 + x73 <= 1
C1006: + x57 + x221 <= 1
C1007: + x129 + x245 <= 1
C1008: + x3 + x105 <= 1
C1009: + x29 + x427 <= 1
C1010: + x86 + x253 <= 1
C1011: + x5 + x210 <= 1
C1012: + x44 + x484 <= 1
C1013: + x100 + x287 <= 1
C1014: + x27 + x99 <= 1
C1015: + x15 + x185 <= 1
C1016: + x17 + x355 <= 1
C1017: + x49 + x60 <= 1
C1018: + x91 + x291 <= 1
C1019: + x6 + x476 <= 1
C1020: + x165 + x288 <= 1
C1021: + x47 + x195 <= 1
C1022: + x34 + x96 <= 1
C1023: + x9 + x303 <= 1
C1024: + x72 + x79 <= 1
C1025: + x137 + x313 <= 1
C1026: + x58 + x82 <= 1
C1027: + x40 + x98 <= 1
C1028: + x363 + x401 <= 1
C1029: + x4 + x142 <= 1
C1030: + x28 + x173 <= 1
C1031: + x156 + x404 <= 1
C1032: + x113 + x184 <= 1
C1033: + x21 + x33 <= 1
C1034: + x33 + x199 <= 1
C1035: + x81 + x321 <= 1
C1036: + x62 + x227 <= 1
C1037: + x390 + x406 <= 1
C1038: + x166 + x476 <= 1
C1039: + x3 + x48 <= 1
C1040: + x141 + x248 <= 1
C1041: + x15 + x120 <= 1
C1042: + x292 + x441 <= 1
C1043: + x301 + x406 <= 1
C1044: + x116 + x221 <= 1
C1045: + x9 + x13 <= 1
C1046: + x8 + x45 <= 1
C1047: + x18 + x40 <= 1
C1048: + x320 + x495 <= 1
C1049: + x19 + x176 <= 1
C1050: + x30 + x395 <= 1
C1051: + x208 + x349 <= 1
C1052: + x57 + x281 <= 1
C1053: + x47 + x105 <= 1
C1054: + x50 + x389 <= 1
C1055: + x3 + x261 <= 1
C1056: + x161 + x311 <= 1
C1057: + x3 + x19 <= 1
C1058: + x168 + x327 <= 1
C1059: + x6 + x104 <= 1
C1060: + x5 + x368 <= 1
C1061: + x8 + x264 <= 1
C1062: + x8 + x211 <= 1
C1063: + x66 + x336 <= 1
C1064: + x406 + x472 <= 1
C1065: + x34 + x81 <= 1
C1066: + x169 + x180 <= 1
C1067: + x5 + x13 <= 1
C1068: + x6 + x155 <= 1
C1069: + x88 + x432 <= 1
C1070: + x42 + x497 <= 1
C1071: + x172 + x175 <= 1
C1072: + x13 + x125 <= 1
C1073: + x72 + x213 <= 1
C1074: + x81 + x229 <= 1
C1075: + x346 + x499 <= 1
C1076: + x292 + x418 <= 1
C1077: + x197 + x206 <= 1
C1078: + x17 + x151 <= 1
C1079: + x8 + x38 <= 1
C1080: + x29 + x175 <= 1
C1081: + x68 + x158 <= 1
C1082: + x25 + x119 <= 1
C1083: + x133 + x163 <= 1
C1084: + x80 + x166 <= 1
C1085: + x243 + x329 <= 1
C1086: + x244 + x363 <= 1
C1087: + x15 + x139 <= 1
C1088: + x236 + x428 <= 1
C1089: + x2 + x152 <= 1
C1090: + x378 + x486 <= 1
C1091: + x17 + x67 <= 1
C1092: + x53 + x159 <= 1
C1093: + x128 + x306 <= 1
C1094: + x302 + x370 <= 1
C1095: + x294 + x341 <= 1
C1096: + x240 + x391 <= 1
C1097: + x12 + x27 <= 1
C1098: + x33 + x102 <= 1
C1099: + x7 + x119 <= 1
C1100: + x28 + x32 <= 1
C1101: + x58 + x100 <= 1
C1102: + x169 + x187 <= 1
C1103: + x197 + x332 <= 1
C1104: + x5 + x12 <= 1
C1105: + x45 + x99 <= 1
C1106: + x458 + x495 <= 1
C1107: + x200 + x334 <= 1
C1108: + x70 + x282 <= 1
C1109: + x168 + x180 <= 1
C1110: + x16 + x382 <= 1
C1111: + x44 + x283 <= 1
C1112: + x13 + x17 + x348 <= 1
C1113: + x148 + x174 <= 1
C1114: + x132 + x296 <= 1
C1115: + x5 + x64 <= 1
C1116: + x17 + x142 <= 1
C1117: + x289 + x446 <= 1
C1118: + x94 + x295 <= 1
C1119: + x39 + x165 <= 1
C1120: + x5 + x298 <= 1
C1121: + x66 + x219 <= 1
C1122: + x203 + x270 <= 1
C1123: + x56 + x311 <= 1
C1124: + x5 + x207 <= 1
C1125: + x32 + x80 <= 1
C1126: + x9 + x373 <= 1
C1127: + x11 + x150 <= 1
C1128: + x12 + x181 <= 1
C1129: + x72 + x151 <= 1
C1130: + x12 + x20 <= 1
C1131: + x96 + x285 <= 1
C1132: + x5 + x350 <= 1
C1133: + x3 + x138 <= 1
C1134: + x225 + x282 <= 1
C1135: + x74 + x394 <= 1
C1136: + x86 + x447 <= 1
C1137: + x9 + x83 <= 1
C1138: + x37 + x121 <= 1
C1139: + x13 + x285 <= 1
C1140: + x341 + x453 <= 1
C1141: + x117 + x399 <= 1
C1142: + x16 + x379 <= 1
C1143: + x406 + x430 <= 1
C1144: + x102 + x234 <= 1
C1145: + x105 + x217 <= 1
C1146: + x5 + x39 <= 1
C1147: + x17 + x320 <= 1
C1148: + x35 + x51 <= 1
C1149: + x200 + x220 <= 1
C1150: + x21 + x447 <= 1
C1151: + x259 + x322 <= 1
C1152: + x37 + x45 <= 1
C1153: + x183 + x467 <= 1
C1154: + x5 + x182 <= 1
C1155: + x96 + x245 <= 1
C1156: + x27 + x71 <= 1
C1157: + x8 + x169 <= 1
C1158: + x11 + x157 <= 1
C1159: + x280 + x409 <= 1
C1160: + x70 + x490 <= 1
C1161: + x15 + x363 <= 1
C1162: + x66 + x77 <= 1
C1163: + x5 + x325 <= 1
C1164: + x6 + x83 <= 1
C1165: + x137 + x160 <= 1
C1166: + x46 + x391 <= 1
C1167: + x87 + x136 <= 1
C1168: + x90 + x226 <= 1
C1169: + x17 + x208 <= 1
C1170: + x5 + x250 <= 1
C1171: + x54 + x327 <= 1
C1172: + x4 + x5 <= 1
C1173: + x60 + x100 <= 1
C1174: + x196 + x284 <= 1
C1175: + x70 + x105 <= 1
C1176: + x53 + x177 <= 1
C1177: + x11 + x422 <= 1
C1178: + x68 + x228 <= 1
C1179: + x52 + x350 <= 1
C1180: + x6 + x7 <= 1
C1181: + x11 + x84 <= 1
C1182: + x39 + x118 <= 1
C1183: + x167 + x191 <= 1
C1184: + x5 + x46 <= 1
C1185: + x285 + x452 <= 1
C1186: + x33 + x429 <= 1
C1187: + x197 + x366 <= 1
C1188: + x345 + x367 <= 1
C1189: + x98 + x481 <= 1
C1190: + x17 + x25 <= 1
C1191: + x16 + x497 <= 1
C1192: + x6 + x203 <= 1
C1193: + x10 + x16 <= 1
C1194: + x233 + x268 <= 1
C1195: + x22 + x248 <= 1
C1196: + x52 + x389 <= 1
C1197: + x329 + x362 <= 1
C1198: + x38 + x53 <= 1
C1199: + x50 + x260 <= 1
C1200: + x33 + x139 <= 1
C1201: + x247 + x290 <= 1
C1202: + x5 + x225 <= 1
C1203: + x260 + x422 <= 1
C1204: + x283 + x444 <= 1
C1205: + x31 + x143 <= 1
C1206: + x61 + x107 <= 1
C1207: + x24 + x87 <= 1
C1208: + x70 + x82 <= 1
C1209: + x57 + x187 <= 1
C1210: + x400 + x480 <= 1
C1211: + x130 + x208 <= 1
C1212: + x75 + x313 <= 1
C1213: + x23 + x458 <= 1
C1214: + x6 + x16 <= 1
C1215: + x81 + x193 <= 1
C1216: + x10 + x69 <= 1
C1217: + x5 + x21 <= 1
C1218: + x10 + x168 <= 1
C1219: + x3 + x369 <= 1
C1220: + x13 + x85 <= 1
C1221: + x179 + x429 <= 1
C1222: + x5 + x263 <= 1
C1223: + x24 + x43 <= 1
C1224: + x66 + x174 <= 1
C1225: + x195 + x460 <= 1
C1226: + x25 + x496 <= 1
C1227: + x6 + x52 <= 1
C1228: + x32 + x59 <= 1
C1229: + x29 + x290 <= 1
C1230: + x194 + x359 <= 1
C1231: + x76 + x85 <= 1
C1232: + x4 + x71 <= 1
C1233: + x89 + x386 <= 1
C1234: + x205 + x364 <= 1
C1235: + x27 + x238 <= 1
C1236: + x37 + x162 <= 1
C1237: + x20 + x108 <= 1
C1238: + x248 + x264 <= 1
C1239: + x258 + x384 <= 1
C1240: + x30 + x113 <= 1
C1241: + x6 + x69 <= 1
C1242: + x207 + x338 <= 1
C1243: + x32 + x111 <= 1
C1244: + x80 + x480 <= 1
C1245: + x137 + x448 <= 1
C1246: + x22 + x197 <= 1
C1247: + x50 + x188 <= 1
C1248: + x42 + x103 <= 1
C1249: + x6 + x9 <= 1
C1250: + x10 + x78 <= 1
C1251: + x25 + x328 <= 1
C1252: + x14 + x249 <= 1
C1253: + x6 + x359 <= 1
C1254: + x45 + x123 <= 1
C1255: + x17 + x234 <= 1
C1256: + x4 + x63 <= 1
C1257: + x24 + x36 <= 1
C1258: + x27 + x326 <= 1
C1259: + x66 + x167 <= 1
C1260: + x320 + x408 <= 1
C1261: + x3 + x90 <= 1
C1262: + x29 + x412 <= 1
C1263: + x13 + x382 <= 1
C1264: + x215 + x349 <= 1
C1265: + x35 + x262 <= 1
C1266: + x10 + x58 <= 1
C1267: + x8 + x152 <= 1
C1268: + x166 + x196 <= 1
C1269: + x12 + x209 <= 1
C1270: + x140 + x337 <= 1
C1271: + x21 + x142 <= 1
C1272: + x32 + x286 <= 1
C1273: + x5 + x72 <= 1
C1274: + x5 + x413 <= 1
C1275: + x312 + x396 <= 1
C1276: + x187 + x343 <= 1
C1277: + x14 + x475 <= 1
C1278: + x7 + x86 <= 1
C1279: + x11 + x25 <= 1
C1280: + x58 + x129 <= 1
C1281: + x13 + x178 <= 1
C1282: + x27 + x104 <= 1
C1283: + x213 + x402 <= 1
C1284: + x212 + x308 <= 1
C1285: + x39 + x318 <= 1
C1286: + x107 + x424 <= 1
C1287: + x53 + x291 <= 1
C1288: + x23 + x476 <= 1
C1289: + x6 + x114 <= 1
C1290: + x8 + x217 <= 1
C1291: + x11 + x77 <= 1
C1292: + x125 + x355 <= 1
C1293: + x6 + x149 <= 1
C1294: + x8 + x128 <= 1
C1295: + x183 + x286 <= 1
C1296: + x242 + x443 <= 1
C1297: + x4 + x40 <= 1
C1298: + x312 + x461 <= 1
C1299: + x108 + x461 <= 1
C1300: + x27 + x333 <= 1
C1301: + x76 + x232 <= 1
C1302: + x67 + x145 <= 1
C1303: + x6 + x38 <= 1
C1304: + x81 + x235 <= 1
C1305: + x27 + x91 <= 1
C1306: + x7 + x263 <= 1
C1307: + x44 + x300 <= 1
C1308: + x343 + x409 <= 1
C1309: + x213 + x469 <= 1
C1310: + x334 + x380 <= 1
C1311: + x29 + x85 <= 1
C1312: + x169 + x488 <= 1
C1313: + x173 + x280 <= 1
C1314: + x37 + x450 <= 1
C1315: + x154 + x300 <= 1
C1316: + x72 + x257 <= 1
C1317: + x93 + x95 <= 1
C1318: + x99 + x447 <= 1
C1319: + x27 + x132 <= 1
C1320: + x327 + x481 <= 1
C1321: + x57 + x80 <= 1
C1322: + x3 + x427 <= 1
C1323: + x39 + x309 <= 1
C1324: + x104 + x383 <= 1
C1325: + x155 + x274 <= 1
C1326: + x8 + x210 <= 1
C1327: + x66 + x331 <= 1
C1328: + x104 + x222 <= 1
C1329: + x81 + x83 <= 1
C1330: + x117 + x252 <= 1
C1331: + x15 + x318 <= 1
C1332: + x88 + x403 <= 1
C1333: + x222 + x328 <= 1
C1334: + x89 + x488 <= 1
C1335: + x23 + x334 <= 1
C1336: + x5 + x500 <= 1
C1337: + x83 + x89 <= 1
C1338: + x11 + x398 <= 1
C1339: + x3 + x44 <= 1
C1340: + x56 + x361 <= 1
C1341: + x4 + x287 <= 1
C1342: + x6 + x47 <= 1
C1343: + x122 + x354 <= 1
C1344: + x175 + x214 <= 1
C1345: + x217 + x418 <= 1
C1346: + x26 + x201 <= 1
C1347: + x82 + x476 <= 1
C1348: + x392 + x451 <= 1
C1349: + x21 + x113 <= 1
C1350: + x213 + x238 <= 1
C1351: + x4 + x432 <= 1
C1352: + x5 + x296 <= 1
C1353: + x177 + x434 <= 1
C1354: + x173 + x271 <= 1
C1355: + x3 + x128 <= 1
C1356: + x86 + x130 <= 1
C1357: + x31 + x74 <= 1
C1358: + x12 + x352 <= 1
C1359: + x43 + x455 <= 1
C1360: + x16 + x320 <= 1
C1361: + x8 + x186 <= 1
C1362: + x10 + x371 <= 1
C1363: + x139 + x286 <= 1
C1364: + x56 + x231 <= 1
C1365: + x3 + x422 <= 1
C1366: + x21 + x498 <= 1
C1367: + x4 + x348 <= 1
C1368: + x25 + x64 <= 1
C1369: + x246 + x277 <= 1
C1370: + x129 + x321 <= 1
C1371: + x11 + x127 <= 1
C1372: + x212 + x413 <= 1
C1373: + x4 + x247 <= 1
C1374: + x5 + x9 <= 1
C1375: + x34 + x312 <= 1
C1376: + x72 + x302 <= 1
C1377: + x20 + x188 <= 1
C1378: + x12 + x119 <= 1
C1379: + x4 + x22 <= 1
C1380: + x54 + x139 <= 1
C1381: + x3 + x35 <= 1
C1382: + x243 + x246 <= 1
C1383: + x71 + x112 <= 1
C1384: + x8 + x131 <= 1
C1385: + x94 + x135 <= 1
C1386: + x197 + x381 <= 1
C1387: + x219 + x379 <= 1
C1388: + x144 + x442 <= 1
C1389: + x8 + x34 <= 1
C1390: + x11 + x264 <= 1
C1391: + x21 + x437 <= 1
C1392: + x303 + x442 <= 1
C1393: + x9 + x405 <= 1
C1394: + x37 + x59 <= 1
C1395: + x193 + x460 <= 1
C1396: + x75 + x246 <= 1
C1397: + x3 + x119 <= 1
C1398: + x69 + x183 <= 1
C1399: + x252 + x255 <= 1
C1400: + x215 + x318 <= 1
C1401: + x417 + x485 <= 1
C1402: + x16 + x244 <= 1
C1403: + x58 + x156 <= 1
C1404: + x111 + x131 <= 1
C1405: + x56 + x89 <= 1
C1406: + x22 + x390 <= 1
C1407: + x24 + x354 <= 1
C1408: + x10 + x25 <= 1
C1409: + x168 + x405 <= 1
C1410: + x83 + x374 <= 1
C1411: + x230 + x483 <= 1
C1412: + x63 + x187 <= 1
C1413: + x102 + x267 <= 1
C1414: + x20 + x84 <= 1
C1415: + x86 + x124 <= 1
C1416: + x6 + x109 <= 1
C1417: + x24 + x471 <= 1
C1418: + x2 + x5 <= 1
C1419: + x39 + x388 <= 1
C1420: + x4 + x256 <= 1
C1421: + x265 + x349 <= 1
C1422: + x276 + x376 <= 1
C1423: + x13 + x120 <= 1
C1424: + x4 + x27 <= 1
C1425: + x125 + x154 <= 1
C1426: + x34 + x223 <= 1
C1427: + x34 + x50 + x423 <= 1
C1428: + x57 + x170 <= 1
C1429: + x156 + x257 <= 1
C1430: + x197 + x455 <= 1
C1431: + x6 + x17 <= 1
C1432: + x81 + x224 <= 1
C1433: + x177 + x190 <= 1
C1434: + x69 + x303 <= 1
C1435: + x215 + x454 <= 1
C1436: + x22 + x30 <= 1
C1437: + x17 + x130 <= 1
C1438: + x276 + x324 <= 1
C1439: + x17 + x47 <= 1
C1440: + x58 + x81 + x356 <= 1
C1441: + x121 + x491 <= 1
C1442: + x106 + x126 + x164 <= 1
C1443: + x20 + x254 <= 1
C1444: + x33 + x367 <= 1
C1445: + x44 + x61 <= 1
C1446: + x16 + x32 <= 1
C1447: + x156 + x462 <= 1
C1448: + x52 + x141 <= 1
C1449: + x18 + x493 <= 1
C1450: + x183 + x492 <= 1
C1451: + x46 + x63 <= 1
C1452: + x264 + x343 <= 1
C1453: + x51 + x396 <= 1
C1454: + x100 + x185 <= 1
C1455: + x233 + x462 <= 1
C1456: + x25 + x189 <= 1
C1457: + x3 + x460 <= 1
C1458: + x3 + x53 <= 1
C1459: + x355 + x430 <= 1
C1460: + x3 + x218 <= 1
C1461: + x30 + x132 <= 1
C1462: + x6 + x189 <= 1
C1463: + x49 + x77 <= 1
C1464: + x4 + x387 <= 1
C1465: + x7 + x41 <= 1
C1466: + x27 + x67 <= 1
C1467: + x76 + x91 <= 1
C1468: + x297 + x414 <= 1
C1469: + x5 + x87 <= 1
C1470: + x25 + x259 <= 1
C1471: + x227 + x272 <= 1
C1472: + x71 + x380 <= 1
C1473: + x55 + x194 <= 1
C1474: + x350 + x465 <= 1
C1475: + x115 + x482 <= 1
C1476: + x7 + x101 <= 1
C1477: + x102 + x416 <= 1
C1478: + x12 + x319 <= 1
C1479: + x89 + x242 <= 1
C1480: + x4 + x9 <= 1
C1481: + x44 + x226 <= 1
C1482: + x99 + x407 <= 1
C1483: + x19 + x381 <= 1
C1484: + x57 + x184 <= 1
C1485: + x20 + x46 <= 1
C1486: + x20 + x481 <= 1
C1487: + x63 + x145 <= 1
C1488: + x187 + x398 <= 1
C1489: + x357 + x438 <= 1
C1490: + x264 + x477 <= 1
C1491: + x5 + x42 <= 1
C1492: + x171 + x229 <= 1
C1493: + x188 + x341 <= 1
C1494: + x8 + x13 <= 1
C1495: + x92 + x424 <= 1
C1496: + x66 + x276 <= 1
C1497: + x5 + x185 <= 1
C1498: + x52 + x128 <= 1
C1499: + x45 + x181 <= 1
C1500: + x10 + x367 <= 1
C1501: + x102 + x294 <= 1
C1502: + x30 + x447 <= 1
C1503: + x14 + x421 <= 1
C1504: + x35 + x383 <= 1
C1505: + x79 + x211 <= 1
C1506: + x207 + x339 <= 1
C1507: + x5 + x237 <= 1
C1508: + x1 + x5 <= 1
C1509: + x285 + x424 <= 1
C1510: + x22 + x200 <= 1
C1511: + x207 + x254 <= 1
C1512: + x46 + x66 <= 1
C1513: + x29 + x32 <= 1
C1514: + x3 + x7 <= 1
C1515: + x86 + x91 <= 1
C1516: + x6 + x12 <= 1
C1517: + x100 + x353 <= 1
C1518: + x173 + x347 <= 1
C1519: + x14 + x252 <= 1
C1520: + x98 + x240 <= 1
C1521: + x88 + x388 <= 1
C1522: + x240 + x467 <= 1
C1523: + x17 + x20 <= 1
C1524: + x50 + x115 <= 1
C1525: + x34 + x409 <= 1
C1526: + x109 + x258 <= 1
C1527: + x18 + x138 <= 1
C1528: + x19 + x26 <= 1
C1529: + x50 + x478 <= 1
C1530: + x17 + x163 <= 1
C1531: + x16 + x107 <= 1
C1532: + x55 + x212 <= 1
C1533: + x182 + x455 <= 1
C1534: + x42 + x474 <= 1
C1535: + x5 + x236 <= 1
C1536: + x317 + x371 <= 1
C1537: + x8 + x79 <= 1
C1538: + x205 + x348 <= 1
C1539: + x164 + x386 <= 1
C1540: + x66 + x111 <= 1
C1541: + x11 + x340 <= 1
C1542: + x5 + x379 <= 1
C1543: + x335 + x347 <= 1
C1544: + x173 + x338 <= 1
C1545: + x210 + x474 <= 1
C1546: + x48 + x453 <= 1
C1547: + x6 + x152 <= 1
C1548: + x154 + x362 <= 1
C1549: + x93 + x409 <= 1
C1550: + x29 + x134 <= 1
C1551: + x39 + x197 <= 1
C1552: + x4 + x35 <= 1
C1553: + x157 + x262 <= 1
C1554: + x7 + x30 <= 1
C1555: + x92 + x438 <= 1
C1556: + x43 + x429 <= 1
C1557: + x7 + x191 <= 1
C1558: + x41 + x62 <= 1
C1559: + x60 + x268 <= 1
C1560: + x287 + x390 <= 1
C1561: + x16 + x116 <= 1
C1562: + x37 + x213 <= 1
C1563: + x240 + x432 <= 1
C1564: + x32 + x445 <= 1
C1565: + x6 + x74 <= 1
C1566: + x45 + x336 <= 1
C1567: + x138 + x271 <= 1
C1568: + x55 + x441 <= 1
C1569: + x197 + x403 <= 1
C1570: + x6 + x237 <= 1
C1571: + x45 + x493 <= 1
C1572: + x118 + x163 <= 1
C1573: + x19 + x197 <= 1
C1574: + x11 + x250 <= 1
C1575: + x64 + x443 <= 1
C1576: + x94 + x332 <= 1
C1577: + x422 + x440 <= 1
C1578: + x15 + x41 <= 1
C1579: + x119 + x415 <= 1
C1580: + x4 + x141 <= 1
C1581: + x5 + x7 <= 1
C1582: + x260 + x324 <= 1
C1583: + x12 + x125 <= 1
C1584: + x295 + x385 <= 1
C1585: + x388 + x393 <= 1
C1586: + x16 + x460 <= 1
C1587: + x54 + x133 <= 1
C1588: + x67 + x292 <= 1
C1589: + x58 + x271 <= 1
C1590: + x257 + x427 <= 1
C1591: + x141 + x241 <= 1
C1592: + x95 + x134 <= 1
C1593: + x15 + x117 <= 1
C1594: + x6 + x34 <= 1
C1595: + x10 + x39 <= 1
C1596: + x112 + x210 <= 1
C1597: + x97 + x194 <= 1
C1598: + x5 + x75 <= 1
C1599: + x60 + x257 <= 1
C1600: + x89 + x95 <= 1
C1601: + x15 + x331 <= 1
C1602: + x138 + x469 <= 1
C1603: + x29 + x81 <= 1
C1604: + x33 + x148 <= 1
C1605: + x75 + x307 <= 1
C1606: + x111 + x487 <= 1
C1607: + x3 + x97 <= 1
C1608: + x27 + x434 <= 1
C1609: + x101 + x214 <= 1
C1610: + x66 + x478 <= 1
C1611: + x92 + x169 <= 1
C1612: + x382 + x463 <= 1
C1613: + x232 + x457 <= 1
C1614: + x14 + x150 <= 1
C1615: + x70 + x73 <= 1
C1616: + x15 + x407 <= 1
C1617: + x3 + x262 <= 1
C1618: + x132 + x485 <= 1
C1619: + x11 + x326 <= 1
C1620: + x105 + x387 <= 1
C1621: + x173 + x328 <= 1
C1622: + x1 + x340 <= 1
C1623: + x64 + x305 <= 1
C1624: + x60 + x334 <= 1
C1625: + x5 + x14 <= 1
C1626: + x35 + x110 <= 1
C1627: + x81 + x412 <= 1
C1628: + x10 + x223 <= 1
C1629: + x241 + x304 <= 1
C1630: + x59 + x299 <= 1
C1631: + x47 + x54 <= 1
C1632: + x22 + x338 <= 1
C1633: + x130 + x227 <= 1
C1634: + x33 + x60 <= 1
C1635: + x269 + x437 <= 1
C1636: + x44 + x293 <= 1
C1637: + x7 + x169 <= 1
C1638: + x63 + x86 <= 1
C1639: + x46 + x335 <= 1
C1640: + x66 + x411 <= 1
C1641: + x369 + x452 <= 1
C1642: + x5 + x50 <= 1
C1643: + x32 + x272 <= 1
C1644: + x18 + x66 + x101 <= 1
C1645: + x3 + x366 <= 1
C1646: + x31 + x273 <= 1
C1647: + x115 + x317 <= 1
C1648: + x4 + x404 <= 1
C1649: + x6 + x444 <= 1
C1650: + x128 + x420 <= 1
C1651: + x138 + x244 <= 1
C1652: + x5 + x193 <= 1
C1653: + x180 + x329 <= 1
C1654: + x427 + x489 <= 1
C1655: + x10 + x28 <= 1
C1656: + x14 + x143 <= 1
C1657: + x452 + x481 <= 1
C1658: + x314 + x366 <= 1
C1659: + x13 + x307 <= 1
C1660: + x359 + x437 <= 1
C1661: + x39 + x397 <= 1
C1662: + x36 + x79 <= 1
C1663: + x21 + x56 <= 1
C1664: + x173 + x462 <= 1
C1665: + x29 + x56 <= 1
C1666: + x264 + x494 <= 1
C1667: + x39 + x288 <= 1
C1668: + x81 + x221 <= 1
C1669: + x255 + x285 <= 1
C1670: + x180 + x289 <= 1
C1671: + x281 + x332 <= 1
C1672: + x70 + x170 <= 1
C1673: + x17 + x44 <= 1
C1674: + x15 + x498 <= 1
C1675: + x200 + x385 <= 1
C1676: + x2 + x410 <= 1
C1677: + x66 + x269 <= 1
C1678: + x204 + x393 <= 1
C1679: + x100 + x309 <= 1
C1680: + x1 + x232 <= 1
C1681: + x5 + x109 <= 1
C1682: + x53 + x103 <= 1
C1683: + x45 + x204 <= 1
C1684: + x201 + x253 <= 1
C1685: + x80 + x339 <= 1
C1686: + x322 + x446 <= 1
C1687: + x59 + x135 <= 1
C1688: + x13 + x298 <= 1
C1689: + x282 + x414 <= 1
C1690: + x192 + x382 <= 1
C1691: + x3 + x135 <= 1
C1692: + x4 + x228 <= 1
C1693: + x36 + x120 <= 1
C1694: + x72 + x295 <= 1
C1695: + x154 + x326 <= 1
C1696: + x10 + x201 <= 1
C1697: + x4 + x31 <= 1
C1698: + x351 + x364 <= 1
C1699: + x35 + x193 <= 1
C1700: + x250 + x482 <= 1
C1701: + x14 + x106 <= 1
C1702: + x88 + x231 <= 1
C1703: + x127 + x499 <= 1
C1704: + x144 + x177 <= 1
C1705: + x10 + x90 <= 1
C1706: + x242 + x307 <= 1
C1707: + x232 + x260 <= 1
C1708: + x8 + x27 <= 1
C1709: + x210 + x285 <= 1
C1710: + x195 + x233 <= 1
C1711: + x242 + x414 <= 1
C1712: + x10 + x280 <= 1
C1713: + x56 + x271 <= 1
C1714: + x149 + x157 <= 1
C1715: + x27 + x72 <= 1
C1716: + x280 + x412 <= 1
C1717: + x19 + x41 <= 1
C1718: + x103 + x219 <= 1
C1719: + x39 + x48 <= 1
C1720: + x125 + x276 <= 1
C1721: + x293 + x330 <= 1
C1722: + x3 + x436 <= 1
C1723: + x163 + x406 <= 1
C1724: + x33 + x466 <= 1
C1725: + x14 + x18 <= 1
C1726: + x17 + x380 <= 1
C1727: + x25 + x431 <= 1
C1728: + x99 + x142 <= 1
C1729: + x128 + x184 <= 1
C1730: + x240 + x261 <= 1
C1731: + x101 + x492 <= 1
C1732: + x1 + x472 <= 1
C1733: + x103 + x500 <= 1
C1734: + x56 + x133 <= 1
C1735: + x123 + x278 <= 1
C1736: + x131 + x254 <= 1
C1737: + x74 + x259 <= 1
C1738: + x137 + x258 <= 1
C1739: + x105 + x193 <= 1
C1740: + x12 + x234 <= 1
C1741: + x5 + x47 <= 1
C1742: + x19 + x145 <= 1
C1743: + x30 + x35 <= 1
C1744: + x69 + x439 <= 1
C1745: + x276 + x333 <= 1
C1746: + x4 + x52 <= 1
C1747: + x205 + x287 <= 1
C1748: + x63 + x218 <= 1
C1749: + x57 + x129 <= 1
C1750: + x8 + x439 <= 1
C1751: + x43 + x448 <= 1
C1752: + x217 + x298 <= 1
C1753: + x292 + x388 <= 1
C1754: + x105 + x141 <= 1
C1755: + x12 + x166 <= 1
C1756: + x5 + x83 <= 1
C1757: + x57 + x112 <= 1
C1758: + x173 + x300 <= 1
C1759: + x11 + x475 <= 1
C1760: + x54 + x113 <= 1
C1761: + x67 + x89 <= 1
C1762: + x32 + x97 <= 1
C1763: + x17 + x200 <= 1
C1764: + x29 + x256 <= 1
C1765: + x13 + x431 <= 1
C1766: + x88 + x274 <= 1
C1767: + x236 + x361 <= 1
C1768: + x263 + x317 <= 1
C1769: + x473 + x498 <= 1
C1770: + x3 + x479 <= 1
C1771: + x3 + x12 <= 1
C1772: + x33 + x72 <= 1
C1773: + x315 + x323 <= 1
C1774: + x15 + x92 <= 1
C1775: + x168 + x346 <= 1
C1776: + x5 + x22 <= 1
C1777: + x172 + x186 <= 1
C1778: + x54 + x275 <= 1
C1779: + x166 + x329 <= 1
C1780: + x68 + x294 <= 1
C1781: + x5 + x264 <= 1
C1782: + x44 + x146 <= 1
C1783: + x62 + x211 <= 1
C1784: + x135 + x233 <= 1
C1785: + x57 + x136 <= 1
C1786: + x193 + x469 <= 1
C1787: + x3 + x96 <= 1
C1788: + x60 + x147 <= 1
C1789: + x32 + x38 <= 1
C1790: + x27 + x413 <= 1
C1791: + x39 + x90 <= 1
C1792: + x14 + x179 <= 1
C1793: + x5 + x407 <= 1
C1794: + x17 + x176 <= 1
C1795: + x18 + x56 <= 1
C1796: + x298 + x421 <= 1
C1797: + x56 + x199 <= 1
C1798: + x30 + x80 <= 1
C1799: + x32 + x459 <= 1
C1800: + x279 + x319 <= 1
C1801: + x133 + x361 <= 1
C1802: + x27 + x417 <= 1
C1803: + x45 + x72 <= 1
C1804: + x409 + x423 <= 1
C1805: + x30 + x225 <= 1
C1806: + x69 + x497 <= 1
C1807: + x69 + x78 <= 1
C1808: + x81 + x284 <= 1
C1809: + x153 + x452 <= 1
C1810: + x10 + x351 <= 1
C1811: + x66 + x106 <= 1
C1812: + x18 + x100 <= 1
C1813: + x29 + x449 <= 1
C1814: + x86 + x103 <= 1
C1815: + x13 + x267 <= 1
C1816: + x54 + x235 <= 1
C1817: + x42 + x102 <= 1
C1818: + x82 + x207 <= 1
C1819: + x8 + x280 <= 1
C1820: + x83 + x290 <= 1
C1821: + x233 + x335 <= 1
C1822: + x4 + x131 <= 1
C1823: + x5 + x29 <= 1
C1824: + x81 + x102 <= 1
C1825: + x35 + x93 <= 1
C1826: + x27 + x34 <= 1
C1827: + x39 + x194 <= 1
C1828: + x31 + x163 <= 1
C1829: + x7 + x31 <= 1
C1830: + x55 + x394 <= 1
C1831: + x108 + x118 <= 1
C1832: + x225 + x440 <= 1
C1833: + x5 + x65 <= 1
C1834: + x19 + x183 <= 1
C1835: + x55 + x216 <= 1
C1836: + x72 + x374 <= 1
C1837: + x414 + x426 <= 1
C1838: + x15 + x26 <= 1
C1839: + x1 + x270 <= 1
C1840: + x31 + x93 <= 1
C1841: + x4 + x224 <= 1
C1842: + x5 + x216 <= 1
C1843: + x8 + x75 <= 1
C1844: + x10 + x229 <= 1
C1845: + x103 + x316 <= 1
C1846: + x304 + x399 <= 1
C1847: + x179 + x223 <= 1
C1848: + x43 + x196 <= 1
C1849: + x134 + x297 <= 1
C1850: + x57 + x74 <= 1
C1851: + x56 + x148 <= 1
C1852: + x340 + x490 <= 1
C1853: + x4 + x365 <= 1
C1854: + x133 + x231 <= 1
C1855: + x5 + x359 <= 1
C1856: + x129 + x372 <= 1
C1857: + x365 + x424 <= 1
C1858: + x11 + x78 <= 1
C1859: + x194 + x316 <= 1
C1860: + x5 + x28 <= 1
C1861: + x90 + x136 <= 1
C1862: + x226 + x467 <= 1
C1863: + x325 + x366 <= 1
C1864: + x13 + x76 <= 1
C1865: + x4 + x39 <= 1
C1866: + x26 + x86 <= 1
C1867: + x80 + x143 <= 1
C1868: + x3 + x5 + x6 + x11 <= 1
C1869: + x453 + x458 <= 1
C1870: + x3 + x243 <= 1
C1871: + x141 + x347 <= 1
C1872: + x17 + x158 <= 1
C1873: + x8 + x51 <= 1
C1874: + x56 + x213 <= 1
C1875: + x41 + x276 <= 1
C1876: + x403 + x478 <= 1
C1877: + x6 + x438 <= 1
C1878: + x15 + x190 <= 1
C1879: + x27 + x112 <= 1
C1880: + x10 + x238 <= 1
C1881: + x165 + x168 <= 1
C1882: + x56 + x70 <= 1
C1883: + x47 + x107 <= 1
C1884: + x125 + x268 <= 1
C1885: + x116 + x350 <= 1
C1886: + x72 + x167 <= 1
C1887: + x4 + x342 <= 1
C1888: + x11 + x117 <= 1
C1889: + x260 + x328 <= 1
C1890: + x261 + x352 <= 1
C1891: + x39 + x244 <= 1
C1892: + x13 + x400 <= 1
C1893: + x205 + x208 <= 1
C1894: + x27 + x341 <= 1
C1895: + x58 + x275 <= 1
C1896: + x67 + x320 <= 1
C1897: + x67 + x233 <= 1
C1898: + x6 + x46 <= 1
C1899: + x163 + x322 <= 1
C1900: + x16 + x363 <= 1
C1901: + x446 + x482 <= 1
C1902: + x14 + x222 <= 1
C1903: + x81 + x469 <= 1
C1904: + x54 + x306 <= 1
C1905: + x13 + x452 <= 1
C1906: + x36 + x368 <= 1
C1907: + x12 + x351 <= 1
C1908: + x5 + x198 <= 1
C1909: + x54 + x419 <= 1
C1910: + x112 + x162 <= 1
C1911: + x4 + x105 <= 1
C1912: + x170 + x190 <= 1
C1913: + x48 + x98 <= 1
C1914: + x17 + x65 <= 1
C1915: + x231 + x237 <= 1
C1916: + x10 + x104 <= 1
C1917: + x137 + x293 <= 1
C1918: + x12 + x267 <= 1
C1919: + x5 + x10 <= 1
C1920: + x6 + x134 <= 1
C1921: + x128 + x133 <= 1
C1922: + x230 + x429 <= 1
C1923: + x241 + x292 <= 1
C1924: + x41 + x129 <= 1
C1925: + x13 + x391 <= 1
C1926: + x187 + x228 <= 1
C1927: + x47 + x155 <= 1
C1928: + x188 + x486 <= 1
C1929: + x13 + x201 <= 1
C1930: + x35 + x62 <= 1
C1931: + x18 + x20 <= 1
C1932: + x17 + x140 <= 1
C1933: + x135 + x360 <= 1
C1934: + x38 + x209 <= 1
C1935: + x71 + x256 <= 1
C1936: + x11 + x51 <= 1
C1937: + x6 + x219 <= 1
C1938: + x82 + x154 <= 1
C1939: + x66 + x427 <= 1
C1940: + x67 + x473 <= 1
C1941: + x44 + x199 <= 1
C1942: + x90 + x477 <= 1
C1943: + x16 + x18 <= 1
C1944: + x72 + x149 <= 1
C1945: + x140 + x402 <= 1
C1946: + x59 + x252 <= 1
C1947: + x169 + x259 <= 1
C1948: + x88 + x146 <= 1
C1949: + x110 + x314 <= 1
C1950: + x3 + x140 <= 1
C1951: + x56 + x457 <= 1
C1952: + x375 + x464 <= 1
C1953: + x5 + x241 <= 1
C1954: + x47 + x488 <= 1
C1955: + x31 + x159 <= 1
C1956: + x33 + x234 <= 1
C1957: + x18 + x124 <= 1

binary
x1 x2 x3 x4 x5 x6 x7 x8 x9 x10 x11 x12 x13 x14 x15 x16 x17 x18 x19 x20 x21 x22 x23 x24 x25 x26 x27 x28 x29 x30 x31 x32 x33 x34 x35 x36 x37 x38 x39 x40 x41 x42 x43 x44 x45 x46 x47 x48 x49 x50 x51 x52 x53 x54 x55 x56 x57 x58 x59 x60 x61 x62 x63 x64 x65 x66 x67 x68 x69 x70 x71 x72 x73 x74 x75 x76 x77 x78 x79 x80 x81 x82 x83 x84 x85 x86 x87 x88 x89 x90 x91 x92 x93 x94 x95 x96 x97 x98 x99 x100 x101 x102 x103 x104 x105 x106 x107 x108 x109 x110 x111 x112 x113 x114 x115 x116 x117 x118 x119 x120 x121 x122 x123 x124 x125 x126 x127 x128 x129 x130 x131 x132 x133 x134 x135 x136 x137 x138 x139 x140 x141 x142 x143 x144 x145 x146 x147 x148 x149 x150 x151 x152 x153 x154 x155 x156 x157 x158 x159 x160 x161 x162 x163 x164 x165 x166 x167 x168 x169 x170 x171 x172 x173 x174 x175 x176 x177 x178 x179 x180 x181 x182 x183 x184 x185 x186 x187 x188 x189 x190 x191 x192 x193 x194 x195 x196 x197 x198 x199 x200 x201 x202 x203 x204 x205 x206 x207 x208 x209 x210 x211 x212 x213 x214 x215 x216 x217 x218 x219 x220 x221 x222 x223 x224 x225 x226 x227 x228 x229 x230 x231 x232 x233 x234 x235 x236 x237 x238 x239 x240 x241 x242 x243 x244 x245 x246 x247 x248 x249 x250 x251 x252 x253 x254 x255 x256 x257 x258 x259 x260 x261 x262 x263 x264 x265 x266 x267 x268 x269 x270 x271 x272 x273 x274 x275 x276 x277 x278 x279 x280 x281 x282 x283 x284 x285 x286 x287 x288 x289 x290 x291 x292 x293 x294 x295 x296 x297 x298 x299 x300 x301 x302 x303 x304 x305 x306 x307 x308 x309 x310 x311 x312 x313 x314 x315 x316 x317 x318 x319 x320 x321 x322 x323 x324 x325 x326 x327 x328 x329 x330 x331 x332 x333 x334 x335 x336 x337 x338 x339 x340 x341 x342 x343 x344 x345 x346 x347 x348 x349 x350 x351 x352 x353 x354 x355 x356 x357 x358 x359 x360 x361 x362 x363 x364 x365 x366 x367 x368 x369 x370 x371 x372 x373 x374 x375 x376 x377 x378 x379 x380 x381 x382 x383 x384 x385 x386 x387 x388 x389 x390 x391 x392 x393 x394 x395 x396 x397 x398 x399 x400 x401 x402 x403 x404 x405 x406 x407 x408 x409 x410 x411 x412 x413 x414 x415 x416 x417 x418 x419 x420 x421 x422 x423 x424 x425 x426 x427 x428 x429 x430 x431 x432 x433 x434 x435 x436 x437 x438 x439 x440 x441 x442 x443 x444 x445 x446 x447 x448 x449 x450 x451 x452 x453 x454 x455 x456 x457 x458 x459 x460 x461 x462 x463 x464 x465 x466 x467 x468 x469 x470 x471 x472 x473 x474 x475 x476 x477 x478 x479 x480 x481 x482 x483 x484 x485 x486 x487 x488 x489 x490 x491 x492 x493 x494 x495 x496 x497 x498 x499 x500
