maximize
OBJ: + 1 x1 + 1 x2 + 1 x3 + 1 x4 + 1 x5 + 1 x6 + 1 x7 + 1 x8 + 1 x9 + 1 x10 + 1 x11 + 1 x12 + 1 x13 + 1 x14 + 1 x15 + 1 x16 + 1 x17 + 1 x18 + 1 x19 + 1 x20 + 1 x21 + 1 x22 + 1 x23 + 1 x24 + 1 x25 + 1 x26 + 1 x27 + 1 x28 + 1 x29 + 1 x30 + 1 x31 + 1 x32 + 1 x33 + 1 x34 + 1 x35 + 1 x36 + 1 x37 + 1 x38 + 1 x39 + 1 x40 + 1 x41 + 1 x42 + 1 x43 + 1 x44 + 1 x45 + 1 x46 + 1 x47 + 1 x48 + 1 x49 + 1 x50 + 1 x51 + 1 x52 + 1 x53 + 1 x54 + 1 x55 + 1 x56 + 1 x57 + 1 x58 + 1 x59 + 1 x60 + 1 x61 + 1 x62 + 1 x63 + 1 x64 + 1 x65 + 1 x66 + 1 x67 + 1 x68 + 1 x69 + 1 x70 + 1 x71 + 1 x72 + 1 x73 + 1 x74 + 1 x75 + 1 x76 + 1 x77 + 1 x78 + 1 x79 + 1 x80 + 1 x81 + 1 x82 + 1 x83 + 1 x84 + 1 x85 + 1 x86 + 1 x87 + 1 x88 + 1 x89 + 1 x90 + 1 x91 + 1 x92 + 1 x93 + 1 x94 + 1 x95 + 1 x96 + 1 x97 + 1 x98 + 1 x99 + 1 x100 + 1 x101 + 1 x102 + 1 x103 + 1 x104 + 1 x105 + 1 x106 + 1 x107 + 1 x108 + 1 x109 + 1 x110 + 1 x111 + 1 x112 + 1 x113 + 1 x114 + 1 x115 + 1 x116 + 1 x117 + 1 x118 + 1 x119 + 1 x120 + 1 x121 + 1 x122 + 1 x123 + 1 x124 + 1 x125 + 1 x126 + 1 x127 + 1 x128 + 1 x129 + 1 x130 + 1 x131 + 1 x132 + 1 x133 + 1 x134 + 1 x135 + 1 x136 + 1 x137 + 1 x138 + 1 x139 + 1 x140 + 1 x141 + 1 x142 + 1 x143 + 1 x144 + 1 x145 + 1 x146 + 1 x147 + 1 x148 + 1 x149 + 1 x150 + 1 x151 + 1 x152 + 1 x153 + 1 x154 + 1 x155 + 1 x156 + 1 x157 + 1 x158 + 1 x159 + 1 x160 + 1 x161 + 1 x162 + 1 x163 + 1 x164 + 1 x165 + 1 x166 + 1 x167 + 1 x168 + 1 x169 + 1 x170 + 1 x171 + 1 x172 + 1 x173 + 1 x174 + 1 x175 + 1 x176 + 1 x177 + 1 x178 + 1 x179 + 1 x180 + 1 x181 + 1 x182 + 1 x183 + 1 x184 + 1 x185 + 1 x186 + 1 x187 + 1 x188 + 1 x189 + 1 x190 + 1 x191 + 1 x192 + 1 x193 + 1 x194 + 1 x195 + 1 x196 + 1 x197 + 1 x198 + 1 x199 + 1 x200 + 1 x201 + 1 x202 + 1 x203 + 1 x204 + 1 x205 + 1 x206 + 1 x207 + 1 x208 + 1 x209 + 1 x210 + 1 x211 + 1 x212 + 1 x213 + 1 x214 + 1 x215 + 1 x216 + 1 x217 + 1 x218 + 1 x219 + 1 x220 + 1 x221 + 1 x222 + 1 x223 + 1 x224 + 1 x225 + 1 x226 + 1 x227 + 1 x228 + 1 x229 + 1 x230 + 1 x231 + 1 x232 + 1 x233 + 1 x234 + 1 x235 + 1 x236 + 1 x237 + 1 x238 + 1 x239 + 1 x240 + 1 x241 + 1 x242 + 1 x243 + 1 x244 + 1 x245 + 1 x246 + 1 x247 + 1 x248 + 1 x249 + 1 x250 + 1 x251 + 1 x252 + 1 x253 + 1 x254 + 1 x255 + 1 x256 + 1 x257 + 1 x258 + 1 x259 + 1 x260 + 1 x261 + 1 x262 + 1 x263 + 1 x264 + 1 x265 + 1 x266 + 1 x267 + 1 x268 + 1 x269 + 1 x270 + 1 x271 + 1 x272 + 1 x273 + 1 x274 + 1 x275 + 1 x276 + 1 x277 + 1 x278 + 1 x279 + 1 x280 + 1 x281 + 1 x282 + 1 x283 + 1 x284 + 1 x285 + 1 x286 + 1 x287 + 1 x288 + 1 x289 + 1 x290 + 1 x291 + 1 x292 + 1 x293 + 1 x294 + 1 x295 + 1 x296 + 1 x297 + 1 x298 + 1 x299 + 1 x300 + 1 x301 + 1 x302 + 1 x303 + 1 x304 + 1 x305 + 1 x306 + 1 x307 + 1 x308 + 1 x309 + 1 x310 + 1 x311 + 1 x312 + 1 x313 + 1 x314 + 1 x315 + 1 x316 + 1 x317 + 1 x318 + 1 x319 + 1 x320 + 1 x321 + 1 x322 + 1 x323 + 1 x324 + 1 x325 + 1 x326 + 1 x327 + 1 x328 + 1 x329 + 1 x330 + 1 x331 + 1 x332 + 1 x333 + 1 x334 + 1 x335 + 1 x336 + 1 x337 + 1 x338 + 1 x339 + 1 x340 + 1 x341 + 1 x342 + 1 x343 + 1 x344 + 1 x345 + 1 x346 + 1 x347 + 1 x348 + 1 x349 + 1 x350 + 1 x351 + 1 x352 + 1 x353 + 1 x354 + 1 x355 + 1 x356 + 1 x357 + 1 x358 + 1 x359 + 1 x360 + 1 x361 + 1 x362 + 1 x363 + 1 x364 + 1 x365 + 1 x366 + 1 x367 + 1 x368 + 1 x369 + 1 x370 + 1 x371 + 1 x372 + 1 x373 + 1 x374 + 1 x375 + 1 x376 + 1 x377 + 1 x378 + 1 x379 + 1 x380 + 1 x381 + 1 x382 + 1 x383 + 1 x384 + 1 x385 + 1 x386 + 1 x387 + 1 x388 + 1 x389 + 1 x390 + 1 x391 + 1 x392 + 1 x393 + 1 x394 + 1 x395 + 1 x396 + 1 x397 + 1 x398 + 1 x399 + 1 x400 + 1 x401 + 1 x402 + 1 x403 + 1 x404 + 1 x405 + 1 x406 + 1 x407 + 1 x408 + 1 x409 + 1 x410 + 1 x411 + 1 x412 + 1 x413 + 1 x414 + 1 x415 + 1 x416 + 1 x417 + 1 x418 + 1 x419 + 1 x420 + 1 x421 + 1 x422 + 1 x423 + 1 x424 + 1 x425 + 1 x426 + 1 x427 + 1 x428 + 1 x429 + 1 x430 + 1 x431 + 1 x432 + 1 x433 + 1 x434 + 1 x435 + 1 x436 + 1 x437 + 1 x438 + 1 x439 + 1 x440 + 1 x441 + 1 x442 + 1 x443 + 1 x444 + 1 x445 + 1 x446 + 1 x447 + 1 x448 + 1 x449 + 1 x450 + 1 x451 + 1 x452 + 1 x453 + 1 x454 + 1 x455 + 1 x456 + 1 x457 + 1 x458 + 1 x459 + 1 x460 + 1 x461 + 1 x462 + 1 x463 + 1 x464 + 1 x465 + 1 x466 + 1 x467 + 1 x468 + 1 x469 + 1 x470 + 1 x471 + 1 x472 + 1 x473 + 1 x474 + 1 x475 + 1 x476 + 1 x477 + 1 x478 + 1 x479 + 1 x480 + 1 x481 + 1 x482 + 1 x483 + 1 x484 + 1 x485 + 1 x486 + 1 x487 + 1 x488 + 1 x489 + 1 x490 + 1 x491 + 1 x492 + 1 x493 + 1 x494 + 1 x495 + 1 x496 + 1 x497 + 1 x498 + 1 x499 + 1 x500

subject to
C1: + x13 + x355 <= 1
C2: + x96 + x199 <= 1
C3: + x120 + x146 <= 1
C4: + x275 + x400 <= 1
C5: + x68 + x408 <= 1
C6: + x223 + x490 <= 1
C7: + x8 + x26 <= 1
C8: + x215 + x233 <= 1
C9: + x9 + x413 <= 1
C10: + x257 + x457 <= 1
C11: + x9 + x143 <= 1
C12: + x22 + x225 <= 1
C13: + x8 + x462 <= 1
C14: + x12 + x23 <= 1
C15: + x161 + x423 <= 1
C16: + x155 + x364 <= 1
C17: + x28 + x421 <= 1
C18: + x256 + x344 <= 1
C19: + x58 + x112 <= 1
C20: + x14 + x21 <= 1
C21: + x35 + x124 <= 1
C22: + x8 + x99 <= 1
C23: + x106 + x412 <= 1
C24: + x20 + x40 <= 1
C25: + x160 + x219 <= 1
C26: + x6 + x25 <= 1
C27: + x7 + x159 <= 1
C28: + x10 + x94 <= 1
C29: + x58 + x60 <= 1
C30: + x24 + x205 <= 1
C31: + x28 + x195 <= 1
C32: + x1 + x68 <= 1
C33: + x19 + x150 <= 1
C34: + x58 + x407 <= 1
C35: + x18 + x425 <= 1
C36: + x80 + x183 <= 1
C37: + x63 + x219 <= 1
C38: + x10 + x284 <= 1
C39: + x3 + x74 <= 1
C40: + x11 + x492 <= 1
C41: + x24 + x375 <= 1
C42: + x8 + x168 <= 1
C43: + x103 + x223 <= 1
C44: + x434 + x441 <= 1
C45: + x5 + x88 <= 1
C46: + x73 + x467 <= 1
C47: + x9 + x19 <= 1
C48: + x135 + x142 <= 1
C49: + x4 + x434 <= 1
C50: + x27 + x314 <= 1
C51: + x1 + x317 <= 1
C52: + x11 + x105 <= 1
C53: + x2 + x22 <= 1
C54: + x106 + x175 <= 1
C55: + x171 + x267 <= 1
C56: + x1 + x15 <= 1
C57: + x214 + x382 <= 1
C58: + x25 + x133 <= 1
C59: + x16 + x44 <= 1
C60: + x18 + x118 <= 1
C61: + x11 + x431 <= 1
C62: + x330 + x428 <= 1
C63: + x275 + x349 <= 1
C64: + x28 + x61 <= 1
C65: + x85 + x188 <= 1
C66: + x34 + x278 <= 1
C67: + x226 + x452 <= 1
C68: + x21 + x22 <= 1
C69: + x40 + x67 + x96 <= 1
C70: + x37 + x81 <= 1
C71: + x130 + x134 <= 1
C72: + x67 + x129 <= 1
C73: + x5 + x186 <= 1
C74: + x344 + x379 <= 1
C75: + x27 + x75 <= 1
C76: + x10 + x51 <= 1
C77: + x9 + x26 <= 1
C78: + x157 + x453 <= 1
C79: + x4 + x23 + x50 <= 1
C80: + x89 + x349 <= 1
C81: + x45 + x347 <= 1
C82: + x11 + x455 <= 1
C83: + x11 + x20 <= 1
C84: + x106 + x152 <= 1
C85: + x13 + x185 <= 1
C86: + x7 + x250 <= 1
C87: + x7 + x323 <= 1
C88: + x1 + x6 <= 1
C89: + x9 + x340 <= 1
C90: + x56 + x123 <= 1
C91: + x11 + x245 <= 1
C92: + x86 + x90 <= 1
C93: + x204 + x328 <= 1
C94: + x151 + x248 <= 1
C95: + x9 + x291 <= 1
C96: + x10 + x80 <= 1
C97: + x3 + x169 <= 1
C98: + x21 + x192 <= 1
C99: + x5 + x18 <= 1
C100: + x9 + x213 <= 1
C101: + x119 + x148 <= 1
C102: + x311 + x458 <= 1
C103: + x58 + x260 <= 1
C104: + x67 + x156 <= 1
C105: + x69 + x172 <= 1
C106: + x196 + x495 <= 1
C107: + x6 + x63 <= 1
C108: + x82 + x134 <= 1
C109: + x7 + x266 <= 1
C110: + x16 + x215 <= 1
C111: + x2 + x247 <= 1
C112: + x41 + x56 <= 1
C113: + x51 + x291 <= 1
C114: + x23 + x301 <= 1
C115: + x117 + x192 <= 1
C116: + x33 + x135 <= 1
C117: + x8 + x352 <= 1
C118: + x58 + x131 <= 1
C119: + x46 + x279 <= 1
C120: + x312 + x319 <= 1
C121: + x53 + x132 <= 1
C122: + x345 + x421 <= 1
C123: + x16 + x349 <= 1
C124: + x83 + x286 <= 1
C125: + x282 + x385 <= 1
C126: + x67 + x100 <= 1
C127: + x212 + x397 <= 1
C128: + x99 + x281 <= 1
C129: + x46 + x203 <= 1
C130: + x30 + x49 <= 1
C131: + x124 + x222 <= 1
C132: + x196 + x230 <= 1
C133: + x13 + x406 <= 1
C134: + x21 + x28 <= 1
C135: + x5 + x267 <= 1
C136: + x76 + x351 <= 1
C137: + x224 + x367 <= 1
C138: + x14 + x69 <= 1
C139: + x107 + x110 <= 1
C140: + x7 + x257 <= 1
C141: + x173 + x212 <= 1
C142: + x36 + x44 <= 1
C143: + x163 + x245 <= 1
C144: + x2 + x208 <= 1
C145: + x222 + x482 <= 1
C146: + x116 + x269 <= 1
C147: + x24 + x176 <= 1
C148: + x190 + x316 <= 1
C149: + x69 + x327 <= 1
C150: + x23 + x110 <= 1
C151: + x425 + x472 <= 1
C152: + x8 + x71 <= 1
C153: + x111 + x243 <= 1
C154: + x113 + x254 <= 1
C155: + x47 + x104 <= 1
C156: + x19 + x359 <= 1
C157: + x58 + x245 <= 1
C158: + x48 + x362 <= 1
C159: + x26 + x425 <= 1
C160: + x8 + x216 <= 1
C161: + x25 + x340 <= 1
C162: + x15 + x203 <= 1
C163: + x227 + x477 <= 1
C164: + x47 + x52 <= 1
C165: + x29 + x158 <= 1
C166: + x85 + x310 <= 1
C167: + x212 + x259 <= 1
C168: + x30 + x280 <= 1
C169: + x8 + x140 <= 1
C170: + x2 + x193 <= 1
C171: + x85 + x165 <= 1
C172: + x30 + x187 <= 1
C173: + x32 + x203 <= 1
C174: + x32 + x258 <= 1
C175: + x126 + x231 <= 1
C176: + x59 + x162 <= 1
C177: + x40 + x322 <= 1
C178: + x61 + x158 <= 1
C179: + x51 + x195 <= 1
C180: + x3 + x30 + x47 <= 1
C181: + x29 + x420 <= 1
C182: + x158 + x172 <= 1
C183: + x36 + x458 <= 1
C184: + x10 + x18 <= 1
C185: + x111 + x246 <= 1
C186: + x77 + x318 <= 1
C187: + x142 + x363 <= 1
C188: + x183 + x383 <= 1
C189: + x13 + x309 <= 1
C190: + x83 + x195 <= 1
C191: + x257 + x308 <= 1
C192: + x437 + x451 <= 1
C193: + x5 + x15 <= 1
C194: + x6 + x153 <= 1
C195: + x90 + x141 <= 1
C196: + x27 + x64 <= 1
C197: + x243 + x403 <= 1
C198: + x289 + x330 <= 1
C199: + x24 + x77 <= 1
C200: + x27 + x337 <= 1
C201: + x58 + x279 <= 1
C202: + x5 + x158 <= 1
C203: + x125 + x486 <= 1
C204: + x160 + x236 <= 1
C205: + x111 + x177 <= 1
C206: + x5 + x51 <= 1
C207: + x108 + x330 <= 1
C208: + x79 + x403 <= 1
C209: + x19 + x165 <= 1
C210: + x27 + x196 <= 1
C211: + x8 + x40 <= 1
C212: + x133 + x173 <= 1
C213: + x36 + x276 <= 1
C214: + x48 + x399 <= 1
C215: + x14 + x43 <= 1
C216: + x5 + x194 <= 1
C217: + x84 + x475 <= 1
C218: + x41 + x246 <= 1
C219: + x86 + x126 <= 1
C220: + x69 + x220 <= 1
C221: + x10 + x108 <= 1
C222: + x46 + x403 <= 1
C223: + x185 + x291 <= 1
C224: + x67 + x77 <= 1
C225: + x6 + x130 <= 1
C226: + x112 + x114 <= 1
C227: + x351 + x354 <= 1
C228: + x7 + x8 <= 1
C229: + x221 + x241 <= 1
C230: + x50 + x158 <= 1
C231: + x195 + x297 <= 1
C232: + x23 + x59 <= 1
C233: + x34 + x444 <= 1
C234: + x30 + x490 <= 1
C235: + x74 + x221 <= 1
C236: + x110 + x188 <= 1
C237: + x265 + x298 <= 1
C238: + x101 + x119 + x150 <= 1
C239: + x312 + x335 <= 1
C240: + x13 + x197 <= 1
C241: + x33 + x401 <= 1
C242: + x4 + x170 <= 1
C243: + x7 + x407 <= 1
C244: + x8 + x29 <= 1
C245: + x102 + x322 <= 1
C246: + x300 + x409 <= 1
C247: + x7 + x52 <= 1
C248: + x13 + x348 <= 1
C249: + x206 + x484 <= 1
C250: + x261 + x262 <= 1
C251: + x13 + x57 <= 1
C252: + x170 + x171 <= 1
C253: + x14 + x135 <= 1
C254: + x106 + x262 <= 1
C255: + x22 + x498 <= 1
C256: + x11 + x99 <= 1
C257: + x166 + x191 <= 1
C258: + x85 + x238 <= 1
C259: + x48 + x476 <= 1
C260: + x106 + x161 <= 1
C261: + x1 + x53 <= 1
C262: + x273 + x357 <= 1
C263: + x130 + x494 <= 1
C264: + x277 + x373 <= 1
C265: + x69 + x82 <= 1
C266: + x93 + x259 <= 1
C267: + x241 + x444 <= 1
C268: + x88 + x226 <= 1
C269: + x53 + x329 <= 1
C270: + x19 + x425 <= 1
C271: + x8 + x247 <= 1
C272: + x257 + x350 <= 1
C273: + x140 + x372 <= 1
C274: + x177 + x179 <= 1
C275: + x126 + x327 <= 1
C276: + x162 + x374 <= 1
C277: + x16 + x87 <= 1
C278: + x5 + x33 <= 1
C279: + x37 + x202 <= 1
C280: + x6 + x266 <= 1
C281: + x78 + x111 <= 1
C282: + x61 + x171 <= 1
C283: + x35 + x150 <= 1
C284: + x11 + x58 <= 1
C285: + x19 + x42 <= 1
C286: + x2 + x232 <= 1
C287: + x238 + x436 <= 1
C288: + x77 + x299 <= 1
C289: + x40 + x183 <= 1
C290: + x157 + x174 <= 1
C291: + x85 + x475 <= 1
C292: + x48 + x270 <= 1
C293: + x13 + x290 <= 1
C294: + x53 + x260 <= 1
C295: + x134 + x172 <= 1
C296: + x80 + x250 <= 1
C297: + x238 + x250 <= 1
C298: + x138 + x278 <= 1
C299: + x11 + x110 <= 1
C300: + x122 + x308 <= 1
C301: + x10 + x451 <= 1
C302: + x9 + x461 <= 1
C303: + x44 + x65 <= 1
C304: + x142 + x487 <= 1
C305: + x28 + x139 <= 1
C306: + x36 + x128 <= 1
C307: + x144 + x455 <= 1
C308: + x159 + x404 <= 1
C309: + x400 + x465 <= 1
C310: + x355 + x423 <= 1
C311: + x146 + x469 <= 1
C312: + x111 + x295 <= 1
C313: + x8 + x19 <= 1
C314: + x149 + x395 <= 1
C315: + x30 + x34 <= 1
C316: + x14 + x499 <= 1
C317: + x2 + x491 <= 1
C318: + x11 + x33 <= 1
C319: + x41 + x401 <= 1
C320: + x11 + x134 <= 1
C321: + x12 + x165 <= 1
C322: + x13 + x47 <= 1
C323: + x23 + x238 <= 1
C324: + x14 + x185 <= 1
C325: + x11 + x359 <= 1
C326: + x34 + x115 <= 1
C327: + x11 + x21 <= 1
C328: + x194 + x285 <= 1
C329: + x122 + x309 <= 1
C330: + x154 + x228 <= 1
C331: + x9 + x230 <= 1
C332: + x18 + x207 <= 1
C333: + x72 + x280 <= 1
C334: + x183 + x246 <= 1
C335: + x369 + x402 <= 1
C336: + x69 + x395 <= 1
C337: + x14 + x312 <= 1
C338: + x98 + x292 <= 1
C339: + x24 + x81 <= 1
C340: + x1 + x432 <= 1
C341: + x9 + x67 <= 1
C342: + x7 + x489 <= 1
C343: + x47 + x450 <= 1
C344: + x77 + x357 <= 1
C345: + x6 + x161 <= 1
C346: + x145 + x314 <= 1
C347: + x200 + x204 <= 1
C348: + x9 + x210 <= 1
C349: + x8 + x12 <= 1
C350: + x30 + x59 <= 1
C351: + x379 + x397 <= 1
C352: + x71 + x229 <= 1
C353: + x54 + x181 <= 1
C354: + x156 + x290 <= 1
C355: + x64 + x222 <= 1
C356: + x129 + x161 <= 1
C357: + x419 + x500 <= 1
C358: + x149 + x164 <= 1
C359: + x23 + x28 <= 1
C360: + x37 + x93 <= 1
C361: + x7 + x194 <= 1
C362: + x8 + x153 <= 1
C363: + x4 + x73 <= 1
C364: + x23 + x229 <= 1
C365: + x13 + x38 <= 1
C366: + x11 + x354 <= 1
C367: + x88 + x185 <= 1
C368: + x74 + x141 <= 1
C369: + x144 + x251 <= 1
C370: + x57 + x266 <= 1
C371: + x123 + x438 <= 1
C372: + x368 + x494 <= 1
C373: + x31 + x91 <= 1
C374: + x45 + x65 <= 1
C375: + x82 + x264 <= 1
C376: + x18 + x20 + x32 <= 1
C377: + x4 + x117 <= 1
C378: + x40 + x296 <= 1
C379: + x297 + x438 <= 1
C380: + x387 + x450 <= 1
C381: + x30 + x462 <= 1
C382: + x5 + x377 <= 1
C383: + x18 + x270 <= 1
C384: + x54 + x456 <= 1
C385: + x11 + x68 <= 1
C386: + x30 + x145 <= 1
C387: + x40 + x106 <= 1
C388: + x5 + x30 <= 1
C389: + x180 + x320 <= 1
C390: + x260 + x345 <= 1
C391: + x9 + x217 <= 1
C392: + x225 + x236 <= 1
C393: + x6 + x59 <= 1
C394: + x45 + x447 <= 1
C395: + x9 + x168 <= 1
C396: + x382 + x484 <= 1
C397: + x85 + x147 <= 1
C398: + x159 + x374 <= 1
C399: + x14 + x473 <= 1
C400: + x30 + x342 <= 1
C401: + x120 + x193 <= 1
C402: + x56 + x80 <= 1
C403: + x15 + x394 <= 1
C404: + x226 + x353 <= 1
C405: + x102 + x286 <= 1
C406: + x20 + x63 <= 1
C407: + x43 + x102 <= 1
C408: + x15 + x43 <= 1
C409: + x7 + x136 <= 1
C410: + x164 + x356 <= 1
C411: + x307 + x389 <= 1
C412: + x8 + x122 <= 1
C413: + x20 + x176 <= 1
C414: + x38 + x250 <= 1
C415: + x131 + x270 <= 1
C416: + x166 + x378 <= 1
C417: + x58 + x430 <= 1
C418: + x44 + x143 <= 1
C419: + x399 + x452 <= 1
C420: + x29 + x40 <= 1
C421: + x267 + x420 <= 1
C422: + x32 + x43 <= 1
C423: + x92 + x155 <= 1
C424: + x14 + x164 <= 1
C425: + x32 + x261 <= 1
C426: + x14 + x367 <= 1
C427: + x45 + x168 <= 1
C428: + x235 + x401 <= 1
C429: + x11 + x276 <= 1
C430: + x93 + x426 <= 1
C431: + x307 + x350 <= 1
C432: + x81 + x380 <= 1
C433: + x8 + x337 <= 1
C434: + x80 + x432 <= 1
C435: + x320 + x381 <= 1
C436: + x28 + x310 <= 1
C437: + x20 + x72 <= 1
C438: + x4 + x341 <= 1
C439: + x45 + x377 <= 1
C440: + x75 + x182 <= 1
C441: + x103 + x131 <= 1
C442: + x4 + x244 <= 1
C443: + x23 + x190 <= 1
C444: + x307 + x448 <= 1
C445: + x151 + x428 <= 1
C446: + x250 + x375 <= 1
C447: + x206 + x215 <= 1
C448: + x7 + x10 <= 1
C449: + x11 + x396 <= 1
C450: + x31 + x388 <= 1
C451: + x61 + x299 <= 1
C452: + x15 + x122 <= 1
C453: + x272 + x331 <= 1
C454: + x46 + x337 <= 1
C455: + x4 + x192 <= 1
C456: + x23 + x138 <= 1
C457: + x6 + x283 <= 1
C458: + x135 + x366 <= 1
C459: + x54 + x305 <= 1
C460: + x76 + x473 <= 1
C461: + x116 + x437 <= 1
C462: + x1 + x285 <= 1
C463: + x186 + x460 <= 1
C464: + x6 + x209 <= 1
C465: + x15 + x134 <= 1
C466: + x363 + x466 <= 1
C467: + x219 + x481 <= 1
C468: + x94 + x352 <= 1
C469: + x31 + x233 <= 1
C470: + x25 + x304 <= 1
C471: + x34 + x144 <= 1
C472: + x24 + x117 <= 1
C473: + x263 + x282 <= 1
C474: + x11 + x335 <= 1
C475: + x216 + x284 <= 1
C476: + x157 + x244 <= 1
C477: + x113 + x328 <= 1
C478: + x15 + x210 <= 1
C479: + x35 + x446 <= 1
C480: + x26 + x140 <= 1
C481: + x9 + x206 <= 1
C482: + x10 + x194 <= 1
C483: + x60 + x432 <= 1
C484: + x125 + x157 <= 1
C485: + x110 + x465 <= 1
C486: + x106 + x332 <= 1
C487: + x6 + x22 <= 1
C488: + x276 + x482 <= 1
C489: + x69 + x290 <= 1
C490: + x98 + x194 <= 1
C491: + x289 + x445 <= 1
C492: + x111 + x274 <= 1
C493: + x242 + x487 <= 1
C494: + x62 + x202 <= 1
C495: + x14 + x39 <= 1
C496: + x125 + x438 <= 1
C497: + x16 + x263 <= 1
C498: + x2 + x234 <= 1
C499: + x3 + x282 <= 1
C500: + x41 + x93 <= 1
C501: + x21 + x78 <= 1
C502: + x106 + x257 <= 1
C503: + x10 + x112 <= 1
C504: + x300 + x326 <= 1
C505: + x237 + x321 <= 1
C506: + x4 + x226 <= 1
C507: + x6 + x345 <= 1
C508: + x1 + x50 <= 1
C509: + x93 + x99 <= 1
C510: + x63 + x268 <= 1
C511: + x40 + x241 <= 1
C512: + x251 + x485 <= 1
C513: + x161 + x288 <= 1
C514: + x82 + x443 <= 1
C515: + x3 + x60 <= 1
C516: + x4 + x271 <= 1
C517: + x197 + x449 <= 1
C518: + x6 + x31 <= 1
C519: + x10 + x92 <= 1
C520: + x26 + x217 <= 1
C521: + x9 + x33 <= 1
C522: + x8 + x25 <= 1
C523: + x171 + x334 <= 1
C524: + x160 + x463 <= 1
C525: + x127 + x227 <= 1
C526: + x313 + x336 <= 1
C527: + x34 + x41 <= 1
C528: + x351 + x402 <= 1
C529: + x101 + x471 <= 1
C530: + x167 + x274 <= 1
C531: + x16 + x251 <= 1
C532: + x13 + x53 <= 1
C533: + x34 + x343 <= 1
C534: + x206 + x323 <= 1
C535: + x156 + x464 <= 1
C536: + x20 + x91 <= 1
C537: + x252 + x359 <= 1
C538: + x19 + x497 <= 1
C539: + x102 + x405 <= 1
C540: + x229 + x365 <= 1
C541: + x56 + x449 <= 1
C542: + x6 + x247 <= 1
C543: + x316 + x384 <= 1
C544: + x7 + x338 <= 1
C545: + x83 + x415 <= 1
C546: + x259 + x272 <= 1
C547: + x103 + x273 <= 1
C548: + x205 + x297 <= 1
C549: + x4 + x6 <= 1
C550: + x170 + x302 <= 1
C551: + x6 + x485 <= 1
C552: + x52 + x64 <= 1
C553: + x119 + x280 <= 1
C554: + x85 + x89 <= 1
C555: + x59 + x216 <= 1
C556: + x10 + x394 <= 1
C557: + x19 + x114 <= 1
C558: + x11 + x83 <= 1
C559: + x14 + x200 <= 1
C560: + x9 + x40 <= 1
C561: + x27 + x210 <= 1
C562: + x63 + x383 <= 1
C563: + x228 + x446 <= 1
C564: + x86 + x397 <= 1
C565: + x32 + x416 <= 1
C566: + x6 + x425 <= 1
C567: + x399 + x492 <= 1
C568: + x11 + x489 <= 1
C569: + x2 + x89 <= 1
C570: + x3 + x71 <= 1
C571: + x238 + x269 <= 1
C572: + x136 + x335 <= 1
C573: + x278 + x321 <= 1
C574: + x211 + x398 <= 1
C575: + x123 + x476 <= 1
C576: + x251 + x277 <= 1
C577: + x364 + x457 <= 1
C578: + x9 + x20 <= 1
C579: + x86 + x465 <= 1
C580: + x41 + x317 <= 1
C581: + x259 + x368 <= 1
C582: + x104 + x413 <= 1
C583: + x179 + x489 <= 1
C584: + x36 + x370 <= 1
C585: + x2 + x418 <= 1
C586: + x185 + x309 <= 1
C587: + x30 + x327 <= 1
C588: + x52 + x307 <= 1
C589: + x17 + x369 <= 1
C590: + x119 + x206 <= 1
C591: + x139 + x392 <= 1
C592: + x21 + x195 <= 1
C593: + x4 + x11 <= 1
C594: + x40 + x231 <= 1
C595: + x169 + x385 <= 1
C596: + x51 + x358 <= 1
C597: + x51 + x175 <= 1
C598: + x34 + x239 <= 1
C599: + x32 + x337 <= 1
C600: + x119 + x125 <= 1
C601: + x8 + x236 <= 1
C602: + x86 + x307 <= 1
C603: + x69 + x287 <= 1
C604: + x162 + x224 <= 1
C605: + x88 + x389 <= 1
C606: + x35 + x411 <= 1
C607: + x280 + x319 <= 1
C608: + x46 + x216 <= 1
C609: + x1 + x92 <= 1
C610: + x4 + x55 <= 1
C611: + x92 + x442 <= 1
C612: + x11 + x45 <= 1
C613: + x113 + x440 <= 1
C614: + x104 + x261 <= 1
C615: + x231 + x412 <= 1
C616: + x4 + x72 <= 1
C617: + x117 + x178 <= 1
C618: + x36 + x156 <= 1
C619: + x11 + x355 <= 1
C620: + x248 + x261 <= 1
C621: + x5 + x330 <= 1
C622: + x45 + x348 <= 1
C623: + x14 + x419 <= 1
C624: + x54 + x124 <= 1
C625: + x103 + x162 <= 1
C626: + x4 + x213 <= 1
C627: + x87 + x145 <= 1
C628: + x16 + x157 <= 1
C629: + x1 + x7 <= 1
C630: + x46 + x285 <= 1
C631: + x196 + x263 <= 1
C632: + x5 + x473 <= 1
C633: + x16 + x52 <= 1
C634: + x36 + x200 <= 1
C635: + x122 + x426 <= 1
C636: + x3 + x5 <= 1
C637: + x6 + x10 <= 1
C638: + x36 + x419 <= 1
C639: + x255 + x315 <= 1
C640: + x74 + x271 <= 1
C641: + x7 + x138 <= 1
C642: + x21 + x185 <= 1
C643: + x4 + x129 <= 1
C644: + x5 + x19 <= 1
C645: + x162 + x209 <= 1
C646: + x35 + x95 <= 1
C647: + x16 + x161 <= 1
C648: + x235 + x487 <= 1
C649: + x459 + x464 <= 1
C650: + x226 + x295 <= 1
C651: + x221 + x238 <= 1
C652: + x58 + x182 <= 1
C653: + x95 + x154 <= 1
C654: + x67 + x304 <= 1
C655: + x33 + x41 <= 1
C656: + x79 + x169 <= 1
C657: + x27 + x410 <= 1
C658: + x36 + x495 <= 1
C659: + x11 + x137 <= 1
C660: + x175 + x203 <= 1
C661: + x27 + x248 <= 1
C662: + x183 + x338 <= 1
C663: + x58 + x372 <= 1
C664: + x12 + x61 <= 1
C665: + x41 + x299 <= 1
C666: + x97 + x456 <= 1
C667: + x231 + x384 <= 1
C668: + x284 + x364 <= 1
C669: + x14 + x63 <= 1
C670: + x362 + x467 <= 1
C671: + x23 + x108 <= 1
C672: + x26 + x310 <= 1
C673: + x7 + x242 <= 1
C674: + x190 + x389 <= 1
C675: + x8 + x73 <= 1
C676: + x31 + x252 <= 1
C677: + x69 + x75 <= 1
C678: + x79 + x331 <= 1
C679: + x35 + x231 <= 1
C680: + x156 + x495 <= 1
C681: + x67 + x275 <= 1
C682: + x20 + x62 <= 1
C683: + x146 + x213 <= 1
C684: + x175 + x258 <= 1
C685: + x370 + x484 <= 1
C686: + x13 + x229 <= 1
C687: + x90 + x373 <= 1
C688: + x36 + x94 <= 1
C689: + x37 + x227 <= 1
C690: + x113 + x180 <= 1
C691: + x116 + x415 <= 1
C692: + x81 + x333 <= 1
C693: + x28 + x376 <= 1
C694: + x46 + x109 <= 1
C695: + x6 + x39 <= 1
C696: + x73 + x364 <= 1
C697: + x14 + x370 <= 1
C698: + x5 + x411 <= 1
C699: + x1 + x102 <= 1
C700: + x156 + x428 <= 1
C701: + x77 + x433 <= 1
C702: + x213 + x297 <= 1
C703: + x33 + x159 <= 1
C704: + x13 + x459 <= 1
C705: + x6 + x440 <= 1
C706: + x104 + x239 <= 1
C707: + x73 + x344 <= 1
C708: + x1 + x21 <= 1
C709: + x21 + x224 <= 1
C710: + x294 + x461 <= 1
C711: + x32 + x241 <= 1
C712: + x14 + x294 <= 1
C713: + x17 + x88 <= 1
C714: + x3 + x23 <= 1
C715: + x95 + x96 <= 1
C716: + x25 + x56 <= 1
C717: + x7 + x124 <= 1
C718: + x182 + x402 <= 1
C719: + x2 + x12 <= 1
C720: + x147 + x159 <= 1
C721: + x114 + x338 <= 1
C722: + x11 + x119 <= 1
C723: + x9 + x196 <= 1
C724: + x281 + x436 <= 1
C725: + x21 + x36 <= 1
C726: + x4 + x46 <= 1
C727: + x23 + x333 <= 1
C728: + x10 + x311 <= 1
C729: + x9 + x417 <= 1
C730: + x302 + x305 <= 1
C731: + x139 + x147 <= 1
C732: + x50 + x99 <= 1
C733: + x22 + x426 <= 1
C734: + x23 + x42 <= 1
C735: + x5 + x152 <= 1
C736: + x139 + x346 <= 1
C737: + x5 + x386 <= 1
C738: + x53 + x79 <= 1
C739: + x18 + x37 <= 1
C740: + x9 + x16 <= 1
C741: + x8 + x42 <= 1
C742: + x11 + x288 <= 1
C743: + x21 + x120 <= 1
C744: + x30 + x93 <= 1
C745: + x30 + x392 <= 1
C746: + x7 + x71 <= 1
C747: + x182 + x471 <= 1
C748: + x11 + x14 <= 1
C749: + x76 + x202 <= 1
C750: + x77 + x218 <= 1
C751: + x33 + x499 <= 1
C752: + x260 + x415 <= 1
C753: + x55 + x339 <= 1
C754: + x11 + x239 <= 1
C755: + x314 + x363 <= 1
C756: + x43 + x105 <= 1
C757: + x7 + x115 <= 1
C758: + x6 + x339 <= 1
C759: + x7 + x353 <= 1
C760: + x313 + x378 <= 1
C761: + x1 + x13 + x16 <= 1
C762: + x74 + x128 <= 1
C763: + x46 + x95 <= 1
C764: + x36 + x390 <= 1
C765: + x146 + x326 <= 1
C766: + x111 + x178 <= 1
C767: + x43 + x306 <= 1
C768: + x23 + x311 <= 1
C769: + x6 + x263 <= 1
C770: + x273 + x292 <= 1
C771: + x46 + x240 <= 1
C772: + x241 + x286 <= 1
C773: + x138 + x452 <= 1
C774: + x97 + x493 <= 1
C775: + x6 + x442 <= 1
C776: + x35 + x129 <= 1
C777: + x2 + x74 <= 1
C778: + x32 + x68 <= 1
C779: + x236 + x429 <= 1
C780: + x144 + x304 <= 1
C781: + x107 + x166 <= 1
C782: + x26 + x31 <= 1
C783: + x162 + x439 <= 1
C784: + x29 + x126 <= 1
C785: + x140 + x416 <= 1
C786: + x48 + x383 <= 1
C787: + x422 + x424 <= 1
C788: + x1 + x301 <= 1
C789: + x228 + x361 <= 1
C790: + x4 + x253 <= 1
C791: + x260 + x436 <= 1
C792: + x88 + x123 <= 1
C793: + x126 + x164 <= 1
C794: + x8 + x108 <= 1
C795: + x32 + x354 <= 1
C796: + x61 + x89 <= 1
C797: + x156 + x258 <= 1
C798: + x221 + x242 <= 1
C799: + x9 + x268 <= 1
C800: + x8 + x302 <= 1
C801: + x81 + x223 <= 1
C802: + x15 + x69 <= 1
C803: + x8 + x32 <= 1
C804: + x38 + x220 <= 1
C805: + x59 + x264 <= 1
C806: + x122 + x208 <= 1
C807: + x213 + x243 <= 1
C808: + x151 + x352 <= 1
C809: + x316 + x413 <= 1
C810: + x33 + x164 <= 1
C811: + x66 + x224 <= 1
C812: + x16 + x496 <= 1
C813: + x139 + x201 <= 1
C814: + x60 + x130 <= 1
C815: + x40 + x470 <= 1
C816: + x108 + x140 <= 1
C817: + x120 + x172 <= 1
C818: + x449 + x468 <= 1
C819: + x231 + x491 <= 1
C820: + x214 + x291 <= 1
C821: + x5 + x111 <= 1
C822: + x43 + x365 <= 1
C823: + x70 + x494 <= 1
C824: + x27 + x160 <= 1
C825: + x52 + x111 <= 1
C826: + x11 + x374 <= 1
C827: + x139 + x271 <= 1
C828: + x87 + x454 <= 1
C829: + x128 + x316 <= 1
C830: + x2 + x265 <= 1
C831: + x58 + x348 <= 1
C832: + x150 + x300 <= 1
C833: + x2 + x31 <= 1
C834: + x221 + x391 <= 1
C835: + x11 + x100 <= 1
C836: + x14 + x23 <= 1
C837: + x126 + x189 <= 1
C838: + x8 + x97 <= 1
C839: + x122 + x133 <= 1
C840: + x56 + x107 <= 1
C841: + x286 + x351 <= 1
C842: + x38 + x116 <= 1
C843: + x293 + x305 <= 1
C844: + x95 + x125 <= 1
C845: + x96 + x206 <= 1
C846: + x5 + x34 <= 1
C847: + x11 + x265 <= 1
C848: + x48 + x313 <= 1
C849: + x4 + x388 <= 1
C850: + x35 + x147 <= 1
C851: + x53 + x249 <= 1
C852: + x83 + x121 <= 1
C853: + x12 + x324 <= 1
C854: + x8 + x166 <= 1
C855: + x285 + x412 <= 1
C856: + x205 + x369 <= 1
C857: + x25 + x247 <= 1
C858: + x23 + x285 <= 1
C859: + x77 + x86 <= 1
C860: + x178 + x486 <= 1
C861: + x42 + x78 <= 1
C862: + x59 + x144 <= 1
C863: + x9 + x462 <= 1
C864: + x2 + x24 <= 1
C865: + x221 + x414 <= 1
C866: + x31 + x106 <= 1
C867: + x44 + x68 <= 1
C868: + x62 + x417 <= 1
C869: + x16 + x139 <= 1
C870: + x4 + x477 <= 1
C871: + x27 + x171 <= 1
C872: + x474 + x483 <= 1
C873: + x180 + x406 <= 1
C874: + x82 + x211 <= 1
C875: + x262 + x479 <= 1
C876: + x1 + x89 <= 1
C877: + x119 + x155 <= 1
C878: + x38 + x206 <= 1
C879: + x174 + x347 <= 1
C880: + x4 + x54 <= 1
C881: + x12 + x87 <= 1
C882: + x77 + x254 <= 1
C883: + x9 + x187 <= 1
C884: + x10 + x13 <= 1
C885: + x47 + x396 <= 1
C886: + x30 + x210 <= 1
C887: + x13 + x48 <= 1
C888: + x90 + x306 <= 1
C889: + x9 + x24 <= 1
C890: + x27 + x226 <= 1
C891: + x200 + x258 <= 1
C892: + x30 + x117 <= 1
C893: + x50 + x204 <= 1
C894: + x13 + x474 <= 1
C895: + x77 + x392 <= 1
C896: + x25 + x27 <= 1
C897: + x113 + x353 <= 1
C898: + x20 + x378 <= 1
C899: + x186 + x431 <= 1
C900: + x270 + x468 <= 1
C901: + x355 + x464 <= 1
C902: + x7 + x333 <= 1
C903: + x10 + x249 <= 1
C904: + x383 + x435 <= 1
C905: + x60 + x217 <= 1
C906: + x208 + x406 <= 1
C907: + x91 + x151 <= 1
C908: + x291 + x341 <= 1
C909: + x2 + x37 <= 1
C910: + x69 + x283 <= 1
C911: + x380 + x427 <= 1
C912: + x26 + x380 <= 1
C913: + x6 + x379 <= 1
C914: + x63 + x358 <= 1
C915: + x46 + x212 <= 1
C916: + x3 + x336 <= 1
C917: + x41 + x167 <= 1
C918: + x23 + x448 <= 1
C919: + x70 + x131 <= 1
C920: + x82 + x101 <= 1
C921: + x265 + x431 <= 1
C922: + x2 + x86 <= 1
C923: + x376 + x390 <= 1
C924: + x23 + x25 <= 1
C925: + x6 + x49 <= 1
C926: + x18 + x139 <= 1
C927: + x80 + x405 <= 1
C928: + x137 + x375 <= 1
C929: + x20 + x274 <= 1
C930: + x77 + x346 <= 1
C931: + x85 + x149 <= 1
C932: + x232 + x488 <= 1
C933: + x6 + x303 <= 1
C934: + x90 + x315 <= 1
C935: + x11 + x367 <= 1
C936: + x29 + x66 <= 1
C937: + x2 + x276 <= 1
C938: + x6 + x66 <= 1
C939: + x80 + x207 <= 1
C940: + x55 + x128 <= 1
C941: + x361 + x474 <= 1
C942: + x28 + x156 <= 1
C943: + x46 + x281 <= 1
C944: + x19 + x205 <= 1
C945: + x237 + x463 <= 1
C946: + x3 + x307 <= 1
C947: + x387 + x479 <= 1
C948: + x338 + x373 <= 1
C949: + x56 + x324 <= 1
C950: + x20 + x496 <= 1
C951: + x85 + x107 <= 1
C952: + x161 + x390 <= 1
C953: + x101 + x377 <= 1
C954: + x382 + x431 <= 1
C955: + x220 + x320 <= 1
C956: + x35 + x91 <= 1
C957: + x27 + x48 <= 1
C958: + x20 + x170 <= 1
C959: + x4 + x36 <= 1
C960: + x97 + x400 <= 1
C961: + x168 + x290 <= 1
C962: + x13 + x79 <= 1
C963: + x7 + x29 <= 1
C964: + x136 + x238 <= 1
C965: + x67 + x300 <= 1
C966: + x13 + x377 <= 1
C967: + x70 + x303 <= 1
C968: + x21 + x137 <= 1
C969: + x149 + x265 <= 1
C970: + x5 + x67 <= 1
C971: + x27 + x244 <= 1
C972: + x18 + x47 <= 1
C973: + x46 + x129 <= 1
C974: + x19 + x181 <= 1
C975: + x196 + x355 <= 1
C976: + x414 + x424 <= 1
C977: + x27 + x277 <= 1
C978: + x9 + x483 <= 1
C979: + x11 + x459 <= 1
C980: + x112 + x319 <= 1
C981: + x135 + x260 <= 1
C982: + x121 + x303 <= 1
C983: + x276 + x410 <= 1
C984: + x40 + x145 <= 1
C985: + x278 + x390 <= 1
C986: + x44 + x214 <= 1
C987: + x10 + x326 <= 1
C988: + x3 + x28 <= 1
C989: + x323 + x370 <= 1
C990: + x9 + x303 <= 1
C991: + x2 + x55 <= 1
C992: + x67 + x125 <= 1
C993: + x431 + x447 <= 1
C994: + x186 + x232 <= 1
C995: + x395 + x409 <= 1
C996: + x7 + x24 <= 1
C997: + x139 + x347 <= 1
C998: + x76 + x342 <= 1
C999: + x132 + x155 <= 1
C1000: + x9 + x176 <= 1
C1001: + x82 + x325 <= 1
C1002: + x165 + x254 <= 1
C1003: + x149 + x280 <= 1
C1004: + x9 + x13 <= 1
C1005: + x228 + x385 <= 1
C1006: + x82 + x488 <= 1
C1007: + x57 + x228 <= 1
C1008: + x2 + x116 <= 1
C1009: + x11 + x15 <= 1
C1010: + x7 + x9 + x11 + x17 <= 1
C1011: + x45 + x56 <= 1
C1012: + x10 + x20 <= 1
C1013: + x268 + x334 <= 1
C1014: + x318 + x467 <= 1
C1015: + x50 + x171 <= 1
C1016: + x118 + x483 <= 1
C1017: + x10 + x125 <= 1
C1018: + x419 + x427 <= 1
C1019: + x22 + x69 <= 1
C1020: + x61 + x437 <= 1
C1021: + x157 + x283 <= 1
C1022: + x186 + x233 <= 1
C1023: + x23 + x321 <= 1
C1024: + x14 + x278 <= 1
C1025: + x8 + x405 <= 1
C1026: + x38 + x416 <= 1
C1027: + x10 + x41 <= 1
C1028: + x28 + x83 <= 1
C1029: + x212 + x485 <= 1
C1030: + x6 + x282 <= 1
C1031: + x10 + x140 <= 1
C1032: + x144 + x446 <= 1
C1033: + x37 + x218 <= 1
C1034: + x21 + x116 <= 1
C1035: + x204 + x310 <= 1
C1036: + x224 + x228 <= 1
C1037: + x16 + x486 <= 1
C1038: + x8 + x329 <= 1
C1039: + x75 + x317 <= 1
C1040: + x3 + x123 <= 1
C1041: + x114 + x275 <= 1
C1042: + x56 + x314 <= 1
C1043: + x23 + x122 <= 1
C1044: + x86 + x143 <= 1
C1045: + x30 + x202 <= 1
C1046: + x89 + x113 <= 1
C1047: + x206 + x336 <= 1
C1048: + x23 + x272 <= 1
C1049: + x27 + x138 <= 1
C1050: + x45 + x212 <= 1
C1051: + x7 + x470 <= 1
C1052: + x43 + x85 <= 1
C1053: + x23 + x489 <= 1
C1054: + x142 + x201 <= 1
C1055: + x1 + x159 <= 1
C1056: + x29 + x333 <= 1
C1057: + x30 + x379 <= 1
C1058: + x161 + x248 <= 1
C1059: + x5 + x12 <= 1
C1060: + x228 + x436 <= 1
C1061: + x145 + x295 <= 1
C1062: + x6 + x132 <= 1
C1063: + x11 + x223 <= 1
C1064: + x20 + x189 <= 1
C1065: + x186 + x242 <= 1
C1066: + x61 + x94 <= 1
C1067: + x88 + x268 <= 1
C1068: + x33 + x80 + x197 <= 1
C1069: + x8 + x256 <= 1
C1070: + x11 + x162 <= 1
C1071: + x70 + x445 <= 1
C1072: + x6 + x184 <= 1
C1073: + x308 + x460 <= 1
C1074: + x63 + x334 <= 1
C1075: + x11 + x259 <= 1
C1076: + x139 + x480 <= 1
C1077: + x378 + x382 <= 1
C1078: + x214 + x240 <= 1
C1079: + x224 + x233 <= 1
C1080: + x114 + x142 + x163 <= 1
C1081: + x19 + x451 <= 1
C1082: + x11 + x49 <= 1
C1083: + x20 + x411 <= 1
C1084: + x421 + x453 <= 1
C1085: + x4 + x309 <= 1
C1086: + x353 + x499 <= 1
C1087: + x12 + x330 <= 1
C1088: + x15 + x35 + x154 <= 1
C1089: + x27 + x145 <= 1
C1090: + x20 + x85 <= 1
C1091: + x242 + x466 <= 1
C1092: + x140 + x404 <= 1
C1093: + x5 + x350 <= 1
C1094: + x1 + x289 <= 1
C1095: + x237 + x322 <= 1
C1096: + x11 + x101 <= 1
C1097: + x20 + x359 <= 1
C1098: + x13 + x142 <= 1
C1099: + x14 + x26 <= 1
C1100: + x61 + x331 <= 1
C1101: + x126 + x192 <= 1
C1102: + x109 + x154 <= 1
C1103: + x103 + x287 <= 1
C1104: + x12 + x97 <= 1
C1105: + x40 + x244 <= 1
C1106: + x35 + x196 <= 1
C1107: + x321 + x453 <= 1
C1108: + x58 + x214 <= 1
C1109: + x22 + x456 <= 1
C1110: + x9 + x272 <= 1
C1111: + x19 + x427 <= 1
C1112: + x76 + x107 <= 1
C1113: + x113 + x300 <= 1
C1114: + x277 + x474 <= 1
C1115: + x30 + x136 <= 1
C1116: + x10 + x182 <= 1
C1117: + x52 + x198 <= 1
C1118: + x36 + x288 <= 1
C1119: + x182 + x293 <= 1
C1120: + x9 + x415 <= 1
C1121: + x101 + x472 <= 1
C1122: + x102 + x123 <= 1
C1123: + x73 + x188 <= 1
C1124: + x110 + x235 <= 1
C1125: + x20 + x255 <= 1
C1126: + x82 + x391 <= 1
C1127: + x391 + x478 <= 1
C1128: + x36 + x332 <= 1
C1129: + x2 + x432 <= 1
C1130: + x50 + x57 <= 1
C1131: + x23 + x72 <= 1
C1132: + x35 + x461 <= 1
C1133: + x6 + x246 <= 1
C1134: + x99 + x314 <= 1
C1135: + x1 + x10 <= 1
C1136: + x146 + x411 <= 1
C1137: + x130 + x481 <= 1
C1138: + x11 + x193 <= 1
C1139: + x4 + x5 <= 1
C1140: + x23 + x342 <= 1
C1141: + x28 + x45 + x256 <= 1
C1142: + x7 + x500 <= 1
C1143: + x257 + x438 <= 1
C1144: + x187 + x386 <= 1
C1145: + x6 + x7 <= 1
C1146: + x27 + x449 <= 1
C1147: + x2 + x14 + x186 <= 1
C1148: + x97 + x237 <= 1
C1149: + x5 + x46 <= 1
C1150: + x371 + x456 <= 1
C1151: + x24 + x207 <= 1
C1152: + x86 + x396 <= 1
C1153: + x40 + x221 <= 1
C1154: + x5 + x288 <= 1
C1155: + x7 + x48 <= 1
C1156: + x5 + x189 <= 1
C1157: + x107 + x127 <= 1
C1158: + x11 + x136 <= 1
C1159: + x20 + x264 <= 1
C1160: + x13 + x45 <= 1
C1161: + x125 + x215 <= 1
C1162: + x88 + x451 <= 1
C1163: + x17 + x469 <= 1
C1164: + x2 + x417 <= 1
C1165: + x33 + x472 <= 1
C1166: + x32 + x98 <= 1
C1167: + x8 + x86 <= 1
C1168: + x115 + x163 <= 1
C1169: + x13 + x97 <= 1
C1170: + x128 + x273 <= 1
C1171: + x20 + x486 <= 1
C1172: + x10 + x434 <= 1
C1173: + x10 + x69 <= 1
C1174: + x129 + x357 <= 1
C1175: + x11 + x91 <= 1
C1176: + x5 + x21 <= 1
C1177: + x151 + x385 <= 1
C1178: + x8 + x10 <= 1
C1179: + x237 + x393 <= 1
C1180: + x4 + x58 <= 1
C1181: + x83 + x112 <= 1
C1182: + x3 + x95 <= 1
C1183: + x20 + x434 <= 1
C1184: + x50 + x127 <= 1
C1185: + x80 + x396 <= 1
C1186: + x101 + x248 <= 1
C1187: + x21 + x135 <= 1
C1188: + x54 + x296 <= 1
C1189: + x11 + x356 <= 1
C1190: + x89 + x351 <= 1
C1191: + x11 + x18 <= 1
C1192: + x122 + x320 <= 1
C1193: + x140 + x169 <= 1
C1194: + x419 + x458 <= 1
C1195: + x89 + x252 <= 1
C1196: + x113 + x357 <= 1
C1197: + x262 + x435 <= 1
C1198: + x27 + x29 <= 1
C1199: + x27 + x178 <= 1
C1200: + x16 + x51 <= 1
C1201: + x310 + x423 <= 1
C1202: + x85 + x435 <= 1
C1203: + x3 + x6 <= 1
C1204: + x50 + x188 <= 1
C1205: + x258 + x268 <= 1
C1206: + x6 + x9 <= 1
C1207: + x10 + x443 <= 1
C1208: + x144 + x380 <= 1
C1209: + x8 + x228 <= 1
C1210: + x51 + x493 <= 1
C1211: + x35 + x403 <= 1
C1212: + x7 + x381 <= 1
C1213: + x80 + x484 <= 1
C1214: + x48 + x160 <= 1
C1215: + x13 + x84 <= 1
C1216: + x31 + x190 <= 1
C1217: + x34 + x51 <= 1
C1218: + x25 + x90 <= 1
C1219: + x5 + x270 <= 1
C1220: + x183 + x424 <= 1
C1221: + x10 + x58 <= 1
C1222: + x83 + x341 <= 1
C1223: + x29 + x313 <= 1
C1224: + x36 + x37 <= 1
C1225: + x145 + x334 <= 1
C1226: + x14 + x173 <= 1
C1227: + x89 + x393 <= 1
C1228: + x20 + x278 <= 1
C1229: + x18 + x42 <= 1
C1230: + x54 + x289 <= 1
C1231: + x8 + x59 <= 1
C1232: + x66 + x88 <= 1
C1233: + x103 + x428 <= 1
C1234: + x223 + x227 <= 1
C1235: + x96 + x369 <= 1
C1236: + x262 + x281 <= 1
C1237: + x11 + x25 <= 1
C1238: + x156 + x168 <= 1
C1239: + x2 + x102 <= 1
C1240: + x275 + x318 <= 1
C1241: + x4 + x221 <= 1
C1242: + x73 + x157 <= 1
C1243: + x45 + x62 <= 1
C1244: + x9 + x146 <= 1
C1245: + x67 + x463 <= 1
C1246: + x30 + x251 <= 1
C1247: + x61 + x121 <= 1
C1248: + x9 + x79 <= 1
C1249: + x62 + x274 <= 1
C1250: + x19 + x366 <= 1
C1251: + x111 + x331 <= 1
C1252: + x44 + x384 <= 1
C1253: + x4 + x137 <= 1
C1254: + x6 + x149 <= 1
C1255: + x24 + x214 <= 1
C1256: + x45 + x114 <= 1
C1257: + x21 + x38 <= 1
C1258: + x57 + x149 <= 1
C1259: + x174 + x492 <= 1
C1260: + x29 + x38 <= 1
C1261: + x9 + x173 <= 1
C1262: + x10 + x35 <= 1
C1263: + x82 + x328 <= 1
C1264: + x157 + x184 <= 1
C1265: + x136 + x476 <= 1
C1266: + x13 + x218 <= 1
C1267: + x70 + x462 <= 1
C1268: + x145 + x325 <= 1
C1269: + x37 + x371 <= 1
C1270: + x5 + x79 <= 1
C1271: + x19 + x177 <= 1
C1272: + x23 + x294 <= 1
C1273: + x30 + x67 <= 1
C1274: + x25 + x109 <= 1
C1275: + x151 + x332 <= 1
C1276: + x35 + x144 <= 1
C1277: + x8 + x343 <= 1
C1278: + x90 + x419 <= 1
C1279: + x133 + x350 <= 1
C1280: + x18 + x361 <= 1
C1281: + x355 + x478 <= 1
C1282: + x102 + x166 <= 1
C1283: + x293 + x500 <= 1
C1284: + x95 + x367 <= 1
C1285: + x213 + x409 <= 1
C1286: + x249 + x272 <= 1
C1287: + x55 + x230 <= 1
C1288: + x20 + x70 <= 1
C1289: + x166 + x404 <= 1
C1290: + x181 + x487 <= 1
C1291: + x2 + x11 <= 1
C1292: + x149 + x208 <= 1
C1293: + x10 + x219 <= 1
C1294: + x69 + x103 <= 1
C1295: + x35 + x179 <= 1
C1296: + x66 + x177 <= 1
C1297: + x11 + x398 <= 1
C1298: + x16 + x364 <= 1
C1299: + x265 + x318 <= 1
C1300: + x104 + x146 <= 1
C1301: + x69 + x313 <= 1
C1302: + x183 + x289 <= 1
C1303: + x56 + x211 <= 1
C1304: + x29 + x84 <= 1
C1305: + x30 + x92 <= 1
C1306: + x35 + x135 <= 1
C1307: + x7 + x72 <= 1
C1308: + x108 + x498 <= 1
C1309: + x30 + x298 <= 1
C1310: + x167 + x226 <= 1
C1311: + x206 + x496 <= 1
C1312: + x16 + x235 <= 1
C1313: + x38 + x186 <= 1
C1314: + x20 + x240 <= 1
C1315: + x5 + x122 <= 1
C1316: + x206 + x339 <= 1
C1317: + x53 + x148 <= 1
C1318: + x65 + x74 <= 1
C1319: + x76 + x275 <= 1
C1320: + x58 + x329 <= 1
C1321: + x52 + x191 <= 1
C1322: + x25 + x64 <= 1
C1323: + x255 + x301 <= 1
C1324: + x35 + x105 <= 1
C1325: + x27 + x62 <= 1
C1326: + x12 + x119 <= 1
C1327: + x22 + x351 <= 1
C1328: + x34 + x198 <= 1
C1329: + x94 + x441 <= 1
C1330: + x29 + x481 <= 1
C1331: + x5 + x160 <= 1
C1332: + x160 + x214 <= 1
C1333: + x304 + x343 <= 1
C1334: + x107 + x255 <= 1
C1335: + x52 + x490 <= 1
C1336: + x8 + x34 <= 1
C1337: + x61 + x151 <= 1
C1338: + x218 + x232 <= 1
C1339: + x347 + x416 <= 1
C1340: + x11 + x54 <= 1
C1341: + x130 + x180 <= 1
C1342: + x52 + x279 <= 1
C1343: + x90 + x208 <= 1
C1344: + x61 + x380 <= 1
C1345: + x8 + x183 <= 1
C1346: + x280 + x391 <= 1
C1347: + x325 + x459 <= 1
C1348: + x18 + x73 <= 1
C1349: + x119 + x323 <= 1
C1350: + x73 + x420 <= 1
C1351: + x111 + x352 <= 1
C1352: + x232 + x237 <= 1
C1353: + x5 + x6 + x8 + x70 <= 1
C1354: + x91 + x119 <= 1
C1355: + x7 + x107 <= 1
C1356: + x2 + x5 <= 1
C1357: + x85 + x225 <= 1
C1358: + x122 + x296 <= 1
C1359: + x14 + x29 <= 1
C1360: + x215 + x266 <= 1
C1361: + x45 + x95 <= 1
C1362: + x9 + x243 <= 1
C1363: + x174 + x180 <= 1
C1364: + x235 + x381 <= 1
C1365: + x46 + x87 <= 1
C1366: + x9 + x269 <= 1
C1367: + x11 + x174 <= 1
C1368: + x46 + x325 <= 1
C1369: + x20 + x306 <= 1
C1370: + x32 + x187 <= 1
C1371: + x161 + x200 <= 1
C1372: + x17 + x130 <= 1
C1373: + x145 + x471 <= 1
C1374: + x1 + x76 <= 1
C1375: + x99 + x376 <= 1
C1376: + x8 + x31 <= 1
C1377: + x10 + x177 <= 1
C1378: + x82 + x113 <= 1
C1379: + x9 + x412 <= 1
C1380: + x374 + x398 <= 1
C1381: + x30 + x316 <= 1
C1382: + x77 + x201 <= 1
C1383: + x32 + x76 <= 1
C1384: + x16 + x249 <= 1
C1385: + x143 + x448 <= 1
C1386: + x23 + x283 <= 1
C1387: + x16 + x32 <= 1
C1388: + x11 + x371 <= 1
C1389: + x165 + x305 <= 1
C1390: + x93 + x457 <= 1
C1391: + x222 + x237 <= 1
C1392: + x71 + x174 <= 1
C1393: + x62 + x153 <= 1
C1394: + x101 + x281 <= 1
C1395: + x15 + x222 <= 1
C1396: + x363 + x394 <= 1
C1397: + x8 + x100 <= 1
C1398: + x58 + x460 <= 1
C1399: + x86 + x443 <= 1
C1400: + x13 + x111 <= 1
C1401: + x34 + x216 <= 1
C1402: + x17 + x106 <= 1
C1403: + x16 + x36 <= 1
C1404: + x127 + x149 <= 1
C1405: + x35 + x224 <= 1
C1406: + x63 + x234 <= 1
C1407: + x3 + x53 <= 1
C1408: + x120 + x414 <= 1
C1409: + x67 + x245 <= 1
C1410: + x79 + x141 <= 1
C1411: + x27 + x454 <= 1
C1412: + x135 + x440 <= 1
C1413: + x13 + x254 <= 1
C1414: + x43 + x289 <= 1
C1415: + x15 + x234 <= 1
C1416: + x151 + x395 <= 1
C1417: + x8 + x24 <= 1
C1418: + x115 + x302 <= 1
C1419: + x151 + x344 <= 1
C1420: + x109 + x495 <= 1
C1421: + x155 + x418 <= 1
C1422: + x256 + x362 <= 1
C1423: + x183 + x471 <= 1
C1424: + x3 + x73 <= 1
C1425: + x32 + x49 <= 1
C1426: + x45 + x468 <= 1
C1427: + x11 + x153 <= 1
C1428: + x112 + x190 <= 1
C1429: + x151 + x455 <= 1
C1430: + x9 + x18 <= 1
C1431: + x80 + x293 <= 1
C1432: + x143 + x292 <= 1
C1433: + x29 + x77 <= 1
C1434: + x80 + x252 <= 1
C1435: + x408 + x479 <= 1
C1436: + x67 + x93 <= 1
C1437: + x242 + x253 <= 1
C1438: + x317 + x381 <= 1
C1439: + x1 + x14 <= 1
C1440: + x374 + x382 <= 1
C1441: + x51 + x360 <= 1
C1442: + x4 + x9 <= 1
C1443: + x70 + x85 <= 1
C1444: + x4 + x480 <= 1
C1445: + x143 + x368 <= 1
C1446: + x5 + x472 <= 1
C1447: + x20 + x46 <= 1
C1448: + x34 + x76 <= 1
C1449: + x36 + x444 <= 1
C1450: + x173 + x356 <= 1
C1451: + x10 + x397 <= 1
C1452: + x106 + x220 <= 1
C1453: + x40 + x118 <= 1
C1454: + x153 + x179 <= 1
C1455: + x9 + x45 <= 1
C1456: + x8 + x13 <= 1
C1457: + x93 + x395 <= 1
C1458: + x310 + x450 <= 1
C1459: + x115 + x156 <= 1
C1460: + x78 + x475 <= 1
C1461: + x252 + x295 <= 1
C1462: + x119 + x293 <= 1
C1463: + x61 + x257 <= 1
C1464: + x6 + x55 <= 1
C1465: + x111 + x152 <= 1
C1466: + x272 + x369 <= 1
C1467: + x80 + x302 <= 1
C1468: + x7 + x435 <= 1
C1469: + x20 + x103 <= 1
C1470: + x50 + x264 <= 1
C1471: + x137 + x139 <= 1
C1472: + x31 + x82 <= 1
C1473: + x269 + x453 <= 1
C1474: + x417 + x454 <= 1
C1475: + x80 + x104 <= 1
C1476: + x45 + x76 <= 1
C1477: + x8 + x82 <= 1
C1478: + x7 + x249 <= 1
C1479: + x118 + x358 <= 1
C1480: + x1 + x5 <= 1
C1481: + x36 + x198 <= 1
C1482: + x62 + x284 <= 1
C1483: + x120 + x404 <= 1
C1484: + x3 + x7 <= 1
C1485: + x394 + x399 <= 1
C1486: + x163 + x384 <= 1
C1487: + x83 + x294 <= 1
C1488: + x237 + x360 <= 1
C1489: + x185 + x262 <= 1
C1490: + x15 + x252 <= 1
C1491: + x6 + x175 <= 1
C1492: + x100 + x147 <= 1
C1493: + x63 + x363 <= 1
C1494: + x4 + x62 <= 1
C1495: + x205 + x222 <= 1
C1496: + x4 + x497 <= 1
C1497: + x69 + x441 <= 1
C1498: + x7 + x27 <= 1
C1499: + x395 + x408 <= 1
C1500: + x139 + x227 <= 1
C1501: + x49 + x365 <= 1
C1502: + x42 + x46 <= 1
C1503: + x52 + x371 <= 1
C1504: + x92 + x143 <= 1
C1505: + x10 + x53 <= 1
C1506: + x324 + x405 <= 1
C1507: + x53 + x127 <= 1
C1508: + x45 + x180 <= 1
C1509: + x27 + x234 <= 1
C1510: + x11 + x368 <= 1
C1511: + x213 + x296 <= 1
C1512: + x77 + x448 <= 1
C1513: + x167 + x408 <= 1
C1514: + x11 + x449 <= 1
C1515: + x11 + x30 <= 1
C1516: + x420 + x466 <= 1
C1517: + x23 + x86 <= 1
C1518: + x26 + x312 <= 1
C1519: + x70 + x361 <= 1
C1520: + x9 + x239 <= 1
C1521: + x7 + x325 <= 1
C1522: + x18 + x371 <= 1
C1523: + x29 + x242 <= 1
C1524: + x218 + x414 <= 1
C1525: + x166 + x267 <= 1
C1526: + x3 + x308 <= 1
C1527: + x179 + x368 <= 1
C1528: + x15 + x389 <= 1
C1529: + x10 + x324 <= 1
C1530: + x11 + x340 <= 1
C1531: + x21 + x481 <= 1
C1532: + x11 + x66 <= 1
C1533: + x156 + x255 <= 1
C1534: + x431 + x437 <= 1
C1535: + x207 + x387 <= 1
C1536: + x160 + x417 <= 1
C1537: + x44 + x410 <= 1
C1538: + x1 + x88 <= 1
C1539: + x111 + x311 <= 1
C1540: + x357 + x496 <= 1
C1541: + x7 + x191 <= 1
C1542: + x27 + x96 <= 1
C1543: + x219 + x457 <= 1
C1544: + x8 + x148 <= 1
C1545: + x21 + x138 <= 1
C1546: + x94 + x184 <= 1
C1547: + x224 + x387 <= 1
C1548: + x5 + x409 <= 1
C1549: + x172 + x193 <= 1
C1550: + x35 + x48 <= 1
C1551: + x11 + x279 <= 1
C1552: + x84 + x386 <= 1
C1553: + x151 + x181 <= 1
C1554: + x26 + x414 <= 1
C1555: + x361 + x450 <= 1
C1556: + x6 + x237 <= 1
C1557: + x18 + x191 <= 1
C1558: + x28 + x148 <= 1
C1559: + x237 + x455 <= 1
C1560: + x51 + x273 <= 1
C1561: + x14 + x157 <= 1
C1562: + x20 + x65 <= 1
C1563: + x38 + x418 <= 1
C1564: + x420 + x424 <= 1
C1565: + x157 + x494 <= 1
C1566: + x25 + x54 <= 1
C1567: + x23 + x480 <= 1
C1568: + x9 + x304 <= 1
C1569: + x86 + x109 <= 1
C1570: + x74 + x232 <= 1
C1571: + x1 + x130 <= 1
C1572: + x122 + x273 <= 1
C1573: + x58 + x81 <= 1
C1574: + x125 + x383 <= 1
C1575: + x5 + x7 <= 1
C1576: + x88 + x402 <= 1
C1577: + x24 + x299 <= 1
C1578: + x371 + x493 <= 1
C1579: + x125 + x137 <= 1
C1580: + x45 + x275 <= 1
C1581: + x27 + x329 <= 1
C1582: + x11 + x399 <= 1
C1583: + x9 + x447 <= 1
C1584: + x1 + x361 <= 1
C1585: + x103 + x198 <= 1
C1586: + x9 + x14 <= 1
C1587: + x16 + x121 <= 1
C1588: + x38 + x44 <= 1
C1589: + x242 + x491 <= 1
C1590: + x4 + x427 <= 1
C1591: + x74 + x189 <= 1
C1592: + x2 + x400 <= 1
C1593: + x284 + x360 <= 1
C1594: + x80 + x115 <= 1
C1595: + x181 + x372 <= 1
C1596: + x10 + x19 <= 1
C1597: + x11 + x225 <= 1
C1598: + x308 + x366 <= 1
C1599: + x54 + x423 <= 1
C1600: + x4 + x101 <= 1
C1601: + x5 + x127 <= 1
C1602: + x116 + x236 <= 1
C1603: + x15 + x407 <= 1
C1604: + x58 + x332 <= 1
C1605: + x105 + x387 <= 1
C1606: + x121 + x422 <= 1
C1607: + x58 + x90 <= 1
C1608: + x97 + x141 <= 1
C1609: + x15 + x205 <= 1
C1610: + x6 + x341 <= 1
C1611: + x1 + x38 <= 1
C1612: + x2 + x170 <= 1
C1613: + x4 + x17 <= 1
C1614: + x206 + x213 <= 1
C1615: + x170 + x313 <= 1
C1616: + x7 + x16 <= 1
C1617: + x116 + x363 <= 1
C1618: + x366 + x439 <= 1
C1619: + x60 + x187 <= 1
C1620: + x14 + x120 <= 1
C1621: + x6 + x43 <= 1
C1622: + x5 + x50 <= 1
C1623: + x23 + x144 <= 1
C1624: + x217 + x422 <= 1
C1625: + x83 + x488 <= 1
C1626: + x16 + x66 <= 1
C1627: + x302 + x445 <= 1
C1628: + x5 + x292 <= 1
C1629: + x45 + x318 <= 1
C1630: + x11 + x55 <= 1
C1631: + x41 + x443 <= 1
C1632: + x31 + x78 <= 1
C1633: + x27 + x118 <= 1
C1634: + x101 + x221 <= 1
C1635: + x73 + x324 <= 1
C1636: + x381 + x480 <= 1
C1637: + x2 + x151 <= 1
C1638: + x4 + x110 <= 1
C1639: + x125 + x286 <= 1
C1640: + x23 + x269 <= 1
C1641: + x7 + x459 <= 1
C1642: + x182 + x323 <= 1
C1643: + x24 + x470 <= 1
C1644: + x121 + x429 <= 1
C1645: + x2 + x8 <= 1
C1646: + x32 + x118 <= 1
C1647: + x126 + x379 <= 1
C1648: + x180 + x204 <= 1
C1649: + x60 + x85 <= 1
C1650: + x23 + x345 <= 1
C1651: + x15 + x422 <= 1
C1652: + x9 + x429 <= 1
C1653: + x199 + x327 <= 1
C1654: + x11 + x433 <= 1
C1655: + x194 + x444 <= 1
C1656: + x30 + x491 <= 1
C1657: + x3 + x63 <= 1
C1658: + x14 + x113 <= 1
C1659: + x95 + x120 <= 1
C1660: + x127 + x460 <= 1
C1661: + x206 + x433 <= 1
C1662: + x19 + x126 <= 1
C1663: + x8 + x308 <= 1
C1664: + x283 + x479 <= 1
C1665: + x65 + x393 <= 1
C1666: + x46 + x235 <= 1
C1667: + x29 + x167 <= 1
C1668: + x162 + x473 <= 1
C1669: + x101 + x298 <= 1
C1670: + x56 + x306 <= 1
C1671: + x106 + x374 <= 1
C1672: + x224 + x271 <= 1
C1673: + x109 + x282 <= 1
C1674: + x233 + x287 <= 1
C1675: + x77 + x307 <= 1
C1676: + x4 + x83 <= 1
C1677: + x44 + x60 <= 1
C1678: + x11 + x376 <= 1
C1679: + x385 + x447 <= 1
C1680: + x34 + x98 <= 1
C1681: + x35 + x338 <= 1
C1682: + x200 + x437 <= 1
C1683: + x260 + x439 <= 1
C1684: + x162 + x315 <= 1
C1685: + x24 + x253 <= 1
C1686: + x99 + x320 <= 1
C1687: + x8 + x103 <= 1
C1688: + x4 + x470 <= 1
C1689: + x176 + x418 <= 1
C1690: + x16 + x39 <= 1
C1691: + x18 + x121 <= 1
C1692: + x219 + x223 <= 1
C1693: + x159 + x197 <= 1
C1694: + x23 + x61 <= 1
C1695: + x145 + x217 <= 1
C1696: + x5 + x131 <= 1
C1697: + x189 + x488 <= 1
C1698: + x129 + x408 <= 1
C1699: + x10 + x90 <= 1
C1700: + x170 + x225 <= 1
C1701: + x24 + x262 <= 1
C1702: + x9 + x35 <= 1
C1703: + x8 + x27 <= 1
C1704: + x77 + x104 <= 1
C1705: + x4 + x386 <= 1
C1706: + x7 + x54 <= 1
C1707: + x27 + x362 <= 1
C1708: + x249 + x442 <= 1
C1709: + x11 + x57 <= 1
C1710: + x136 + x340 <= 1
C1711: + x4 + x92 <= 1
C1712: + x5 + x108 <= 1
C1713: + x133 + x492 <= 1
C1714: + x25 + x44 + x498 <= 1
C1715: + x16 + x28 <= 1
C1716: + x29 + x114 <= 1
C1717: + x96 + x261 <= 1
C1718: + x7 + x98 <= 1
C1719: + x45 + x360 <= 1
C1720: + x10 + x452 <= 1
C1721: + x11 + x109 <= 1
C1722: + x21 + x353 <= 1
C1723: + x32 + x124 <= 1
C1724: + x226 + x500 <= 1
C1725: + x54 + x326 <= 1
C1726: + x53 + x178 <= 1
C1727: + x399 + x478 <= 1
C1728: + x11 + x419 <= 1
C1729: + x167 + x339 <= 1
C1730: + x287 + x336 <= 1
C1731: + x34 + x439 <= 1
C1732: + x23 + x56 <= 1
C1733: + x47 + x442 <= 1
C1734: + x105 + x126 <= 1
C1735: + x285 + x354 <= 1
C1736: + x155 + x430 <= 1
C1737: + x75 + x343 <= 1
C1738: + x58 + x170 <= 1
C1739: + x204 + x391 <= 1
C1740: + x4 + x294 <= 1
C1741: + x5 + x190 <= 1
C1742: + x96 + x253 <= 1
C1743: + x32 + x61 <= 1
C1744: + x29 + x300 <= 1
C1745: + x4 + x65 <= 1
C1746: + x25 + x263 <= 1
C1747: + x117 + x181 <= 1
C1748: + x9 + x22 <= 1
C1749: + x47 + x231 <= 1
C1750: + x123 + x160 <= 1
C1751: + x89 + x345 <= 1
C1752: + x263 + x430 <= 1
C1753: + x77 + x184 <= 1
C1754: + x31 + x83 <= 1
C1755: + x90 + x349 <= 1
C1756: + x36 + x102 <= 1
C1757: + x7 + x335 <= 1
C1758: + x246 + x399 <= 1
C1759: + x20 + x211 <= 1
C1760: + x59 + x463 <= 1
C1761: + x69 + x71 <= 1
C1762: + x98 + x301 <= 1
C1763: + x70 + x81 <= 1
C1764: + x124 + x316 <= 1
C1765: + x108 + x422 <= 1
C1766: + x85 + x98 <= 1
C1767: + x6 + x15 <= 1
C1768: + x44 + x257 <= 1
C1769: + x19 + x103 <= 1
C1770: + x2 + x39 <= 1
C1771: + x220 + x293 <= 1
C1772: + x97 + x229 <= 1
C1773: + x14 + x255 <= 1
C1774: + x6 + x162 <= 1
C1775: + x279 + x477 <= 1
C1776: + x9 + x209 <= 1
C1777: + x8 + x9 <= 1
C1778: + x10 + x167 <= 1
C1779: + x11 + x317 <= 1
C1780: + x30 + x60 <= 1
C1781: + x123 + x211 <= 1
C1782: + x131 + x315 <= 1
C1783: + x108 + x466 <= 1
C1784: + x128 + x328 <= 1
C1785: + x20 + x433 <= 1
C1786: + x27 + x74 <= 1
C1787: + x1 + x205 <= 1
C1788: + x136 + x485 <= 1
C1789: + x366 + x370 <= 1
C1790: + x281 + x365 <= 1
C1791: + x237 + x446 <= 1
C1792: + x66 + x94 <= 1
C1793: + x41 + x209 <= 1
C1794: + x18 + x467 <= 1
C1795: + x8 + x356 <= 1
C1796: + x11 + x454 <= 1
C1797: + x2 + x441 <= 1
C1798: + x8 + x78 <= 1
C1799: + x285 + x420 <= 1
C1800: + x97 + x434 <= 1
C1801: + x8 + x497 <= 1
C1802: + x56 + x322 <= 1
C1803: + x63 + x398 <= 1
C1804: + x157 + x230 <= 1
C1805: + x30 + x146 <= 1
C1806: + x43 + x287 <= 1
C1807: + x61 + x421 <= 1
C1808: + x6 + x358 <= 1
C1809: + x27 + x34 <= 1
C1810: + x10 + x176 <= 1
C1811: + x16 + x163 <= 1
C1812: + x219 + x347 <= 1
C1813: + x184 + x321 <= 1
C1814: + x34 + x413 <= 1
C1815: + x79 + x175 <= 1
C1816: + x35 + x259 <= 1
C1817: + x18 + x142 <= 1
C1818: + x8 + x151 <= 1
C1819: + x20 + x277 <= 1
C1820: + x105 + x251 <= 1
C1821: + x116 + x265 <= 1
C1822: + x169 + x482 <= 1
C1823: + x7 + x75 <= 1
C1824: + x11 + x26 <= 1
C1825: + x38 + x468 <= 1
C1826: + x82 + x183 <= 1
C1827: + x27 + x101 <= 1
C1828: + x82 + x378 <= 1
C1829: + x5 + x117 <= 1
C1830: + x340 + x490 <= 1
C1831: + x21 + x493 <= 1
C1832: + x20 + x499 <= 1
C1833: + x1 + x346 <= 1
C1834: + x8 + x220 <= 1
C1835: + x90 + x136 <= 1
C1836: + x7 + x373 <= 1
C1837: + x218 + x430 <= 1
C1838: + x10 + x27 + x84 <= 1
C1839: + x6 + x37 <= 1
C1840: + x71 + x115 <= 1
C1841: + x9 + x174 <= 1
C1842: + x91 + x284 <= 1
C1843: + x265 + x312 <= 1
C1844: + x103 + x199 <= 1
C1845: + x455 + x478 <= 1
C1846: + x54 + x297 <= 1
C1847: + x62 + x342 <= 1
C1848: + x23 + x392 <= 1
C1849: + x120 + x461 <= 1
C1850: + x102 + x165 <= 1
C1851: + x61 + x113 <= 1
C1852: + x44 + x201 <= 1
C1853: + x45 + x219 <= 1
C1854: + x35 + x256 <= 1
C1855: + x43 + x112 <= 1
C1856: + x83 + x199 <= 1
C1857: + x83 + x276 <= 1
C1858: + x106 + x179 <= 1
C1859: + x33 + x458 <= 1
C1860: + x53 + x464 <= 1
C1861: + x27 + x52 <= 1
C1862: + x45 + x106 <= 1
C1863: + x8 + x120 <= 1
C1864: + x11 + x298 <= 1
C1865: + x217 + x407 <= 1
C1866: + x1 + x35 <= 1
C1867: + x57 + x64 <= 1
C1868: + x294 + x319 <= 1
C1869: + x4 + x483 <= 1
C1870: + x213 + x366 <= 1
C1871: + x287 + x344 <= 1
C1872: + x8 + x133 <= 1
C1873: + x114 + x132 <= 1
C1874: + x27 + x200 <= 1
C1875: + x19 + x169 <= 1
C1876: + x58 + x388 <= 1
C1877: + x76 + x474 <= 1
C1878: + x227 + x241 <= 1
C1879: + x11 + x12 <= 1
C1880: + x76 + x204 <= 1
C1881: + x61 + x382 <= 1
C1882: + x281 + x497 <= 1
C1883: + x40 + x133 <= 1
C1884: + x226 + x372 <= 1
C1885: + x18 + x87 <= 1
C1886: + x121 + x152 <= 1
C1887: + x47 + x207 <= 1
C1888: + x231 + x348 <= 1
C1889: + x67 + x355 <= 1
C1890: + x33 + x100 <= 1
C1891: + x45 + x375 <= 1
C1892: + x19 + x75 <= 1
C1893: + x164 + x166 <= 1
C1894: + x10 + x104 <= 1
C1895: + x11 + x128 <= 1
C1896: + x133 + x394 <= 1
C1897: + x45 + x97 <= 1
C1898: + x1 + x58 <= 1
C1899: + x67 + x406 <= 1
C1900: + x150 + x393 <= 1
C1901: + x71 + x196 <= 1
C1902: + x18 + x387 <= 1
C1903: + x255 + x445 <= 1
C1904: + x9 + x426 <= 1
C1905: + x3 + x36 <= 1
C1906: + x47 + x155 <= 1
C1907: + x29 + x482 <= 1
C1908: + x7 + x173 <= 1
C1909: + x8 + x311 <= 1
C1910: + x105 + x240 <= 1
C1911: + x12 + x199 <= 1
C1912: + x14 + x215 <= 1
C1913: + x125 + x243 <= 1
C1914: + x361 + x421 <= 1
C1915: + x76 + x116 <= 1
C1916: + x143 + x267 <= 1
C1917: + x59 + x410 <= 1
C1918: + x23 + x132 <= 1
C1919: + x25 + x362 <= 1
C1920: + x9 + x57 <= 1
C1921: + x8 + x33 <= 1
C1922: + x50 + x235 <= 1
C1923: + x79 + x80 <= 1
C1924: + x18 + x346 <= 1
C1925: + x122 + x182 <= 1
C1926: + x77 + x312 <= 1
C1927: + x4 + x82 <= 1
C1928: + x82 + x400 <= 1
C1929: + x8 + x469 <= 1
C1930: + x200 + x277 <= 1
C1931: + x21 + x77 <= 1
C1932: + x133 + x212 <= 1
C1933: + x54 + x477 <= 1
C1934: + x437 + x469 <= 1
C1935: + x55 + x475 <= 1
C1936: + x275 + x476 <= 1
C1937: + x10 + x105 <= 1
C1938: + x156 + x218 <= 1
C1939: + x35 + x440 <= 1
C1940: + x281 + x388 <= 1
C1941: + x2 + x167 <= 1
C1942: + x242 + x429 <= 1
C1943: + x4 + x30 <= 1
C1944: + x4 + x465 <= 1
C1945: + x116 + x376 <= 1
C1946: + x26 + x41 <= 1
C1947: + x73 + x401 <= 1
C1948: + x156 + x260 <= 1

binary
x1 x2 x3 x4 x5 x6 x7 x8 x9 x10 x11 x12 x13 x14 x15 x16 x17 x18 x19 x20 x21 x22 x23 x24 x25 x26 x27 x28 x29 x30 x31 x32 x33 x34 x35 x36 x37 x38 x39 x40 x41 x42 x43 x44 x45 x46 x47 x48 x49 x50 x51 x52 x53 x54 x55 x56 x57 x58 x59 x60 x61 x62 x63 x64 x65 x66 x67 x68 x69 x70 x71 x72 x73 x74 x75 x76 x77 x78 x79 x80 x81 x82 x83 x84 x85 x86 x87 x88 x89 x90 x91 x92 x93 x94 x95 x96 x97 x98 x99 x100 x101 x102 x103 x104 x105 x106 x107 x108 x109 x110 x111 x112 x113 x114 x115 x116 x117 x118 x119 x120 x121 x122 x123 x124 x125 x126 x127 x128 x129 x130 x131 x132 x133 x134 x135 x136 x137 x138 x139 x140 x141 x142 x143 x144 x145 x146 x147 x148 x149 x150 x151 x152 x153 x154 x155 x156 x157 x158 x159 x160 x161 x162 x163 x164 x165 x166 x167 x168 x169 x170 x171 x172 x173 x174 x175 x176 x177 x178 x179 x180 x181 x182 x183 x184 x185 x186 x187 x188 x189 x190 x191 x192 x193 x194 x195 x196 x197 x198 x199 x200 x201 x202 x203 x204 x205 x206 x207 x208 x209 x210 x211 x212 x213 x214 x215 x216 x217 x218 x219 x220 x221 x222 x223 x224 x225 x226 x227 x228 x229 x230 x231 x232 x233 x234 x235 x236 x237 x238 x239 x240 x241 x242 x243 x244 x245 x246 x247 x248 x249 x250 x251 x252 x253 x254 x255 x256 x257 x258 x259 x260 x261 x262 x263 x264 x265 x266 x267 x268 x269 x270 x271 x272 x273 x274 x275 x276 x277 x278 x279 x280 x281 x282 x283 x284 x285 x286 x287 x288 x289 x290 x291 x292 x293 x294 x295 x296 x297 x298 x299 x300 x301 x302 x303 x304 x305 x306 x307 x308 x309 x310 x311 x312 x313 x314 x315 x316 x317 x318 x319 x320 x321 x322 x323 x324 x325 x326 x327 x328 x329 x330 x331 x332 x333 x334 x335 x336 x337 x338 x339 x340 x341 x342 x343 x344 x345 x346 x347 x348 x349 x350 x351 x352 x353 x354 x355 x356 x357 x358 x359 x360 x361 x362 x363 x364 x365 x366 x367 x368 x369 x370 x371 x372 x373 x374 x375 x376 x377 x378 x379 x380 x381 x382 x383 x384 x385 x386 x387 x388 x389 x390 x391 x392 x393 x394 x395 x396 x397 x398 x399 x400 x401 x402 x403 x404 x405 x406 x407 x408 x409 x410 x411 x412 x413 x414 x415 x416 x417 x418 x419 x420 x421 x422 x423 x424 x425 x426 x427 x428 x429 x430 x431 x432 x433 x434 x435 x436 x437 x438 x439 x440 x441 x442 x443 x444 x445 x446 x447 x448 x449 x450 x451 x452 x453 x454 x455 x456 x457 x458 x459 x460 x461 x462 x463 x464 x465 x466 x467 x468 x469 x470 x471 x472 x473 x474 x475 x476 x477 x478 x479 x480 x481 x482 x483 x484 x485 x486 x487 x488 x489 x490 x491 x492 x493 x494 x495 x496 x497 x498 x499 x500
