maximize
OBJ: + 1 x1 + 1 x2 + 1 x3 + 1 x4 + 1 x5 + 1 x6 + 1 x7 + 1 x8 + 1 x9 + 1 x10 + 1 x11 + 1 x12 + 1 x13 + 1 x14 + 1 x15 + 1 x16 + 1 x17 + 1 x18 + 1 x19 + 1 x20 + 1 x21 + 1 x22 + 1 x23 + 1 x24 + 1 x25 + 1 x26 + 1 x27 + 1 x28 + 1 x29 + 1 x30 + 1 x31 + 1 x32 + 1 x33 + 1 x34 + 1 x35 + 1 x36 + 1 x37 + 1 x38 + 1 x39 + 1 x40 + 1 x41 + 1 x42 + 1 x43 + 1 x44 + 1 x45 + 1 x46 + 1 x47 + 1 x48 + 1 x49 + 1 x50 + 1 x51 + 1 x52 + 1 x53 + 1 x54 + 1 x55 + 1 x56 + 1 x57 + 1 x58 + 1 x59 + 1 x60 + 1 x61 + 1 x62 + 1 x63 + 1 x64 + 1 x65 + 1 x66 + 1 x67 + 1 x68 + 1 x69 + 1 x70 + 1 x71 + 1 x72 + 1 x73 + 1 x74 + 1 x75 + 1 x76 + 1 x77 + 1 x78 + 1 x79 + 1 x80 + 1 x81 + 1 x82 + 1 x83 + 1 x84 + 1 x85 + 1 x86 + 1 x87 + 1 x88 + 1 x89 + 1 x90 + 1 x91 + 1 x92 + 1 x93 + 1 x94 + 1 x95 + 1 x96 + 1 x97 + 1 x98 + 1 x99 + 1 x100 + 1 x101 + 1 x102 + 1 x103 + 1 x104 + 1 x105 + 1 x106 + 1 x107 + 1 x108 + 1 x109 + 1 x110 + 1 x111 + 1 x112 + 1 x113 + 1 x114 + 1 x115 + 1 x116 + 1 x117 + 1 x118 + 1 x119 + 1 x120 + 1 x121 + 1 x122 + 1 x123 + 1 x124 + 1 x125 + 1 x126 + 1 x127 + 1 x128 + 1 x129 + 1 x130 + 1 x131 + 1 x132 + 1 x133 + 1 x134 + 1 x135 + 1 x136 + 1 x137 + 1 x138 + 1 x139 + 1 x140 + 1 x141 + 1 x142 + 1 x143 + 1 x144 + 1 x145 + 1 x146 + 1 x147 + 1 x148 + 1 x149 + 1 x150 + 1 x151 + 1 x152 + 1 x153 + 1 x154 + 1 x155 + 1 x156 + 1 x157 + 1 x158 + 1 x159 + 1 x160 + 1 x161 + 1 x162 + 1 x163 + 1 x164 + 1 x165 + 1 x166 + 1 x167 + 1 x168 + 1 x169 + 1 x170 + 1 x171 + 1 x172 + 1 x173 + 1 x174 + 1 x175 + 1 x176 + 1 x177 + 1 x178 + 1 x179 + 1 x180 + 1 x181 + 1 x182 + 1 x183 + 1 x184 + 1 x185 + 1 x186 + 1 x187 + 1 x188 + 1 x189 + 1 x190 + 1 x191 + 1 x192 + 1 x193 + 1 x194 + 1 x195 + 1 x196 + 1 x197 + 1 x198 + 1 x199 + 1 x200 + 1 x201 + 1 x202 + 1 x203 + 1 x204 + 1 x205 + 1 x206 + 1 x207 + 1 x208 + 1 x209 + 1 x210 + 1 x211 + 1 x212 + 1 x213 + 1 x214 + 1 x215 + 1 x216 + 1 x217 + 1 x218 + 1 x219 + 1 x220 + 1 x221 + 1 x222 + 1 x223 + 1 x224 + 1 x225 + 1 x226 + 1 x227 + 1 x228 + 1 x229 + 1 x230 + 1 x231 + 1 x232 + 1 x233 + 1 x234 + 1 x235 + 1 x236 + 1 x237 + 1 x238 + 1 x239 + 1 x240 + 1 x241 + 1 x242 + 1 x243 + 1 x244 + 1 x245 + 1 x246 + 1 x247 + 1 x248 + 1 x249 + 1 x250 + 1 x251 + 1 x252 + 1 x253 + 1 x254 + 1 x255 + 1 x256 + 1 x257 + 1 x258 + 1 x259 + 1 x260 + 1 x261 + 1 x262 + 1 x263 + 1 x264 + 1 x265 + 1 x266 + 1 x267 + 1 x268 + 1 x269 + 1 x270 + 1 x271 + 1 x272 + 1 x273 + 1 x274 + 1 x275 + 1 x276 + 1 x277 + 1 x278 + 1 x279 + 1 x280 + 1 x281 + 1 x282 + 1 x283 + 1 x284 + 1 x285 + 1 x286 + 1 x287 + 1 x288 + 1 x289 + 1 x290 + 1 x291 + 1 x292 + 1 x293 + 1 x294 + 1 x295 + 1 x296 + 1 x297 + 1 x298 + 1 x299 + 1 x300 + 1 x301 + 1 x302 + 1 x303 + 1 x304 + 1 x305 + 1 x306 + 1 x307 + 1 x308 + 1 x309 + 1 x310 + 1 x311 + 1 x312 + 1 x313 + 1 x314 + 1 x315 + 1 x316 + 1 x317 + 1 x318 + 1 x319 + 1 x320 + 1 x321 + 1 x322 + 1 x323 + 1 x324 + 1 x325 + 1 x326 + 1 x327 + 1 x328 + 1 x329 + 1 x330 + 1 x331 + 1 x332 + 1 x333 + 1 x334 + 1 x335 + 1 x336 + 1 x337 + 1 x338 + 1 x339 + 1 x340 + 1 x341 + 1 x342 + 1 x343 + 1 x344 + 1 x345 + 1 x346 + 1 x347 + 1 x348 + 1 x349 + 1 x350 + 1 x351 + 1 x352 + 1 x353 + 1 x354 + 1 x355 + 1 x356 + 1 x357 + 1 x358 + 1 x359 + 1 x360 + 1 x361 + 1 x362 + 1 x363 + 1 x364 + 1 x365 + 1 x366 + 1 x367 + 1 x368 + 1 x369 + 1 x370 + 1 x371 + 1 x372 + 1 x373 + 1 x374 + 1 x375 + 1 x376 + 1 x377 + 1 x378 + 1 x379 + 1 x380 + 1 x381 + 1 x382 + 1 x383 + 1 x384 + 1 x385 + 1 x386 + 1 x387 + 1 x388 + 1 x389 + 1 x390 + 1 x391 + 1 x392 + 1 x393 + 1 x394 + 1 x395 + 1 x396 + 1 x397 + 1 x398 + 1 x399 + 1 x400 + 1 x401 + 1 x402 + 1 x403 + 1 x404 + 1 x405 + 1 x406 + 1 x407 + 1 x408 + 1 x409 + 1 x410 + 1 x411 + 1 x412 + 1 x413 + 1 x414 + 1 x415 + 1 x416 + 1 x417 + 1 x418 + 1 x419 + 1 x420 + 1 x421 + 1 x422 + 1 x423 + 1 x424 + 1 x425 + 1 x426 + 1 x427 + 1 x428 + 1 x429 + 1 x430 + 1 x431 + 1 x432 + 1 x433 + 1 x434 + 1 x435 + 1 x436 + 1 x437 + 1 x438 + 1 x439 + 1 x440 + 1 x441 + 1 x442 + 1 x443 + 1 x444 + 1 x445 + 1 x446 + 1 x447 + 1 x448 + 1 x449 + 1 x450 + 1 x451 + 1 x452 + 1 x453 + 1 x454 + 1 x455 + 1 x456 + 1 x457 + 1 x458 + 1 x459 + 1 x460 + 1 x461 + 1 x462 + 1 x463 + 1 x464 + 1 x465 + 1 x466 + 1 x467 + 1 x468 + 1 x469 + 1 x470 + 1 x471 + 1 x472 + 1 x473 + 1 x474 + 1 x475 + 1 x476 + 1 x477 + 1 x478 + 1 x479 + 1 x480 + 1 x481 + 1 x482 + 1 x483 + 1 x484 + 1 x485 + 1 x486 + 1 x487 + 1 x488 + 1 x489 + 1 x490 + 1 x491 + 1 x492 + 1 x493 + 1 x494 + 1 x495 + 1 x496 + 1 x497 + 1 x498 + 1 x499 + 1 x500

subject to
C1: + x394 + x411 <= 1
C2: + x4 + x272 <= 1
C3: + x23 + x58 <= 1
C4: + x36 + x397 <= 1
C5: + x74 + x277 <= 1
C6: + x31 + x42 <= 1
C7: + x6 + x179 <= 1
C8: + x45 + x148 <= 1
C9: + x16 + x75 <= 1
C10: + x145 + x472 <= 1
C11: + x178 + x311 <= 1
C12: + x108 + x495 <= 1
C13: + x181 + x425 <= 1
C14: + x365 + x472 <= 1
C15: + x136 + x343 <= 1
C16: + x29 + x397 <= 1
C17: + x86 + x147 <= 1
C18: + x123 + x468 <= 1
C19: + x14 + x33 <= 1
C20: + x121 + x492 <= 1
C21: + x181 + x334 <= 1
C22: + x18 + x339 <= 1
C23: + x44 + x64 <= 1
C24: + x13 + x294 <= 1
C25: + x11 + x98 <= 1
C26: + x64 + x291 <= 1
C27: + x166 + x188 <= 1
C28: + x162 + x319 <= 1
C29: + x32 + x361 <= 1
C30: + x63 + x239 <= 1
C31: + x28 + x342 <= 1
C32: + x75 + x360 <= 1
C33: + x79 + x142 <= 1
C34: + x7 + x159 <= 1
C35: + x129 + x364 <= 1
C36: + x160 + x437 <= 1
C37: + x9 + x39 <= 1
C38: + x80 + x276 <= 1
C39: + x83 + x470 <= 1
C40: + x138 + x500 <= 1
C41: + x71 + x333 <= 1
C42: + x12 + x487 <= 1
C43: + x273 + x276 <= 1
C44: + x79 + x317 <= 1
C45: + x165 + x426 <= 1
C46: + x7 + x203 <= 1
C47: + x36 + x53 <= 1
C48: + x210 + x418 <= 1
C49: + x175 + x188 <= 1
C50: + x30 + x215 <= 1
C51: + x140 + x289 <= 1
C52: + x110 + x393 <= 1
C53: + x8 + x459 <= 1
C54: + x38 + x55 <= 1
C55: + x222 + x314 <= 1
C56: + x3 + x400 <= 1
C57: + x149 + x467 <= 1
C58: + x116 + x469 <= 1
C59: + x6 + x94 <= 1
C60: + x31 + x307 <= 1
C61: + x138 + x283 <= 1
C62: + x247 + x292 <= 1
C63: + x2 + x419 <= 1
C64: + x4 + x12 <= 1
C65: + x56 + x129 <= 1
C66: + x313 + x494 <= 1
C67: + x43 + x120 <= 1
C68: + x18 + x273 <= 1
C69: + x45 + x408 <= 1
C70: + x92 + x253 <= 1
C71: + x10 + x436 <= 1
C72: + x28 + x458 <= 1
C73: + x11 + x93 <= 1
C74: + x40 + x117 <= 1
C75: + x4 + x153 <= 1
C76: + x42 + x411 <= 1
C77: + x30 + x156 <= 1
C78: + x9 + x46 <= 1
C79: + x62 + x371 <= 1
C80: + x86 + x308 <= 1
C81: + x15 + x299 <= 1
C82: + x48 + x149 <= 1
C83: + x91 + x412 <= 1
C84: + x61 + x189 <= 1
C85: + x289 + x302 <= 1
C86: + x1 + x488 <= 1
C87: + x3 + x65 <= 1
C88: + x58 + x174 <= 1
C89: + x86 + x165 <= 1
C90: + x196 + x490 <= 1
C91: + x14 + x83 <= 1
C92: + x18 + x152 <= 1
C93: + x8 + x157 <= 1
C94: + x19 + x32 <= 1
C95: + x4 + x69 <= 1
C96: + x91 + x432 <= 1
C97: + x9 + x26 <= 1
C98: + x11 + x358 <= 1
C99: + x84 + x499 <= 1
C100: + x116 + x478 <= 1
C101: + x102 + x392 <= 1
C102: + x2 + x111 <= 1
C103: + x25 + x442 <= 1
C104: + x91 + x230 <= 1
C105: + x7 + x250 <= 1
C106: + x1 + x6 <= 1
C107: + x9 + x340 <= 1
C108: + x47 + x86 <= 1
C109: + x103 + x270 <= 1
C110: + x152 + x409 <= 1
C111: + x139 + x355 <= 1
C112: + x130 + x288 <= 1
C113: + x3 + x8 <= 1
C114: + x59 + x217 <= 1
C115: + x44 + x261 <= 1
C116: + x7 + x137 <= 1
C117: + x13 + x237 <= 1
C118: + x5 + x18 <= 1
C119: + x81 + x99 <= 1
C120: + x32 + x145 <= 1
C121: + x345 + x379 <= 1
C122: + x10 + x171 <= 1
C123: + x363 + x429 <= 1
C124: + x103 + x378 <= 1
C125: + x71 + x447 <= 1
C126: + x3 + x334 <= 1
C127: + x4 + x61 <= 1
C128: + x60 + x76 <= 1
C129: + x164 + x456 <= 1
C130: + x247 + x354 <= 1
C131: + x49 + x217 <= 1
C132: + x47 + x312 <= 1
C133: + x86 + x174 <= 1
C134: + x4 + x303 <= 1
C135: + x12 + x372 <= 1
C136: + x264 + x393 <= 1
C137: + x152 + x383 <= 1
C138: + x2 + x247 <= 1
C139: + x166 + x198 <= 1
C140: + x16 + x118 <= 1
C141: + x46 + x134 <= 1
C142: + x233 + x405 <= 1
C143: + x18 + x471 <= 1
C144: + x28 + x396 <= 1
C145: + x84 + x142 <= 1
C146: + x193 + x485 <= 1
C147: + x3 + x112 <= 1
C148: + x145 + x179 <= 1
C149: + x91 + x346 <= 1
C150: + x128 + x162 <= 1
C151: + x2 + x131 <= 1
C152: + x72 + x266 <= 1
C153: + x9 + x347 <= 1
C154: + x78 + x408 <= 1
C155: + x11 + x256 <= 1
C156: + x206 + x238 <= 1
C157: + x47 + x93 <= 1
C158: + x71 + x295 <= 1
C159: + x130 + x220 <= 1
C160: + x30 + x459 <= 1
C161: + x36 + x425 <= 1
C162: + x10 + x446 <= 1
C163: + x228 + x371 <= 1
C164: + x3 + x164 <= 1
C165: + x18 + x241 <= 1
C166: + x58 + x426 <= 1
C167: + x325 + x392 <= 1
C168: + x6 + x389 <= 1
C169: + x58 + x192 <= 1
C170: + x38 + x492 <= 1
C171: + x32 + x47 <= 1
C172: + x6 + x40 <= 1
C173: + x27 + x93 <= 1
C174: + x154 + x282 <= 1
C175: + x274 + x288 <= 1
C176: + x98 + x180 <= 1
C177: + x53 + x71 <= 1
C178: + x27 + x242 <= 1
C179: + x7 + x79 <= 1
C180: + x247 + x250 <= 1
C181: + x40 + x48 <= 1
C182: + x14 + x57 <= 1
C183: + x24 + x78 + x324 <= 1
C184: + x1 + x20 <= 1
C185: + x211 + x335 <= 1
C186: + x98 + x144 <= 1
C187: + x28 + x306 <= 1
C188: + x250 + x386 <= 1
C189: + x4 + x337 <= 1
C190: + x23 + x477 <= 1
C191: + x6 + x125 <= 1
C192: + x7 + x123 <= 1
C193: + x144 + x145 <= 1
C194: + x46 + x417 <= 1
C195: + x97 + x247 <= 1
C196: + x5 + x8 <= 1
C197: + x4 + x43 <= 1
C198: + x78 + x453 <= 1
C199: + x4 + x482 <= 1
C200: + x160 + x336 <= 1
C201: + x44 + x132 <= 1
C202: + x6 + x398 <= 1
C203: + x33 + x38 <= 1
C204: + x18 + x312 <= 1
C205: + x446 + x485 <= 1
C206: + x76 + x122 <= 1
C207: + x289 + x418 <= 1
C208: + x128 + x422 <= 1
C209: + x249 + x422 <= 1
C210: + x11 + x13 <= 1
C211: + x264 + x435 <= 1
C212: + x19 + x463 <= 1
C213: + x278 + x298 <= 1
C214: + x209 + x412 <= 1
C215: + x80 + x126 <= 1
C216: + x164 + x212 <= 1
C217: + x211 + x330 <= 1
C218: + x21 + x230 <= 1
C219: + x2 + x320 <= 1
C220: + x20 + x73 <= 1
C221: + x178 + x500 <= 1
C222: + x160 + x168 <= 1
C223: + x53 + x311 <= 1
C224: + x6 + x102 <= 1
C225: + x19 + x80 <= 1
C226: + x27 + x290 <= 1
C227: + x118 + x481 <= 1
C228: + x5 + x15 <= 1
C229: + x435 + x498 <= 1
C230: + x4 + x20 <= 1
C231: + x56 + x185 <= 1
C232: + x38 + x414 <= 1
C233: + x98 + x99 <= 1
C234: + x126 + x466 <= 1
C235: + x10 + x47 <= 1
C236: + x102 + x230 <= 1
C237: + x71 + x352 <= 1
C238: + x113 + x157 <= 1
C239: + x21 + x126 <= 1
C240: + x3 + x363 <= 1
C241: + x22 + x293 <= 1
C242: + x68 + x329 <= 1
C243: + x226 + x263 <= 1
C244: + x283 + x328 <= 1
C245: + x3 + x121 <= 1
C246: + x420 + x456 <= 1
C247: + x6 + x222 <= 1
C248: + x80 + x123 <= 1
C249: + x120 + x212 <= 1
C250: + x3 + x286 <= 1
C251: + x114 + x244 <= 1
C252: + x4 + x109 <= 1
C253: + x441 + x489 <= 1
C254: + x12 + x178 <= 1
C255: + x141 + x386 <= 1
C256: + x16 + x21 <= 1
C257: + x37 + x144 <= 1
C258: + x293 + x325 <= 1
C259: + x204 + x356 <= 1
C260: + x112 + x448 <= 1
C261: + x63 + x427 <= 1
C262: + x11 + x124 <= 1
C263: + x68 + x103 <= 1
C264: + x31 + x127 <= 1
C265: + x38 + x233 <= 1
C266: + x36 + x301 <= 1
C267: + x7 + x8 <= 1
C268: + x56 + x178 <= 1
C269: + x3 + x64 <= 1
C270: + x4 + x267 <= 1
C271: + x31 + x394 <= 1
C272: + x362 + x388 <= 1
C273: + x118 + x318 <= 1
C274: + x34 + x444 <= 1
C275: + x382 + x396 <= 1
C276: + x22 + x32 <= 1
C277: + x14 + x211 <= 1
C278: + x308 + x462 <= 1
C279: + x10 + x179 <= 1
C280: + x37 + x195 <= 1
C281: + x75 + x449 <= 1
C282: + x70 + x169 <= 1
C283: + x119 + x469 <= 1
C284: + x1 + x279 <= 1
C285: + x11 + x63 <= 1
C286: + x50 + x74 <= 1
C287: + x14 + x36 <= 1
C288: + x75 + x84 <= 1
C289: + x198 + x245 <= 1
C290: + x16 + x30 <= 1
C291: + x19 + x340 <= 1
C292: + x130 + x381 <= 1
C293: + x233 + x445 <= 1
C294: + x30 + x431 <= 1
C295: + x167 + x365 <= 1
C296: + x180 + x450 <= 1
C297: + x7 + x112 <= 1
C298: + x193 + x413 <= 1
C299: + x31 + x98 <= 1
C300: + x14 + x24 <= 1
C301: + x6 + x139 <= 1
C302: + x13 + x144 <= 1
C303: + x45 + x92 <= 1
C304: + x28 + x182 <= 1
C305: + x11 + x200 <= 1
C306: + x10 + x208 <= 1
C307: + x12 + x99 <= 1
C308: + x140 + x483 <= 1
C309: + x3 + x7 + x14 <= 1
C310: + x16 + x34 <= 1
C311: + x27 + x163 <= 1
C312: + x28 + x337 <= 1
C313: + x84 + x304 <= 1
C314: + x67 + x270 <= 1
C315: + x40 + x416 <= 1
C316: + x23 + x62 <= 1
C317: + x5 + x132 <= 1
C318: + x155 + x305 <= 1
C319: + x13 + x287 <= 1
C320: + x181 + x262 <= 1
C321: + x110 + x181 <= 1
C322: + x147 + x191 <= 1
C323: + x93 + x237 <= 1
C324: + x34 + x288 <= 1
C325: + x116 + x182 <= 1
C326: + x99 + x200 <= 1
C327: + x8 + x22 <= 1
C328: + x30 + x41 <= 1
C329: + x184 + x466 <= 1
C330: + x133 + x147 <= 1
C331: + x44 + x163 <= 1
C332: + x32 + x404 <= 1
C333: + x402 + x450 <= 1
C334: + x11 + x58 <= 1
C335: + x129 + x264 <= 1
C336: + x3 + x75 <= 1
C337: + x87 + x202 <= 1
C338: + x118 + x134 <= 1
C339: + x4 + x91 <= 1
C340: + x14 + x192 <= 1
C341: + x9 + x112 <= 1
C342: + x3 + x433 <= 1
C343: + x44 + x351 <= 1
C344: + x10 + x451 <= 1
C345: + x11 + x110 <= 1
C346: + x12 + x317 <= 1
C347: + x14 + x17 <= 1
C348: + x166 + x283 <= 1
C349: + x4 + x7 <= 1
C350: + x15 + x437 <= 1
C351: + x2 + x479 <= 1
C352: + x47 + x350 <= 1
C353: + x91 + x143 <= 1
C354: + x92 + x309 <= 1
C355: + x4 + x152 <= 1
C356: + x9 + x43 <= 1
C357: + x11 + x307 <= 1
C358: + x4 + x51 <= 1
C359: + x22 + x133 <= 1
C360: + x33 + x177 <= 1
C361: + x244 + x324 <= 1
C362: + x134 + x225 <= 1
C363: + x6 + x406 <= 1
C364: + x34 + x39 <= 1
C365: + x264 + x407 <= 1
C366: + x56 + x263 <= 1
C367: + x87 + x193 <= 1
C368: + x108 + x135 <= 1
C369: + x9 + x186 <= 1
C370: + x275 + x439 <= 1
C371: + x40 + x176 <= 1
C372: + x9 + x23 <= 1
C373: + x180 + x464 <= 1
C374: + x42 + x467 <= 1
C375: + x27 + x423 <= 1
C376: + x28 + x132 <= 1
C377: + x6 + x14 <= 1
C378: + x374 + x490 <= 1
C379: + x22 + x43 <= 1
C380: + x54 + x274 <= 1
C381: + x201 + x295 <= 1
C382: + x52 + x214 <= 1
C383: + x2 + x484 <= 1
C384: + x67 + x157 <= 1
C385: + x5 + x166 <= 1
C386: + x6 + x50 <= 1
C387: + x279 + x333 <= 1
C388: + x164 + x245 <= 1
C389: + x4 + x73 <= 1
C390: + x23 + x229 <= 1
C391: + x237 + x447 <= 1
C392: + x121 + x184 <= 1
C393: + x2 + x285 <= 1
C394: + x114 + x123 <= 1
C395: + x6 + x67 <= 1
C396: + x66 + x256 <= 1
C397: + x102 + x388 <= 1
C398: + x23 + x88 <= 1
C399: + x16 + x154 <= 1
C400: + x13 + x26 <= 1
C401: + x98 + x293 <= 1
C402: + x53 + x129 <= 1
C403: + x169 + x296 <= 1
C404: + x259 + x442 <= 1
C405: + x406 + x455 <= 1
C406: + x7 + x141 <= 1
C407: + x9 + x295 <= 1
C408: + x12 + x231 <= 1
C409: + x53 + x56 <= 1
C410: + x148 + x295 <= 1
C411: + x42 + x291 <= 1
C412: + x42 + x246 <= 1
C413: + x32 + x399 <= 1
C414: + x366 + x455 <= 1
C415: + x180 + x429 <= 1
C416: + x27 + x82 <= 1
C417: + x28 + x70 <= 1
C418: + x14 + x171 <= 1
C419: + x111 + x381 <= 1
C420: + x95 + x475 <= 1
C421: + x41 + x302 <= 1
C422: + x33 + x155 <= 1
C423: + x288 + x429 <= 1
C424: + x83 + x391 <= 1
C425: + x29 + x207 <= 1
C426: + x4 + x126 <= 1
C427: + x14 + x159 <= 1
C428: + x5 + x118 <= 1
C429: + x7 + x475 <= 1
C430: + x101 + x386 <= 1
C431: + x38 + x105 <= 1
C432: + x190 + x499 <= 1
C433: + x19 + x90 <= 1
C434: + x2 + x56 <= 1
C435: + x75 + x139 <= 1
C436: + x430 + x442 <= 1
C437: + x57 + x349 <= 1
C438: + x8 + x122 <= 1
C439: + x322 + x326 <= 1
C440: + x7 + x23 <= 1
C441: + x29 + x493 <= 1
C442: + x56 + x366 <= 1
C443: + x33 + x35 <= 1
C444: + x71 + x116 <= 1
C445: + x1 + x31 + x61 <= 1
C446: + x28 + x91 <= 1
C447: + x9 + x12 <= 1
C448: + x12 + x55 <= 1
C449: + x22 + x287 <= 1
C450: + x32 + x444 <= 1
C451: + x54 + x75 <= 1
C452: + x84 + x356 <= 1
C453: + x4 + x200 <= 1
C454: + x53 + x389 <= 1
C455: + x18 + x367 <= 1
C456: + x444 + x452 <= 1
C457: + x38 + x191 <= 1
C458: + x3 + x264 <= 1
C459: + x32 + x329 <= 1
C460: + x27 + x130 <= 1
C461: + x10 + x336 <= 1
C462: + x29 + x107 <= 1
C463: + x130 + x209 <= 1
C464: + x366 + x389 <= 1
C465: + x167 + x384 <= 1
C466: + x406 + x457 <= 1
C467: + x2 + x9 <= 1
C468: + x58 + x92 <= 1
C469: + x31 + x113 <= 1
C470: + x78 + x286 <= 1
C471: + x189 + x353 <= 1
C472: + x6 + x343 <= 1
C473: + x36 + x72 <= 1
C474: + x16 + x180 <= 1
C475: + x27 + x49 <= 1
C476: + x50 + x370 <= 1
C477: + x6 + x394 <= 1
C478: + x221 + x300 <= 1
C479: + x6 + x45 <= 1
C480: + x81 + x228 <= 1
C481: + x72 + x121 <= 1
C482: + x347 + x484 <= 1
C483: + x29 + x265 <= 1
C484: + x12 + x193 <= 1
C485: + x17 + x150 <= 1
C486: + x7 + x409 <= 1
C487: + x256 + x410 <= 1
C488: + x12 + x48 <= 1
C489: + x46 + x482 <= 1
C490: + x21 + x269 <= 1
C491: + x4 + x205 <= 1
C492: + x14 + x46 <= 1
C493: + x73 + x141 <= 1
C494: + x64 + x431 <= 1
C495: + x158 + x331 <= 1
C496: + x4 + x108 <= 1
C497: + x254 + x482 <= 1
C498: + x19 + x350 <= 1
C499: + x15 + x53 <= 1
C500: + x18 + x497 <= 1
C501: + x347 + x423 <= 1
C502: + x65 + x350 <= 1
C503: + x57 + x363 <= 1
C504: + x78 + x279 <= 1
C505: + x87 + x117 <= 1
C506: + x5 + x11 <= 1
C507: + x24 + x319 <= 1
C508: + x27 + x60 <= 1
C509: + x210 + x362 <= 1
C510: + x4 + x24 <= 1
C511: + x60 + x83 <= 1
C512: + x23 + x347 <= 1
C513: + x4 + x491 <= 1
C514: + x256 + x306 <= 1
C515: + x29 + x483 <= 1
C516: + x76 + x152 <= 1
C517: + x104 + x294 <= 1
C518: + x6 + x22 <= 1
C519: + x23 + x129 <= 1
C520: + x7 + x404 <= 1
C521: + x18 + x19 <= 1
C522: + x16 + x77 <= 1
C523: + x1 + x119 <= 1
C524: + x58 + x396 <= 1
C525: + x52 + x254 <= 1
C526: + x120 + x478 <= 1
C527: + x11 + x52 <= 1
C528: + x212 + x348 <= 1
C529: + x46 + x475 <= 1
C530: + x70 + x335 <= 1
C531: + x6 + x218 <= 1
C532: + x268 + x377 <= 1
C533: + x14 + x341 <= 1
C534: + x107 + x382 <= 1
C535: + x25 + x236 <= 1
C536: + x9 + x102 <= 1
C537: + x58 + x344 <= 1
C538: + x133 + x221 <= 1
C539: + x6 + x107 <= 1
C540: + x75 + x168 <= 1
C541: + x106 + x164 <= 1
C542: + x360 + x409 <= 1
C543: + x163 + x171 <= 1
C544: + x73 + x309 <= 1
C545: + x71 + x415 <= 1
C546: + x166 + x277 <= 1
C547: + x58 + x449 <= 1
C548: + x10 + x203 <= 1
C549: + x300 + x481 <= 1
C550: + x29 + x240 <= 1
C551: + x124 + x229 <= 1
C552: + x9 + x82 <= 1
C553: + x52 + x55 <= 1
C554: + x67 + x252 <= 1
C555: + x104 + x291 <= 1
C556: + x31 + x398 <= 1
C557: + x23 + x63 <= 1
C558: + x19 + x430 <= 1
C559: + x110 + x184 <= 1
C560: + x75 + x108 <= 1
C561: + x61 + x313 <= 1
C562: + x101 + x328 <= 1
C563: + x81 + x210 <= 1
C564: + x23 + x156 <= 1
C565: + x81 + x127 <= 1
C566: + x90 + x166 <= 1
C567: + x9 + x33 <= 1
C568: + x8 + x25 <= 1
C569: + x198 + x370 <= 1
C570: + x363 + x433 <= 1
C571: + x1 + x78 <= 1
C572: + x458 + x477 <= 1
C573: + x6 + x432 <= 1
C574: + x73 + x94 <= 1
C575: + x54 + x166 <= 1
C576: + x101 + x471 <= 1
C577: + x24 + x377 <= 1
C578: + x18 + x165 <= 1
C579: + x177 + x236 <= 1
C580: + x39 + x42 <= 1
C581: + x14 + x334 <= 1
C582: + x96 + x488 <= 1
C583: + x127 + x175 <= 1
C584: + x119 + x348 <= 1
C585: + x46 + x154 <= 1
C586: + x104 + x360 <= 1
C587: + x306 + x309 <= 1
C588: + x6 + x84 <= 1
C589: + x208 + x381 <= 1
C590: + x67 + x68 <= 1
C591: + x87 + x135 <= 1
C592: + x91 + x334 <= 1
C593: + x326 + x349 <= 1
C594: + x40 + x234 <= 1
C595: + x61 + x83 <= 1
C596: + x44 + x235 <= 1
C597: + x152 + x390 <= 1
C598: + x8 + x385 <= 1
C599: + x268 + x302 <= 1
C600: + x3 + x51 <= 1
C601: + x167 + x349 <= 1
C602: + x53 + x341 <= 1
C603: + x7 + x160 <= 1
C604: + x45 + x410 <= 1
C605: + x1 + x168 <= 1
C606: + x4 + x147 <= 1
C607: + x435 + x468 <= 1
C608: + x11 + x312 <= 1
C609: + x11 + x38 <= 1
C610: + x3 + x71 <= 1
C611: + x64 + x359 <= 1
C612: + x140 + x197 <= 1
C613: + x46 + x461 <= 1
C614: + x107 + x114 <= 1
C615: + x73 + x375 <= 1
C616: + x104 + x115 <= 1
C617: + x5 + x81 <= 1
C618: + x211 + x212 <= 1
C619: + x157 + x463 <= 1
C620: + x276 + x279 <= 1
C621: + x140 + x399 <= 1
C622: + x18 + x476 <= 1
C623: + x110 + x299 <= 1
C624: + x61 + x352 <= 1
C625: + x1 + x16 <= 1
C626: + x13 + x104 <= 1
C627: + x5 + x466 <= 1
C628: + x44 + x228 <= 1
C629: + x127 + x158 <= 1
C630: + x195 + x311 <= 1
C631: + x341 + x458 <= 1
C632: + x160 + x195 <= 1
C633: + x24 + x443 <= 1
C634: + x118 + x268 <= 1
C635: + x2 + x33 <= 1
C636: + x3 + x175 <= 1
C637: + x103 + x155 <= 1
C638: + x285 + x474 <= 1
C639: + x188 + x343 <= 1
C640: + x28 + x219 <= 1
C641: + x33 + x272 <= 1
C642: + x169 + x461 <= 1
C643: + x11 + x45 <= 1
C644: + x6 + x53 <= 1
C645: + x79 + x162 <= 1
C646: + x100 + x253 <= 1
C647: + x7 + x280 <= 1
C648: + x44 + x315 <= 1
C649: + x418 + x500 <= 1
C650: + x18 + x151 <= 1
C651: + x3 + x227 <= 1
C652: + x184 + x237 <= 1
C653: + x368 + x372 <= 1
C654: + x168 + x446 <= 1
C655: + x9 + x27 <= 1
C656: + x7 + x433 <= 1
C657: + x56 + x197 <= 1
C658: + x67 + x328 <= 1
C659: + x50 + x262 <= 1
C660: + x230 + x383 <= 1
C661: + x25 + x30 <= 1
C662: + x18 + x384 <= 1
C663: + x27 + x32 <= 1
C664: + x210 + x342 <= 1
C665: + x13 + x31 <= 1
C666: + x124 + x140 <= 1
C667: + x34 + x232 <= 1
C668: + x62 + x282 <= 1
C669: + x65 + x100 <= 1
C670: + x249 + x257 <= 1
C671: + x3 + x5 <= 1
C672: + x59 + x215 + x355 <= 1
C673: + x13 + x265 <= 1
C674: + x107 + x448 <= 1
C675: + x4 + x5 + x6 + x9 + x28 <= 1
C676: + x113 + x352 <= 1
C677: + x15 + x307 <= 1
C678: + x9 + x214 <= 1
C679: + x19 + x133 <= 1
C680: + x193 + x200 <= 1
C681: + x41 + x170 <= 1
C682: + x5 + x269 <= 1
C683: + x90 + x399 <= 1
C684: + x80 + x136 <= 1
C685: + x103 + x476 <= 1
C686: + x3 + x89 <= 1
C687: + x29 + x411 <= 1
C688: + x91 + x275 <= 1
C689: + x10 + x59 <= 1
C690: + x65 + x258 <= 1
C691: + x121 + x351 <= 1
C692: + x140 + x338 <= 1
C693: + x13 + x34 <= 1
C694: + x210 + x403 <= 1
C695: + x49 + x460 <= 1
C696: + x41 + x57 <= 1
C697: + x199 + x236 <= 1
C698: + x23 + x249 <= 1
C699: + x11 + x366 <= 1
C700: + x4 + x447 <= 1
C701: + x90 + x91 <= 1
C702: + x19 + x478 <= 1
C703: + x136 + x369 <= 1
C704: + x59 + x114 <= 1
C705: + x42 + x480 <= 1
C706: + x18 + x188 <= 1
C707: + x16 + x230 <= 1
C708: + x2 + x130 <= 1
C709: + x20 + x223 <= 1
C710: + x135 + x272 <= 1
C711: + x102 + x190 <= 1
C712: + x4 + x464 <= 1
C713: + x61 + x128 <= 1
C714: + x13 + x22 <= 1
C715: + x210 + x234 <= 1
C716: + x24 + x421 <= 1
C717: + x130 + x280 <= 1
C718: + x412 + x464 <= 1
C719: + x59 + x225 <= 1
C720: + x5 + x26 <= 1
C721: + x152 + x258 <= 1
C722: + x28 + x169 <= 1
C723: + x119 + x236 <= 1
C724: + x80 + x490 <= 1
C725: + x92 + x105 <= 1
C726: + x3 + x326 <= 1
C727: + x318 + x402 <= 1
C728: + x493 + x496 <= 1
C729: + x248 + x358 <= 1
C730: + x13 + x380 <= 1
C731: + x6 + x39 <= 1
C732: + x355 + x393 <= 1
C733: + x4 + x182 <= 1
C734: + x23 + x244 <= 1
C735: + x32 + x284 <= 1
C736: + x18 + x36 <= 1
C737: + x27 + x255 <= 1
C738: + x10 + x159 <= 1
C739: + x46 + x254 <= 1
C740: + x30 + x68 <= 1
C741: + x33 + x159 <= 1
C742: + x43 + x62 <= 1
C743: + x13 + x176 <= 1
C744: + x15 + x192 <= 1
C745: + x100 + x260 <= 1
C746: + x263 + x292 <= 1
C747: + x20 + x67 <= 1
C748: + x47 + x379 <= 1
C749: + x3 + x23 <= 1
C750: + x252 + x351 <= 1
C751: + x15 + x47 <= 1
C752: + x81 + x181 <= 1
C753: + x72 + x76 <= 1
C754: + x19 + x86 <= 1
C755: + x74 + x313 <= 1
C756: + x24 + x450 <= 1
C757: + x8 + x268 <= 1
C758: + x4 + x143 <= 1
C759: + x410 + x470 <= 1
C760: + x49 + x398 <= 1
C761: + x7 + x362 <= 1
C762: + x19 + x247 <= 1
C763: + x297 + x493 <= 1
C764: + x71 + x203 <= 1
C765: + x7 + x11 <= 1
C766: + x166 + x473 <= 1
C767: + x30 + x279 <= 1
C768: + x291 + x314 <= 1
C769: + x11 + x187 <= 1
C770: + x221 + x462 <= 1
C771: + x86 + x274 <= 1
C772: + x31 + x58 <= 1
C773: + x27 + x250 <= 1
C774: + x8 + x42 <= 1
C775: + x154 + x445 <= 1
C776: + x247 + x484 <= 1
C777: + x4 + x429 <= 1
C778: + x14 + x462 <= 1
C779: + x16 + x410 <= 1
C780: + x112 + x321 <= 1
C781: + x215 + x294 <= 1
C782: + x70 + x345 <= 1
C783: + x19 + x62 <= 1
C784: + x2 + x148 <= 1
C785: + x29 + x194 <= 1
C786: + x240 + x296 <= 1
C787: + x25 + x301 <= 1
C788: + x9 + x124 <= 1
C789: + x65 + x73 <= 1
C790: + x164 + x434 <= 1
C791: + x103 + x401 <= 1
C792: + x57 + x86 <= 1
C793: + x86 + x116 <= 1
C794: + x7 + x115 <= 1
C795: + x93 + x204 <= 1
C796: + x70 + x397 <= 1
C797: + x10 + x221 <= 1
C798: + x46 + x316 <= 1
C799: + x103 + x356 <= 1
C800: + x42 + x273 <= 1
C801: + x34 + x199 <= 1
C802: + x108 + x444 <= 1
C803: + x150 + x395 <= 1
C804: + x24 + x80 <= 1
C805: + x100 + x487 <= 1
C806: + x164 + x345 <= 1
C807: + x401 + x434 <= 1
C808: + x211 + x270 <= 1
C809: + x19 + x440 <= 1
C810: + x231 + x392 <= 1
C811: + x162 + x379 <= 1
C812: + x218 + x326 <= 1
C813: + x11 + x263 <= 1
C814: + x44 + x184 <= 1
C815: + x136 + x352 <= 1
C816: + x341 + x390 <= 1
C817: + x64 + x427 <= 1
C818: + x29 + x217 <= 1
C819: + x234 + x430 <= 1
C820: + x5 + x445 <= 1
C821: + x16 + x24 <= 1
C822: + x28 + x271 <= 1
C823: + x169 + x257 <= 1
C824: + x92 + x366 <= 1
C825: + x2 + x6 <= 1
C826: + x38 + x309 <= 1
C827: + x7 + x348 <= 1
C828: + x19 + x233 <= 1
C829: + x11 + x222 <= 1
C830: + x93 + x104 <= 1
C831: + x3 + x303 <= 1
C832: + x27 + x345 <= 1
C833: + x67 + x308 <= 1
C834: + x3 + x61 <= 1
C835: + x94 + x126 <= 1
C836: + x97 + x373 <= 1
C837: + x6 + x18 <= 1
C838: + x10 + x388 <= 1
C839: + x237 + x378 <= 1
C840: + x46 + x326 <= 1
C841: + x55 + x273 <= 1
C842: + x104 + x133 <= 1
C843: + x36 + x189 <= 1
C844: + x310 + x497 <= 1
C845: + x67 + x419 <= 1
C846: + x68 + x305 <= 1
C847: + x204 + x304 <= 1
C848: + x186 + x374 <= 1
C849: + x164 + x303 <= 1
C850: + x57 + x245 <= 1
C851: + x2 + x67 <= 1
C852: + x129 + x258 <= 1
C853: + x24 + x384 <= 1
C854: + x279 + x441 <= 1
C855: + x8 + x173 <= 1
C856: + x2 + x238 <= 1
C857: + x120 + x172 <= 1
C858: + x101 + x198 <= 1
C859: + x14 + x134 <= 1
C860: + x9 + x106 <= 1
C861: + x299 + x336 <= 1
C862: + x16 + x29 <= 1
C863: + x19 + x337 <= 1
C864: + x3 + x439 <= 1
C865: + x6 + x87 <= 1
C866: + x74 + x153 <= 1
C867: + x93 + x365 <= 1
C868: + x42 + x488 <= 1
C869: + x6 + x138 <= 1
C870: + x8 + x97 <= 1
C871: + x56 + x107 <= 1
C872: + x3 + x298 <= 1
C873: + x120 + x387 <= 1
C874: + x3 + x56 <= 1
C875: + x267 + x345 <= 1
C876: + x33 + x76 <= 1
C877: + x14 + x104 <= 1
C878: + x6 + x27 <= 1
C879: + x62 + x110 <= 1
C880: + x71 + x89 <= 1
C881: + x28 + x38 <= 1
C882: + x136 + x317 <= 1
C883: + x29 + x283 <= 1
C884: + x105 + x220 <= 1
C885: + x5 + x34 <= 1
C886: + x71 + x335 <= 1
C887: + x45 + x137 <= 1
C888: + x328 + x420 <= 1
C889: + x186 + x204 <= 1
C890: + x5 + x276 <= 1
C891: + x108 + x486 <= 1
C892: + x74 + x86 <= 1
C893: + x66 + x209 <= 1
C894: + x258 + x498 <= 1
C895: + x4 + x319 <= 1
C896: + x10 + x12 <= 1
C897: + x9 + x17 <= 1
C898: + x91 + x423 <= 1
C899: + x58 + x349 <= 1
C900: + x12 + x14 <= 1
C901: + x41 + x314 <= 1
C902: + x354 + x356 <= 1
C903: + x8 + x368 <= 1
C904: + x129 + x240 <= 1
C905: + x67 + x96 <= 1
C906: + x95 + x213 <= 1
C907: + x4 + x235 <= 1
C908: + x425 + x481 <= 1
C909: + x14 + x16 <= 1
C910: + x1 + x13 <= 1
C911: + x239 + x397 <= 1
C912: + x4 + x10 <= 1
C913: + x32 + x344 <= 1
C914: + x16 + x42 <= 1
C915: + x308 + x430 <= 1
C916: + x37 + x99 <= 1
C917: + x46 + x74 <= 1
C918: + x3 + x15 <= 1
C919: + x159 + x206 <= 1
C920: + x10 + x65 <= 1
C921: + x46 + x440 <= 1
C922: + x292 + x346 <= 1
C923: + x14 + x196 <= 1
C924: + x70 + x428 <= 1
C925: + x30 + x33 <= 1
C926: + x12 + x87 <= 1
C927: + x187 + x384 <= 1
C928: + x99 + x494 <= 1
C929: + x84 + x260 <= 1
C930: + x112 + x357 <= 1
C931: + x169 + x359 <= 1
C932: + x36 + x60 <= 1
C933: + x366 + x375 <= 1
C934: + x212 + x457 <= 1
C935: + x19 + x323 <= 1
C936: + x38 + x50 <= 1
C937: + x340 + x402 <= 1
C938: + x33 + x142 <= 1
C939: + x204 + x266 <= 1
C940: + x22 + x259 <= 1
C941: + x27 + x259 <= 1
C942: + x65 + x242 <= 1
C943: + x2 + x105 <= 1
C944: + x48 + x489 <= 1
C945: + x17 + x373 <= 1
C946: + x283 + x391 <= 1
C947: + x248 + x441 <= 1
C948: + x4 + x15 <= 1
C949: + x14 + x311 <= 1
C950: + x57 + x190 <= 1
C951: + x94 + x414 <= 1
C952: + x3 + x477 <= 1
C953: + x78 + x143 <= 1
C954: + x5 + x371 <= 1
C955: + x19 + x412 <= 1
C956: + x136 + x307 <= 1
C957: + x265 + x480 <= 1
C958: + x97 + x231 <= 1
C959: + x43 + x278 <= 1
C960: + x9 + x211 <= 1
C961: + x55 + x135 <= 1
C962: + x458 + x499 <= 1
C963: + x29 + x142 <= 1
C964: + x12 + x80 <= 1
C965: + x13 + x88 <= 1
C966: + x81 + x339 <= 1
C967: + x19 + x299 <= 1
C968: + x120 + x421 <= 1
C969: + x147 + x193 <= 1
C970: + x42 + x47 <= 1
C971: + x18 + x139 <= 1
C972: + x19 + x25 <= 1
C973: + x28 + x80 <= 1
C974: + x14 + x380 <= 1
C975: + x9 + x31 <= 1
C976: + x110 + x125 <= 1
C977: + x29 + x66 <= 1
C978: + x4 + x446 <= 1
C979: + x45 + x344 <= 1
C980: + x355 + x358 <= 1
C981: + x11 + x29 <= 1
C982: + x284 + x407 <= 1
C983: + x47 + x95 <= 1
C984: + x58 + x480 <= 1
C985: + x34 + x252 <= 1
C986: + x14 + x304 <= 1
C987: + x308 + x444 <= 1
C988: + x388 + x469 <= 1
C989: + x87 + x264 <= 1
C990: + x45 + x396 <= 1
C991: + x72 + x413 <= 1
C992: + x23 + x27 + x136 <= 1
C993: + x175 + x259 <= 1
C994: + x232 + x297 <= 1
C995: + x169 + x198 <= 1
C996: + x23 + x161 <= 1
C997: + x5 + x31 <= 1
C998: + x6 + x169 <= 1
C999: + x132 + x150 <= 1
C1000: + x32 + x45 <= 1
C1001: + x14 + x71 <= 1
C1002: + x216 + x324 <= 1
C1003: + x271 + x418 <= 1
C1004: + x19 + x20 <= 1
C1005: + x28 + x69 <= 1
C1006: + x188 + x320 <= 1
C1007: + x87 + x482 <= 1
C1008: + x465 + x499 <= 1
C1009: + x58 + x376 <= 1
C1010: + x30 + x71 <= 1
C1011: + x52 + x234 <= 1
C1012: + x11 + x459 <= 1
C1013: + x113 + x415 <= 1
C1014: + x86 + x253 <= 1
C1015: + x60 + x378 <= 1
C1016: + x14 + x59 <= 1
C1017: + x10 + x235 <= 1
C1018: + x29 + x208 <= 1
C1019: + x78 + x403 <= 1
C1020: + x107 + x181 <= 1
C1021: + x2 + x10 + x19 + x21 <= 1
C1022: + x71 + x284 <= 1
C1023: + x98 + x138 <= 1
C1024: + x102 + x285 <= 1
C1025: + x5 + x353 <= 1
C1026: + x15 + x44 <= 1
C1027: + x10 + x417 <= 1
C1028: + x52 + x465 <= 1
C1029: + x226 + x465 <= 1
C1030: + x118 + x248 <= 1
C1031: + x134 + x424 <= 1
C1032: + x205 + x262 <= 1
C1033: + x289 + x305 <= 1
C1034: + x30 + x282 <= 1
C1035: + x105 + x327 <= 1
C1036: + x150 + x232 <= 1
C1037: + x126 + x475 <= 1
C1038: + x9 + x283 <= 1
C1039: + x10 + x40 <= 1
C1040: + x37 + x382 <= 1
C1041: + x28 + x94 <= 1
C1042: + x184 + x255 <= 1
C1043: + x31 + x59 <= 1
C1044: + x23 + x248 <= 1
C1045: + x9 + x13 <= 1
C1046: + x10 + x131 <= 1
C1047: + x191 + x196 <= 1
C1048: + x18 + x40 <= 1
C1049: + x51 + x197 <= 1
C1050: + x42 + x170 <= 1
C1051: + x61 + x132 <= 1
C1052: + x55 + x435 <= 1
C1053: + x357 + x474 <= 1
C1054: + x205 + x492 <= 1
C1055: + x32 + x90 <= 1
C1056: + x108 + x153 <= 1
C1057: + x19 + x63 <= 1
C1058: + x11 + x228 <= 1
C1059: + x111 + x248 <= 1
C1060: + x3 + x261 <= 1
C1061: + x309 + x357 <= 1
C1062: + x4 + x102 <= 1
C1063: + x14 + x290 <= 1
C1064: + x3 + x426 <= 1
C1065: + x86 + x119 <= 1
C1066: + x7 + x128 <= 1
C1067: + x45 + x378 <= 1
C1068: + x83 + x274 <= 1
C1069: + x19 + x82 <= 1
C1070: + x219 + x394 <= 1
C1071: + x70 + x400 <= 1
C1072: + x53 + x458 <= 1
C1073: + x126 + x174 <= 1
C1074: + x17 + x219 <= 1
C1075: + x5 + x13 <= 1
C1076: + x117 + x266 <= 1
C1077: + x4 + x18 <= 1
C1078: + x4 + x485 <= 1
C1079: + x10 + x315 <= 1
C1080: + x21 + x314 <= 1
C1081: + x61 + x300 <= 1
C1082: + x35 + x275 <= 1
C1083: + x258 + x471 <= 1
C1084: + x19 + x441 <= 1
C1085: + x54 + x413 <= 1
C1086: + x190 + x479 <= 1
C1087: + x148 + x165 <= 1
C1088: + x10 + x41 <= 1
C1089: + x30 + x182 <= 1
C1090: + x161 + x370 <= 1
C1091: + x59 + x171 <= 1
C1092: + x40 + x381 <= 1
C1093: + x70 + x162 <= 1
C1094: + x45 + x317 <= 1
C1095: + x4 + x208 <= 1
C1096: + x440 + x468 <= 1
C1097: + x82 + x362 <= 1
C1098: + x5 + x101 <= 1
C1099: + x81 + x259 <= 1
C1100: + x71 + x278 <= 1
C1101: + x27 + x138 <= 1
C1102: + x127 + x287 <= 1
C1103: + x54 + x103 <= 1
C1104: + x10 + x102 <= 1
C1105: + x147 + x150 <= 1
C1106: + x9 + x207 <= 1
C1107: + x273 + x364 <= 1
C1108: + x136 + x438 <= 1
C1109: + x4 + x23 <= 1
C1110: + x178 + x328 <= 1
C1111: + x28 + x346 <= 1
C1112: + x120 + x393 <= 1
C1113: + x400 + x449 <= 1
C1114: + x78 + x231 <= 1
C1115: + x91 + x191 <= 1
C1116: + x7 + x163 <= 1
C1117: + x10 + x82 <= 1
C1118: + x8 + x46 + x187 <= 1
C1119: + x12 + x18 + x37 <= 1
C1120: + x5 + x64 <= 1
C1121: + x43 + x318 <= 1
C1122: + x1 + x120 <= 1
C1123: + x64 + x66 <= 1
C1124: + x19 + x451 <= 1
C1125: + x11 + x49 <= 1
C1126: + x130 + x177 <= 1
C1127: + x12 + x330 <= 1
C1128: + x23 + x113 <= 1
C1129: + x38 + x176 <= 1
C1130: + x33 + x363 <= 1
C1131: + x5 + x100 <= 1
C1132: + x201 + x252 <= 1
C1133: + x211 + x223 <= 1
C1134: + x47 + x216 <= 1
C1135: + x12 + x20 <= 1
C1136: + x28 + x418 <= 1
C1137: + x164 + x173 <= 1
C1138: + x14 + x26 <= 1
C1139: + x6 + x141 <= 1
C1140: + x99 + x246 <= 1
C1141: + x3 + x299 <= 1
C1142: + x31 + x157 <= 1
C1143: + x332 + x443 <= 1
C1144: + x4 + x467 <= 1
C1145: + x59 + x206 <= 1
C1146: + x11 + x169 <= 1
C1147: + x46 + x322 <= 1
C1148: + x14 + x206 <= 1
C1149: + x162 + x376 <= 1
C1150: + x123 + x196 <= 1
C1151: + x50 + x226 <= 1
C1152: + x4 + x415 <= 1
C1153: + x37 + x45 <= 1
C1154: + x75 + x252 <= 1
C1155: + x14 + x95 <= 1
C1156: + x24 + x380 <= 1
C1157: + x100 + x315 <= 1
C1158: + x302 + x449 <= 1
C1159: + x12 + x174 <= 1
C1160: + x4 + x89 <= 1
C1161: + x43 + x361 <= 1
C1162: + x16 + x25 <= 1
C1163: + x7 + x456 <= 1
C1164: + x391 + x478 <= 1
C1165: + x239 + x287 <= 1
C1166: + x261 + x402 <= 1
C1167: + x7 + x97 <= 1
C1168: + x22 + x96 <= 1
C1169: + x6 + x246 <= 1
C1170: + x189 + x271 <= 1
C1171: + x18 + x216 <= 1
C1172: + x19 + x224 <= 1
C1173: + x91 + x331 <= 1
C1174: + x106 + x410 <= 1
C1175: + x44 + x238 <= 1
C1176: + x3 + x455 <= 1
C1177: + x3 + x52 <= 1
C1178: + x38 + x395 <= 1
C1179: + x6 + x7 <= 1
C1180: + x10 + x68 <= 1
C1181: + x11 + x84 <= 1
C1182: + x86 + x297 <= 1
C1183: + x22 + x36 <= 1
C1184: + x6 + x186 <= 1
C1185: + x44 + x440 <= 1
C1186: + x195 + x227 <= 1
C1187: + x106 + x115 <= 1
C1188: + x240 + x458 <= 1
C1189: + x215 + x226 <= 1
C1190: + x4 + x49 <= 1
C1191: + x40 + x221 <= 1
C1192: + x98 + x481 <= 1
C1193: + x2 + x96 <= 1
C1194: + x147 + x203 <= 1
C1195: + x156 + x158 <= 1
C1196: + x46 + x460 <= 1
C1197: + x376 + x436 <= 1
C1198: + x7 + x201 <= 1
C1199: + x27 + x405 <= 1
C1200: + x10 + x16 <= 1
C1201: + x28 + x118 <= 1
C1202: + x63 + x463 <= 1
C1203: + x105 + x140 <= 1
C1204: + x20 + x264 <= 1
C1205: + x41 + x76 <= 1
C1206: + x4 + x66 <= 1
C1207: + x27 + x227 <= 1
C1208: + x76 + x315 <= 1
C1209: + x332 + x476 <= 1
C1210: + x151 + x167 <= 1
C1211: + x79 + x207 <= 1
C1212: + x67 + x92 <= 1
C1213: + x59 + x109 <= 1
C1214: + x32 + x98 <= 1
C1215: + x90 + x350 <= 1
C1216: + x11 + x204 <= 1
C1217: + x121 + x286 <= 1
C1218: + x13 + x97 <= 1
C1219: + x138 + x362 <= 1
C1220: + x29 + x457 <= 1
C1221: + x3 + x11 <= 1
C1222: + x348 + x462 <= 1
C1223: + x6 + x16 <= 1
C1224: + x151 + x243 <= 1
C1225: + x24 + x438 <= 1
C1226: + x74 + x261 <= 1
C1227: + x2 + x40 <= 1
C1228: + x117 + x306 <= 1
C1229: + x17 + x302 <= 1
C1230: + x303 + x466 <= 1
C1231: + x22 + x144 <= 1
C1232: + x259 + x340 <= 1
C1233: + x46 + x122 <= 1
C1234: + x58 + x180 <= 1
C1235: + x367 + x424 <= 1
C1236: + x14 + x81 <= 1
C1237: + x6 + x52 <= 1
C1238: + x23 + x300 <= 1
C1239: + x142 + x394 <= 1
C1240: + x16 + x111 <= 1
C1241: + x149 + x186 <= 1
C1242: + x57 + x118 <= 1
C1243: + x138 + x213 <= 1
C1244: + x258 + x411 <= 1
C1245: + x4 + x216 <= 1
C1246: + x197 + x432 <= 1
C1247: + x311 + x436 <= 1
C1248: + x29 + x246 <= 1
C1249: + x31 + x242 <= 1
C1250: + x18 + x109 <= 1
C1251: + x1 + x421 <= 1
C1252: + x165 + x278 <= 1
C1253: + x110 + x436 <= 1
C1254: + x195 + x271 <= 1
C1255: + x10 + x443 <= 1
C1256: + x92 + x248 <= 1
C1257: + x83 + x289 <= 1
C1258: + x185 + x265 <= 1
C1259: + x13 + x239 <= 1
C1260: + x17 + x293 <= 1
C1261: + x9 + x215 <= 1
C1262: + x210 + x257 <= 1
C1263: + x228 + x427 <= 1
C1264: + x303 + x473 <= 1
C1265: + x277 + x332 <= 1
C1266: + x182 + x320 <= 1
C1267: + x3 + x90 <= 1
C1268: + x32 + x36 <= 1
C1269: + x160 + x255 <= 1
C1270: + x228 + x316 <= 1
C1271: + x5 + x72 <= 1
C1272: + x10 + x149 <= 1
C1273: + x121 + x189 <= 1
C1274: + x28 + x239 <= 1
C1275: + x196 + x354 <= 1
C1276: + x40 + x49 <= 1
C1277: + x23 + x105 <= 1
C1278: + x133 + x343 <= 1
C1279: + x130 + x460 <= 1
C1280: + x157 + x333 <= 1
C1281: + x31 + x249 <= 1
C1282: + x43 + x104 <= 1
C1283: + x10 + x119 <= 1
C1284: + x94 + x225 <= 1
C1285: + x42 + x395 <= 1
C1286: + x6 + x149 <= 1
C1287: + x316 + x338 <= 1
C1288: + x9 + x222 <= 1
C1289: + x83 + x445 <= 1
C1290: + x15 + x194 <= 1
C1291: + x60 + x416 <= 1
C1292: + x23 + x331 <= 1
C1293: + x153 + x406 <= 1
C1294: + x84 + x278 <= 1
C1295: + x67 + x145 <= 1
C1296: + x29 + x403 <= 1
C1297: + x187 + x495 <= 1
C1298: + x6 + x38 <= 1
C1299: + x261 + x487 <= 1
C1300: + x118 + x156 <= 1
C1301: + x10 + x35 <= 1
C1302: + x100 + x238 <= 1
C1303: + x7 + x263 <= 1
C1304: + x52 + x79 <= 1
C1305: + x36 + x137 <= 1
C1306: + x1 + x103 <= 1
C1307: + x9 + x10 <= 1
C1308: + x119 + x165 <= 1
C1309: + x138 + x465 <= 1
C1310: + x21 + x423 <= 1
C1311: + x33 + x160 <= 1
C1312: + x110 + x277 <= 1
C1313: + x56 + x296 <= 1
C1314: + x41 + x464 <= 1
C1315: + x5 + x222 <= 1
C1316: + x140 + x262 <= 1
C1317: + x378 + x480 <= 1
C1318: + x14 + x154 <= 1
C1319: + x18 + x95 <= 1
C1320: + x351 + x491 <= 1
C1321: + x65 + x160 <= 1
C1322: + x10 + x128 <= 1
C1323: + x2 + x11 <= 1
C1324: + x8 + x210 <= 1
C1325: + x67 + x121 <= 1
C1326: + x225 + x265 <= 1
C1327: + x49 + x399 <= 1
C1328: + x119 + x414 <= 1
C1329: + x18 + x240 <= 1
C1330: + x37 + x235 <= 1
C1331: + x225 + x470 <= 1
C1332: + x94 + x448 <= 1
C1333: + x47 + x147 <= 1
C1334: + x140 + x228 <= 1
C1335: + x430 + x454 <= 1
C1336: + x74 + x209 <= 1
C1337: + x10 + x44 <= 1
C1338: + x2 + x199 <= 1
C1339: + x212 + x484 <= 1
C1340: + x3 + x205 <= 1
C1341: + x33 + x389 <= 1
C1342: + x14 + x223 <= 1
C1343: + x215 + x460 <= 1
C1344: + x221 + x463 <= 1
C1345: + x392 + x451 <= 1
C1346: + x112 + x493 <= 1
C1347: + x5 + x296 <= 1
C1348: + x44 + x178 <= 1
C1349: + x7 + x72 <= 1
C1350: + x83 + x141 <= 1
C1351: + x226 + x260 <= 1
C1352: + x52 + x243 <= 1
C1353: + x159 + x354 <= 1
C1354: + x32 + x70 <= 1
C1355: + x9 + x331 <= 1
C1356: + x9 + x160 <= 1
C1357: + x39 + x58 <= 1
C1358: + x32 + x249 <= 1
C1359: + x168 + x416 <= 1
C1360: + x10 + x371 <= 1
C1361: + x3 + x422 <= 1
C1362: + x65 + x151 <= 1
C1363: + x85 + x218 <= 1
C1364: + x49 + x390 <= 1
C1365: + x83 + x431 <= 1
C1366: + x1 + x57 <= 1
C1367: + x40 + x250 <= 1
C1368: + x61 + x67 <= 1
C1369: + x44 + x251 <= 1
C1370: + x9 + x425 <= 1
C1371: + x19 + x276 <= 1
C1372: + x11 + x437 <= 1
C1373: + x47 + x150 <= 1
C1374: + x284 + x294 <= 1
C1375: + x47 + x335 <= 1
C1376: + x375 + x388 <= 1
C1377: + x40 + x79 <= 1
C1378: + x23 + x131 <= 1
C1379: + x4 + x163 <= 1
C1380: + x18 + x29 <= 1
C1381: + x9 + x56 <= 1
C1382: + x147 + x496 <= 1
C1383: + x48 + x310 <= 1
C1384: + x124 + x365 <= 1
C1385: + x177 + x425 <= 1
C1386: + x44 + x183 <= 1
C1387: + x190 + x332 <= 1
C1388: + x10 + x491 <= 1
C1389: + x257 + x497 <= 1
C1390: + x43 + x450 <= 1
C1391: + x261 + x281 <= 1
C1392: + x154 + x195 <= 1
C1393: + x16 + x244 <= 1
C1394: + x110 + x245 <= 1
C1395: + x9 + x370 <= 1
C1396: + x3 + x284 <= 1
C1397: + x10 + x25 <= 1
C1398: + x4 + x111 <= 1
C1399: + x63 + x474 <= 1
C1400: + x325 + x459 <= 1
C1401: + x9 + x100 <= 1
C1402: + x86 + x124 <= 1
C1403: + x19 + x69 <= 1
C1404: + x2 + x5 <= 1
C1405: + x46 + x401 <= 1
C1406: + x268 + x472 <= 1
C1407: + x417 + x433 <= 1
C1408: + x44 + x85 <= 1
C1409: + x227 + x493 <= 1
C1410: + x94 + x367 <= 1
C1411: + x124 + x227 <= 1
C1412: + x196 + x274 <= 1
C1413: + x52 + x53 <= 1
C1414: + x45 + x260 <= 1
C1415: + x3 + x62 <= 1
C1416: + x50 + x148 <= 1
C1417: + x33 + x54 <= 1
C1418: + x30 + x488 <= 1
C1419: + x71 + x103 <= 1
C1420: + x108 + x254 <= 1
C1421: + x27 + x201 <= 1
C1422: + x19 + x158 <= 1
C1423: + x80 + x268 <= 1
C1424: + x67 + x420 <= 1
C1425: + x186 + x194 <= 1
C1426: + x77 + x108 <= 1
C1427: + x186 + x373 <= 1
C1428: + x12 + x92 <= 1
C1429: + x53 + x243 <= 1
C1430: + x358 + x452 <= 1
C1431: + x14 + x34 <= 1
C1432: + x24 + x383 <= 1
C1433: + x18 + x167 <= 1
C1434: + x11 + x146 <= 1
C1435: + x222 + x415 <= 1
C1436: + x16 + x32 <= 1
C1437: + x174 + x284 <= 1
C1438: + x12 + x24 <= 1
C1439: + x33 + x113 <= 1
C1440: + x111 + x452 <= 1
C1441: + x194 + x257 <= 1
C1442: + x44 + x78 <= 1
C1443: + x74 + x398 <= 1
C1444: + x2 + x185 <= 1
C1445: + x9 + x87 <= 1
C1446: + x59 + x202 <= 1
C1447: + x23 + x52 <= 1
C1448: + x70 + x271 <= 1
C1449: + x15 + x77 <= 1
C1450: + x19 + x116 <= 1
C1451: + x16 + x81 <= 1
C1452: + x59 + x185 <= 1
C1453: + x160 + x361 <= 1
C1454: + x3 + x73 <= 1
C1455: + x58 + x166 <= 1
C1456: + x204 + x387 <= 1
C1457: + x360 + x473 <= 1
C1458: + x18 + x341 <= 1
C1459: + x30 + x216 <= 1
C1460: + x4 + x93 <= 1
C1461: + x44 + x54 <= 1
C1462: + x10 + x358 <= 1
C1463: + x54 + x210 <= 1
C1464: + x19 + x329 <= 1
C1465: + x313 + x417 <= 1
C1466: + x68 + x188 <= 1
C1467: + x124 + x439 <= 1
C1468: + x12 + x468 <= 1
C1469: + x204 + x205 <= 1
C1470: + x327 + x461 <= 1
C1471: + x6 + x95 <= 1
C1472: + x84 + x253 <= 1
C1473: + x14 + x15 <= 1
C1474: + x187 + x297 <= 1
C1475: + x116 + x323 <= 1
C1476: + x6 + x496 <= 1
C1477: + x154 + x495 <= 1
C1478: + x138 + x357 <= 1
C1479: + x56 + x130 <= 1
C1480: + x180 + x405 <= 1
C1481: + x8 + x291 <= 1
C1482: + x6 + x369 <= 1
C1483: + x64 + x116 <= 1
C1484: + x311 + x498 <= 1
C1485: + x67 + x438 <= 1
C1486: + x124 + x205 <= 1
C1487: + x22 + x318 <= 1
C1488: + x306 + x373 <= 1
C1489: + x92 + x424 <= 1
C1490: + x103 + x120 <= 1
C1491: + x3 + x68 <= 1
C1492: + x106 + x357 <= 1
C1493: + x112 + x360 <= 1
C1494: + x16 + x207 <= 1
C1495: + x1 + x201 <= 1
C1496: + x28 + x74 <= 1
C1497: + x3 + x229 <= 1
C1498: + x121 + x342 <= 1
C1499: + x4 + x70 <= 1
C1500: + x83 + x351 <= 1
C1501: + x124 + x190 <= 1
C1502: + x79 + x434 <= 1
C1503: + x32 + x221 <= 1
C1504: + x52 + x128 <= 1
C1505: + x269 + x374 <= 1
C1506: + x48 + x218 <= 1
C1507: + x18 + x479 <= 1
C1508: + x92 + x372 <= 1
C1509: + x2 + x421 <= 1
C1510: + x65 + x243 <= 1
C1511: + x67 + x88 <= 1
C1512: + x154 + x226 <= 1
C1513: + x1 + x5 <= 1
C1514: + x18 + x112 <= 1
C1515: + x255 + x476 <= 1
C1516: + x46 + x66 <= 1
C1517: + x67 + x199 <= 1
C1518: + x176 + x280 <= 1
C1519: + x5 + x372 <= 1
C1520: + x52 + x167 <= 1
C1521: + x16 + x341 <= 1
C1522: + x28 + x51 <= 1
C1523: + x211 + x495 <= 1
C1524: + x2 + x60 <= 1
C1525: + x3 + x172 <= 1
C1526: + x77 + x359 <= 1
C1527: + x5 + x17 <= 1
C1528: + x10 + x172 <= 1
C1529: + x65 + x401 <= 1
C1530: + x103 + x377 <= 1
C1531: + x419 + x498 <= 1
C1532: + x176 + x348 <= 1
C1533: + x18 + x138 <= 1
C1534: + x27 + x85 <= 1
C1535: + x264 + x301 <= 1
C1536: + x23 + x251 <= 1
C1537: + x116 + x261 <= 1
C1538: + x32 + x273 <= 1
C1539: + x16 + x107 <= 1
C1540: + x93 + x470 <= 1
C1541: + x151 + x190 <= 1
C1542: + x18 + x472 <= 1
C1543: + x62 + x164 <= 1
C1544: + x67 + x175 <= 1
C1545: + x33 + x483 <= 1
C1546: + x12 + x140 <= 1
C1547: + x225 + x400 <= 1
C1548: + x178 + x451 <= 1
C1549: + x48 + x453 <= 1
C1550: + x6 + x152 <= 1
C1551: + x9 + x219 <= 1
C1552: + x51 + x151 <= 1
C1553: + x5 + x266 <= 1
C1554: + x323 + x487 <= 1
C1555: + x11 + x392 <= 1
C1556: + x53 + x364 <= 1
C1557: + x9 + x170 <= 1
C1558: + x86 + x267 <= 1
C1559: + x10 + x153 <= 1
C1560: + x1 + x100 <= 1
C1561: + x30 + x70 <= 1
C1562: + x178 + x272 <= 1
C1563: + x6 + x74 <= 1
C1564: + x109 + x400 <= 1
C1565: + x28 + x386 <= 1
C1566: + x136 + x368 <= 1
C1567: + x58 + x133 <= 1
C1568: + x77 + x161 <= 1
C1569: + x76 + x223 <= 1
C1570: + x150 + x162 <= 1
C1571: + x440 + x477 <= 1
C1572: + x9 + x321 <= 1
C1573: + x215 + x301 <= 1
C1574: + x10 + x234 <= 1
C1575: + x188 + x267 <= 1
C1576: + x71 + x281 <= 1
C1577: + x28 + x319 <= 1
C1578: + x8 + x491 <= 1
C1579: + x67 + x368 <= 1
C1580: + x73 + x240 <= 1
C1581: + x66 + x374 <= 1
C1582: + x2 + x54 <= 1
C1583: + x5 + x7 <= 1
C1584: + x147 + x454 <= 1
C1585: + x44 + x129 <= 1
C1586: + x56 + x161 <= 1
C1587: + x11 + x189 <= 1
C1588: + x217 + x479 <= 1
C1589: + x188 + x251 <= 1
C1590: + x198 + x224 <= 1
C1591: + x1 + x123 <= 1
C1592: + x84 + x391 <= 1
C1593: + x213 + x310 <= 1
C1594: + x29 + x419 <= 1
C1595: + x61 + x354 <= 1
C1596: + x6 + x214 <= 1
C1597: + x70 + x347 <= 1
C1598: + x14 + x289 <= 1
C1599: + x235 + x323 <= 1
C1600: + x9 + x122 <= 1
C1601: + x19 + x353 <= 1
C1602: + x38 + x427 <= 1
C1603: + x50 + x170 <= 1
C1604: + x12 + x428 <= 1
C1605: + x100 + x408 <= 1
C1606: + x127 + x277 <= 1
C1607: + x92 + x275 <= 1
C1608: + x3 + x181 <= 1
C1609: + x14 + x231 <= 1
C1610: + x81 + x87 <= 1
C1611: + x162 + x297 <= 1
C1612: + x88 + x431 <= 1
C1613: + x144 + x489 <= 1
C1614: + x11 + x213 <= 1
C1615: + x4 + x17 <= 1
C1616: + x149 + x187 <= 1
C1617: + x52 + x330 <= 1
C1618: + x6 + x43 <= 1
C1619: + x128 + x467 <= 1
C1620: + x10 + x48 <= 1
C1621: + x223 + x483 <= 1
C1622: + x179 + x293 <= 1
C1623: + x63 + x332 <= 1
C1624: + x30 + x88 <= 1
C1625: + x123 + x364 <= 1
C1626: + x327 + x333 <= 1
C1627: + x2 + x385 <= 1
C1628: + x55 + x395 <= 1
C1629: + x130 + x191 <= 1
C1630: + x56 + x313 <= 1
C1631: + x42 + x461 <= 1
C1632: + x5 + x193 <= 1
C1633: + x261 + x286 <= 1
C1634: + x102 + x120 <= 1
C1635: + x7 + x298 <= 1
C1636: + x65 + x289 <= 1
C1637: + x428 + x474 <= 1
C1638: + x248 + x416 <= 1
C1639: + x14 + x44 <= 1
C1640: + x164 + x218 <= 1
C1641: + x32 + x229 <= 1
C1642: + x3 + x285 <= 1
C1643: + x4 + x110 <= 1
C1644: + x16 + x22 <= 1
C1645: + x36 + x226 <= 1
C1646: + x188 + x281 <= 1
C1647: + x5 + x435 <= 1
C1648: + x21 + x65 <= 1
C1649: + x47 + x206 <= 1
C1650: + x33 + x452 <= 1
C1651: + x35 + x101 <= 1
C1652: + x44 + x84 <= 1
C1653: + x317 + x340 <= 1
C1654: + x20 + x192 <= 1
C1655: + x186 + x241 <= 1
C1656: + x44 + x255 <= 1
C1657: + x27 + x347 <= 1
C1658: + x75 + x369 <= 1
C1659: + x275 + x367 <= 1
C1660: + x106 + x330 <= 1
C1661: + x4 + x268 <= 1
C1662: + x22 + x446 <= 1
C1663: + x83 + x241 <= 1
C1664: + x8 + x308 <= 1
C1665: + x4 + x167 <= 1
C1666: + x6 + x183 <= 1
C1667: + x6 + x258 <= 1
C1668: + x10 + x180 <= 1
C1669: + x74 + x500 <= 1
C1670: + x256 + x385 <= 1
C1671: + x48 + x251 <= 1
C1672: + x105 + x453 <= 1
C1673: + x7 + x51 <= 1
C1674: + x101 + x298 <= 1
C1675: + x55 + x89 <= 1
C1676: + x64 + x168 <= 1
C1677: + x14 + x37 <= 1
C1678: + x37 + x337 <= 1
C1679: + x38 + x175 <= 1
C1680: + x52 + x109 <= 1
C1681: + x32 + x313 <= 1
C1682: + x18 + x77 <= 1
C1683: + x6 + x310 <= 1
C1684: + x12 + x19 <= 1
C1685: + x44 + x359 <= 1
C1686: + x1 + x290 <= 1
C1687: + x215 + x270 <= 1
C1688: + x6 + x140 <= 1
C1689: + x24 + x306 <= 1
C1690: + x71 + x413 <= 1
C1691: + x118 + x194 <= 1
C1692: + x17 + x119 <= 1
C1693: + x16 + x39 <= 1
C1694: + x142 + x338 <= 1
C1695: + x12 + x406 <= 1
C1696: + x141 + x158 <= 1
C1697: + x14 + x106 <= 1
C1698: + x17 + x404 <= 1
C1699: + x63 + x72 <= 1
C1700: + x54 + x494 <= 1
C1701: + x10 + x90 <= 1
C1702: + x101 + x322 <= 1
C1703: + x114 + x179 <= 1
C1704: + x141 + x323 <= 1
C1705: + x189 + x325 <= 1
C1706: + x36 + x164 <= 1
C1707: + x186 + x198 <= 1
C1708: + x50 + x225 <= 1
C1709: + x182 + x292 <= 1
C1710: + x14 + x94 <= 1
C1711: + x145 + x149 <= 1
C1712: + x202 + x281 <= 1
C1713: + x94 + x176 <= 1
C1714: + x3 + x239 <= 1
C1715: + x21 + x242 <= 1
C1716: + x5 + x108 <= 1
C1717: + x125 + x217 <= 1
C1718: + x5 + x417 <= 1
C1719: + x16 + x44 + x224 <= 1
C1720: + x75 + x447 <= 1
C1721: + x239 + x288 <= 1
C1722: + x130 + x375 <= 1
C1723: + x97 + x146 <= 1
C1724: + x4 + x233 <= 1
C1725: + x4 + x8 <= 1
C1726: + x106 + x409 <= 1
C1727: + x9 + x91 <= 1
C1728: + x16 + x48 <= 1
C1729: + x18 + x114 <= 1
C1730: + x3 + x456 <= 1
C1731: + x24 + x448 <= 1
C1732: + x18 + x285 <= 1
C1733: + x1 + x186 <= 1
C1734: + x2 + x46 <= 1
C1735: + x129 + x367 <= 1
C1736: + x106 + x215 <= 1
C1737: + x61 + x407 <= 1
C1738: + x224 + x496 <= 1
C1739: + x17 + x312 <= 1
C1740: + x13 + x492 <= 1
C1741: + x54 + x173 <= 1
C1742: + x37 + x85 <= 1
C1743: + x19 + x310 <= 1
C1744: + x429 + x471 <= 1
C1745: + x367 + x414 <= 1
C1746: + x69 + x161 <= 1
C1747: + x360 + x469 <= 1
C1748: + x7 + x202 <= 1
C1749: + x27 + x79 <= 1
C1750: + x18 + x148 <= 1
C1751: + x16 + x97 <= 1
C1752: + x46 + x145 <= 1
C1753: + x148 + x486 <= 1
C1754: + x157 + x457 <= 1
C1755: + x331 + x473 <= 1
C1756: + x4 + x435 <= 1
C1757: + x274 + x443 <= 1
C1758: + x6 + x329 <= 1
C1759: + x18 + x208 <= 1
C1760: + x56 + x127 <= 1
C1761: + x3 + x318 <= 1
C1762: + x60 + x124 <= 1
C1763: + x161 + x304 <= 1
C1764: + x136 + x199 <= 1
C1765: + x11 + x430 <= 1
C1766: + x63 + x114 <= 1
C1767: + x193 + x422 <= 1
C1768: + x13 + x241 <= 1
C1769: + x54 + x275 <= 1
C1770: + x46 + x214 <= 1
C1771: + x33 + x183 <= 1
C1772: + x104 + x420 <= 1
C1773: + x310 + x353 <= 1
C1774: + x55 + x407 <= 1
C1775: + x107 + x156 <= 1
C1776: + x9 + x29 <= 1
C1777: + x58 + x361 <= 1
C1778: + x3 + x390 <= 1
C1779: + x5 + x332 <= 1
C1780: + x65 + x247 <= 1
C1781: + x44 + x489 <= 1
C1782: + x18 + x382 <= 1
C1783: + x27 + x30 <= 1
C1784: + x21 + x204 <= 1
C1785: + x56 + x155 <= 1
C1786: + x21 + x486 <= 1
C1787: + x133 + x256 <= 1
C1788: + x15 + x35 <= 1
C1789: + x81 + x185 <= 1
C1790: + x155 + x269 <= 1
C1791: + x210 + x485 <= 1
C1792: + x93 + x249 <= 1
C1793: + x50 + x321 <= 1
C1794: + x42 + x292 <= 1
C1795: + x34 + x50 <= 1
C1796: + x14 + x486 <= 1
C1797: + x181 + x385 <= 1
C1798: + x44 + x151 <= 1
C1799: + x136 + x244 <= 1
C1800: + x3 + x494 <= 1
C1801: + x420 + x490 <= 1
C1802: + x47 + x130 <= 1
C1803: + x284 + x338 <= 1
C1804: + x31 + x401 <= 1
C1805: + x27 + x81 <= 1
C1806: + x7 + x269 <= 1
C1807: + x114 + x146 <= 1
C1808: + x33 + x376 <= 1
C1809: + x5 + x65 <= 1
C1810: + x18 + x41 <= 1
C1811: + x210 + x308 <= 1
C1812: + x46 + x131 <= 1
C1813: + x355 + x383 <= 1
C1814: + x74 + x183 <= 1
C1815: + x247 + x305 <= 1
C1816: + x2 + x101 <= 1
C1817: + x284 + x366 <= 1
C1818: + x27 + x428 <= 1
C1819: + x45 + x63 <= 1
C1820: + x27 + x101 <= 1
C1821: + x2 + x136 <= 1
C1822: + x56 + x77 <= 1
C1823: + x211 + x339 <= 1
C1824: + x5 + x117 <= 1
C1825: + x44 + x212 <= 1
C1826: + x65 + x125 <= 1
C1827: + x3 + x465 <= 1
C1828: + x12 + x434 <= 1
C1829: + x187 + x412 <= 1
C1830: + x345 + x424 <= 1
C1831: + x10 + x419 <= 1
C1832: + x195 + x428 <= 1
C1833: + x88 + x405 <= 1
C1834: + x27 + x41 <= 1
C1835: + x16 + x172 <= 1
C1836: + x24 + x60 <= 1
C1837: + x55 + x64 <= 1
C1838: + x130 + x290 <= 1
C1839: + x138 + x327 <= 1
C1840: + x248 + x360 <= 1
C1841: + x6 + x37 <= 1
C1842: + x18 + x135 <= 1
C1843: + x221 + x497 <= 1
C1844: + x4 + x184 <= 1
C1845: + x239 + x316 <= 1
C1846: + x103 + x420 <= 1
C1847: + x7 + x78 <= 1
C1848: + x37 + x54 <= 1
C1849: + x22 + x115 <= 1
C1850: + x6 + x233 <= 1
C1851: + x36 + x454 <= 1
C1852: + x9 + x325 <= 1
C1853: + x9 + x154 <= 1
C1854: + x44 + x201 <= 1
C1855: + x73 + x439 <= 1
C1856: + x47 + x377 <= 1
C1857: + x56 + x344 <= 1
C1858: + x4 + x342 <= 1
C1859: + x14 + x391 <= 1
C1860: + x35 + x321 <= 1
C1861: + x198 + x442 <= 1
C1862: + x79 + x237 <= 1
C1863: + x100 + x403 <= 1
C1864: + x15 + x202 <= 1
C1865: + x16 + x177 <= 1
C1866: + x1 + x35 <= 1
C1867: + x93 + x404 <= 1
C1868: + x71 + x432 <= 1
C1869: + x12 + x113 <= 1
C1870: + x223 + x365 <= 1
C1871: + x190 + x382 <= 1
C1872: + x19 + x282 <= 1
C1873: + x67 + x320 <= 1
C1874: + x94 + x106 <= 1
C1875: + x15 + x121 <= 1
C1876: + x137 + x213 <= 1
C1877: + x201 + x426 <= 1
C1878: + x70 + x438 <= 1
C1879: + x5 + x55 <= 1
C1880: + x23 + x137 <= 1
C1881: + x18 + x27 <= 1
C1882: + x16 + x69 <= 1
C1883: + x74 + x454 <= 1
C1884: + x9 + x50 <= 1
C1885: + x137 + x455 <= 1
C1886: + x104 + x387 <= 1
C1887: + x306 + x336 <= 1
C1888: + x54 + x85 <= 1
C1889: + x347 + x406 <= 1
C1890: + x11 + x12 <= 1
C1891: + x55 + x440 <= 1
C1892: + x53 + x387 <= 1
C1893: + x101 + x210 <= 1
C1894: + x130 + x453 <= 1
C1895: + x47 + x110 <= 1
C1896: + x42 + x363 <= 1
C1897: + x71 + x280 <= 1
C1898: + x11 + x322 <= 1
C1899: + x203 + x219 <= 1
C1900: + x19 + x75 <= 1
C1901: + x129 + x322 <= 1
C1902: + x3 + x177 <= 1
C1903: + x113 + x327 <= 1
C1904: + x12 + x267 <= 1
C1905: + x5 + x10 <= 1
C1906: + x90 + x146 <= 1
C1907: + x90 + x325 <= 1
C1908: + x27 + x59 <= 1
C1909: + x10 + x195 <= 1
C1910: + x11 + x209 <= 1
C1911: + x54 + x375 <= 1
C1912: + x12 + x106 <= 1
C1913: + x17 + x125 <= 1
C1914: + x71 + x196 <= 1
C1915: + x47 + x155 <= 1
C1916: + x19 + x127 <= 1
C1917: + x94 + x134 <= 1
C1918: + x233 + x368 <= 1
C1919: + x106 + x232 <= 1
C1920: + x166 + x254 <= 1
C1921: + x368 + x402 <= 1
C1922: + x189 + x256 <= 1
C1923: + x9 + x57 <= 1
C1924: + x10 + x143 <= 1
C1925: + x157 + x300 <= 1
C1926: + x4 + x408 <= 1
C1927: + x24 + x30 <= 1
C1928: + x221 + x374 <= 1
C1929: + x77 + x211 <= 1
C1930: + x106 + x369 <= 1
C1931: + x18 + x173 <= 1
C1932: + x239 + x437 <= 1
C1933: + x47 + x117 <= 1
C1934: + x48 + x111 <= 1
C1935: + x5 + x98 <= 1
C1936: + x31 + x211 <= 1
C1937: + x289 + x376 <= 1
C1938: + x338 + x339 <= 1
C1939: + x10 + x379 <= 1
C1940: + x37 + x139 <= 1
C1941: + x123 + x316 <= 1
C1942: + x13 + x303 <= 1
C1943: + x14 + x441 <= 1
C1944: + x20 + x83 <= 1
C1945: + x8 + x380 <= 1
C1946: + x15 + x220 <= 1
C1947: + x45 + x96 <= 1
C1948: + x28 + x178 <= 1
C1949: + x118 + x197 <= 1
C1950: + x11 + x220 <= 1
C1951: + x85 + x327 <= 1
C1952: + x7 + x346 <= 1
C1953: + x183 + x232 <= 1
C1954: + x143 + x355 <= 1

binary
x1 x2 x3 x4 x5 x6 x7 x8 x9 x10 x11 x12 x13 x14 x15 x16 x17 x18 x19 x20 x21 x22 x23 x24 x25 x26 x27 x28 x29 x30 x31 x32 x33 x34 x35 x36 x37 x38 x39 x40 x41 x42 x43 x44 x45 x46 x47 x48 x49 x50 x51 x52 x53 x54 x55 x56 x57 x58 x59 x60 x61 x62 x63 x64 x65 x66 x67 x68 x69 x70 x71 x72 x73 x74 x75 x76 x77 x78 x79 x80 x81 x82 x83 x84 x85 x86 x87 x88 x89 x90 x91 x92 x93 x94 x95 x96 x97 x98 x99 x100 x101 x102 x103 x104 x105 x106 x107 x108 x109 x110 x111 x112 x113 x114 x115 x116 x117 x118 x119 x120 x121 x122 x123 x124 x125 x126 x127 x128 x129 x130 x131 x132 x133 x134 x135 x136 x137 x138 x139 x140 x141 x142 x143 x144 x145 x146 x147 x148 x149 x150 x151 x152 x153 x154 x155 x156 x157 x158 x159 x160 x161 x162 x163 x164 x165 x166 x167 x168 x169 x170 x171 x172 x173 x174 x175 x176 x177 x178 x179 x180 x181 x182 x183 x184 x185 x186 x187 x188 x189 x190 x191 x192 x193 x194 x195 x196 x197 x198 x199 x200 x201 x202 x203 x204 x205 x206 x207 x208 x209 x210 x211 x212 x213 x214 x215 x216 x217 x218 x219 x220 x221 x222 x223 x224 x225 x226 x227 x228 x229 x230 x231 x232 x233 x234 x235 x236 x237 x238 x239 x240 x241 x242 x243 x244 x245 x246 x247 x248 x249 x250 x251 x252 x253 x254 x255 x256 x257 x258 x259 x260 x261 x262 x263 x264 x265 x266 x267 x268 x269 x270 x271 x272 x273 x274 x275 x276 x277 x278 x279 x280 x281 x282 x283 x284 x285 x286 x287 x288 x289 x290 x291 x292 x293 x294 x295 x296 x297 x298 x299 x300 x301 x302 x303 x304 x305 x306 x307 x308 x309 x310 x311 x312 x313 x314 x315 x316 x317 x318 x319 x320 x321 x322 x323 x324 x325 x326 x327 x328 x329 x330 x331 x332 x333 x334 x335 x336 x337 x338 x339 x340 x341 x342 x343 x344 x345 x346 x347 x348 x349 x350 x351 x352 x353 x354 x355 x356 x357 x358 x359 x360 x361 x362 x363 x364 x365 x366 x367 x368 x369 x370 x371 x372 x373 x374 x375 x376 x377 x378 x379 x380 x381 x382 x383 x384 x385 x386 x387 x388 x389 x390 x391 x392 x393 x394 x395 x396 x397 x398 x399 x400 x401 x402 x403 x404 x405 x406 x407 x408 x409 x410 x411 x412 x413 x414 x415 x416 x417 x418 x419 x420 x421 x422 x423 x424 x425 x426 x427 x428 x429 x430 x431 x432 x433 x434 x435 x436 x437 x438 x439 x440 x441 x442 x443 x444 x445 x446 x447 x448 x449 x450 x451 x452 x453 x454 x455 x456 x457 x458 x459 x460 x461 x462 x463 x464 x465 x466 x467 x468 x469 x470 x471 x472 x473 x474 x475 x476 x477 x478 x479 x480 x481 x482 x483 x484 x485 x486 x487 x488 x489 x490 x491 x492 x493 x494 x495 x496 x497 x498 x499 x500
