maximize
OBJ: + 1 x1 + 1 x2 + 1 x3 + 1 x4 + 1 x5 + 1 x6 + 1 x7 + 1 x8 + 1 x9 + 1 x10 + 1 x11 + 1 x12 + 1 x13 + 1 x14 + 1 x15 + 1 x16 + 1 x17 + 1 x18 + 1 x19 + 1 x20 + 1 x21 + 1 x22 + 1 x23 + 1 x24 + 1 x25 + 1 x26 + 1 x27 + 1 x28 + 1 x29 + 1 x30 + 1 x31 + 1 x32 + 1 x33 + 1 x34 + 1 x35 + 1 x36 + 1 x37 + 1 x38 + 1 x39 + 1 x40 + 1 x41 + 1 x42 + 1 x43 + 1 x44 + 1 x45 + 1 x46 + 1 x47 + 1 x48 + 1 x49 + 1 x50 + 1 x51 + 1 x52 + 1 x53 + 1 x54 + 1 x55 + 1 x56 + 1 x57 + 1 x58 + 1 x59 + 1 x60 + 1 x61 + 1 x62 + 1 x63 + 1 x64 + 1 x65 + 1 x66 + 1 x67 + 1 x68 + 1 x69 + 1 x70 + 1 x71 + 1 x72 + 1 x73 + 1 x74 + 1 x75 + 1 x76 + 1 x77 + 1 x78 + 1 x79 + 1 x80 + 1 x81 + 1 x82 + 1 x83 + 1 x84 + 1 x85 + 1 x86 + 1 x87 + 1 x88 + 1 x89 + 1 x90 + 1 x91 + 1 x92 + 1 x93 + 1 x94 + 1 x95 + 1 x96 + 1 x97 + 1 x98 + 1 x99 + 1 x100 + 1 x101 + 1 x102 + 1 x103 + 1 x104 + 1 x105 + 1 x106 + 1 x107 + 1 x108 + 1 x109 + 1 x110 + 1 x111 + 1 x112 + 1 x113 + 1 x114 + 1 x115 + 1 x116 + 1 x117 + 1 x118 + 1 x119 + 1 x120 + 1 x121 + 1 x122 + 1 x123 + 1 x124 + 1 x125 + 1 x126 + 1 x127 + 1 x128 + 1 x129 + 1 x130 + 1 x131 + 1 x132 + 1 x133 + 1 x134 + 1 x135 + 1 x136 + 1 x137 + 1 x138 + 1 x139 + 1 x140 + 1 x141 + 1 x142 + 1 x143 + 1 x144 + 1 x145 + 1 x146 + 1 x147 + 1 x148 + 1 x149 + 1 x150 + 1 x151 + 1 x152 + 1 x153 + 1 x154 + 1 x155 + 1 x156 + 1 x157 + 1 x158 + 1 x159 + 1 x160 + 1 x161 + 1 x162 + 1 x163 + 1 x164 + 1 x165 + 1 x166 + 1 x167 + 1 x168 + 1 x169 + 1 x170 + 1 x171 + 1 x172 + 1 x173 + 1 x174 + 1 x175 + 1 x176 + 1 x177 + 1 x178 + 1 x179 + 1 x180 + 1 x181 + 1 x182 + 1 x183 + 1 x184 + 1 x185 + 1 x186 + 1 x187 + 1 x188 + 1 x189 + 1 x190 + 1 x191 + 1 x192 + 1 x193 + 1 x194 + 1 x195 + 1 x196 + 1 x197 + 1 x198 + 1 x199 + 1 x200 + 1 x201 + 1 x202 + 1 x203 + 1 x204 + 1 x205 + 1 x206 + 1 x207 + 1 x208 + 1 x209 + 1 x210 + 1 x211 + 1 x212 + 1 x213 + 1 x214 + 1 x215 + 1 x216 + 1 x217 + 1 x218 + 1 x219 + 1 x220 + 1 x221 + 1 x222 + 1 x223 + 1 x224 + 1 x225 + 1 x226 + 1 x227 + 1 x228 + 1 x229 + 1 x230 + 1 x231 + 1 x232 + 1 x233 + 1 x234 + 1 x235 + 1 x236 + 1 x237 + 1 x238 + 1 x239 + 1 x240 + 1 x241 + 1 x242 + 1 x243 + 1 x244 + 1 x245 + 1 x246 + 1 x247 + 1 x248 + 1 x249 + 1 x250 + 1 x251 + 1 x252 + 1 x253 + 1 x254 + 1 x255 + 1 x256 + 1 x257 + 1 x258 + 1 x259 + 1 x260 + 1 x261 + 1 x262 + 1 x263 + 1 x264 + 1 x265 + 1 x266 + 1 x267 + 1 x268 + 1 x269 + 1 x270 + 1 x271 + 1 x272 + 1 x273 + 1 x274 + 1 x275 + 1 x276 + 1 x277 + 1 x278 + 1 x279 + 1 x280 + 1 x281 + 1 x282 + 1 x283 + 1 x284 + 1 x285 + 1 x286 + 1 x287 + 1 x288 + 1 x289 + 1 x290 + 1 x291 + 1 x292 + 1 x293 + 1 x294 + 1 x295 + 1 x296 + 1 x297 + 1 x298 + 1 x299 + 1 x300 + 1 x301 + 1 x302 + 1 x303 + 1 x304 + 1 x305 + 1 x306 + 1 x307 + 1 x308 + 1 x309 + 1 x310 + 1 x311 + 1 x312 + 1 x313 + 1 x314 + 1 x315 + 1 x316 + 1 x317 + 1 x318 + 1 x319 + 1 x320 + 1 x321 + 1 x322 + 1 x323 + 1 x324 + 1 x325 + 1 x326 + 1 x327 + 1 x328 + 1 x329 + 1 x330 + 1 x331 + 1 x332 + 1 x333 + 1 x334 + 1 x335 + 1 x336 + 1 x337 + 1 x338 + 1 x339 + 1 x340 + 1 x341 + 1 x342 + 1 x343 + 1 x344 + 1 x345 + 1 x346 + 1 x347 + 1 x348 + 1 x349 + 1 x350 + 1 x351 + 1 x352 + 1 x353 + 1 x354 + 1 x355 + 1 x356 + 1 x357 + 1 x358 + 1 x359 + 1 x360 + 1 x361 + 1 x362 + 1 x363 + 1 x364 + 1 x365 + 1 x366 + 1 x367 + 1 x368 + 1 x369 + 1 x370 + 1 x371 + 1 x372 + 1 x373 + 1 x374 + 1 x375 + 1 x376 + 1 x377 + 1 x378 + 1 x379 + 1 x380 + 1 x381 + 1 x382 + 1 x383 + 1 x384 + 1 x385 + 1 x386 + 1 x387 + 1 x388 + 1 x389 + 1 x390 + 1 x391 + 1 x392 + 1 x393 + 1 x394 + 1 x395 + 1 x396 + 1 x397 + 1 x398 + 1 x399 + 1 x400 + 1 x401 + 1 x402 + 1 x403 + 1 x404 + 1 x405 + 1 x406 + 1 x407 + 1 x408 + 1 x409 + 1 x410 + 1 x411 + 1 x412 + 1 x413 + 1 x414 + 1 x415 + 1 x416 + 1 x417 + 1 x418 + 1 x419 + 1 x420 + 1 x421 + 1 x422 + 1 x423 + 1 x424 + 1 x425 + 1 x426 + 1 x427 + 1 x428 + 1 x429 + 1 x430 + 1 x431 + 1 x432 + 1 x433 + 1 x434 + 1 x435 + 1 x436 + 1 x437 + 1 x438 + 1 x439 + 1 x440 + 1 x441 + 1 x442 + 1 x443 + 1 x444 + 1 x445 + 1 x446 + 1 x447 + 1 x448 + 1 x449 + 1 x450 + 1 x451 + 1 x452 + 1 x453 + 1 x454 + 1 x455 + 1 x456 + 1 x457 + 1 x458 + 1 x459 + 1 x460 + 1 x461 + 1 x462 + 1 x463 + 1 x464 + 1 x465 + 1 x466 + 1 x467 + 1 x468 + 1 x469 + 1 x470 + 1 x471 + 1 x472 + 1 x473 + 1 x474 + 1 x475 + 1 x476 + 1 x477 + 1 x478 + 1 x479 + 1 x480 + 1 x481 + 1 x482 + 1 x483 + 1 x484 + 1 x485 + 1 x486 + 1 x487 + 1 x488 + 1 x489 + 1 x490 + 1 x491 + 1 x492 + 1 x493 + 1 x494 + 1 x495 + 1 x496 + 1 x497 + 1 x498 + 1 x499 + 1 x500

subject to
C1: + x186 + x267 <= 1
C2: + x5 + x136 <= 1
C3: + x154 + x191 <= 1
C4: + x8 + x251 <= 1
C5: + x97 + x212 <= 1
C6: + x363 + x436 <= 1
C7: + x79 + x409 <= 1
C8: + x8 + x26 <= 1
C9: + x6 + x417 <= 1
C10: + x7 + x55 <= 1
C11: + x190 + x324 <= 1
C12: + x212 + x354 <= 1
C13: + x86 + x147 <= 1
C14: + x6 + x196 <= 1
C15: + x7 + x212 <= 1
C16: + x15 + x151 <= 1
C17: + x290 + x406 <= 1
C18: + x42 + x341 <= 1
C19: + x5 + x105 <= 1
C20: + x111 + x360 <= 1
C21: + x39 + x150 <= 1
C22: + x255 + x352 <= 1
C23: + x38 + x316 <= 1
C24: + x188 + x387 <= 1
C25: + x196 + x282 <= 1
C26: + x161 + x278 <= 1
C27: + x336 + x474 <= 1
C28: + x41 + x353 <= 1
C29: + x5 + x143 <= 1
C30: + x343 + x422 <= 1
C31: + x2 + x41 <= 1
C32: + x96 + x99 <= 1
C33: + x17 + x309 <= 1
C34: + x6 + x375 <= 1
C35: + x16 + x84 <= 1
C36: + x91 + x401 <= 1
C37: + x195 + x229 <= 1
C38: + x41 + x187 <= 1
C39: + x386 + x416 <= 1
C40: + x150 + x367 <= 1
C41: + x81 + x359 <= 1
C42: + x8 + x438 <= 1
C43: + x203 + x306 <= 1
C44: + x73 + x401 <= 1
C45: + x90 + x217 <= 1
C46: + x80 + x86 <= 1
C47: + x245 + x322 <= 1
C48: + x101 + x207 <= 1
C49: + x110 + x230 <= 1
C50: + x29 + x297 <= 1
C51: + x57 + x400 <= 1
C52: + x13 + x51 <= 1
C53: + x197 + x280 <= 1
C54: + x41 + x74 <= 1
C55: + x23 + x234 <= 1
C56: + x18 + x58 <= 1
C57: + x72 + x139 <= 1
C58: + x91 + x421 <= 1
C59: + x44 + x53 <= 1
C60: + x9 + x19 <= 1
C61: + x26 + x239 <= 1
C62: + x18 + x485 <= 1
C63: + x112 + x302 <= 1
C64: + x96 + x168 <= 1
C65: + x5 + x231 <= 1
C66: + x6 + x332 <= 1
C67: + x265 + x332 <= 1
C68: + x14 + x316 <= 1
C69: + x26 + x59 <= 1
C70: + x16 + x44 <= 1
C71: + x1 + x428 <= 1
C72: + x392 + x401 <= 1
C73: + x29 + x463 <= 1
C74: + x239 + x368 <= 1
C75: + x141 + x145 <= 1
C76: + x5 + x374 <= 1
C77: + x16 + x335 <= 1
C78: + x173 + x349 <= 1
C79: + x219 + x436 <= 1
C80: + x2 + x34 <= 1
C81: + x93 + x231 <= 1
C82: + x4 + x153 <= 1
C83: + x253 + x426 <= 1
C84: + x7 + x33 <= 1
C85: + x51 + x71 <= 1
C86: + x70 + x315 <= 1
C87: + x125 + x450 <= 1
C88: + x7 + x206 <= 1
C89: + x7 + x279 <= 1
C90: + x303 + x323 <= 1
C91: + x112 + x198 <= 1
C92: + x36 + x153 <= 1
C93: + x1 + x407 <= 1
C94: + x8 + x452 <= 1
C95: + x276 + x285 <= 1
C96: + x5 + x329 <= 1
C97: + x34 + x120 <= 1
C98: + x262 + x274 <= 1
C99: + x28 + x435 <= 1
C100: + x32 + x458 <= 1
C101: + x103 + x161 <= 1
C102: + x51 + x443 <= 1
C103: + x97 + x173 <= 1
C104: + x118 + x357 <= 1
C105: + x1 + x6 <= 1
C106: + x55 + x329 <= 1
C107: + x140 + x278 <= 1
C108: + x33 + x92 <= 1
C109: + x63 + x118 <= 1
C110: + x1 + x181 <= 1
C111: + x8 + x283 <= 1
C112: + x4 + x130 <= 1
C113: + x93 + x387 <= 1
C114: + x322 + x329 <= 1
C115: + x130 + x393 <= 1
C116: + x5 + x260 <= 1
C117: + x397 + x497 <= 1
C118: + x26 + x80 <= 1
C119: + x9 + x434 <= 1
C120: + x93 + x296 <= 1
C121: + x8 + x428 <= 1
C122: + x51 + x66 <= 1
C123: + x15 + x108 <= 1
C124: + x100 + x304 <= 1
C125: + x35 + x264 <= 1
C126: + x8 + x150 <= 1
C127: + x16 + x215 <= 1
C128: + x85 + x151 <= 1
C129: + x91 + x278 <= 1
C130: + x71 + x458 <= 1
C131: + x40 + x340 <= 1
C132: + x116 + x419 <= 1
C133: + x33 + x135 <= 1
C134: + x15 + x27 <= 1
C135: + x101 + x311 <= 1
C136: + x8 + x352 <= 1
C137: + x127 + x320 <= 1
C138: + x189 + x282 <= 1
C139: + x46 + x279 <= 1
C140: + x276 + x403 <= 1
C141: + x22 + x208 <= 1
C142: + x79 + x326 <= 1
C143: + x36 + x206 <= 1
C144: + x46 + x186 <= 1
C145: + x37 + x147 <= 1
C146: + x139 + x167 <= 1
C147: + x403 + x412 <= 1
C148: + x101 + x184 <= 1
C149: + x37 + x397 <= 1
C150: + x137 + x308 <= 1
C151: + x192 + x345 <= 1
C152: + x267 + x469 <= 1
C153: + x124 + x127 <= 1
C154: + x81 + x90 <= 1
C155: + x13 + x236 <= 1
C156: + x100 + x155 <= 1
C157: + x135 + x315 <= 1
C158: + x5 + x267 <= 1
C159: + x7 + x19 <= 1
C160: + x12 + x361 <= 1
C161: + x56 + x437 <= 1
C162: + x13 + x224 <= 1
C163: + x71 + x366 <= 1
C164: + x247 + x492 <= 1
C165: + x4 + x421 <= 1
C166: + x5 + x319 <= 1
C167: + x7 + x79 <= 1
C168: + x51 + x429 <= 1
C169: + x6 + x236 <= 1
C170: + x181 + x374 <= 1
C171: + x18 + x190 <= 1
C172: + x16 + x228 <= 1
C173: + x74 + x425 <= 1
C174: + x149 + x351 <= 1
C175: + x14 + x156 <= 1
C176: + x89 + x474 <= 1
C177: + x36 + x243 <= 1
C178: + x7 + x123 <= 1
C179: + x146 + x207 <= 1
C180: + x1 + x350 <= 1
C181: + x8 + x265 <= 1
C182: + x10 + x122 <= 1
C183: + x262 + x312 <= 1
C184: + x33 + x439 <= 1
C185: + x247 + x471 <= 1
C186: + x4 + x43 <= 1
C187: + x187 + x222 <= 1
C188: + x295 + x386 <= 1
C189: + x78 + x453 <= 1
C190: + x7 + x22 <= 1
C191: + x200 + x346 <= 1
C192: + x147 + x360 <= 1
C193: + x8 + x410 <= 1
C194: + x139 + x345 <= 1
C195: + x248 + x356 <= 1
C196: + x24 + x411 <= 1
C197: + x8 + x317 <= 1
C198: + x280 + x444 <= 1
C199: + x1 + x5 + x7 + x9 + x13 <= 1
C200: + x14 + x364 <= 1
C201: + x1 + x124 <= 1
C202: + x8 + x47 <= 1
C203: + x298 + x310 <= 1
C204: + x91 + x94 <= 1
C205: + x8 + x334 <= 1
C206: + x1 + x281 <= 1
C207: + x13 + x166 <= 1
C208: + x296 + x372 <= 1
C209: + x43 + x473 <= 1
C210: + x7 + x227 <= 1
C211: + x18 + x183 <= 1
C212: + x380 + x451 <= 1
C213: + x19 + x354 <= 1
C214: + x29 + x102 <= 1
C215: + x230 + x234 <= 1
C216: + x161 + x406 <= 1
C217: + x8 + x258 <= 1
C218: + x8 + x205 <= 1
C219: + x5 + x15 <= 1
C220: + x26 + x333 <= 1
C221: + x52 + x476 <= 1
C222: + x9 + x202 <= 1
C223: + x152 + x277 <= 1
C224: + x15 + x206 <= 1
C225: + x434 + x482 <= 1
C226: + x124 + x236 <= 1
C227: + x33 + x224 <= 1
C228: + x89 + x493 <= 1
C229: + x26 + x35 <= 1
C230: + x200 + x343 <= 1
C231: + x339 + x415 <= 1
C232: + x130 + x226 <= 1
C233: + x112 + x379 <= 1
C234: + x14 + x119 <= 1
C235: + x154 + x177 <= 1
C236: + x16 + x375 <= 1
C237: + x11 + x165 <= 1
C238: + x22 + x23 <= 1
C239: + x387 + x406 <= 1
C240: + x99 + x383 <= 1
C241: + x200 + x232 <= 1
C242: + x8 + x40 <= 1
C243: + x64 + x91 <= 1
C244: + x244 + x365 <= 1
C245: + x147 + x275 <= 1
C246: + x328 + x338 <= 1
C247: + x16 + x315 <= 1
C248: + x109 + x233 <= 1
C249: + x45 + x484 <= 1
C250: + x241 + x364 <= 1
C251: + x285 + x389 <= 1
C252: + x107 + x165 <= 1
C253: + x16 + x21 <= 1
C254: + x135 + x157 <= 1
C255: + x263 + x285 <= 1
C256: + x404 + x495 <= 1
C257: + x5 + x337 <= 1
C258: + x74 + x300 <= 1
C259: + x140 + x143 <= 1
C260: + x31 + x127 <= 1
C261: + x14 + x31 <= 1
C262: + x15 + x213 <= 1
C263: + x44 + x83 <= 1
C264: + x152 + x302 <= 1
C265: + x298 + x473 <= 1
C266: + x1 + x62 <= 1
C267: + x21 + x49 <= 1
C268: + x31 + x156 <= 1
C269: + x26 + x44 <= 1
C270: + x7 + x8 <= 1
C271: + x54 + x150 <= 1
C272: + x44 + x242 <= 1
C273: + x38 + x76 <= 1
C274: + x173 + x463 <= 1
C275: + x5 + x133 <= 1
C276: + x14 + x112 <= 1
C277: + x63 + x94 <= 1
C278: + x242 + x313 <= 1
C279: + x4 + x170 <= 1
C280: + x297 + x361 <= 1
C281: + x290 + x296 <= 1
C282: + x184 + x473 <= 1
C283: + x7 + x52 <= 1
C284: + x76 + x197 <= 1
C285: + x14 + x36 <= 1
C286: + x16 + x255 <= 1
C287: + x122 + x186 <= 1
C288: + x41 + x96 <= 1
C289: + x13 + x57 <= 1
C290: + x5 + x110 <= 1
C291: + x215 + x404 <= 1
C292: + x52 + x441 <= 1
C293: + x19 + x340 <= 1
C294: + x37 + x183 <= 1
C295: + x2 + x266 <= 1
C296: + x126 + x432 <= 1
C297: + x1 + x291 <= 1
C298: + x92 + x215 <= 1
C299: + x8 + x195 <= 1
C300: + x284 + x385 <= 1
C301: + x26 + x146 <= 1
C302: + x16 + x131 <= 1
C303: + x10 + x208 <= 1
C304: + x68 + x267 <= 1
C305: + x13 + x442 <= 1
C306: + x5 + x495 <= 1
C307: + x27 + x163 <= 1
C308: + x1 + x466 <= 1
C309: + x49 + x252 <= 1
C310: + x52 + x343 <= 1
C311: + x169 + x240 <= 1
C312: + x117 + x302 <= 1
C313: + x9 + x36 <= 1
C314: + x75 + x460 <= 1
C315: + x105 + x120 <= 1
C316: + x90 + x441 <= 1
C317: + x10 + x279 <= 1
C318: + x219 + x228 <= 1
C319: + x17 + x321 <= 1
C320: + x9 + x179 <= 1
C321: + x152 + x368 <= 1
C322: + x175 + x181 <= 1
C323: + x43 + x164 <= 1
C324: + x261 + x404 <= 1
C325: + x16 + x442 <= 1
C326: + x10 + x451 <= 1
C327: + x238 + x325 <= 1
C328: + x50 + x63 <= 1
C329: + x22 + x94 <= 1
C330: + x16 + x140 <= 1
C331: + x137 + x436 <= 1
C332: + x93 + x117 <= 1
C333: + x4 + x7 <= 1
C334: + x40 + x306 <= 1
C335: + x221 + x308 <= 1
C336: + x76 + x102 <= 1
C337: + x69 + x275 <= 1
C338: + x5 + x48 <= 1
C339: + x108 + x234 <= 1
C340: + x8 + x19 <= 1
C341: + x76 + x449 <= 1
C342: + x30 + x34 <= 1
C343: + x22 + x133 <= 1
C344: + x106 + x113 <= 1
C345: + x8 + x434 <= 1
C346: + x64 + x356 <= 1
C347: + x13 + x330 <= 1
C348: + x4 + x293 <= 1
C349: + x252 + x406 <= 1
C350: + x9 + x81 <= 1
C351: + x8 + x455 <= 1
C352: + x89 + x346 <= 1
C353: + x7 + x90 <= 1
C354: + x148 + x247 <= 1
C355: + x212 + x439 <= 1
C356: + x13 + x190 <= 1
C357: + x5 + x227 <= 1
C358: + x15 + x170 <= 1
C359: + x7 + x251 <= 1
C360: + x10 + x250 <= 1
C361: + x19 + x213 <= 1
C362: + x140 + x273 <= 1
C363: + x13 + x99 <= 1
C364: + x42 + x193 <= 1
C365: + x25 + x137 <= 1
C366: + x93 + x273 <= 1
C367: + x29 + x30 <= 1
C368: + x22 + x472 <= 1
C369: + x25 + x38 <= 1
C370: + x99 + x117 <= 1
C371: + x34 + x79 <= 1
C372: + x64 + x284 <= 1
C373: + x136 + x308 <= 1
C374: + x5 + x23 <= 1
C375: + x304 + x464 <= 1
C376: + x142 + x311 <= 1
C377: + x62 + x210 <= 1
C378: + x18 + x422 <= 1
C379: + x102 + x107 <= 1
C380: + x144 + x257 <= 1
C381: + x86 + x260 <= 1
C382: + x115 + x232 <= 1
C383: + x5 + x91 <= 1
C384: + x180 + x186 <= 1
C385: + x72 + x384 <= 1
C386: + x186 + x342 <= 1
C387: + x52 + x226 <= 1
C388: + x15 + x24 <= 1
C389: + x14 + x480 <= 1
C390: + x8 + x355 <= 1
C391: + x122 + x318 <= 1
C392: + x96 + x169 <= 1
C393: + x210 + x331 <= 1
C394: + x46 + x282 <= 1
C395: + x283 + x385 <= 1
C396: + x13 + x26 <= 1
C397: + x17 + x93 <= 1
C398: + x38 + x112 <= 1
C399: + x41 + x339 <= 1
C400: + x343 + x460 <= 1
C401: + x255 + x314 <= 1
C402: + x1 + x324 <= 1
C403: + x29 + x359 <= 1
C404: + x59 + x442 <= 1
C405: + x297 + x325 <= 1
C406: + x90 + x369 <= 1
C407: + x99 + x286 <= 1
C408: + x5 + x272 <= 1
C409: + x170 + x457 <= 1
C410: + x82 + x95 <= 1
C411: + x347 + x381 <= 1
C412: + x16 + x360 <= 1
C413: + x7 + x185 <= 1
C414: + x120 + x141 <= 1
C415: + x41 + x60 <= 1
C416: + x13 + x221 <= 1
C417: + x188 + x317 <= 1
C418: + x1 + x98 <= 1
C419: + x37 + x171 <= 1
C420: + x29 + x426 <= 1
C421: + x433 + x440 <= 1
C422: + x14 + x60 <= 1
C423: + x108 + x161 <= 1
C424: + x125 + x425 <= 1
C425: + x8 + x70 <= 1
C426: + x72 + x262 <= 1
C427: + x304 + x394 <= 1
C428: + x22 + x204 <= 1
C429: + x179 + x361 <= 1
C430: + x17 + x84 <= 1
C431: + x103 + x486 <= 1
C432: + x3 + x27 <= 1
C433: + x29 + x473 <= 1
C434: + x115 + x449 <= 1
C435: + x15 + x43 <= 1
C436: + x36 + x429 <= 1
C437: + x29 + x382 <= 1
C438: + x25 + x337 <= 1
C439: + x1 + x45 <= 1
C440: + x59 + x294 <= 1
C441: + x4 + x42 <= 1
C442: + x55 + x61 <= 1
C443: + x14 + x65 <= 1
C444: + x31 + x54 <= 1
C445: + x5 + x73 <= 1
C446: + x61 + x497 <= 1
C447: + x9 + x12 <= 1
C448: + x8 + x46 <= 1
C449: + x120 + x297 <= 1
C450: + x29 + x87 <= 1
C451: + x49 + x163 <= 1
C452: + x28 + x250 <= 1
C453: + x4 + x425 <= 1
C454: + x97 + x466 <= 1
C455: + x76 + x214 <= 1
C456: + x203 + x283 <= 1
C457: + x40 + x44 <= 1
C458: + x106 + x134 <= 1
C459: + x354 + x492 <= 1
C460: + x7 + x240 <= 1
C461: + x1 + x24 <= 1
C462: + x38 + x191 <= 1
C463: + x114 + x198 <= 1
C464: + x13 + x16 <= 1
C465: + x17 + x75 <= 1
C466: + x27 + x130 <= 1
C467: + x8 + x482 <= 1
C468: + x76 + x288 <= 1
C469: + x42 + x87 <= 1
C470: + x53 + x300 <= 1
C471: + x336 + x349 <= 1
C472: + x101 + x366 <= 1
C473: + x367 + x464 <= 1
C474: + x151 + x428 <= 1
C475: + x38 + x227 <= 1
C476: + x40 + x195 <= 1
C477: + x51 + x139 <= 1
C478: + x170 + x315 <= 1
C479: + x107 + x320 <= 1
C480: + x7 + x10 <= 1
C481: + x310 + x379 <= 1
C482: + x14 + x122 <= 1
C483: + x52 + x328 <= 1
C484: + x5 + x147 <= 1
C485: + x243 + x249 <= 1
C486: + x63 + x88 <= 1
C487: + x57 + x432 <= 1
C488: + x265 + x320 <= 1
C489: + x5 + x56 <= 1
C490: + x35 + x36 <= 1
C491: + x36 + x180 <= 1
C492: + x84 + x398 <= 1
C493: + x149 + x499 <= 1
C494: + x340 + x427 <= 1
C495: + x31 + x275 <= 1
C496: + x150 + x339 <= 1
C497: + x173 + x265 <= 1
C498: + x2 + x118 <= 1
C499: + x57 + x287 <= 1
C500: + x215 + x313 <= 1
C501: + x27 + x120 <= 1
C502: + x113 + x233 <= 1
C503: + x112 + x161 <= 1
C504: + x40 + x136 <= 1
C505: + x14 + x145 <= 1
C506: + x87 + x463 <= 1
C507: + x294 + x499 <= 1
C508: + x55 + x243 <= 1
C509: + x12 + x28 <= 1
C510: + x52 + x480 <= 1
C511: + x5 + x11 <= 1
C512: + x17 + x209 <= 1
C513: + x44 + x395 <= 1
C514: + x8 + x112 <= 1
C515: + x28 + x188 <= 1
C516: + x121 + x264 <= 1
C517: + x12 + x105 <= 1
C518: + x62 + x246 <= 1
C519: + x1 + x357 <= 1
C520: + x65 + x165 <= 1
C521: + x37 + x200 <= 1
C522: + x1 + x276 <= 1
C523: + x8 + x327 <= 1
C524: + x56 + x312 <= 1
C525: + x112 + x331 <= 1
C526: + x78 + x220 <= 1
C527: + x105 + x384 <= 1
C528: + x62 + x472 <= 1
C529: + x101 + x218 <= 1
C530: + x237 + x306 <= 1
C531: + x111 + x129 <= 1
C532: + x307 + x479 <= 1
C533: + x152 + x441 <= 1
C534: + x93 + x500 <= 1
C535: + x68 + x377 <= 1
C536: + x186 + x318 <= 1
C537: + x359 + x426 <= 1
C538: + x34 + x100 <= 1
C539: + x8 + x379 <= 1
C540: + x86 + x221 <= 1
C541: + x34 + x463 <= 1
C542: + x7 + x351 <= 1
C543: + x1 + x50 <= 1
C544: + x37 + x283 <= 1
C545: + x21 + x61 <= 1
C546: + x268 + x309 <= 1
C547: + x13 + x447 <= 1
C548: + x107 + x290 <= 1
C549: + x44 + x246 <= 1
C550: + x9 + x82 <= 1
C551: + x73 + x402 <= 1
C552: + x68 + x252 <= 1
C553: + x331 + x413 <= 1
C554: + x40 + x483 <= 1
C555: + x15 + x76 <= 1
C556: + x6 + x31 <= 1
C557: + x99 + x104 <= 1
C558: + x8 + x303 <= 1
C559: + x24 + x421 <= 1
C560: + x191 + x450 <= 1
C561: + x5 + x38 <= 1
C562: + x99 + x374 <= 1
C563: + x9 + x33 <= 1
C564: + x79 + x410 <= 1
C565: + x64 + x80 <= 1
C566: + x100 + x477 <= 1
C567: + x257 + x458 <= 1
C568: + x27 + x397 <= 1
C569: + x13 + x53 <= 1
C570: + x15 + x358 <= 1
C571: + x160 + x499 <= 1
C572: + x9 + x109 <= 1
C573: + x46 + x154 <= 1
C574: + x138 + x438 <= 1
C575: + x85 + x480 <= 1
C576: + x5 + x348 <= 1
C577: + x315 + x362 <= 1
C578: + x34 + x101 <= 1
C579: + x272 + x414 <= 1
C580: + x86 + x230 <= 1
C581: + x14 + x20 <= 1
C582: + x70 + x380 <= 1
C583: + x5 + x249 <= 1
C584: + x7 + x338 <= 1
C585: + x19 + x223 <= 1
C586: + x4 + x6 <= 1
C587: + x40 + x309 <= 1
C588: + x44 + x235 <= 1
C589: + x16 + x46 <= 1
C590: + x54 + x155 <= 1
C591: + x112 + x405 <= 1
C592: + x132 + x248 <= 1
C593: + x52 + x347 <= 1
C594: + x15 + x83 <= 1
C595: + x23 + x50 <= 1
C596: + x1 + x371 <= 1
C597: + x5 + x144 <= 1
C598: + x35 + x77 <= 1
C599: + x7 + x398 <= 1
C600: + x122 + x214 <= 1
C601: + x60 + x61 <= 1
C602: + x9 + x389 <= 1
C603: + x9 + x183 <= 1
C604: + x445 + x472 <= 1
C605: + x13 + x52 <= 1
C606: + x43 + x176 <= 1
C607: + x44 + x56 <= 1
C608: + x5 + x430 <= 1
C609: + x19 + x327 <= 1
C610: + x5 + x323 <= 1
C611: + x62 + x176 <= 1
C612: + x28 + x445 <= 1
C613: + x93 + x359 <= 1
C614: + x84 + x255 <= 1
C615: + x29 + x345 <= 1
C616: + x58 + x120 <= 1
C617: + x121 + x285 <= 1
C618: + x46 + x292 <= 1
C619: + x21 + x195 <= 1
C620: + x22 + x189 <= 1
C621: + x4 + x450 <= 1
C622: + x106 + x388 <= 1
C623: + x125 + x170 <= 1
C624: + x35 + x213 <= 1
C625: + x399 + x423 <= 1
C626: + x64 + x237 <= 1
C627: + x47 + x354 <= 1
C628: + x70 + x246 <= 1
C629: + x1 + x191 <= 1
C630: + x13 + x247 <= 1
C631: + x34 + x277 <= 1
C632: + x26 + x171 <= 1
C633: + x7 + x389 <= 1
C634: + x1 + x92 <= 1
C635: + x33 + x272 <= 1
C636: + x22 + x129 <= 1
C637: + x19 + x303 <= 1
C638: + x46 + x123 <= 1
C639: + x66 + x175 <= 1
C640: + x429 + x468 <= 1
C641: + x100 + x253 <= 1
C642: + x8 + x160 <= 1
C643: + x19 + x29 <= 1
C644: + x51 + x297 <= 1
C645: + x17 + x174 <= 1
C646: + x18 + x50 <= 1
C647: + x55 + x223 <= 1
C648: + x41 + x239 <= 1
C649: + x400 + x437 <= 1
C650: + x13 + x186 <= 1
C651: + x18 + x384 <= 1
C652: + x16 + x157 <= 1
C653: + x28 + x136 <= 1
C654: + x4 + x116 <= 1
C655: + x205 + x236 <= 1
C656: + x18 + x110 <= 1
C657: + x3 + x5 <= 1
C658: + x99 + x113 <= 1
C659: + x8 + x225 <= 1
C660: + x29 + x364 <= 1
C661: + x4 + x129 <= 1
C662: + x44 + x419 <= 1
C663: + x3 + x331 <= 1
C664: + x4 + x64 <= 1
C665: + x116 + x410 <= 1
C666: + x24 + x33 <= 1
C667: + x127 + x369 <= 1
C668: + x81 + x342 <= 1
C669: + x93 + x289 <= 1
C670: + x135 + x238 <= 1
C671: + x58 + x182 <= 1
C672: + x170 + x460 <= 1
C673: + x132 + x146 <= 1
C674: + x350 + x400 <= 1
C675: + x123 + x494 <= 1
C676: + x8 + x149 <= 1
C677: + x137 + x378 <= 1
C678: + x40 + x161 <= 1
C679: + x32 + x200 <= 1
C680: + x125 + x319 <= 1
C681: + x25 + x200 <= 1
C682: + x26 + x256 <= 1
C683: + x1 + x111 <= 1
C684: + x37 + x176 <= 1
C685: + x20 + x114 <= 1
C686: + x76 + x298 <= 1
C687: + x131 + x181 <= 1
C688: + x226 + x243 <= 1
C689: + x15 + x28 <= 1
C690: + x13 + x177 <= 1
C691: + x153 + x247 <= 1
C692: + x27 + x430 <= 1
C693: + x91 + x295 <= 1
C694: + x8 + x73 <= 1
C695: + x76 + x391 <= 1
C696: + x95 + x359 <= 1
C697: + x13 + x22 <= 1
C698: + x168 + x495 <= 1
C699: + x81 + x273 <= 1
C700: + x71 + x296 <= 1
C701: + x39 + x317 <= 1
C702: + x6 + x115 <= 1
C703: + x72 + x83 <= 1
C704: + x257 + x295 <= 1
C705: + x21 + x328 <= 1
C706: + x21 + x37 <= 1
C707: + x4 + x37 <= 1
C708: + x5 + x268 <= 1
C709: + x7 + x20 <= 1
C710: + x29 + x37 <= 1
C711: + x103 + x104 <= 1
C712: + x47 + x139 <= 1
C713: + x7 + x258 <= 1
C714: + x13 + x217 <= 1
C715: + x89 + x90 <= 1
C716: + x6 + x277 <= 1
C717: + x128 + x217 <= 1
C718: + x55 + x169 <= 1
C719: + x93 + x431 <= 1
C720: + x90 + x420 <= 1
C721: + x27 + x276 <= 1
C722: + x31 + x66 <= 1
C723: + x13 + x176 <= 1
C724: + x5 + x221 <= 1
C725: + x153 + x254 <= 1
C726: + x55 + x348 <= 1
C727: + x57 + x498 <= 1
C728: + x14 + x155 <= 1
C729: + x79 + x334 <= 1
C730: + x180 + x494 <= 1
C731: + x408 + x444 <= 1
C732: + x158 + x230 <= 1
C733: + x44 + x401 <= 1
C734: + x27 + x54 <= 1
C735: + x8 + x118 <= 1
C736: + x9 + x196 <= 1
C737: + x18 + x233 <= 1
C738: + x40 + x194 <= 1
C739: + x169 + x418 <= 1
C740: + x7 + x11 <= 1
C741: + x330 + x394 <= 1
C742: + x311 + x358 <= 1
C743: + x6 + x48 <= 1
C744: + x1 + x224 <= 1
C745: + x240 + x340 <= 1
C746: + x5 + x53 <= 1
C747: + x32 + x257 <= 1
C748: + x480 + x491 <= 1
C749: + x50 + x244 <= 1
C750: + x97 + x470 <= 1
C751: + x51 + x196 <= 1
C752: + x8 + x333 <= 1
C753: + x22 + x126 <= 1
C754: + x346 + x443 <= 1
C755: + x18 + x182 <= 1
C756: + x7 + x228 <= 1
C757: + x39 + x57 <= 1
C758: + x305 + x379 <= 1
C759: + x89 + x109 <= 1
C760: + x5 + x438 <= 1
C761: + x14 + x148 <= 1
C762: + x324 + x433 <= 1
C763: + x28 + x266 <= 1
C764: + x72 + x158 <= 1
C765: + x110 + x416 <= 1
C766: + x12 + x430 <= 1
C767: + x19 + x77 <= 1
C768: + x55 + x462 <= 1
C769: + x370 + x414 <= 1
C770: + x117 + x194 <= 1
C771: + x9 + x203 <= 1
C772: + x58 + x111 + x121 <= 1
C773: + x4 + x490 <= 1
C774: + x7 + x14 <= 1
C775: + x29 + x59 <= 1
C776: + x13 + x362 <= 1
C777: + x5 + x159 <= 1
C778: + x197 + x479 <= 1
C779: + x128 + x477 <= 1
C780: + x10 + x46 <= 1
C781: + x8 + x132 <= 1
C782: + x29 + x261 <= 1
C783: + x140 + x325 <= 1
C784: + x47 + x427 <= 1
C785: + x34 + x269 <= 1
C786: + x76 + x114 <= 1
C787: + x25 + x360 <= 1
C788: + x8 + x39 <= 1
C789: + x6 + x442 <= 1
C790: + x318 + x376 <= 1
C791: + x13 + x350 <= 1
C792: + x52 + x280 <= 1
C793: + x92 + x164 <= 1
C794: + x40 + x132 <= 1
C795: + x16 + x24 <= 1
C796: + x84 + x478 <= 1
C797: + x123 + x129 <= 1
C798: + x91 + x106 <= 1
C799: + x1 + x301 <= 1
C800: + x135 + x388 <= 1
C801: + x2 + x6 <= 1
C802: + x194 + x265 <= 1
C803: + x358 + x400 <= 1
C804: + x92 + x128 <= 1
C805: + x8 + x399 <= 1
C806: + x130 + x311 <= 1
C807: + x13 + x353 <= 1
C808: + x15 + x69 <= 1
C809: + x19 + x431 <= 1
C810: + x42 + x427 <= 1
C811: + x7 + x408 <= 1
C812: + x30 + x47 <= 1
C813: + x403 + x457 <= 1
C814: + x31 + x282 <= 1
C815: + x6 + x419 <= 1
C816: + x11 + x64 <= 1
C817: + x29 + x435 <= 1
C818: + x12 + x331 <= 1
C819: + x8 + x173 <= 1
C820: + x30 + x224 <= 1
C821: + x142 + x412 <= 1
C822: + x182 + x330 <= 1
C823: + x84 + x483 <= 1
C824: + x30 + x99 <= 1
C825: + x55 + x107 <= 1
C826: + x84 + x245 <= 1
C827: + x23 + x68 <= 1
C828: + x117 + x283 <= 1
C829: + x9 + x249 <= 1
C830: + x28 + x181 <= 1
C831: + x82 + x276 <= 1
C832: + x373 + x378 <= 1
C833: + x14 + x261 <= 1
C834: + x179 + x326 <= 1
C835: + x315 + x478 <= 1
C836: + x46 + x81 <= 1
C837: + x212 + x230 <= 1
C838: + x6 + x27 <= 1
C839: + x336 + x371 <= 1
C840: + x119 + x446 <= 1
C841: + x287 + x393 <= 1
C842: + x22 + x40 <= 1
C843: + x26 + x362 <= 1
C844: + x9 + x37 <= 1
C845: + x8 + x21 <= 1
C846: + x67 + x446 <= 1
C847: + x96 + x339 <= 1
C848: + x235 + x299 <= 1
C849: + x11 + x39 <= 1
C850: + x51 + x82 <= 1
C851: + x32 + x50 <= 1
C852: + x133 + x305 <= 1
C853: + x10 + x12 <= 1
C854: + x5 + x86 <= 1
C855: + x32 + x292 <= 1
C856: + x14 + x330 <= 1
C857: + x62 + x336 <= 1
C858: + x102 + x318 <= 1
C859: + x29 + x116 <= 1
C860: + x86 + x468 <= 1
C861: + x55 + x193 <= 1
C862: + x33 + x119 <= 1
C863: + x13 + x291 <= 1
C864: + x6 + x96 <= 1
C865: + x208 + x377 <= 1
C866: + x156 + x367 <= 1
C867: + x78 + x261 <= 1
C868: + x5 + x229 <= 1
C869: + x8 + x90 <= 1
C870: + x10 + x248 <= 1
C871: + x57 + x183 <= 1
C872: + x13 + x279 <= 1
C873: + x16 + x333 <= 1
C874: + x19 + x417 <= 1
C875: + x103 + x232 <= 1
C876: + x34 + x280 <= 1
C877: + x15 + x244 <= 1
C878: + x16 + x95 <= 1
C879: + x8 + x14 <= 1
C880: + x140 + x471 <= 1
C881: + x13 + x89 <= 1
C882: + x26 + x65 <= 1
C883: + x7 + x35 <= 1
C884: + x35 + x174 <= 1
C885: + x5 + x192 <= 1
C886: + x40 + x175 <= 1
C887: + x32 + x222 <= 1
C888: + x34 + x151 <= 1
C889: + x455 + x477 <= 1
C890: + x203 + x241 <= 1
C891: + x22 + x259 <= 1
C892: + x6 + x89 <= 1
C893: + x271 + x327 <= 1
C894: + x80 + x194 <= 1
C895: + x94 + x216 <= 1
C896: + x114 + x375 <= 1
C897: + x67 + x87 <= 1
C898: + x16 + x148 <= 1
C899: + x91 + x337 <= 1
C900: + x84 + x98 <= 1
C901: + x320 + x321 <= 1
C902: + x41 + x123 <= 1
C903: + x4 + x15 <= 1
C904: + x51 + x171 <= 1
C905: + x16 + x55 <= 1
C906: + x119 + x355 <= 1
C907: + x39 + x263 <= 1
C908: + x331 + x395 <= 1
C909: + x12 + x390 <= 1
C910: + x309 + x319 <= 1
C911: + x22 + x42 <= 1
C912: + x61 + x432 <= 1
C913: + x278 + x485 <= 1
C914: + x26 + x175 <= 1
C915: + x9 + x211 <= 1
C916: + x237 + x396 <= 1
C917: + x3 + x336 <= 1
C918: + x149 + x403 <= 1
C919: + x40 + x286 <= 1
C920: + x127 + x334 <= 1
C921: + x256 + x285 <= 1
C922: + x400 + x493 <= 1
C923: + x404 + x413 <= 1
C924: + x81 + x256 <= 1
C925: + x91 + x280 <= 1
C926: + x72 + x476 <= 1
C927: + x40 + x168 <= 1
C928: + x5 + x92 <= 1
C929: + x13 + x39 <= 1
C930: + x33 + x371 <= 1
C931: + x141 + x423 <= 1
C932: + x18 + x54 <= 1
C933: + x36 + x160 <= 1
C934: + x29 + x66 <= 1
C935: + x47 + x240 <= 1
C936: + x55 + x211 <= 1
C937: + x33 + x133 <= 1
C938: + x38 + x59 <= 1
C939: + x5 + x310 <= 1
C940: + x156 + x381 <= 1
C941: + x75 + x221 <= 1
C942: + x22 + x111 <= 1
C943: + x42 + x475 <= 1
C944: + x193 + x272 <= 1
C945: + x165 + x180 <= 1
C946: + x13 + x424 <= 1
C947: + x14 + x304 <= 1
C948: + x42 + x201 <= 1
C949: + x9 + x75 <= 1
C950: + x320 + x429 <= 1
C951: + x203 + x377 <= 1
C952: + x187 + x415 <= 1
C953: + x6 + x118 <= 1
C954: + x7 + x142 <= 1
C955: + x119 + x391 <= 1
C956: + x83 + x288 <= 1
C957: + x235 + x245 <= 1
C958: + x19 + x403 <= 1
C959: + x140 + x154 <= 1
C960: + x292 + x328 <= 1
C961: + x116 + x140 <= 1
C962: + x16 + x173 <= 1
C963: + x27 + x48 <= 1
C964: + x300 + x392 <= 1
C965: + x103 + x371 <= 1
C966: + x124 + x220 <= 1
C967: + x84 + x274 <= 1
C968: + x29 + x42 <= 1
C969: + x20 + x444 <= 1
C970: + x6 + x58 <= 1
C971: + x8 + x145 <= 1
C972: + x94 + x185 <= 1
C973: + x105 + x253 <= 1
C974: + x43 + x158 <= 1
C975: + x53 + x69 <= 1
C976: + x254 + x411 <= 1
C977: + x29 + x89 <= 1
C978: + x320 + x482 <= 1
C979: + x340 + x416 <= 1
C980: + x13 + x464 <= 1
C981: + x40 + x335 <= 1
C982: + x35 + x372 <= 1
C983: + x25 + x105 <= 1
C984: + x332 + x459 <= 1
C985: + x138 + x195 <= 1
C986: + x68 + x75 <= 1
C987: + x355 + x450 <= 1
C988: + x9 + x149 <= 1
C989: + x1 + x18 <= 1
C990: + x84 + x112 <= 1
C991: + x265 + x383 <= 1
C992: + x13 + x18 <= 1
C993: + x14 + x158 <= 1
C994: + x5 + x119 <= 1
C995: + x5 + x452 <= 1
C996: + x7 + x476 <= 1
C997: + x10 + x326 <= 1
C998: + x13 + x260 <= 1
C999: + x106 + x208 <= 1
C1000: + x4 + x142 <= 1
C1001: + x5 + x6 <= 1
C1002: + x15 + x314 <= 1
C1003: + x254 + x352 <= 1
C1004: + x6 + x365 <= 1
C1005: + x9 + x193 <= 1
C1006: + x86 + x420 <= 1
C1007: + x97 + x391 <= 1
C1008: + x399 + x449 <= 1
C1009: + x33 + x36 <= 1
C1010: + x13 + x376 <= 1
C1011: + x180 + x437 <= 1
C1012: + x5 + x149 <= 1
C1013: + x16 + x219 <= 1
C1014: + x144 + x274 <= 1
C1015: + x6 + x35 <= 1
C1016: + x11 + x192 <= 1
C1017: + x121 + x362 <= 1
C1018: + x13 + x213 <= 1
C1019: + x125 + x306 <= 1
C1020: + x18 + x40 <= 1
C1021: + x76 + x291 <= 1
C1022: + x97 + x467 <= 1
C1023: + x298 + x312 <= 1
C1024: + x7 + x68 <= 1
C1025: + x1 + x263 <= 1
C1026: + x11 + x15 <= 1
C1027: + x221 + x354 <= 1
C1028: + x41 + x435 <= 1
C1029: + x70 + x348 <= 1
C1030: + x18 + x366 <= 1
C1031: + x48 + x91 <= 1
C1032: + x318 + x467 <= 1
C1033: + x8 + x481 <= 1
C1034: + x130 + x216 <= 1
C1035: + x203 + x363 <= 1
C1036: + x29 + x465 <= 1
C1037: + x25 + x60 <= 1
C1038: + x24 + x478 <= 1
C1039: + x7 + x128 <= 1
C1040: + x17 + x489 <= 1
C1041: + x8 + x211 <= 1
C1042: + x199 + x320 <= 1
C1043: + x1 + x136 <= 1
C1044: + x92 + x199 <= 1
C1045: + x14 + x232 <= 1
C1046: + x100 + x135 <= 1
C1047: + x82 + x301 <= 1
C1048: + x93 + x110 <= 1
C1049: + x7 + x366 <= 1
C1050: + x4 + x18 <= 1
C1051: + x13 + x125 <= 1
C1052: + x24 + x51 <= 1
C1053: + x29 + x485 <= 1
C1054: + x58 + x204 <= 1
C1055: + x5 + x148 <= 1
C1056: + x91 + x184 <= 1
C1057: + x8 + x316 <= 1
C1058: + x29 + x266 <= 1
C1059: + x33 + x392 <= 1
C1060: + x102 + x347 <= 1
C1061: + x29 + x175 <= 1
C1062: + x93 + x418 <= 1
C1063: + x328 + x433 <= 1
C1064: + x106 + x467 <= 1
C1065: + x159 + x357 <= 1
C1066: + x35 + x134 <= 1
C1067: + x102 + x446 <= 1
C1068: + x339 + x469 <= 1
C1069: + x205 + x483 <= 1
C1070: + x29 + x222 <= 1
C1071: + x59 + x481 <= 1
C1072: + x5 + x101 <= 1
C1073: + x53 + x159 <= 1
C1074: + x79 + x345 <= 1
C1075: + x27 + x138 <= 1
C1076: + x115 + x500 <= 1
C1077: + x15 + x54 <= 1
C1078: + x137 + x146 <= 1
C1079: + x8 + x381 <= 1
C1080: + x37 + x448 <= 1
C1081: + x69 + x383 <= 1
C1082: + x52 + x479 <= 1
C1083: + x5 + x12 <= 1
C1084: + x8 + x111 <= 1
C1085: + x2 + x164 <= 1
C1086: + x12 + x108 <= 1
C1087: + x94 + x97 <= 1
C1088: + x31 + x396 <= 1
C1089: + x6 + x21 <= 1
C1090: + x154 + x188 <= 1
C1091: + x152 + x214 <= 1
C1092: + x10 + x82 <= 1
C1093: + x4 + x168 <= 1
C1094: + x15 + x227 <= 1
C1095: + x108 + x250 <= 1
C1096: + x8 + x35 <= 1
C1097: + x2 + x384 <= 1
C1098: + x29 + x166 <= 1
C1099: + x76 + x465 <= 1
C1100: + x24 + x32 <= 1
C1101: + x365 + x475 <= 1
C1102: + x96 + x144 <= 1
C1103: + x207 + x462 <= 1
C1104: + x15 + x142 <= 1
C1105: + x17 + x344 <= 1
C1106: + x10 + x30 <= 1
C1107: + x28 + x104 <= 1
C1108: + x8 + x180 <= 1
C1109: + x85 + x381 <= 1
C1110: + x13 + x63 <= 1
C1111: + x31 + x209 <= 1
C1112: + x324 + x446 <= 1
C1113: + x4 + x84 <= 1
C1114: + x188 + x198 <= 1
C1115: + x24 + x141 <= 1
C1116: + x202 + x244 <= 1
C1117: + x208 + x212 <= 1
C1118: + x24 + x468 <= 1
C1119: + x16 + x439 <= 1
C1120: + x6 + x141 <= 1
C1121: + x51 + x190 <= 1
C1122: + x13 + x448 <= 1
C1123: + x120 + x386 <= 1
C1124: + x123 + x270 <= 1
C1125: + x5 + x130 <= 1
C1126: + x18 + x293 <= 1
C1127: + x28 + x33 <= 1
C1128: + x8 + x245 <= 1
C1129: + x12 + x242 <= 1
C1130: + x24 + x178 <= 1
C1131: + x9 + x34 <= 1
C1132: + x325 + x430 <= 1
C1133: + x80 + x172 <= 1
C1134: + x3 + x77 <= 1
C1135: + x257 + x459 <= 1
C1136: + x5 + x182 <= 1
C1137: + x79 + x85 <= 1
C1138: + x145 + x148 <= 1
C1139: + x29 + x212 <= 1
C1140: + x449 + x472 <= 1
C1141: + x90 + x300 <= 1
C1142: + x16 + x25 <= 1
C1143: + x72 + x144 <= 1
C1144: + x200 + x272 <= 1
C1145: + x130 + x376 <= 1
C1146: + x142 + x408 <= 1
C1147: + x7 + x456 <= 1
C1148: + x169 + x268 <= 1
C1149: + x101 + x284 <= 1
C1150: + x142 + x489 <= 1
C1151: + x80 + x458 <= 1
C1152: + x201 + x370 <= 1
C1153: + x56 + x103 <= 1
C1154: + x4 + x5 <= 1
C1155: + x42 + x218 <= 1
C1156: + x15 + x439 <= 1
C1157: + x208 + x237 <= 1
C1158: + x6 + x7 <= 1
C1159: + x62 + x106 <= 1
C1160: + x92 + x307 <= 1
C1161: + x93 + x234 <= 1
C1162: + x84 + x197 <= 1
C1163: + x121 + x390 <= 1
C1164: + x205 + x441 <= 1
C1165: + x44 + x440 <= 1
C1166: + x99 + x270 <= 1
C1167: + x190 + x248 <= 1
C1168: + x8 + x17 <= 1
C1169: + x297 + x498 <= 1
C1170: + x395 + x481 <= 1
C1171: + x89 + x268 <= 1
C1172: + x26 + x68 <= 1
C1173: + x27 + x372 <= 1
C1174: + x274 + x400 <= 1
C1175: + x50 + x70 <= 1
C1176: + x5 + x189 <= 1
C1177: + x7 + x286 <= 1
C1178: + x109 + x220 <= 1
C1179: + x2 + x251 <= 1
C1180: + x122 + x326 <= 1
C1181: + x116 + x197 <= 1
C1182: + x55 + x197 <= 1
C1183: + x322 + x393 <= 1
C1184: + x140 + x386 <= 1
C1185: + x6 + x92 <= 1
C1186: + x9 + x498 <= 1
C1187: + x347 + x433 <= 1
C1188: + x44 + x72 <= 1
C1189: + x19 + x215 <= 1
C1190: + x58 + x466 <= 1
C1191: + x295 + x423 <= 1
C1192: + x13 + x97 <= 1
C1193: + x399 + x424 <= 1
C1194: + x44 + x258 <= 1
C1195: + x4 + x8 + x16 + x72 <= 1
C1196: + x13 + x248 <= 1
C1197: + x162 + x223 <= 1
C1198: + x26 + x170 <= 1
C1199: + x8 + x10 <= 1
C1200: + x19 + x139 <= 1
C1201: + x233 + x484 <= 1
C1202: + x123 + x484 <= 1
C1203: + x5 + x188 <= 1
C1204: + x424 + x474 <= 1
C1205: + x1 + x204 <= 1
C1206: + x55 + x307 <= 1
C1207: + x13 + x44 <= 1
C1208: + x116 + x257 <= 1
C1209: + x6 + x290 <= 1
C1210: + x18 + x49 <= 1
C1211: + x299 + x318 <= 1
C1212: + x29 + x71 <= 1
C1213: + x22 + x271 <= 1
C1214: + x25 + x31 <= 1
C1215: + x6 + x69 <= 1
C1216: + x261 + x392 <= 1
C1217: + x318 + x339 <= 1
C1218: + x13 + x187 <= 1
C1219: + x5 + x240 <= 1
C1220: + x90 + x244 <= 1
C1221: + x24 + x350 <= 1
C1222: + x154 + x231 <= 1
C1223: + x1 + x8 <= 1
C1224: + x55 + x335 <= 1
C1225: + x100 + x172 <= 1
C1226: + x7 + x321 <= 1
C1227: + x86 + x330 <= 1
C1228: + x33 + x241 <= 1
C1229: + x43 + x220 <= 1
C1230: + x14 + x307 <= 1
C1231: + x307 + x317 <= 1
C1232: + x1 + x421 <= 1
C1233: + x110 + x343 <= 1
C1234: + x101 + x382 <= 1
C1235: + x8 + x228 <= 1
C1236: + x84 + x211 <= 1
C1237: + x85 + x205 <= 1
C1238: + x122 + x268 <= 1
C1239: + x13 + x239 <= 1
C1240: + x81 + x101 <= 1
C1241: + x235 + x488 <= 1
C1242: + x84 + x434 <= 1
C1243: + x13 + x409 <= 1
C1244: + x47 + x310 <= 1
C1245: + x77 + x241 <= 1
C1246: + x125 + x475 <= 1
C1247: + x10 + x58 <= 1
C1248: + x238 + x417 <= 1
C1249: + x85 + x145 <= 1
C1250: + x4 + x80 <= 1
C1251: + x25 + x276 <= 1
C1252: + x142 + x387 <= 1
C1253: + x256 + x490 <= 1
C1254: + x95 + x469 <= 1
C1255: + x177 + x388 <= 1
C1256: + x51 + x207 <= 1
C1257: + x6 + x78 <= 1
C1258: + x35 + x373 <= 1
C1259: + x83 + x155 <= 1
C1260: + x28 + x398 <= 1
C1261: + x74 + x184 <= 1
C1262: + x12 + x290 <= 1
C1263: + x6 + x225 <= 1
C1264: + x27 + x104 <= 1
C1265: + x137 + x423 <= 1
C1266: + x13 + x23 <= 1
C1267: + x29 + x479 <= 1
C1268: + x86 + x97 <= 1
C1269: + x131 + x202 <= 1
C1270: + x41 + x344 <= 1
C1271: + x5 + x358 <= 1
C1272: + x14 + x29 + x73 <= 1
C1273: + x72 + x78 <= 1
C1274: + x8 + x270 <= 1
C1275: + x147 + x165 <= 1
C1276: + x29 + x356 <= 1
C1277: + x95 + x247 <= 1
C1278: + x15 + x194 <= 1
C1279: + x90 + x380 <= 1
C1280: + x7 + x376 <= 1
C1281: + x36 + x93 <= 1
C1282: + x1 + x43 <= 1
C1283: + x92 + x108 <= 1
C1284: + x21 + x38 <= 1
C1285: + x61 + x77 <= 1
C1286: + x170 + x308 <= 1
C1287: + x71 + x209 <= 1
C1288: + x66 + x192 <= 1
C1289: + x76 + x337 <= 1
C1290: + x203 + x297 <= 1
C1291: + x421 + x488 <= 1
C1292: + x320 + x413 <= 1
C1293: + x215 + x344 <= 1
C1294: + x22 + x25 + x102 <= 1
C1295: + x355 + x394 <= 1
C1296: + x172 + x198 <= 1
C1297: + x8 + x141 <= 1
C1298: + x7 + x263 <= 1
C1299: + x446 + x490 <= 1
C1300: + x12 + x202 <= 1
C1301: + x73 + x216 <= 1
C1302: + x16 + x218 <= 1
C1303: + x15 + x327 <= 1
C1304: + x16 + x125 <= 1
C1305: + x143 + x316 <= 1
C1306: + x108 + x350 <= 1
C1307: + x131 + x447 <= 1
C1308: + x5 + x79 <= 1
C1309: + x8 + x52 <= 1
C1310: + x322 + x404 <= 1
C1311: + x13 + x460 <= 1
C1312: + x244 + x353 <= 1
C1313: + x40 + x42 <= 1
C1314: + x22 + x116 <= 1
C1315: + x7 + x307 <= 1
C1316: + x1 + x22 <= 1
C1317: + x282 + x287 <= 1
C1318: + x13 + x14 <= 1
C1319: + x121 + x144 <= 1
C1320: + x53 + x298 <= 1
C1321: + x7 + x121 <= 1
C1322: + x92 + x287 <= 1
C1323: + x27 + x293 <= 1
C1324: + x101 + x356 <= 1
C1325: + x97 + x137 <= 1
C1326: + x87 + x128 <= 1
C1327: + x7 + x367 <= 1
C1328: + x79 + x287 <= 1
C1329: + x49 + x201 <= 1
C1330: + x41 + x395 <= 1
C1331: + x167 + x310 <= 1
C1332: + x169 + x352 <= 1
C1333: + x188 + x494 <= 1
C1334: + x355 + x385 <= 1
C1335: + x128 + x471 <= 1
C1336: + x28 + x82 <= 1
C1337: + x373 + x413 <= 1
C1338: + x146 + x324 <= 1
C1339: + x59 + x402 <= 1
C1340: + x18 + x28 <= 1
C1341: + x9 + x49 <= 1
C1342: + x8 + x41 <= 1
C1343: + x28 + x253 <= 1
C1344: + x322 + x405 <= 1
C1345: + x12 + x497 <= 1
C1346: + x84 + x158 <= 1
C1347: + x93 + x177 <= 1
C1348: + x86 + x130 <= 1
C1349: + x78 + x293 <= 1
C1350: + x42 + x457 <= 1
C1351: + x301 + x454 <= 1
C1352: + x56 + x68 <= 1
C1353: + x192 + x252 <= 1
C1354: + x40 + x134 <= 1
C1355: + x31 + x235 <= 1
C1356: + x158 + x496 <= 1
C1357: + x86 + x115 <= 1
C1358: + x131 + x367 <= 1
C1359: + x6 + x100 <= 1
C1360: + x6 + x135 <= 1
C1361: + x111 + x200 <= 1
C1362: + x55 + x368 <= 1
C1363: + x32 + x380 <= 1
C1364: + x244 + x291 <= 1
C1365: + x16 + x478 <= 1
C1366: + x72 + x209 <= 1
C1367: + x111 + x417 <= 1
C1368: + x11 + x437 <= 1
C1369: + x9 + x262 <= 1
C1370: + x1 + x216 <= 1
C1371: + x5 + x61 <= 1
C1372: + x38 + x210 <= 1
C1373: + x17 + x56 <= 1
C1374: + x15 + x494 <= 1
C1375: + x272 + x455 <= 1
C1376: + x357 + x461 <= 1
C1377: + x5 + x196 <= 1
C1378: + x260 + x391 <= 1
C1379: + x18 + x174 <= 1
C1380: + x144 + x303 <= 1
C1381: + x71 + x493 <= 1
C1382: + x64 + x470 <= 1
C1383: + x40 + x131 <= 1
C1384: + x107 + x163 <= 1
C1385: + x37 + x138 <= 1
C1386: + x246 + x286 <= 1
C1387: + x2 + x5 <= 1
C1388: + x29 + x329 <= 1
C1389: + x4 + x256 <= 1
C1390: + x23 + x74 <= 1
C1391: + x109 + x159 <= 1
C1392: + x71 + x409 <= 1
C1393: + x464 + x490 <= 1
C1394: + x139 + x408 <= 1
C1395: + x56 + x109 <= 1
C1396: + x13 + x445 <= 1
C1397: + x4 + x466 <= 1
C1398: + x116 + x373 <= 1
C1399: + x38 + x74 <= 1
C1400: + x14 + x110 <= 1
C1401: + x152 + x210 <= 1
C1402: + x18 + x296 <= 1
C1403: + x108 + x254 <= 1
C1404: + x426 + x440 <= 1
C1405: + x9 + x63 <= 1
C1406: + x72 + x351 <= 1
C1407: + x58 + x399 <= 1
C1408: + x143 + x415 <= 1
C1409: + x325 + x419 <= 1
C1410: + x82 + x113 <= 1
C1411: + x9 + x412 <= 1
C1412: + x249 + x438 <= 1
C1413: + x220 + x324 <= 1
C1414: + x51 + x88 <= 1
C1415: + x132 + x185 <= 1
C1416: + x18 + x167 <= 1
C1417: + x1 + x251 <= 1
C1418: + x302 + x452 <= 1
C1419: + x13 + x59 <= 1
C1420: + x133 + x496 <= 1
C1421: + x16 + x32 <= 1
C1422: + x340 + x387 <= 1
C1423: + x16 + x435 <= 1
C1424: + x46 + x63 <= 1
C1425: + x177 + x377 <= 1
C1426: + x52 + x300 <= 1
C1427: + x99 + x242 <= 1
C1428: + x220 + x443 <= 1
C1429: + x115 + x378 <= 1
C1430: + x99 + x416 <= 1
C1431: + x6 + x487 <= 1
C1432: + x38 + x115 <= 1
C1433: + x173 + x178 <= 1
C1434: + x55 + x489 <= 1
C1435: + x53 + x496 <= 1
C1436: + x189 + x328 <= 1
C1437: + x9 + x38 <= 1
C1438: + x1 + x67 <= 1
C1439: + x64 + x75 <= 1
C1440: + x30 + x39 <= 1
C1441: + x99 + x468 <= 1
C1442: + x8 + x443 <= 1
C1443: + x37 + x41 <= 1
C1444: + x402 + x456 <= 1
C1445: + x122 + x486 <= 1
C1446: + x12 + x323 <= 1
C1447: + x51 + x79 <= 1
C1448: + x201 + x394 <= 1
C1449: + x75 + x89 <= 1
C1450: + x10 + x11 <= 1
C1451: + x11 + x153 <= 1
C1452: + x4 + x93 <= 1
C1453: + x284 + x491 <= 1
C1454: + x105 + x137 <= 1
C1455: + x14 + x190 <= 1
C1456: + x9 + x18 <= 1
C1457: + x7 + x444 <= 1
C1458: + x139 + x311 <= 1
C1459: + x95 + x488 <= 1
C1460: + x198 + x415 <= 1
C1461: + x97 + x149 <= 1
C1462: + x277 + x409 <= 1
C1463: + x44 + x67 <= 1
C1464: + x245 + x277 <= 1
C1465: + x6 + x333 <= 1
C1466: + x1 + x14 <= 1
C1467: + x449 + x488 <= 1
C1468: + x219 + x260 <= 1
C1469: + x4 + x9 <= 1
C1470: + x97 + x114 <= 1
C1471: + x255 + x465 <= 1
C1472: + x106 + x313 <= 1
C1473: + x28 + x62 <= 1
C1474: + x113 + x295 <= 1
C1475: + x13 + x245 <= 1
C1476: + x23 + x152 <= 1
C1477: + x6 + x166 <= 1
C1478: + x235 + x498 <= 1
C1479: + x25 + x382 <= 1
C1480: + x46 + x218 <= 1
C1481: + x29 + x184 <= 1
C1482: + x377 + x412 <= 1
C1483: + x6 + x404 <= 1
C1484: + x171 + x467 <= 1
C1485: + x400 + x487 <= 1
C1486: + x4 + x295 <= 1
C1487: + x6 + x55 <= 1
C1488: + x18 + x334 <= 1
C1489: + x207 + x292 <= 1
C1490: + x19 + x31 <= 1
C1491: + x111 + x152 <= 1
C1492: + x291 + x303 <= 1
C1493: + x80 + x399 <= 1
C1494: + x13 + x41 <= 1
C1495: + x161 + x162 <= 1
C1496: + x215 + x420 <= 1
C1497: + x15 + x370 <= 1
C1498: + x9 + x25 <= 1
C1499: + x18 + x52 <= 1
C1500: + x29 + x76 <= 1
C1501: + x392 + x475 <= 1
C1502: + x242 + x456 <= 1
C1503: + x59 + x152 <= 1
C1504: + x17 + x457 <= 1
C1505: + x11 + x474 <= 1
C1506: + x12 + x312 <= 1
C1507: + x216 + x385 <= 1
C1508: + x28 + x134 <= 1
C1509: + x83 + x403 <= 1
C1510: + x13 + x29 <= 1
C1511: + x124 + x138 <= 1
C1512: + x29 + x32 <= 1
C1513: + x123 + x284 <= 1
C1514: + x8 + x231 <= 1
C1515: + x291 + x342 <= 1
C1516: + x5 + x17 <= 1
C1517: + x45 + x128 <= 1
C1518: + x10 + x172 <= 1
C1519: + x41 + x168 <= 1
C1520: + x4 + x62 <= 1
C1521: + x187 + x264 <= 1
C1522: + x59 + x274 <= 1
C1523: + x13 + x414 <= 1
C1524: + x7 + x27 <= 1
C1525: + x9 + x433 <= 1
C1526: + x54 + x179 <= 1
C1527: + x21 + x302 <= 1
C1528: + x23 + x26 <= 1
C1529: + x110 + x217 <= 1
C1530: + x3 + x256 <= 1
C1531: + x39 + x93 <= 1
C1532: + x13 + x40 <= 1
C1533: + x75 + x152 + x322 <= 1
C1534: + x16 + x107 <= 1
C1535: + x29 + x67 <= 1
C1536: + x30 + x440 <= 1
C1537: + x251 + x396 <= 1
C1538: + x8 + x349 <= 1
C1539: + x2 + x97 <= 1
C1540: + x55 + x418 <= 1
C1541: + x29 + x429 <= 1
C1542: + x6 + x10 + x17 <= 1
C1543: + x116 + x127 <= 1
C1544: + x32 + x107 <= 1
C1545: + x337 + x370 <= 1
C1546: + x1 + x28 <= 1
C1547: + x165 + x189 <= 1
C1548: + x115 + x355 <= 1
C1549: + x15 + x389 <= 1
C1550: + x90 + x454 <= 1
C1551: + x46 + x187 <= 1
C1552: + x354 + x428 <= 1
C1553: + x6 + x355 <= 1
C1554: + x27 + x45 <= 1
C1555: + x62 + x390 <= 1
C1556: + x187 + x214 <= 1
C1557: + x29 + x43 <= 1
C1558: + x180 + x431 <= 1
C1559: + x14 + x169 <= 1
C1560: + x25 + x205 <= 1
C1561: + x90 + x259 <= 1
C1562: + x45 + x171 <= 1
C1563: + x8 + x55 <= 1
C1564: + x20 + x117 <= 1
C1565: + x24 + x500 <= 1
C1566: + x28 + x386 <= 1
C1567: + x229 + x263 <= 1
C1568: + x13 + x174 <= 1
C1569: + x1 + x19 <= 1
C1570: + x237 + x455 <= 1
C1571: + x22 + x202 <= 1
C1572: + x161 + x305 <= 1
C1573: + x93 + x481 <= 1
C1574: + x34 + x95 <= 1
C1575: + x35 + x325 <= 1
C1576: + x10 + x424 <= 1
C1577: + x14 + x238 <= 1
C1578: + x162 + x237 <= 1
C1579: + x1 + x47 <= 1
C1580: + x182 + x226 <= 1
C1581: + x256 + x431 <= 1
C1582: + x13 + x71 <= 1
C1583: + x31 + x382 <= 1
C1584: + x161 + x269 <= 1
C1585: + x7 + x21 <= 1
C1586: + x29 + x34 <= 1
C1587: + x14 + x127 <= 1
C1588: + x18 + x305 <= 1
C1589: + x9 + x284 <= 1
C1590: + x110 + x203 <= 1
C1591: + x37 + x383 <= 1
C1592: + x101 + x226 <= 1
C1593: + x266 + x397 <= 1
C1594: + x52 + x83 <= 1
C1595: + x8 + x48 <= 1
C1596: + x68 + x321 <= 1
C1597: + x12 + x347 <= 1
C1598: + x60 + x370 <= 1
C1599: + x23 + x193 <= 1
C1600: + x25 + x160 <= 1
C1601: + x15 + x407 <= 1
C1602: + x24 + x122 <= 1
C1603: + x6 + x103 <= 1
C1604: + x164 + x363 <= 1
C1605: + x20 + x348 <= 1
C1606: + x86 + x201 <= 1
C1607: + x25 + x346 <= 1
C1608: + x117 + x267 <= 1
C1609: + x6 + x341 <= 1
C1610: + x9 + x201 <= 1
C1611: + x72 + x305 <= 1
C1612: + x8 + x113 <= 1
C1613: + x13 + x126 <= 1
C1614: + x187 + x273 <= 1
C1615: + x150 + x397 <= 1
C1616: + x7 + x16 <= 1
C1617: + x1 + x451 <= 1
C1618: + x13 + x368 <= 1
C1619: + x4 + x259 <= 1
C1620: + x262 + x486 <= 1
C1621: + x28 + x86 <= 1
C1622: + x37 + x358 <= 1
C1623: + x40 + x78 <= 1
C1624: + x133 + x434 <= 1
C1625: + x34 + x271 <= 1
C1626: + x317 + x425 <= 1
C1627: + x16 + x66 <= 1
C1628: + x290 + x304 <= 1
C1629: + x237 + x422 <= 1
C1630: + x140 + x418 <= 1
C1631: + x276 + x314 <= 1
C1632: + x5 + x292 <= 1
C1633: + x17 + x53 <= 1
C1634: + x8 + x332 <= 1
C1635: + x10 + x486 <= 1
C1636: + x85 + x375 <= 1
C1637: + x1 + x398 <= 1
C1638: + x392 + x499 <= 1
C1639: + x42 + x94 <= 1
C1640: + x342 + x485 <= 1
C1641: + x189 + x405 <= 1
C1642: + x1 + x299 <= 1
C1643: + x2 + x8 <= 1
C1644: + x59 + x81 <= 1
C1645: + x432 + x454 <= 1
C1646: + x45 + x100 <= 1
C1647: + x139 + x489 <= 1
C1648: + x132 + x410 <= 1
C1649: + x22 + x347 <= 1
C1650: + x5 + x487 <= 1
C1651: + x14 + x270 <= 1
C1652: + x79 + x135 <= 1
C1653: + x19 + x126 <= 1
C1654: + x177 + x187 <= 1
C1655: + x90 + x278 <= 1
C1656: + x7 + x402 <= 1
C1657: + x15 + x341 <= 1
C1658: + x185 + x203 <= 1
C1659: + x59 + x378 <= 1
C1660: + x153 + x436 <= 1
C1661: + x7 + x51 <= 1
C1662: + x28 + x405 <= 1
C1663: + x67 + x179 <= 1
C1664: + x43 + x462 <= 1
C1665: + x7 + x289 <= 1
C1666: + x8 + x179 <= 1
C1667: + x18 + x162 <= 1
C1668: + x13 + x64 <= 1
C1669: + x40 + x191 <= 1
C1670: + x22 + x229 <= 1
C1671: + x15 + x353 <= 1
C1672: + x78 + x445 <= 1
C1673: + x65 + x69 <= 1
C1674: + x29 + x123 <= 1
C1675: + x77 + x408 <= 1
C1676: + x60 + x253 <= 1
C1677: + x13 + x298 <= 1
C1678: + x100 + x390 <= 1
C1679: + x83 + x257 <= 1
C1680: + x291 + x369 <= 1
C1681: + x85 + x237 <= 1
C1682: + x112 + x281 <= 1
C1683: + x13 + x143 <= 1
C1684: + x108 + x265 <= 1
C1685: + x16 + x132 <= 1
C1686: + x93 + x125 <= 1
C1687: + x38 + x147 <= 1
C1688: + x239 + x392 <= 1
C1689: + x11 + x199 <= 1
C1690: + x4 + x470 <= 1
C1691: + x46 + x304 <= 1
C1692: + x17 + x119 <= 1
C1693: + x27 + x166 <= 1
C1694: + x194 + x445 <= 1
C1695: + x209 + x340 <= 1
C1696: + x101 + x159 <= 1
C1697: + x264 + x266 <= 1
C1698: + x29 + x281 <= 1
C1699: + x16 + x88 <= 1
C1700: + x19 + x26 + x45 <= 1
C1701: + x33 + x185 <= 1
C1702: + x73 + x96 <= 1
C1703: + x16 + x491 <= 1
C1704: + x37 + x46 <= 1
C1705: + x1 + x493 <= 1
C1706: + x7 + x215 <= 1
C1707: + x111 + x138 <= 1
C1708: + x2 + x225 <= 1
C1709: + x30 + x219 <= 1
C1710: + x3 + x239 <= 1
C1711: + x32 + x235 <= 1
C1712: + x235 + x448 <= 1
C1713: + x26 + x235 <= 1
C1714: + x7 + x453 <= 1
C1715: + x222 + x233 <= 1
C1716: + x13 + x289 <= 1
C1717: + x7 + x98 <= 1
C1718: + x17 + x380 <= 1
C1719: + x6 + x336 <= 1
C1720: + x16 + x137 <= 1
C1721: + x7 + x344 <= 1
C1722: + x22 + x178 <= 1
C1723: + x205 + x299 <= 1
C1724: + x89 + x449 <= 1
C1725: + x62 + x262 <= 1
C1726: + x63 + x238 <= 1
C1727: + x7 + x497 <= 1
C1728: + x67 + x264 <= 1
C1729: + x112 + x407 <= 1
C1730: + x115 + x471 <= 1
C1731: + x1 + x373 <= 1
C1732: + x210 + x491 <= 1
C1733: + x40 + x121 <= 1
C1734: + x5 + x47 <= 1
C1735: + x153 + x357 <= 1
C1736: + x8 + x20 <= 1
C1737: + x1 + x71 <= 1
C1738: + x12 + x85 <= 1
C1739: + x13 + x95 <= 1
C1740: + x70 + x156 <= 1
C1741: + x5 + x281 <= 1
C1742: + x26 + x67 <= 1
C1743: + x339 + x447 <= 1
C1744: + x149 + x156 <= 1
C1745: + x78 + x204 <= 1
C1746: + x14 + x87 <= 1
C1747: + x15 + x157 <= 1
C1748: + x140 + x294 <= 1
C1749: + x231 + x487 <= 1
C1750: + x5 + x432 <= 1
C1751: + x79 + x208 <= 1
C1752: + x55 + x103 <= 1
C1753: + x157 + x219 <= 1
C1754: + x89 + x246 <= 1
C1755: + x35 + x453 <= 1
C1756: + x24 + x243 <= 1
C1757: + x8 + x85 <= 1
C1758: + x206 + x249 <= 1
C1759: + x125 + x172 <= 1
C1760: + x14 + x313 <= 1
C1761: + x3 + x12 <= 1
C1762: + x60 + x199 <= 1
C1763: + x74 + x241 <= 1
C1764: + x214 + x492 <= 1
C1765: + x5 + x22 <= 1
C1766: + x6 + x162 <= 1
C1767: + x33 + x258 <= 1
C1768: + x36 + x269 <= 1
C1769: + x37 + x84 <= 1
C1770: + x11 + x402 <= 1
C1771: + x46 + x452 <= 1
C1772: + x4 + x299 <= 1
C1773: + x154 + x269 <= 1
C1774: + x112 + x199 <= 1
C1775: + x61 + x482 <= 1
C1776: + x71 + x115 + x140 <= 1
C1777: + x9 + x29 <= 1
C1778: + x281 + x365 <= 1
C1779: + x85 + x496 <= 1
C1780: + x33 + x131 <= 1
C1781: + x25 + x32 <= 1
C1782: + x5 + x332 <= 1
C1783: + x85 + x250 <= 1
C1784: + x29 + x338 <= 1
C1785: + x31 + x86 <= 1
C1786: + x167 + x254 <= 1
C1787: + x116 + x126 <= 1
C1788: + x153 + x242 <= 1
C1789: + x254 + x373 <= 1
C1790: + x122 + x154 <= 1
C1791: + x40 + x154 <= 1
C1792: + x60 + x462 <= 1
C1793: + x98 + x294 <= 1
C1794: + x13 + x25 <= 1
C1795: + x72 + x177 <= 1
C1796: + x66 + x106 <= 1
C1797: + x76 + x182 <= 1
C1798: + x217 + x393 <= 1
C1799: + x253 + x351 <= 1
C1800: + x17 + x24 <= 1
C1801: + x244 + x335 <= 1
C1802: + x82 + x96 <= 1
C1803: + x46 + x114 <= 1
C1804: + x38 + x85 <= 1
C1805: + x71 + x124 <= 1
C1806: + x10 + x57 <= 1
C1807: + x23 + x255 <= 1
C1808: + x153 + x319 <= 1
C1809: + x62 + x349 <= 1
C1810: + x119 + x163 <= 1
C1811: + x25 + x103 <= 1
C1812: + x116 + x424 <= 1
C1813: + x393 + x459 <= 1
C1814: + x99 + x151 <= 1
C1815: + x154 + x290 <= 1
C1816: + x29 + x206 <= 1
C1817: + x59 + x465 <= 1
C1818: + x19 + x363 <= 1
C1819: + x247 + x420 <= 1
C1820: + x30 + x456 <= 1
C1821: + x78 + x131 <= 1
C1822: + x52 + x180 <= 1
C1823: + x90 + x101 <= 1
C1824: + x342 + x470 <= 1
C1825: + x81 + x192 <= 1
C1826: + x75 + x142 <= 1
C1827: + x68 + x117 <= 1
C1828: + x35 + x88 <= 1
C1829: + x100 + x160 <= 1
C1830: + x317 + x323 <= 1
C1831: + x147 + x455 <= 1
C1832: + x12 + x124 <= 1
C1833: + x13 + x76 <= 1
C1834: + x195 + x205 <= 1
C1835: + x123 + x229 <= 1
C1836: + x25 + x162 <= 1
C1837: + x24 + x60 <= 1
C1838: + x58 + x189 <= 1
C1839: + x192 + x427 <= 1
C1840: + x79 + x178 <= 1
C1841: + x245 + x346 <= 1
C1842: + x173 + x207 <= 1
C1843: + x131 + x448 <= 1
C1844: + x5 + x80 <= 1
C1845: + x6 + x275 <= 1
C1846: + x9 + x11 <= 1
C1847: + x45 + x167 <= 1
C1848: + x13 + x453 <= 1
C1849: + x5 + x314 <= 1
C1850: + x99 + x461 <= 1
C1851: + x7 + x78 <= 1
C1852: + x191 + x447 <= 1
C1853: + x306 + x343 <= 1
C1854: + x18 + x461 <= 1
C1855: + x257 + x484 <= 1
C1856: + x10 + x238 <= 1
C1857: + x4 + x100 <= 1
C1858: + x13 + x15 <= 1
C1859: + x43 + x203 <= 1
C1860: + x31 + x225 <= 1
C1861: + x160 + x261 <= 1
C1862: + x218 + x262 <= 1
C1863: + x29 + x106 <= 1
C1864: + x68 + x223 <= 1
C1865: + x78 + x188 <= 1
C1866: + x96 + x301 <= 1
C1867: + x95 + x255 <= 1
C1868: + x140 + x150 <= 1
C1869: + x31 + x116 <= 1
C1870: + x87 + x125 <= 1
C1871: + x26 + x132 <= 1
C1872: + x79 + x451 <= 1
C1873: + x91 + x372 <= 1
C1874: + x40 + x271 <= 1
C1875: + x24 + x49 <= 1
C1876: + x73 + x99 <= 1
C1877: + x181 + x407 <= 1
C1878: + x8 + x411 <= 1
C1879: + x99 + x500 <= 1
C1880: + x33 + x57 <= 1
C1881: + x61 + x298 <= 1
C1882: + x5 + x146 <= 1
C1883: + x243 + x252 <= 1
C1884: + x9 + x288 <= 1
C1885: + x28 + x81 <= 1
C1886: + x13 + x365 <= 1
C1887: + x16 + x363 <= 1
C1888: + x1 + x210 <= 1
C1889: + x112 + x222 <= 1
C1890: + x312 + x374 <= 1
C1891: + x61 + x399 <= 1
C1892: + x19 + x169 <= 1
C1893: + x219 + x369 <= 1
C1894: + x30 + x91 <= 1
C1895: + x59 + x173 <= 1
C1896: + x89 + x309 <= 1
C1897: + x15 + x492 <= 1
C1898: + x254 + x288 <= 1
C1899: + x145 + x361 <= 1
C1900: + x49 + x56 <= 1
C1901: + x59 + x483 <= 1
C1902: + x4 + x105 <= 1
C1903: + x6 + x464 <= 1
C1904: + x17 + x65 <= 1
C1905: + x53 + x157 <= 1
C1906: + x11 + x322 <= 1
C1907: + x15 + x411 <= 1
C1908: + x110 + x414 <= 1
C1909: + x394 + x422 <= 1
C1910: + x58 + x336 <= 1
C1911: + x132 + x219 <= 1
C1912: + x5 + x341 <= 1
C1913: + x27 + x301 <= 1
C1914: + x28 + x30 <= 1
C1915: + x5 + x10 <= 1
C1916: + x79 + x454 <= 1
C1917: + x1 + x58 <= 1
C1918: + x129 + x495 <= 1
C1919: + x13 + x122 <= 1
C1920: + x51 + x133 <= 1
C1921: + x332 + x388 <= 1
C1922: + x44 + x254 <= 1
C1923: + x16 + x477 <= 1
C1924: + x244 + x294 <= 1
C1925: + x13 + x364 <= 1
C1926: + x5 + x153 <= 1
C1927: + x6 + x23 <= 1
C1928: + x61 + x289 <= 1
C1929: + x11 + x164 <= 1
C1930: + x51 + x459 <= 1
C1931: + x433 + x461 <= 1
C1932: + x40 + x74 <= 1
C1933: + x5 + x62 <= 1
C1934: + x18 + x20 <= 1
C1935: + x5 + x395 <= 1
C1936: + x39 + x167 <= 1
C1937: + x7 + x64 <= 1
C1938: + x55 + x70 <= 1
C1939: + x402 + x469 <= 1
C1940: + x363 + x476 <= 1
C1941: + x26 + x271 <= 1
C1942: + x19 + x51 <= 1
C1943: + x5 + x98 <= 1
C1944: + x371 + x396 <= 1
C1945: + x14 + x342 <= 1
C1946: + x80 + x338 <= 1
C1947: + x169 + x259 <= 1
C1948: + x34 + x109 <= 1
C1949: + x7 + x108 <= 1
C1950: + x19 + x70 <= 1
C1951: + x48 + x480 <= 1
C1952: + x6 + x143 <= 1
C1953: + x47 + x65 <= 1
C1954: + x4 + x30 <= 1
C1955: + x15 + x426 <= 1
C1956: + x18 + x124 <= 1

binary
x1 x2 x3 x4 x5 x6 x7 x8 x9 x10 x11 x12 x13 x14 x15 x16 x17 x18 x19 x20 x21 x22 x23 x24 x25 x26 x27 x28 x29 x30 x31 x32 x33 x34 x35 x36 x37 x38 x39 x40 x41 x42 x43 x44 x45 x46 x47 x48 x49 x50 x51 x52 x53 x54 x55 x56 x57 x58 x59 x60 x61 x62 x63 x64 x65 x66 x67 x68 x69 x70 x71 x72 x73 x74 x75 x76 x77 x78 x79 x80 x81 x82 x83 x84 x85 x86 x87 x88 x89 x90 x91 x92 x93 x94 x95 x96 x97 x98 x99 x100 x101 x102 x103 x104 x105 x106 x107 x108 x109 x110 x111 x112 x113 x114 x115 x116 x117 x118 x119 x120 x121 x122 x123 x124 x125 x126 x127 x128 x129 x130 x131 x132 x133 x134 x135 x136 x137 x138 x139 x140 x141 x142 x143 x144 x145 x146 x147 x148 x149 x150 x151 x152 x153 x154 x155 x156 x157 x158 x159 x160 x161 x162 x163 x164 x165 x166 x167 x168 x169 x170 x171 x172 x173 x174 x175 x176 x177 x178 x179 x180 x181 x182 x183 x184 x185 x186 x187 x188 x189 x190 x191 x192 x193 x194 x195 x196 x197 x198 x199 x200 x201 x202 x203 x204 x205 x206 x207 x208 x209 x210 x211 x212 x213 x214 x215 x216 x217 x218 x219 x220 x221 x222 x223 x224 x225 x226 x227 x228 x229 x230 x231 x232 x233 x234 x235 x236 x237 x238 x239 x240 x241 x242 x243 x244 x245 x246 x247 x248 x249 x250 x251 x252 x253 x254 x255 x256 x257 x258 x259 x260 x261 x262 x263 x264 x265 x266 x267 x268 x269 x270 x271 x272 x273 x274 x275 x276 x277 x278 x279 x280 x281 x282 x283 x284 x285 x286 x287 x288 x289 x290 x291 x292 x293 x294 x295 x296 x297 x298 x299 x300 x301 x302 x303 x304 x305 x306 x307 x308 x309 x310 x311 x312 x313 x314 x315 x316 x317 x318 x319 x320 x321 x322 x323 x324 x325 x326 x327 x328 x329 x330 x331 x332 x333 x334 x335 x336 x337 x338 x339 x340 x341 x342 x343 x344 x345 x346 x347 x348 x349 x350 x351 x352 x353 x354 x355 x356 x357 x358 x359 x360 x361 x362 x363 x364 x365 x366 x367 x368 x369 x370 x371 x372 x373 x374 x375 x376 x377 x378 x379 x380 x381 x382 x383 x384 x385 x386 x387 x388 x389 x390 x391 x392 x393 x394 x395 x396 x397 x398 x399 x400 x401 x402 x403 x404 x405 x406 x407 x408 x409 x410 x411 x412 x413 x414 x415 x416 x417 x418 x419 x420 x421 x422 x423 x424 x425 x426 x427 x428 x429 x430 x431 x432 x433 x434 x435 x436 x437 x438 x439 x440 x441 x442 x443 x444 x445 x446 x447 x448 x449 x450 x451 x452 x453 x454 x455 x456 x457 x458 x459 x460 x461 x462 x463 x464 x465 x466 x467 x468 x469 x470 x471 x472 x473 x474 x475 x476 x477 x478 x479 x480 x481 x482 x483 x484 x485 x486 x487 x488 x489 x490 x491 x492 x493 x494 x495 x496 x497 x498 x499 x500
