maximize
OBJ: + 1 x1 + 1 x2 + 1 x3 + 1 x4 + 1 x5 + 1 x6 + 1 x7 + 1 x8 + 1 x9 + 1 x10 + 1 x11 + 1 x12 + 1 x13 + 1 x14 + 1 x15 + 1 x16 + 1 x17 + 1 x18 + 1 x19 + 1 x20 + 1 x21 + 1 x22 + 1 x23 + 1 x24 + 1 x25 + 1 x26 + 1 x27 + 1 x28 + 1 x29 + 1 x30 + 1 x31 + 1 x32 + 1 x33 + 1 x34 + 1 x35 + 1 x36 + 1 x37 + 1 x38 + 1 x39 + 1 x40 + 1 x41 + 1 x42 + 1 x43 + 1 x44 + 1 x45 + 1 x46 + 1 x47 + 1 x48 + 1 x49 + 1 x50 + 1 x51 + 1 x52 + 1 x53 + 1 x54 + 1 x55 + 1 x56 + 1 x57 + 1 x58 + 1 x59 + 1 x60 + 1 x61 + 1 x62 + 1 x63 + 1 x64 + 1 x65 + 1 x66 + 1 x67 + 1 x68 + 1 x69 + 1 x70 + 1 x71 + 1 x72 + 1 x73 + 1 x74 + 1 x75 + 1 x76 + 1 x77 + 1 x78 + 1 x79 + 1 x80 + 1 x81 + 1 x82 + 1 x83 + 1 x84 + 1 x85 + 1 x86 + 1 x87 + 1 x88 + 1 x89 + 1 x90 + 1 x91 + 1 x92 + 1 x93 + 1 x94 + 1 x95 + 1 x96 + 1 x97 + 1 x98 + 1 x99 + 1 x100 + 1 x101 + 1 x102 + 1 x103 + 1 x104 + 1 x105 + 1 x106 + 1 x107 + 1 x108 + 1 x109 + 1 x110 + 1 x111 + 1 x112 + 1 x113 + 1 x114 + 1 x115 + 1 x116 + 1 x117 + 1 x118 + 1 x119 + 1 x120 + 1 x121 + 1 x122 + 1 x123 + 1 x124 + 1 x125 + 1 x126 + 1 x127 + 1 x128 + 1 x129 + 1 x130 + 1 x131 + 1 x132 + 1 x133 + 1 x134 + 1 x135 + 1 x136 + 1 x137 + 1 x138 + 1 x139 + 1 x140 + 1 x141 + 1 x142 + 1 x143 + 1 x144 + 1 x145 + 1 x146 + 1 x147 + 1 x148 + 1 x149 + 1 x150 + 1 x151 + 1 x152 + 1 x153 + 1 x154 + 1 x155 + 1 x156 + 1 x157 + 1 x158 + 1 x159 + 1 x160 + 1 x161 + 1 x162 + 1 x163 + 1 x164 + 1 x165 + 1 x166 + 1 x167 + 1 x168 + 1 x169 + 1 x170 + 1 x171 + 1 x172 + 1 x173 + 1 x174 + 1 x175 + 1 x176 + 1 x177 + 1 x178 + 1 x179 + 1 x180 + 1 x181 + 1 x182 + 1 x183 + 1 x184 + 1 x185 + 1 x186 + 1 x187 + 1 x188 + 1 x189 + 1 x190 + 1 x191 + 1 x192 + 1 x193 + 1 x194 + 1 x195 + 1 x196 + 1 x197 + 1 x198 + 1 x199 + 1 x200 + 1 x201 + 1 x202 + 1 x203 + 1 x204 + 1 x205 + 1 x206 + 1 x207 + 1 x208 + 1 x209 + 1 x210 + 1 x211 + 1 x212 + 1 x213 + 1 x214 + 1 x215 + 1 x216 + 1 x217 + 1 x218 + 1 x219 + 1 x220 + 1 x221 + 1 x222 + 1 x223 + 1 x224 + 1 x225 + 1 x226 + 1 x227 + 1 x228 + 1 x229 + 1 x230 + 1 x231 + 1 x232 + 1 x233 + 1 x234 + 1 x235 + 1 x236 + 1 x237 + 1 x238 + 1 x239 + 1 x240 + 1 x241 + 1 x242 + 1 x243 + 1 x244 + 1 x245 + 1 x246 + 1 x247 + 1 x248 + 1 x249 + 1 x250 + 1 x251 + 1 x252 + 1 x253 + 1 x254 + 1 x255 + 1 x256 + 1 x257 + 1 x258 + 1 x259 + 1 x260 + 1 x261 + 1 x262 + 1 x263 + 1 x264 + 1 x265 + 1 x266 + 1 x267 + 1 x268 + 1 x269 + 1 x270 + 1 x271 + 1 x272 + 1 x273 + 1 x274 + 1 x275 + 1 x276 + 1 x277 + 1 x278 + 1 x279 + 1 x280 + 1 x281 + 1 x282 + 1 x283 + 1 x284 + 1 x285 + 1 x286 + 1 x287 + 1 x288 + 1 x289 + 1 x290 + 1 x291 + 1 x292 + 1 x293 + 1 x294 + 1 x295 + 1 x296 + 1 x297 + 1 x298 + 1 x299 + 1 x300 + 1 x301 + 1 x302 + 1 x303 + 1 x304 + 1 x305 + 1 x306 + 1 x307 + 1 x308 + 1 x309 + 1 x310 + 1 x311 + 1 x312 + 1 x313 + 1 x314 + 1 x315 + 1 x316 + 1 x317 + 1 x318 + 1 x319 + 1 x320 + 1 x321 + 1 x322 + 1 x323 + 1 x324 + 1 x325 + 1 x326 + 1 x327 + 1 x328 + 1 x329 + 1 x330 + 1 x331 + 1 x332 + 1 x333 + 1 x334 + 1 x335 + 1 x336 + 1 x337 + 1 x338 + 1 x339 + 1 x340 + 1 x341 + 1 x342 + 1 x343 + 1 x344 + 1 x345 + 1 x346 + 1 x347 + 1 x348 + 1 x349 + 1 x350 + 1 x351 + 1 x352 + 1 x353 + 1 x354 + 1 x355 + 1 x356 + 1 x357 + 1 x358 + 1 x359 + 1 x360 + 1 x361 + 1 x362 + 1 x363 + 1 x364 + 1 x365 + 1 x366 + 1 x367 + 1 x368 + 1 x369 + 1 x370 + 1 x371 + 1 x372 + 1 x373 + 1 x374 + 1 x375 + 1 x376 + 1 x377 + 1 x378 + 1 x379 + 1 x380 + 1 x381 + 1 x382 + 1 x383 + 1 x384 + 1 x385 + 1 x386 + 1 x387 + 1 x388 + 1 x389 + 1 x390 + 1 x391 + 1 x392 + 1 x393 + 1 x394 + 1 x395 + 1 x396 + 1 x397 + 1 x398 + 1 x399 + 1 x400 + 1 x401 + 1 x402 + 1 x403 + 1 x404 + 1 x405 + 1 x406 + 1 x407 + 1 x408 + 1 x409 + 1 x410 + 1 x411 + 1 x412 + 1 x413 + 1 x414 + 1 x415 + 1 x416 + 1 x417 + 1 x418 + 1 x419 + 1 x420 + 1 x421 + 1 x422 + 1 x423 + 1 x424 + 1 x425 + 1 x426 + 1 x427 + 1 x428 + 1 x429 + 1 x430 + 1 x431 + 1 x432 + 1 x433 + 1 x434 + 1 x435 + 1 x436 + 1 x437 + 1 x438 + 1 x439 + 1 x440 + 1 x441 + 1 x442 + 1 x443 + 1 x444 + 1 x445 + 1 x446 + 1 x447 + 1 x448 + 1 x449 + 1 x450 + 1 x451 + 1 x452 + 1 x453 + 1 x454 + 1 x455 + 1 x456 + 1 x457 + 1 x458 + 1 x459 + 1 x460 + 1 x461 + 1 x462 + 1 x463 + 1 x464 + 1 x465 + 1 x466 + 1 x467 + 1 x468 + 1 x469 + 1 x470 + 1 x471 + 1 x472 + 1 x473 + 1 x474 + 1 x475 + 1 x476 + 1 x477 + 1 x478 + 1 x479 + 1 x480 + 1 x481 + 1 x482 + 1 x483 + 1 x484 + 1 x485 + 1 x486 + 1 x487 + 1 x488 + 1 x489 + 1 x490 + 1 x491 + 1 x492 + 1 x493 + 1 x494 + 1 x495 + 1 x496 + 1 x497 + 1 x498 + 1 x499 + 1 x500

subject to
C1: + x5 + x136 <= 1
C2: + x154 + x191 <= 1
C3: + x155 + x309 <= 1
C4: + x19 + x122 <= 1
C5: + x68 + x408 <= 1
C6: + x22 + x29 <= 1
C7: + x5 + x37 <= 1
C8: + x53 + x95 <= 1
C9: + x48 + x135 <= 1
C10: + x11 + x62 <= 1
C11: + x204 + x397 <= 1
C12: + x376 + x441 <= 1
C13: + x79 + x87 <= 1
C14: + x6 + x196 <= 1
C15: + x26 + x280 <= 1
C16: + x15 + x151 <= 1
C17: + x66 + x420 <= 1
C18: + x254 + x274 <= 1
C19: + x140 + x300 <= 1
C20: + x110 + x237 <= 1
C21: + x1 + x252 <= 1
C22: + x39 + x41 <= 1
C23: + x96 + x485 <= 1
C24: + x49 + x131 <= 1
C25: + x97 + x306 <= 1
C26: + x91 + x127 <= 1
C27: + x19 + x500 <= 1
C28: + x111 + x449 <= 1
C29: + x211 + x458 <= 1
C30: + x258 + x395 <= 1
C31: + x13 + x139 <= 1
C32: + x14 + x21 <= 1
C33: + x5 + x256 <= 1
C34: + x189 + x269 <= 1
C35: + x290 + x482 <= 1
C36: + x6 + x323 <= 1
C37: + x2 + x192 <= 1
C38: + x82 + x274 <= 1
C39: + x449 + x482 <= 1
C40: + x107 + x300 <= 1
C41: + x80 + x355 <= 1
C42: + x16 + x35 <= 1
C43: + x2 + x475 <= 1
C44: + x20 + x40 <= 1
C45: + x59 + x215 <= 1
C46: + x39 + x267 <= 1
C47: + x14 + x102 <= 1
C48: + x146 + x227 <= 1
C49: + x28 + x40 <= 1
C50: + x155 + x233 <= 1
C51: + x5 + x36 <= 1
C52: + x35 + x80 <= 1
C53: + x20 + x149 <= 1
C54: + x17 + x39 <= 1
C55: + x262 + x357 <= 1
C56: + x63 + x219 <= 1
C57: + x84 + x381 <= 1
C58: + x11 + x37 <= 1
C59: + x212 + x359 <= 1
C60: + x33 + x34 + x297 <= 1
C61: + x246 + x382 <= 1
C62: + x116 + x314 <= 1
C63: + x9 + x19 <= 1
C64: + x1 + x416 <= 1
C65: + x20 + x97 <= 1
C66: + x133 + x194 <= 1
C67: + x208 + x379 <= 1
C68: + x11 + x480 <= 1
C69: + x23 + x89 <= 1
C70: + x44 + x70 <= 1
C71: + x9 + x226 <= 1
C72: + x7 + x332 <= 1
C73: + x248 + x446 <= 1
C74: + x19 + x108 <= 1
C75: + x237 + x362 <= 1
C76: + x37 + x415 <= 1
C77: + x42 + x411 <= 1
C78: + x35 + x71 <= 1
C79: + x72 + x336 <= 1
C80: + x30 + x63 <= 1
C81: + x39 + x204 <= 1
C82: + x14 + x496 <= 1
C83: + x17 + x30 <= 1
C84: + x109 + x487 <= 1
C85: + x7 + x33 <= 1
C86: + x2 + x83 <= 1
C87: + x11 + x48 <= 1
C88: + x25 + x494 <= 1
C89: + x7 + x279 <= 1
C90: + x10 + x51 <= 1
C91: + x28 + x73 <= 1
C92: + x11 + x129 <= 1
C93: + x74 + x371 <= 1
C94: + x276 + x450 <= 1
C95: + x17 + x173 <= 1
C96: + x2 + x281 <= 1
C97: + x20 + x106 <= 1
C98: + x15 + x20 <= 1
C99: + x375 + x465 <= 1
C100: + x68 + x95 <= 1
C101: + x26 + x302 <= 1
C102: + x99 + x129 <= 1
C103: + x109 + x133 <= 1
C104: + x1 + x6 <= 1
C105: + x9 + x340 <= 1
C106: + x113 + x208 <= 1
C107: + x29 + x252 <= 1
C108: + x141 + x414 <= 1
C109: + x23 + x354 <= 1
C110: + x17 + x89 <= 1
C111: + x16 + x49 <= 1
C112: + x357 + x446 <= 1
C113: + x180 + x413 <= 1
C114: + x28 + x54 <= 1
C115: + x348 + x368 <= 1
C116: + x158 + x277 <= 1
C117: + x5 + x18 <= 1
C118: + x14 + x251 <= 1
C119: + x108 + x228 <= 1
C120: + x17 + x291 <= 1
C121: + x181 + x225 <= 1
C122: + x241 + x316 <= 1
C123: + x28 + x384 <= 1
C124: + x23 + x31 <= 1
C125: + x117 + x430 <= 1
C126: + x45 + x451 <= 1
C127: + x32 + x34 <= 1
C128: + x14 + x76 <= 1
C129: + x56 + x448 <= 1
C130: + x200 + x249 <= 1
C131: + x71 + x363 <= 1
C132: + x27 + x247 <= 1
C133: + x191 + x216 <= 1
C134: + x152 + x478 <= 1
C135: + x124 + x328 <= 1
C136: + x259 + x328 <= 1
C137: + x11 + x450 <= 1
C138: + x5 + x213 <= 1
C139: + x17 + x366 <= 1
C140: + x7 + x326 <= 1
C141: + x105 + x164 <= 1
C142: + x50 + x393 <= 1
C143: + x43 + x197 <= 1
C144: + x20 + x59 <= 1
C145: + x230 + x232 <= 1
C146: + x56 + x151 <= 1
C147: + x34 + x69 <= 1
C148: + x8 + x276 <= 1
C149: + x72 + x415 <= 1
C150: + x37 + x397 <= 1
C151: + x155 + x198 <= 1
C152: + x13 + x236 <= 1
C153: + x5 + x25 <= 1
C154: + x33 + x194 <= 1
C155: + x32 + x396 <= 1
C156: + x133 + x139 <= 1
C157: + x7 + x19 <= 1
C158: + x493 + x495 <= 1
C159: + x66 + x186 <= 1
C160: + x84 + x276 <= 1
C161: + x259 + x457 <= 1
C162: + x31 + x405 <= 1
C163: + x6 + x40 <= 1
C164: + x100 + x341 <= 1
C165: + x9 + x171 <= 1
C166: + x36 + x405 <= 1
C167: + x16 + x224 <= 1
C168: + x1 + x200 <= 1
C169: + x68 + x448 <= 1
C170: + x39 + x85 <= 1
C171: + x34 + x167 <= 1
C172: + x2 + x363 <= 1
C173: + x5 + x319 <= 1
C174: + x80 + x210 <= 1
C175: + x271 + x343 <= 1
C176: + x32 + x83 <= 1
C177: + x36 + x449 <= 1
C178: + x18 + x190 <= 1
C179: + x146 + x385 <= 1
C180: + x8 + x71 <= 1
C181: + x59 + x477 <= 1
C182: + x168 + x485 <= 1
C183: + x236 + x347 <= 1
C184: + x57 + x78 <= 1
C185: + x248 + x304 <= 1
C186: + x85 + x116 <= 1
C187: + x20 + x68 <= 1
C188: + x55 + x232 <= 1
C189: + x22 + x487 <= 1
C190: + x23 + x477 <= 1
C191: + x75 + x138 <= 1
C192: + x28 + x175 <= 1
C193: + x47 + x52 <= 1
C194: + x234 + x489 <= 1
C195: + x7 + x22 <= 1
C196: + x339 + x424 <= 1
C197: + x59 + x63 <= 1
C198: + x5 + x151 <= 1
C199: + x188 + x492 <= 1
C200: + x34 + x426 <= 1
C201: + x109 + x369 <= 1
C202: + x31 + x57 <= 1
C203: + x333 + x361 <= 1
C204: + x9 + x15 <= 1
C205: + x2 + x356 <= 1
C206: + x243 + x336 <= 1
C207: + x26 + x102 <= 1
C208: + x7 + x66 <= 1
C209: + x53 + x65 + x216 <= 1
C210: + x15 + x130 <= 1
C211: + x73 + x137 <= 1
C212: + x172 + x245 <= 1
C213: + x146 + x378 <= 1
C214: + x124 + x160 <= 1
C215: + x69 + x483 <= 1
C216: + x19 + x354 <= 1
C217: + x70 + x235 <= 1
C218: + x7 + x126 <= 1
C219: + x2 + x14 <= 1
C220: + x275 + x486 <= 1
C221: + x184 + x318 <= 1
C222: + x23 + x177 <= 1
C223: + x17 + x280 <= 1
C224: + x2 + x169 <= 1
C225: + x314 + x469 <= 1
C226: + x26 + x35 <= 1
C227: + x16 + x468 <= 1
C228: + x400 + x454 <= 1
C229: + x20 + x460 <= 1
C230: + x14 + x119 <= 1
C231: + x7 + x170 <= 1
C232: + x137 + x366 <= 1
C233: + x256 + x411 <= 1
C234: + x20 + x134 <= 1
C235: + x321 + x360 <= 1
C236: + x75 + x315 <= 1
C237: + x57 + x290 <= 1
C238: + x411 + x433 <= 1
C239: + x17 + x339 <= 1
C240: + x6 + x222 <= 1
C241: + x10 + x27 <= 1
C242: + x56 + x95 <= 1
C243: + x29 + x224 <= 1
C244: + x98 + x333 <= 1
C245: + x26 + x32 <= 1
C246: + x298 + x336 <= 1
C247: + x5 + x337 <= 1
C248: + x7 + x117 <= 1
C249: + x8 + x198 <= 1
C250: + x238 + x339 <= 1
C251: + x155 + x223 <= 1
C252: + x205 + x465 <= 1
C253: + x15 + x213 <= 1
C254: + x35 + x102 <= 1
C255: + x1 + x62 <= 1
C256: + x68 + x262 <= 1
C257: + x13 + x118 <= 1
C258: + x233 + x453 <= 1
C259: + x112 + x114 <= 1
C260: + x9 + x430 <= 1
C261: + x169 + x332 <= 1
C262: + x245 + x255 <= 1
C263: + x45 + x423 <= 1
C264: + x101 + x145 <= 1
C265: + x57 + x442 <= 1
C266: + x22 + x32 <= 1
C267: + x26 + x120 <= 1
C268: + x17 + x45 <= 1
C269: + x2 + x409 <= 1
C270: + x66 + x260 <= 1
C271: + x25 + x413 <= 1
C272: + x6 + x199 <= 1
C273: + x113 + x227 <= 1
C274: + x141 + x441 <= 1
C275: + x18 + x68 <= 1
C276: + x105 + x498 <= 1
C277: + x204 + x281 <= 1
C278: + x24 + x494 <= 1
C279: + x19 + x66 <= 1
C280: + x54 + x473 <= 1
C281: + x66 + x352 <= 1
C282: + x35 + x125 <= 1
C283: + x227 + x490 <= 1
C284: + x74 + x400 <= 1
C285: + x41 + x140 <= 1
C286: + x295 + x427 <= 1
C287: + x2 + x454 <= 1
C288: + x49 + x257 <= 1
C289: + x215 + x382 <= 1
C290: + x160 + x218 <= 1
C291: + x16 + x325 <= 1
C292: + x112 + x240 <= 1
C293: + x149 + x303 <= 1
C294: + x23 + x159 <= 1
C295: + x9 + x36 <= 1
C296: + x38 + x198 <= 1
C297: + x6 + x429 <= 1
C298: + x134 + x232 <= 1
C299: + x182 + x291 <= 1
C300: + x120 + x472 <= 1
C301: + x20 + x422 <= 1
C302: + x61 + x272 <= 1
C303: + x7 + x216 <= 1
C304: + x65 + x320 <= 1
C305: + x168 + x393 <= 1
C306: + x81 + x499 <= 1
C307: + x65 + x93 <= 1
C308: + x155 + x467 <= 1
C309: + x21 + x88 <= 1
C310: + x4 + x333 <= 1
C311: + x55 + x109 <= 1
C312: + x2 + x17 <= 1
C313: + x75 + x273 <= 1
C314: + x292 + x363 <= 1
C315: + x156 + x368 <= 1
C316: + x140 + x189 <= 1
C317: + x358 + x435 <= 1
C318: + x100 + x192 <= 1
C319: + x192 + x217 <= 1
C320: + x85 + x330 <= 1
C321: + x17 + x111 <= 1
C322: + x142 + x330 <= 1
C323: + x108 + x432 <= 1
C324: + x2 + x479 <= 1
C325: + x266 + x333 <= 1
C326: + x331 + x387 <= 1
C327: + x24 + x286 <= 1
C328: + x237 + x404 <= 1
C329: + x76 + x449 <= 1
C330: + x50 + x342 <= 1
C331: + x115 + x158 <= 1
C332: + x78 + x104 <= 1
C333: + x44 + x156 <= 1
C334: + x6 + x406 <= 1
C335: + x17 + x27 <= 1
C336: + x108 + x476 <= 1
C337: + x11 + x33 <= 1
C338: + x77 + x253 <= 1
C339: + x25 + x491 <= 1
C340: + x108 + x135 <= 1
C341: + x288 + x395 <= 1
C342: + x80 + x82 <= 1
C343: + x152 + x357 <= 1
C344: + x5 + x84 <= 1
C345: + x16 + x100 <= 1
C346: + x191 + x298 <= 1
C347: + x11 + x359 <= 1
C348: + x186 + x333 <= 1
C349: + x5 + x334 <= 1
C350: + x26 + x398 <= 1
C351: + x1 + x305 <= 1
C352: + x57 + x206 <= 1
C353: + x138 + x287 <= 1
C354: + x126 + x261 <= 1
C355: + x55 + x374 <= 1
C356: + x85 + x337 <= 1
C357: + x308 + x436 <= 1
C358: + x45 + x239 <= 1
C359: + x119 + x366 <= 1
C360: + x130 + x283 <= 1
C361: + x61 + x202 <= 1
C362: + x6 + x14 <= 1
C363: + x263 + x479 <= 1
C364: + x8 + x229 <= 1
C365: + x47 + x450 <= 1
C366: + x136 + x308 <= 1
C367: + x74 + x267 <= 1
C368: + x6 + x161 <= 1
C369: + x69 + x447 <= 1
C370: + x5 + x257 <= 1
C371: + x139 + x229 <= 1
C372: + x27 + x87 <= 1
C373: + x10 + x55 <= 1
C374: + x23 + x229 <= 1
C375: + x53 + x125 <= 1
C376: + x8 + x64 <= 1
C377: + x10 + x146 <= 1
C378: + x139 + x315 <= 1
C379: + x30 + x79 <= 1
C380: + x85 + x489 <= 1
C381: + x15 + x24 <= 1
C382: + x406 + x499 <= 1
C383: + x134 + x158 <= 1
C384: + x10 + x461 <= 1
C385: + x57 + x266 <= 1
C386: + x158 + x221 <= 1
C387: + x7 + x254 <= 1
C388: + x56 + x119 <= 1
C389: + x202 + x209 <= 1
C390: + x2 + x297 <= 1
C391: + x411 + x460 <= 1
C392: + x204 + x380 <= 1
C393: + x23 + x455 <= 1
C394: + x83 + x214 <= 1
C395: + x2 + x63 <= 1
C396: + x220 + x317 <= 1
C397: + x132 + x262 <= 1
C398: + x360 + x373 <= 1
C399: + x5 + x30 <= 1
C400: + x188 + x353 <= 1
C401: + x78 + x364 <= 1
C402: + x44 + x424 <= 1
C403: + x368 + x434 <= 1
C404: + x64 + x104 <= 1
C405: + x46 + x206 <= 1
C406: + x120 + x288 <= 1
C407: + x84 + x436 <= 1
C408: + x13 + x411 <= 1
C409: + x44 + x138 <= 1
C410: + x304 + x469 <= 1
C411: + x32 + x46 <= 1
C412: + x15 + x112 <= 1
C413: + x44 + x309 <= 1
C414: + x23 + x289 <= 1
C415: + x333 + x375 <= 1
C416: + x8 + x53 <= 1
C417: + x11 + x361 <= 1
C418: + x19 + x184 <= 1
C419: + x12 + x50 <= 1
C420: + x52 + x231 <= 1
C421: + x142 + x228 <= 1
C422: + x279 + x311 <= 1
C423: + x12 + x292 <= 1
C424: + x5 + x209 <= 1
C425: + x82 + x182 <= 1
C426: + x140 + x271 <= 1
C427: + x22 + x204 <= 1
C428: + x17 + x84 <= 1
C429: + x253 + x488 <= 1
C430: + x55 + x225 <= 1
C431: + x81 + x177 <= 1
C432: + x72 + x80 <= 1
C433: + x19 + x90 <= 1
C434: + x85 + x214 <= 1
C435: + x106 + x201 <= 1
C436: + x88 + x105 <= 1
C437: + x35 + x85 <= 1
C438: + x16 + x171 <= 1
C439: + x6 + x147 <= 1
C440: + x45 + x116 <= 1
C441: + x241 + x311 <= 1
C442: + x119 + x239 <= 1
C443: + x305 + x444 <= 1
C444: + x42 + x255 <= 1
C445: + x6 + x385 <= 1
C446: + x7 + x23 <= 1
C447: + x134 + x220 <= 1
C448: + x74 + x115 <= 1
C449: + x44 + x302 <= 1
C450: + x154 + x171 <= 1
C451: + x27 + x496 <= 1
C452: + x146 + x329 <= 1
C453: + x89 + x93 <= 1
C454: + x9 + x12 <= 1
C455: + x1 + x121 <= 1
C456: + x121 + x198 <= 1
C457: + x38 + x46 <= 1
C458: + x342 + x394 <= 1
C459: + x43 + x57 <= 1
C460: + x109 + x389 <= 1
C461: + x7 + x67 <= 1
C462: + x55 + x73 <= 1
C463: + x39 + x476 <= 1
C464: + x45 + x55 <= 1
C465: + x10 + x237 <= 1
C466: + x177 + x199 <= 1
C467: + x33 + x348 <= 1
C468: + x150 + x443 <= 1
C469: + x108 + x396 <= 1
C470: + x24 + x128 <= 1
C471: + x9 + x120 <= 1
C472: + x2 + x315 <= 1
C473: + x11 + x328 <= 1
C474: + x85 + x451 <= 1
C475: + x19 + x81 <= 1
C476: + x2 + x9 <= 1
C477: + x103 + x131 <= 1
C478: + x15 + x19 + x128 <= 1
C479: + x205 + x479 <= 1
C480: + x88 + x98 <= 1
C481: + x126 + x356 <= 1
C482: + x9 + x199 <= 1
C483: + x8 + x119 <= 1
C484: + x2 + x172 <= 1
C485: + x34 + x195 <= 1
C486: + x76 + x332 <= 1
C487: + x98 + x110 <= 1
C488: + x35 + x278 <= 1
C489: + x10 + x407 <= 1
C490: + x8 + x136 <= 1
C491: + x11 + x186 <= 1
C492: + x131 + x440 <= 1
C493: + x30 + x183 <= 1
C494: + x5 + x56 <= 1
C495: + x233 + x362 <= 1
C496: + x227 + x301 <= 1
C497: + x77 + x120 <= 1
C498: + x104 + x446 <= 1
C499: + x93 + x179 <= 1
C500: + x75 + x201 <= 1
C501: + x84 + x160 <= 1
C502: + x60 + x373 <= 1
C503: + x6 + x209 <= 1
C504: + x12 + x189 <= 1
C505: + x177 + x254 <= 1
C506: + x6 + x463 <= 1
C507: + x392 + x497 <= 1
C508: + x39 + x153 <= 1
C509: + x104 + x370 <= 1
C510: + x23 + x492 <= 1
C511: + x137 + x294 <= 1
C512: + x84 + x236 <= 1
C513: + x284 + x439 <= 1
C514: + x105 + x293 <= 1
C515: + x107 + x201 <= 1
C516: + x435 + x494 <= 1
C517: + x6 + x133 <= 1
C518: + x18 + x231 <= 1
C519: + x27 + x60 <= 1
C520: + x113 + x165 <= 1
C521: + x7 + x360 <= 1
C522: + x136 + x443 <= 1
C523: + x51 + x134 <= 1
C524: + x125 + x157 <= 1
C525: + x54 + x137 <= 1
C526: + x275 + x369 <= 1
C527: + x91 + x178 <= 1
C528: + x1 + x357 <= 1
C529: + x110 + x191 <= 1
C530: + x436 + x481 <= 1
C531: + x31 + x40 <= 1
C532: + x32 + x192 <= 1
C533: + x23 + x310 <= 1
C534: + x5 + x396 <= 1
C535: + x321 + x380 <= 1
C536: + x131 + x157 <= 1
C537: + x33 + x176 <= 1
C538: + x59 + x181 <= 1
C539: + x17 + x42 <= 1
C540: + x36 + x280 <= 1
C541: + x200 + x391 <= 1
C542: + x147 + x271 <= 1
C543: + x115 + x314 <= 1
C544: + x9 + x407 <= 1
C545: + x95 + x190 <= 1
C546: + x28 + x403 <= 1
C547: + x11 + x487 <= 1
C548: + x212 + x348 <= 1
C549: + x82 + x153 <= 1
C550: + x154 + x316 <= 1
C551: + x89 + x218 <= 1
C552: + x15 + x141 <= 1
C553: + x18 + x345 <= 1
C554: + x285 + x385 <= 1
C555: + x131 + x451 <= 1
C556: + x17 + x185 <= 1
C557: + x45 + x202 <= 1
C558: + x96 + x286 <= 1
C559: + x14 + x440 <= 1
C560: + x10 + x469 <= 1
C561: + x10 + x112 <= 1
C562: + x349 + x376 <= 1
C563: + x13 + x141 <= 1
C564: + x180 + x284 <= 1
C565: + x20 + x34 <= 1
C566: + x203 + x324 <= 1
C567: + x112 + x400 <= 1
C568: + x403 + x437 <= 1
C569: + x53 + x334 <= 1
C570: + x181 + x315 <= 1
C571: + x65 + x188 <= 1
C572: + x155 + x239 <= 1
C573: + x11 + x172 <= 1
C574: + x8 + x303 <= 1
C575: + x5 + x38 <= 1
C576: + x260 + x353 <= 1
C577: + x26 + x358 <= 1
C578: + x34 + x283 <= 1
C579: + x259 + x321 <= 1
C580: + x96 + x343 <= 1
C581: + x83 + x125 <= 1
C582: + x211 + x403 <= 1
C583: + x20 + x417 <= 1
C584: + x266 + x307 <= 1
C585: + x124 + x451 <= 1
C586: + x9 + x144 <= 1
C587: + x8 + x170 <= 1
C588: + x132 + x474 <= 1
C589: + x18 + x72 <= 1
C590: + x195 + x364 <= 1
C591: + x16 + x445 <= 1
C592: + x237 + x243 <= 1
C593: + x99 + x144 <= 1
C594: + x24 + x252 <= 1
C595: + x1 + x9 <= 1
C596: + x135 + x283 <= 1
C597: + x4 + x6 <= 1
C598: + x42 + x219 <= 1
C599: + x336 + x473 <= 1
C600: + x39 + x268 <= 1
C601: + x96 + x207 <= 1
C602: + x1 + x371 <= 1
C603: + x40 + x127 <= 1
C604: + x17 + x310 <= 1
C605: + x6 + x374 <= 1
C606: + x143 + x278 <= 1
C607: + x2 + x331 <= 1
C608: + x42 + x308 <= 1
C609: + x60 + x61 <= 1
C610: + x386 + x415 <= 1
C611: + x5 + x180 <= 1
C612: + x36 + x56 <= 1
C613: + x1 + x244 <= 1
C614: + x174 + x240 <= 1
C615: + x13 + x52 <= 1
C616: + x88 + x452 <= 1
C617: + x12 + x15 <= 1
C618: + x16 + x390 <= 1
C619: + x11 + x106 <= 1
C620: + x67 + x91 <= 1
C621: + x111 + x126 <= 1
C622: + x234 + x302 <= 1
C623: + x238 + x321 <= 1
C624: + x55 + x470 <= 1
C625: + x15 + x288 <= 1
C626: + x109 + x143 <= 1
C627: + x79 + x107 <= 1
C628: + x44 + x69 <= 1
C629: + x26 + x58 <= 1
C630: + x299 + x378 <= 1
C631: + x136 + x197 <= 1
C632: + x420 + x435 <= 1
C633: + x13 + x274 <= 1
C634: + x27 + x459 <= 1
C635: + x137 + x242 <= 1
C636: + x1 + x191 <= 1
C637: + x23 + x150 <= 1
C638: + x44 + x113 <= 1
C639: + x9 + x47 <= 1
C640: + x142 + x471 <= 1
C641: + x2 + x324 <= 1
C642: + x24 + x25 + x132 <= 1
C643: + x40 + x219 <= 1
C644: + x44 + x160 <= 1
C645: + x11 + x45 <= 1
C646: + x97 + x338 <= 1
C647: + x5 + x187 <= 1
C648: + x28 + x76 <= 1
C649: + x23 + x299 <= 1
C650: + x96 + x470 <= 1
C651: + x222 + x253 <= 1
C652: + x12 + x459 <= 1
C653: + x6 + x70 <= 1
C654: + x384 + x431 <= 1
C655: + x172 + x318 <= 1
C656: + x27 + x32 <= 1
C657: + x291 + x481 <= 1
C658: + x9 + x234 <= 1
C659: + x154 + x347 <= 1
C660: + x44 + x217 <= 1
C661: + x134 + x290 <= 1
C662: + x2 + x300 <= 1
C663: + x67 + x284 <= 1
C664: + x3 + x5 <= 1
C665: + x13 + x265 <= 1
C666: + x396 + x401 <= 1
C667: + x71 + x74 <= 1
C668: + x19 + x407 <= 1
C669: + x63 + x123 <= 1
C670: + x24 + x279 <= 1
C671: + x27 + x36 <= 1
C672: + x134 + x435 <= 1
C673: + x74 + x490 <= 1
C674: + x20 + x166 <= 1
C675: + x60 + x392 <= 1
C676: + x150 + x384 <= 1
C677: + x17 + x22 <= 1
C678: + x24 + x33 <= 1
C679: + x132 + x146 <= 1
C680: + x18 + x144 <= 1
C681: + x10 + x59 <= 1
C682: + x384 + x455 <= 1
C683: + x34 + x378 <= 1
C684: + x25 + x275 <= 1
C685: + x17 + x165 <= 1
C686: + x10 + x150 <= 1
C687: + x37 + x176 <= 1
C688: + x20 + x114 <= 1
C689: + x147 + x390 <= 1
C690: + x248 + x286 <= 1
C691: + x233 + x406 <= 1
C692: + x213 + x223 <= 1
C693: + x48 + x288 <= 1
C694: + x7 + x85 <= 1
C695: + x27 + x265 <= 1
C696: + x177 + x368 <= 1
C697: + x16 + x230 <= 1
C698: + x45 + x61 <= 1
C699: + x238 + x470 <= 1
C700: + x118 + x123 <= 1
C701: + x80 + x377 <= 1
C702: + x85 + x441 <= 1
C703: + x57 + x72 <= 1
C704: + x161 + x409 <= 1
C705: + x160 + x177 <= 1
C706: + x170 + x420 <= 1
C707: + x110 + x156 <= 1
C708: + x275 + x497 <= 1
C709: + x204 + x475 <= 1
C710: + x5 + x26 <= 1
C711: + x8 + x125 <= 1
C712: + x128 + x149 <= 1
C713: + x34 + x53 <= 1
C714: + x333 + x484 <= 1
C715: + x44 + x142 <= 1
C716: + x6 + x388 <= 1
C717: + x112 + x376 <= 1
C718: + x6 + x39 <= 1
C719: + x36 + x408 <= 1
C720: + x308 + x347 <= 1
C721: + x8 + x142 <= 1
C722: + x31 + x55 <= 1
C723: + x104 + x154 <= 1
C724: + x82 + x484 <= 1
C725: + x19 + x180 <= 1
C726: + x144 + x425 <= 1
C727: + x41 + x221 <= 1
C728: + x3 + x104 <= 1
C729: + x257 + x482 <= 1
C730: + x5 + x221 <= 1
C731: + x7 + x233 <= 1
C732: + x9 + x152 <= 1
C733: + x1 + x21 <= 1
C734: + x23 + x369 <= 1
C735: + x17 + x88 <= 1
C736: + x97 + x299 <= 1
C737: + x6 + x124 <= 1
C738: + x19 + x393 <= 1
C739: + x2 + x12 <= 1
C740: + x374 + x456 <= 1
C741: + x192 + x321 <= 1
C742: + x13 + x228 <= 1
C743: + x198 + x351 <= 1
C744: + x36 + x67 <= 1
C745: + x16 + x183 <= 1
C746: + x64 + x105 <= 1
C747: + x328 + x385 <= 1
C748: + x38 + x230 <= 1
C749: + x42 + x304 <= 1
C750: + x61 + x75 <= 1
C751: + x5 + x499 <= 1
C752: + x7 + x11 <= 1
C753: + x1 + x462 <= 1
C754: + x147 + x357 <= 1
C755: + x94 + x417 <= 1
C756: + x66 + x178 <= 1
C757: + x77 + x230 <= 1
C758: + x6 + x48 <= 1
C759: + x154 + x175 <= 1
C760: + x15 + x123 <= 1
C761: + x144 + x168 <= 1
C762: + x175 + x213 <= 1
C763: + x5 + x386 <= 1
C764: + x15 + x329 <= 1
C765: + x8 + x42 <= 1
C766: + x55 + x164 <= 1
C767: + x20 + x128 <= 1
C768: + x75 + x480 <= 1
C769: + x12 + x498 <= 1
C770: + x133 + x167 <= 1
C771: + x19 + x464 <= 1
C772: + x11 + x14 <= 1
C773: + x20 + x402 <= 1
C774: + x91 + x297 <= 1
C775: + x45 + x51 <= 1
C776: + x5 + x438 <= 1
C777: + x10 + x372 <= 1
C778: + x34 + x86 <= 1
C779: + x15 + x50 <= 1
C780: + x90 + x113 <= 1
C781: + x143 + x235 <= 1
C782: + x144 + x344 <= 1
C783: + x26 + x433 <= 1
C784: + x86 + x215 <= 1
C785: + x31 + x117 <= 1
C786: + x5 + x16 <= 1
C787: + x2 + x176 <= 1
C788: + x35 + x205 <= 1
C789: + x128 + x378 <= 1
C790: + x94 + x101 <= 1
C791: + x38 + x413 <= 1
C792: + x349 + x493 <= 1
C793: + x63 + x92 <= 1
C794: + x85 + x173 <= 1
C795: + x68 + x429 <= 1
C796: + x13 + x207 <= 1
C797: + x35 + x64 <= 1
C798: + x45 + x155 <= 1
C799: + x134 + x338 <= 1
C800: + x250 + x327 <= 1
C801: + x39 + x374 <= 1
C802: + x134 + x483 <= 1
C803: + x130 + x480 <= 1
C804: + x47 + x119 <= 1
C805: + x9 + x99 <= 1
C806: + x16 + x24 <= 1
C807: + x422 + x424 <= 1
C808: + x27 + x298 <= 1
C809: + x237 + x249 <= 1
C810: + x9 + x480 <= 1
C811: + x5 + x247 <= 1
C812: + x224 + x312 <= 1
C813: + x62 + x431 <= 1
C814: + x8 + x108 <= 1
C815: + x143 + x452 <= 1
C816: + x297 + x475 <= 1
C817: + x76 + x140 <= 1
C818: + x91 + x190 <= 1
C819: + x1 + x174 <= 1
C820: + x5 + x59 <= 1
C821: + x17 + x316 <= 1
C822: + x25 + x367 <= 1
C823: + x2 + x381 <= 1
C824: + x61 + x173 <= 1
C825: + x11 + x64 <= 1
C826: + x5 + x202 <= 1
C827: + x91 + x194 <= 1
C828: + x51 + x316 <= 1
C829: + x14 + x134 <= 1
C830: + x25 + x240 <= 1
C831: + x65 + x71 <= 1
C832: + x6 + x87 <= 1
C833: + x65 + x228 <= 1
C834: + x59 + x90 <= 1
C835: + x77 + x132 <= 1
C836: + x152 + x294 <= 1
C837: + x8 + x97 <= 1
C838: + x37 + x263 <= 1
C839: + x13 + x110 <= 1
C840: + x23 + x51 <= 1
C841: + x5 + x141 <= 1
C842: + x19 + x426 <= 1
C843: + x1 + x165 <= 1
C844: + x105 + x220 <= 1
C845: + x223 + x467 <= 1
C846: + x37 + x203 <= 1
C847: + x76 + x459 <= 1
C848: + x213 + x250 <= 1
C849: + x17 + x37 <= 1
C850: + x27 + x376 <= 1
C851: + x9 + x386 <= 1
C852: + x118 + x439 <= 1
C853: + x74 + x86 <= 1
C854: + x287 + x375 <= 1
C855: + x17 + x322 <= 1
C856: + x418 + x486 <= 1
C857: + x242 + x365 <= 1
C858: + x297 + x413 <= 1
C859: + x5 + x86 <= 1
C860: + x9 + x17 <= 1
C861: + x101 + x418 <= 1
C862: + x110 + x395 <= 1
C863: + x17 + x23 + x28 <= 1
C864: + x354 + x356 <= 1
C865: + x24 + x486 <= 1
C866: + x11 + x107 <= 1
C867: + x156 + x214 <= 1
C868: + x86 + x226 <= 1
C869: + x167 + x194 <= 1
C870: + x42 + x489 <= 1
C871: + x102 + x143 <= 1
C872: + x61 + x111 <= 1
C873: + x16 + x42 <= 1
C874: + x227 + x323 <= 1
C875: + x230 + x317 <= 1
C876: + x26 + x472 <= 1
C877: + x74 + x206 <= 1
C878: + x62 + x373 <= 1
C879: + x83 + x463 <= 1
C880: + x391 + x416 <= 1
C881: + x58 + x410 <= 1
C882: + x232 + x410 <= 1
C883: + x169 + x458 <= 1
C884: + x405 + x427 <= 1
C885: + x119 + x296 <= 1
C886: + x10 + x287 <= 1
C887: + x3 + x67 <= 1
C888: + x95 + x148 <= 1
C889: + x13 + x331 <= 1
C890: + x348 + x390 <= 1
C891: + x15 + x99 <= 1
C892: + x91 + x212 <= 1
C893: + x7 + x273 <= 1
C894: + x48 + x124 <= 1
C895: + x125 + x210 <= 1
C896: + x281 + x360 <= 1
C897: + x65 + x85 <= 1
C898: + x102 + x295 <= 1
C899: + x101 + x425 <= 1
C900: + x143 + x294 <= 1
C901: + x59 + x350 <= 1
C902: + x196 + x373 <= 1
C903: + x16 + x386 <= 1
C904: + x64 + x156 <= 1
C905: + x11 + x22 <= 1
C906: + x113 + x353 <= 1
C907: + x186 + x431 <= 1
C908: + x32 + x99 <= 1
C909: + x153 + x237 <= 1
C910: + x20 + x213 <= 1
C911: + x388 + x496 <= 1
C912: + x73 + x388 <= 1
C913: + x57 + x190 <= 1
C914: + x58 + x229 <= 1
C915: + x96 + x308 <= 1
C916: + x6 + x13 <= 1
C917: + x255 + x312 <= 1
C918: + x20 + x326 <= 1
C919: + x303 + x380 <= 1
C920: + x13 + x243 <= 1
C921: + x134 + x438 <= 1
C922: + x13 + x88 <= 1
C923: + x18 + x421 <= 1
C924: + x416 + x427 <= 1
C925: + x164 + x454 <= 1
C926: + x267 + x447 <= 1
C927: + x23 + x25 <= 1
C928: + x25 + x499 <= 1
C929: + x19 + x25 <= 1
C930: + x278 + x425 <= 1
C931: + x52 + x70 <= 1
C932: + x18 + x54 <= 1
C933: + x322 + x391 <= 1
C934: + x59 + x146 <= 1
C935: + x27 + x270 <= 1
C936: + x228 + x242 <= 1
C937: + x330 + x455 <= 1
C938: + x11 + x452 <= 1
C939: + x25 + x447 <= 1
C940: + x426 + x481 <= 1
C941: + x35 + x478 <= 1
C942: + x227 + x500 <= 1
C943: + x2 + x141 <= 1
C944: + x33 + x244 <= 1
C945: + x101 + x412 <= 1
C946: + x37 + x145 <= 1
C947: + x20 + x57 <= 1
C948: + x33 + x81 <= 1
C949: + x15 + x33 <= 1
C950: + x7 + x142 <= 1
C951: + x9 + x296 <= 1
C952: + x10 + x115 <= 1
C953: + x144 + x325 <= 1
C954: + x2 + x62 <= 1
C955: + x132 + x261 <= 1
C956: + x14 + x246 <= 1
C957: + x5 + x31 <= 1
C958: + x19 + x129 <= 1
C959: + x105 + x110 <= 1
C960: + x13 + x79 <= 1
C961: + x205 + x220 <= 1
C962: + x115 + x346 <= 1
C963: + x24 + x61 <= 1
C964: + x82 + x94 <= 1
C965: + x35 + x192 <= 1
C966: + x37 + x69 <= 1
C967: + x13 + x377 <= 1
C968: + x132 + x150 <= 1
C969: + x152 + x207 <= 1
C970: + x254 + x312 <= 1
C971: + x100 + x234 <= 1
C972: + x227 + x439 <= 1
C973: + x95 + x319 <= 1
C974: + x306 + x497 <= 1
C975: + x20 + x118 <= 1
C976: + x30 + x434 <= 1
C977: + x12 + x456 <= 1
C978: + x115 + x270 <= 1
C979: + x23 + x387 <= 1
C980: + x321 + x437 <= 1
C981: + x84 + x145 <= 1
C982: + x59 + x126 <= 1
C983: + x23 + x112 <= 1
C984: + x6 + x238 <= 1
C985: + x15 + x185 <= 1
C986: + x9 + x149 <= 1
C987: + x62 + x460 <= 1
C988: + x288 + x432 <= 1
C989: + x148 + x355 <= 1
C990: + x33 + x326 <= 1
C991: + x40 + x145 <= 1
C992: + x295 + x472 <= 1
C993: + x15 + x399 <= 1
C994: + x24 + x98 <= 1
C995: + x15 + x44 <= 1
C996: + x63 + x443 <= 1
C997: + x229 + x330 <= 1
C998: + x275 + x493 <= 1
C999: + x26 + x326 <= 1
C1000: + x16 + x182 <= 1
C1001: + x7 + x363 <= 1
C1002: + x2 + x338 <= 1
C1003: + x10 + x215 <= 1
C1004: + x11 + x301 <= 1
C1005: + x205 + x211 <= 1
C1006: + x23 + x330 <= 1
C1007: + x11 + x386 <= 1
C1008: + x148 + x398 <= 1
C1009: + x184 + x348 <= 1
C1010: + x51 + x118 <= 1
C1011: + x18 + x306 <= 1
C1012: + x7 + x177 <= 1
C1013: + x85 + x155 <= 1
C1014: + x5 + x74 <= 1
C1015: + x224 + x393 <= 1
C1016: + x9 + x13 <= 1
C1017: + x45 + x161 <= 1
C1018: + x7 + x423 <= 1
C1019: + x146 + x491 <= 1
C1020: + x75 + x465 <= 1
C1021: + x269 + x497 <= 1
C1022: + x7 + x306 <= 1
C1023: + x210 + x444 <= 1
C1024: + x140 + x263 <= 1
C1025: + x32 + x332 <= 1
C1026: + x81 + x268 <= 1
C1027: + x54 + x251 <= 1
C1028: + x65 + x118 <= 1
C1029: + x10 + x335 <= 1
C1030: + x176 + x292 <= 1
C1031: + x52 + x187 <= 1
C1032: + x15 + x51 <= 1
C1033: + x2 + x16 <= 1
C1034: + x104 + x223 <= 1
C1035: + x5 + x13 <= 1
C1036: + x23 + x179 <= 1
C1037: + x15 + x257 <= 1
C1038: + x54 + x364 <= 1
C1039: + x8 + x114 <= 1
C1040: + x193 + x298 <= 1
C1041: + x96 + x448 <= 1
C1042: + x9 + x421 <= 1
C1043: + x200 + x341 <= 1
C1044: + x59 + x60 <= 1
C1045: + x9 + x10 + x11 + x322 <= 1
C1046: + x91 + x184 <= 1
C1047: + x83 + x249 <= 1
C1048: + x75 + x103 <= 1
C1049: + x211 + x271 <= 1
C1050: + x32 + x269 <= 1
C1051: + x6 + x282 <= 1
C1052: + x9 + x52 <= 1
C1053: + x142 + x434 <= 1
C1054: + x59 + x171 <= 1
C1055: + x54 + x83 <= 1
C1056: + x57 + x288 <= 1
C1057: + x84 + x159 <= 1
C1058: + x77 + x214 <= 1
C1059: + x30 + x295 <= 1
C1060: + x13 + x163 <= 1
C1061: + x6 + x224 <= 1
C1062: + x17 + x337 <= 1
C1063: + x45 + x47 <= 1
C1064: + x73 + x323 <= 1
C1065: + x11 + x235 <= 1
C1066: + x54 + x196 <= 1
C1067: + x21 + x72 <= 1
C1068: + x394 + x428 <= 1
C1069: + x6 + x97 <= 1
C1070: + x83 + x265 <= 1
C1071: + x282 + x406 <= 1
C1072: + x1 + x159 <= 1
C1073: + x185 + x289 <= 1
C1074: + x88 + x122 <= 1
C1075: + x1 + x60 <= 1
C1076: + x72 + x303 <= 1
C1077: + x148 + x317 <= 1
C1078: + x8 + x111 <= 1
C1079: + x341 + x345 <= 1
C1080: + x25 + x178 <= 1
C1081: + x24 + x76 <= 1
C1082: + x17 + x412 <= 1
C1083: + x229 + x420 <= 1
C1084: + x234 + x358 <= 1
C1085: + x5 + x64 <= 1
C1086: + x108 + x250 <= 1
C1087: + x281 + x331 <= 1
C1088: + x54 + x313 <= 1
C1089: + x2 + x384 <= 1
C1090: + x12 + x491 <= 1
C1091: + x17 + x43 <= 1
C1092: + x334 + x462 <= 1
C1093: + x27 + x354 <= 1
C1094: + x14 + x38 <= 1
C1095: + x91 + x195 <= 1
C1096: + x19 + x49 <= 1
C1097: + x237 + x307 <= 1
C1098: + x39 + x56 <= 1
C1099: + x14 + x137 <= 1
C1100: + x89 + x429 <= 1
C1101: + x53 + x102 <= 1
C1102: + x18 + x78 <= 1
C1103: + x1 + x388 <= 1
C1104: + x5 + x441 <= 1
C1105: + x121 + x161 <= 1
C1106: + x83 + x183 <= 1
C1107: + x327 + x371 <= 1
C1108: + x291 + x372 <= 1
C1109: + x17 + x260 <= 1
C1110: + x35 + x127 <= 1
C1111: + x91 + x324 <= 1
C1112: + x26 + x148 <= 1
C1113: + x227 + x492 <= 1
C1114: + x59 + x320 <= 1
C1115: + x33 + x295 <= 1
C1116: + x97 + x428 <= 1
C1117: + x10 + x293 <= 1
C1118: + x9 + x272 <= 1
C1119: + x137 + x197 <= 1
C1120: + x39 + x59 + x96 <= 1
C1121: + x140 + x370 <= 1
C1122: + x40 + x65 <= 1
C1123: + x68 + x410 <= 1
C1124: + x24 + x267 <= 1
C1125: + x189 + x241 <= 1
C1126: + x11 + x270 <= 1
C1127: + x50 + x351 <= 1
C1128: + x33 + x168 <= 1
C1129: + x61 + x169 <= 1
C1130: + x235 + x304 <= 1
C1131: + x5 + x273 <= 1
C1132: + x66 + x212 <= 1
C1133: + x16 + x271 <= 1
C1134: + x110 + x235 <= 1
C1135: + x1 + x254 <= 1
C1136: + x37 + x351 <= 1
C1137: + x146 + x367 <= 1
C1138: + x31 + x220 <= 1
C1139: + x14 + x130 <= 1
C1140: + x6 + x320 <= 1
C1141: + x143 + x352 <= 1
C1142: + x263 + x265 <= 1
C1143: + x13 + x296 <= 1
C1144: + x6 + x83 <= 1
C1145: + x74 + x157 <= 1
C1146: + x13 + x133 <= 1
C1147: + x32 + x121 <= 1
C1148: + x270 + x478 <= 1
C1149: + x6 + x321 <= 1
C1150: + x36 + x126 <= 1
C1151: + x1 + x10 <= 1
C1152: + x300 + x473 <= 1
C1153: + x4 + x5 <= 1
C1154: + x6 + x484 <= 1
C1155: + x97 + x272 <= 1
C1156: + x217 + x285 <= 1
C1157: + x91 + x129 <= 1
C1158: + x19 + x422 <= 1
C1159: + x7 + x157 <= 1
C1160: + x40 + x122 <= 1
C1161: + x107 + x240 <= 1
C1162: + x26 + x366 <= 1
C1163: + x26 + x161 <= 1
C1164: + x227 + x311 <= 1
C1165: + x8 + x17 <= 1
C1166: + x89 + x268 <= 1
C1167: + x61 + x168 <= 1
C1168: + x10 + x282 <= 1
C1169: + x193 + x477 <= 1
C1170: + x2 + x251 <= 1
C1171: + x13 + x16 + x20 <= 1
C1172: + x66 + x70 <= 1
C1173: + x121 + x175 <= 1
C1174: + x95 + x491 <= 1
C1175: + x96 + x259 <= 1
C1176: + x6 + x92 <= 1
C1177: + x11 + x23 <= 1
C1178: + x265 + x401 <= 1
C1179: + x96 + x162 <= 1
C1180: + x134 + x389 <= 1
C1181: + x8 + x86 <= 1
C1182: + x441 + x456 <= 1
C1183: + x205 + x289 <= 1
C1184: + x31 + x143 <= 1
C1185: + x23 + x365 <= 1
C1186: + x33 + x309 <= 1
C1187: + x85 + x97 <= 1
C1188: + x5 + x376 <= 1
C1189: + x160 + x206 <= 1
C1190: + x6 + x16 <= 1
C1191: + x7 + x152 <= 1
C1192: + x292 + x350 <= 1
C1193: + x131 + x409 <= 1
C1194: + x5 + x21 <= 1
C1195: + x9 + x48 <= 1
C1196: + x8 + x10 <= 1
C1197: + x1 + x93 <= 1
C1198: + x158 + x445 <= 1
C1199: + x41 + x164 <= 1
C1200: + x26 + x69 <= 1
C1201: + x110 + x495 <= 1
C1202: + x11 + x46 <= 1
C1203: + x420 + x482 <= 1
C1204: + x50 + x127 <= 1
C1205: + x4 + x300 <= 1
C1206: + x6 + x52 <= 1
C1207: + x109 + x262 <= 1
C1208: + x444 + x488 <= 1
C1209: + x14 + x180 <= 1
C1210: + x9 + x28 <= 1
C1211: + x20 + x108 <= 1
C1212: + x293 + x383 <= 1
C1213: + x242 + x453 <= 1
C1214: + x230 + x382 <= 1
C1215: + x18 + x468 <= 1
C1216: + x11 + x18 <= 1
C1217: + x2 + x109 <= 1
C1218: + x105 + x258 <= 1
C1219: + x21 + x374 <= 1
C1220: + x116 + x123 <= 1
C1221: + x2 + x144 <= 1
C1222: + x378 + x462 <= 1
C1223: + x304 + x391 <= 1
C1224: + x61 + x147 <= 1
C1225: + x73 + x392 <= 1
C1226: + x230 + x290 <= 1
C1227: + x56 + x327 <= 1
C1228: + x263 + x468 <= 1
C1229: + x10 + x78 <= 1
C1230: + x112 + x249 <= 1
C1231: + x33 + x443 <= 1
C1232: + x6 + x172 <= 1
C1233: + x26 + x179 <= 1
C1234: + x319 + x419 <= 1
C1235: + x59 + x285 <= 1
C1236: + x13 + x84 <= 1
C1237: + x7 + x26 <= 1
C1238: + x77 + x241 <= 1
C1239: + x78 + x255 <= 1
C1240: + x133 + x291 <= 1
C1241: + x112 + x362 <= 1
C1242: + x17 + x436 <= 1
C1243: + x73 + x209 <= 1
C1244: + x8 + x152 <= 1
C1245: + x66 + x437 <= 1
C1246: + x16 + x358 <= 1
C1247: + x54 + x398 <= 1
C1248: + x93 + x465 <= 1
C1249: + x20 + x113 <= 1
C1250: + x30 + x74 <= 1
C1251: + x55 + x421 <= 1
C1252: + x39 + x419 <= 1
C1253: + x23 + x105 <= 1
C1254: + x19 + x201 <= 1
C1255: + x23 + x383 <= 1
C1256: + x11 + x351 <= 1
C1257: + x230 + x299 <= 1
C1258: + x18 + x257 <= 1
C1259: + x19 + x399 <= 1
C1260: + x19 + x92 <= 1
C1261: + x211 + x485 <= 1
C1262: + x158 + x236 <= 1
C1263: + x60 + x305 <= 1
C1264: + x304 + x381 <= 1
C1265: + x17 + x284 <= 1
C1266: + x36 + x93 <= 1
C1267: + x1 + x43 <= 1
C1268: + x67 + x387 <= 1
C1269: + x115 + x342 <= 1
C1270: + x70 + x120 <= 1
C1271: + x7 + x17 <= 1
C1272: + x74 + x77 <= 1
C1273: + x54 + x185 <= 1
C1274: + x56 + x165 <= 1
C1275: + x96 + x233 <= 1
C1276: + x10 + x35 <= 1
C1277: + x240 + x342 <= 1
C1278: + x24 + x170 <= 1
C1279: + x55 + x170 <= 1
C1280: + x111 + x258 <= 1
C1281: + x2 + x361 <= 1
C1282: + x11 + x278 <= 1
C1283: + x99 + x464 <= 1
C1284: + x75 + x196 <= 1
C1285: + x25 + x394 <= 1
C1286: + x6 + x234 <= 1
C1287: + x91 + x246 <= 1
C1288: + x28 + x149 <= 1
C1289: + x93 + x95 <= 1
C1290: + x2 + x154 <= 1
C1291: + x95 + x367 <= 1
C1292: + x84 + x116 <= 1
C1293: + x116 + x232 <= 1
C1294: + x34 + x241 <= 1
C1295: + x157 + x489 <= 1
C1296: + x130 + x368 <= 1
C1297: + x112 + x428 <= 1
C1298: + x107 + x431 <= 1
C1299: + x15 + x48 <= 1
C1300: + x142 + x211 <= 1
C1301: + x8 + x210 <= 1
C1302: + x2 + x11 <= 1
C1303: + x57 + x354 <= 1
C1304: + x59 + x78 <= 1
C1305: + x46 + x415 <= 1
C1306: + x232 + x350 <= 1
C1307: + x107 + x196 <= 1
C1308: + x72 + x309 <= 1
C1309: + x187 + x277 <= 1
C1310: + x252 + x463 <= 1
C1311: + x6 + x396 <= 1
C1312: + x16 + x469 <= 1
C1313: + x62 + x255 <= 1
C1314: + x206 + x444 <= 1
C1315: + x24 + x405 <= 1
C1316: + x154 + x174 <= 1
C1317: + x32 + x260 <= 1
C1318: + x36 + x178 <= 1
C1319: + x143 + x259 <= 1
C1320: + x236 + x282 <= 1
C1321: + x93 + x423 <= 1
C1322: + x349 + x390 <= 1
C1323: + x52 + x243 <= 1
C1324: + x66 + x312 <= 1
C1325: + x86 + x130 <= 1
C1326: + x132 + x331 <= 1
C1327: + x168 + x238 <= 1
C1328: + x2 + x147 <= 1
C1329: + x143 + x335 <= 1
C1330: + x2 + x318 <= 1
C1331: + x139 + x286 <= 1
C1332: + x39 + x155 <= 1
C1333: + x142 + x204 <= 1
C1334: + x8 + x207 <= 1
C1335: + x138 + x188 <= 1
C1336: + x5 + x9 <= 1
C1337: + x170 + x208 <= 1
C1338: + x27 + x62 <= 1
C1339: + x86 + x425 <= 1
C1340: + x17 + x124 <= 1
C1341: + x253 + x464 <= 1
C1342: + x19 + x276 <= 1
C1343: + x316 + x459 <= 1
C1344: + x20 + x23 <= 1
C1345: + x241 + x400 <= 1
C1346: + x31 + x389 <= 1
C1347: + x44 + x282 <= 1
C1348: + x182 + x430 <= 1
C1349: + x42 + x417 <= 1
C1350: + x18 + x29 <= 1
C1351: + x1 + x117 <= 1
C1352: + x42 + x151 <= 1
C1353: + x26 + x109 <= 1
C1354: + x134 + x244 <= 1
C1355: + x28 + x401 <= 1
C1356: + x9 + x405 <= 1
C1357: + x11 + x54 <= 1
C1358: + x17 + x56 <= 1
C1359: + x12 + x341 <= 1
C1360: + x19 + x54 <= 1
C1361: + x146 + x369 <= 1
C1362: + x39 + x49 <= 1
C1363: + x149 + x367 <= 1
C1364: + x51 + x258 <= 1
C1365: + x14 + x140 <= 1
C1366: + x24 + x116 <= 1
C1367: + x2 + x5 + x6 + x7 + x8 <= 1
C1368: + x10 + x380 <= 1
C1369: + x174 + x291 <= 1
C1370: + x72 + x150 <= 1
C1371: + x55 + x248 <= 1
C1372: + x44 + x355 <= 1
C1373: + x11 + x122 <= 1
C1374: + x61 + x336 <= 1
C1375: + x99 + x292 <= 1
C1376: + x66 + x488 <= 1
C1377: + x230 + x471 <= 1
C1378: + x242 + x430 <= 1
C1379: + x42 + x212 <= 1
C1380: + x143 + x158 <= 1
C1381: + x20 + x32 <= 1
C1382: + x12 + x402 <= 1
C1383: + x23 + x57 <= 1
C1384: + x9 + x269 <= 1
C1385: + x30 + x139 <= 1
C1386: + x23 + x134 <= 1
C1387: + x162 + x208 <= 1
C1388: + x128 + x247 <= 1
C1389: + x8 + x31 <= 1
C1390: + x458 + x479 <= 1
C1391: + x48 + x307 <= 1
C1392: + x40 + x370 <= 1
C1393: + x7 + x50 <= 1
C1394: + x14 + x34 <= 1
C1395: + x5 + x203 <= 1
C1396: + x109 + x277 <= 1
C1397: + x446 + x457 <= 1
C1398: + x20 + x254 <= 1
C1399: + x112 + x181 <= 1
C1400: + x86 + x375 <= 1
C1401: + x23 + x210 <= 1
C1402: + x326 + x462 <= 1
C1403: + x200 + x275 <= 1
C1404: + x66 + x80 <= 1
C1405: + x202 + x248 <= 1
C1406: + x56 + x245 <= 1
C1407: + x148 + x473 <= 1
C1408: + x349 + x432 <= 1
C1409: + x35 + x365 <= 1
C1410: + x88 + x115 <= 1
C1411: + x9 + x250 <= 1
C1412: + x2 + x476 <= 1
C1413: + x76 + x381 <= 1
C1414: + x58 + x218 <= 1
C1415: + x89 + x154 <= 1
C1416: + x6 + x26 <= 1
C1417: + x56 + x411 <= 1
C1418: + x30 + x132 <= 1
C1419: + x217 + x439 <= 1
C1420: + x9 + x38 <= 1
C1421: + x8 + x24 <= 1
C1422: + x11 + x266 <= 1
C1423: + x56 + x58 <= 1
C1424: + x62 + x379 <= 1
C1425: + x78 + x109 <= 1
C1426: + x31 + x258 <= 1
C1427: + x70 + x160 <= 1
C1428: + x219 + x226 <= 1
C1429: + x255 + x406 <= 1
C1430: + x283 + x344 <= 1
C1431: + x2 + x91 <= 1
C1432: + x39 + x450 <= 1
C1433: + x32 + x49 <= 1
C1434: + x11 + x153 <= 1
C1435: + x17 + x181 <= 1
C1436: + x16 + x101 <= 1
C1437: + x142 + x404 <= 1
C1438: + x57 + x108 <= 1
C1439: + x67 + x335 <= 1
C1440: + x7 + x101 <= 1
C1441: + x9 + x463 <= 1
C1442: + x55 + x99 <= 1
C1443: + x138 + x284 <= 1
C1444: + x59 + x98 <= 1
C1445: + x14 + x15 <= 1
C1446: + x90 + x345 <= 1
C1447: + x1 + x14 <= 1
C1448: + x11 + x205 <= 1
C1449: + x81 + x289 <= 1
C1450: + x9 + x94 <= 1
C1451: + x20 + x46 <= 1
C1452: + x42 + x121 <= 1
C1453: + x15 + x88 <= 1
C1454: + x10 + x397 <= 1
C1455: + x19 + x418 <= 1
C1456: + x11 + x96 <= 1
C1457: + x29 + x275 <= 1
C1458: + x113 + x295 <= 1
C1459: + x21 + x184 <= 1
C1460: + x5 + x42 <= 1
C1461: + x23 + x152 <= 1
C1462: + x188 + x341 <= 1
C1463: + x227 + x307 <= 1
C1464: + x74 + x483 <= 1
C1465: + x37 + x243 <= 1
C1466: + x8 + x13 <= 1
C1467: + x81 + x349 <= 1
C1468: + x90 + x392 <= 1
C1469: + x28 + x360 <= 1
C1470: + x366 + x467 <= 1
C1471: + x404 + x407 <= 1
C1472: + x360 + x466 <= 1
C1473: + x15 + x100 <= 1
C1474: + x20 + x268 <= 1
C1475: + x13 + x41 <= 1
C1476: + x25 + x266 <= 1
C1477: + x43 + x169 <= 1
C1478: + x159 + x493 <= 1
C1479: + x162 + x345 <= 1
C1480: + x17 + x457 <= 1
C1481: + x26 + x404 <= 1
C1482: + x105 + x287 <= 1
C1483: + x141 + x320 <= 1
C1484: + x96 + x174 <= 1
C1485: + x100 + x167 <= 1
C1486: + x10 + x256 <= 1
C1487: + x1 + x5 <= 1
C1488: + x182 + x204 <= 1
C1489: + x293 + x296 <= 1
C1490: + x3 + x7 <= 1
C1491: + x97 + x283 <= 1
C1492: + x98 + x397 <= 1
C1493: + x6 + x12 <= 1
C1494: + x296 + x442 <= 1
C1495: + x111 + x304 <= 1
C1496: + x102 + x379 <= 1
C1497: + x12 + x79 <= 1
C1498: + x96 + x324 <= 1
C1499: + x16 + x454 <= 1
C1500: + x57 + x139 <= 1
C1501: + x5 + x168 <= 1
C1502: + x7 + x200 <= 1
C1503: + x28 + x79 <= 1
C1504: + x26 + x250 <= 1
C1505: + x127 + x222 <= 1
C1506: + x114 + x388 <= 1
C1507: + x11 + x30 <= 1
C1508: + x95 + x200 <= 1
C1509: + x15 + x183 <= 1
C1510: + x36 + x112 <= 1
C1511: + x250 + x287 <= 1
C1512: + x56 + x113 <= 1
C1513: + x13 + x28 <= 1
C1514: + x223 + x310 <= 1
C1515: + x79 + x325 <= 1
C1516: + x389 + x496 <= 1
C1517: + x11 + x340 <= 1
C1518: + x204 + x382 <= 1
C1519: + x42 + x107 <= 1
C1520: + x115 + x456 <= 1
C1521: + x163 + x375 <= 1
C1522: + x8 + x273 <= 1
C1523: + x72 + x81 <= 1
C1524: + x11 + x66 <= 1
C1525: + x6 + x355 <= 1
C1526: + x9 + x219 <= 1
C1527: + x205 + x272 <= 1
C1528: + x386 + x484 <= 1
C1529: + x171 + x453 <= 1
C1530: + x142 + x302 <= 1
C1531: + x38 + x82 <= 1
C1532: + x176 + x353 <= 1
C1533: + x353 + x403 <= 1
C1534: + x7 + x191 <= 1
C1535: + x11 + x182 <= 1
C1536: + x148 + x154 <= 1
C1537: + x103 + x195 <= 1
C1538: + x19 + x182 <= 1
C1539: + x138 + x468 <= 1
C1540: + x176 + x466 <= 1
C1541: + x79 + x221 <= 1
C1542: + x26 + x414 <= 1
C1543: + x19 + x471 <= 1
C1544: + x84 + x349 <= 1
C1545: + x57 + x142 + x166 <= 1
C1546: + x130 + x173 <= 1
C1547: + x56 + x299 <= 1
C1548: + x153 + x252 <= 1
C1549: + x15 + x186 <= 1
C1550: + x17 + x356 <= 1
C1551: + x65 + x467 <= 1
C1552: + x230 + x500 <= 1
C1553: + x30 + x247 <= 1
C1554: + x38 + x180 <= 1
C1555: + x5 + x461 <= 1
C1556: + x55 + x231 <= 1
C1557: + x33 + x105 <= 1
C1558: + x33 + x438 <= 1
C1559: + x297 + x334 <= 1
C1560: + x25 + x339 <= 1
C1561: + x80 + x358 <= 1
C1562: + x8 + x124 <= 1
C1563: + x111 + x314 <= 1
C1564: + x13 + x71 <= 1
C1565: + x24 + x53 <= 1
C1566: + x7 + x21 <= 1
C1567: + x63 + x242 <= 1
C1568: + x16 + x460 <= 1
C1569: + x182 + x261 <= 1
C1570: + x140 + x239 <= 1
C1571: + x21 + x308 <= 1
C1572: + x27 + x494 <= 1
C1573: + x5 + x75 <= 1
C1574: + x23 + x314 <= 1
C1575: + x278 + x442 <= 1
C1576: + x53 + x77 <= 1
C1577: + x55 + x174 <= 1
C1578: + x12 + x41 <= 1
C1579: + x42 + x169 <= 1
C1580: + x14 + x464 <= 1
C1581: + x7 + x65 <= 1
C1582: + x1 + x264 <= 1
C1583: + x186 + x449 <= 1
C1584: + x39 + x474 <= 1
C1585: + x25 + x398 <= 1
C1586: + x7 + x311 <= 1
C1587: + x10 + x19 <= 1
C1588: + x8 + x189 <= 1
C1589: + x6 + x452 <= 1
C1590: + x322 + x420 <= 1
C1591: + x122 + x447 <= 1
C1592: + x69 + x212 <= 1
C1593: + x5 + x361 <= 1
C1594: + x232 + x251 <= 1
C1595: + x85 + x223 <= 1
C1596: + x12 + x279 <= 1
C1597: + x185 + x248 <= 1
C1598: + x40 + x253 <= 1
C1599: + x316 + x458 <= 1
C1600: + x8 + x408 <= 1
C1601: + x66 + x181 <= 1
C1602: + x19 + x277 <= 1
C1603: + x37 + x76 <= 1
C1604: + x20 + x457 <= 1
C1605: + x23 + x35 <= 1
C1606: + x6 + x43 <= 1
C1607: + x133 + x285 <= 1
C1608: + x155 + x290 <= 1
C1609: + x85 + x163 <= 1
C1610: + x88 + x483 <= 1
C1611: + x134 + x340 <= 1
C1612: + x11 + x281 <= 1
C1613: + x29 + x176 <= 1
C1614: + x224 + x227 <= 1
C1615: + x17 + x53 <= 1
C1616: + x7 + x60 <= 1
C1617: + x208 + x293 <= 1
C1618: + x176 + x187 <= 1
C1619: + x15 + x140 <= 1
C1620: + x248 + x416 <= 1
C1621: + x17 + x68 <= 1
C1622: + x16 + x22 <= 1
C1623: + x397 + x424 <= 1
C1624: + x79 + x346 <= 1
C1625: + x241 + x472 <= 1
C1626: + x175 + x444 <= 1
C1627: + x96 + x279 <= 1
C1628: + x36 + x349 <= 1
C1629: + x136 + x274 <= 1
C1630: + x272 + x394 <= 1
C1631: + x27 + x58 <= 1
C1632: + x123 + x260 <= 1
C1633: + x146 + x313 <= 1
C1634: + x246 + x293 <= 1
C1635: + x65 + x364 <= 1
C1636: + x142 + x426 <= 1
C1637: + x8 + x30 <= 1
C1638: + x19 + x159 <= 1
C1639: + x67 + x421 <= 1
C1640: + x139 + x477 <= 1
C1641: + x2 + x383 <= 1
C1642: + x113 + x147 <= 1
C1643: + x185 + x203 <= 1
C1644: + x17 + x44 <= 1
C1645: + x311 + x481 <= 1
C1646: + x54 + x91 <= 1
C1647: + x144 + x217 <= 1
C1648: + x147 + x218 <= 1
C1649: + x113 + x389 <= 1
C1650: + x2 + x410 <= 1
C1651: + x42 + x155 <= 1
C1652: + x5 + x208 <= 1
C1653: + x134 + x256 <= 1
C1654: + x14 + x37 <= 1
C1655: + x18 + x162 <= 1
C1656: + x28 + x103 <= 1
C1657: + x64 + x466 <= 1
C1658: + x98 + x148 <= 1
C1659: + x14 + x339 <= 1
C1660: + x25 + x238 <= 1
C1661: + x18 + x77 <= 1
C1662: + x4 + x325 <= 1
C1663: + x35 + x338 <= 1
C1664: + x17 + x488 <= 1
C1665: + x200 + x437 <= 1
C1666: + x96 + x179 <= 1
C1667: + x181 + x195 <= 1
C1668: + x246 + x445 <= 1
C1669: + x20 + x197 <= 1
C1670: + x14 + x263 <= 1
C1671: + x15 + x429 <= 1
C1672: + x16 + x39 <= 1
C1673: + x111 + x432 <= 1
C1674: + x2 + x455 <= 1
C1675: + x105 + x445 <= 1
C1676: + x44 + x275 <= 1
C1677: + x9 + x305 <= 1
C1678: + x1 + x163 <= 1
C1679: + x31 + x45 <= 1
C1680: + x96 + x103 <= 1
C1681: + x53 + x493 <= 1
C1682: + x15 + x352 <= 1
C1683: + x8 + x27 <= 1
C1684: + x64 + x74 <= 1
C1685: + x77 + x104 <= 1
C1686: + x34 + x47 <= 1
C1687: + x71 + x246 <= 1
C1688: + x10 + x280 <= 1
C1689: + x176 + x329 <= 1
C1690: + x96 + x248 <= 1
C1691: + x91 + x264 <= 1
C1692: + x19 + x41 <= 1
C1693: + x252 + x414 <= 1
C1694: + x53 + x110 <= 1
C1695: + x188 + x222 <= 1
C1696: + x7 + x453 <= 1
C1697: + x84 + x490 <= 1
C1698: + x28 + x442 <= 1
C1699: + x2 + x18 <= 1
C1700: + x111 + x121 <= 1
C1701: + x73 + x318 <= 1
C1702: + x7 + x344 <= 1
C1703: + x8 + x96 <= 1
C1704: + x64 + x387 <= 1
C1705: + x112 + x133 <= 1
C1706: + x86 + x327 <= 1
C1707: + x10 + x301 <= 1
C1708: + x58 + x222 <= 1
C1709: + x71 + x94 <= 1
C1710: + x7 + x158 <= 1
C1711: + x45 + x412 <= 1
C1712: + x105 + x193 <= 1
C1713: + x26 + x365 <= 1
C1714: + x6 + x372 <= 1
C1715: + x134 + x335 <= 1
C1716: + x8 + x20 <= 1
C1717: + x15 + x238 <= 1
C1718: + x130 + x436 <= 1
C1719: + x239 + x475 <= 1
C1720: + x68 + x72 + x90 <= 1
C1721: + x14 + x500 <= 1
C1722: + x1 + x26 + x75 <= 1
C1723: + x134 + x226 <= 1
C1724: + x9 + x391 <= 1
C1725: + x96 + x253 <= 1
C1726: + x127 + x418 <= 1
C1727: + x10 + x15 <= 1
C1728: + x193 + x379 <= 1
C1729: + x19 + x36 <= 1
C1730: + x20 + x263 <= 1
C1731: + x203 + x402 <= 1
C1732: + x14 + x186 <= 1
C1733: + x42 + x323 <= 1
C1734: + x235 + x423 <= 1
C1735: + x153 + x305 <= 1
C1736: + x233 + x426 <= 1
C1737: + x7 + x89 <= 1
C1738: + x143 + x193 <= 1
C1739: + x11 + x24 <= 1
C1740: + x106 + x148 <= 1
C1741: + x296 + x329 <= 1
C1742: + x25 + x438 <= 1
C1743: + x17 + x200 <= 1
C1744: + x16 + x146 <= 1
C1745: + x80 + x466 <= 1
C1746: + x192 + x199 <= 1
C1747: + x21 + x205 <= 1
C1748: + x386 + x474 <= 1
C1749: + x25 + x136 <= 1
C1750: + x178 + x362 <= 1
C1751: + x9 + x66 <= 1
C1752: + x57 + x188 <= 1
C1753: + x9 + x319 <= 1
C1754: + x11 + x92 <= 1
C1755: + x30 + x153 <= 1
C1756: + x205 + x433 <= 1
C1757: + x23 + x172 <= 1
C1758: + x6 + x162 <= 1
C1759: + x15 + x245 <= 1
C1760: + x27 + x39 <= 1
C1761: + x8 + x9 <= 1
C1762: + x1 + x94 <= 1
C1763: + x86 + x404 <= 1
C1764: + x51 + x225 <= 1
C1765: + x25 + x84 <= 1
C1766: + x160 + x241 <= 1
C1767: + x36 + x63 <= 1
C1768: + x64 + x461 <= 1
C1769: + x132 + x458 <= 1
C1770: + x107 + x156 <= 1
C1771: + x34 + x359 <= 1
C1772: + x235 + x418 <= 1
C1773: + x44 + x47 <= 1
C1774: + x1 + x106 <= 1
C1775: + x9 + x29 <= 1
C1776: + x12 + x461 <= 1
C1777: + x33 + x131 <= 1
C1778: + x207 + x343 <= 1
C1779: + x80 + x205 <= 1
C1780: + x45 + x342 <= 1
C1781: + x172 + x401 <= 1
C1782: + x26 + x408 <= 1
C1783: + x2 + x100 <= 1
C1784: + x55 + x419 <= 1
C1785: + x32 + x106 <= 1
C1786: + x23 + x87 <= 1
C1787: + x109 + x136 <= 1
C1788: + x11 + x244 <= 1
C1789: + x166 + x270 <= 1
C1790: + x34 + x230 <= 1
C1791: + x9 + x73 <= 1
C1792: + x145 + x417 <= 1
C1793: + x249 + x259 <= 1
C1794: + x21 + x486 <= 1
C1795: + x78 + x138 <= 1
C1796: + x107 + x446 <= 1
C1797: + x142 + x224 <= 1
C1798: + x16 + x337 <= 1
C1799: + x246 + x313 <= 1
C1800: + x106 + x193 <= 1
C1801: + x23 + x163 <= 1
C1802: + x260 + x346 <= 1
C1803: + x109 + x188 <= 1
C1804: + x19 + x131 <= 1
C1805: + x230 + x434 <= 1
C1806: + x12 + x67 <= 1
C1807: + x58 + x422 <= 1
C1808: + x386 + x495 <= 1
C1809: + x216 + x227 <= 1
C1810: + x7 + x31 <= 1
C1811: + x33 + x43 <= 1
C1812: + x13 + x383 <= 1
C1813: + x172 + x377 <= 1
C1814: + x39 + x81 <= 1
C1815: + x32 + x285 <= 1
C1816: + x145 + x492 <= 1
C1817: + x74 + x476 <= 1
C1818: + x62 + x349 <= 1
C1819: + x30 + x73 <= 1
C1820: + x112 + x474 <= 1
C1821: + x143 + x211 <= 1
C1822: + x232 + x372 <= 1
C1823: + x132 + x352 <= 1
C1824: + x15 + x187 <= 1
C1825: + x9 + x350 <= 1
C1826: + x56 + x77 <= 1
C1827: + x5 + x117 <= 1
C1828: + x23 + x384 <= 1
C1829: + x296 + x478 <= 1
C1830: + x147 + x440 <= 1
C1831: + x105 + x409 <= 1
C1832: + x7 + x135 <= 1
C1833: + x19 + x400 <= 1
C1834: + x19 + x89 <= 1
C1835: + x8 + x269 <= 1
C1836: + x39 + x416 <= 1
C1837: + x45 + x115 <= 1
C1838: + x18 + x246 <= 1
C1839: + x1 + x44 <= 1
C1840: + x72 + x319 <= 1
C1841: + x25 + x162 <= 1
C1842: + x35 + x185 <= 1
C1843: + x7 + x18 <= 1
C1844: + x80 + x143 <= 1
C1845: + x76 + x231 <= 1
C1846: + x184 + x346 <= 1
C1847: + x15 + x114 <= 1
C1848: + x73 + x217 <= 1
C1849: + x18 + x135 <= 1
C1850: + x381 + x498 <= 1
C1851: + x111 + x166 <= 1
C1852: + x113 + x261 <= 1
C1853: + x33 + x399 <= 1
C1854: + x72 + x371 <= 1
C1855: + x77 + x435 <= 1
C1856: + x26 + x98 <= 1
C1857: + x200 + x402 <= 1
C1858: + x121 + x471 <= 1
C1859: + x61 + x359 <= 1
C1860: + x14 + x292 <= 1
C1861: + x13 + x313 <= 1
C1862: + x25 + x58 <= 1
C1863: + x363 + x377 <= 1
C1864: + x109 + x448 <= 1
C1865: + x96 + x301 <= 1
C1866: + x275 + x490 <= 1
C1867: + x260 + x328 <= 1
C1868: + x25 + x343 <= 1
C1869: + x207 + x394 <= 1
C1870: + x44 + x403 <= 1
C1871: + x119 + x225 <= 1
C1872: + x64 + x107 <= 1
C1873: + x282 + x298 <= 1
C1874: + x15 + x202 <= 1
C1875: + x46 + x100 <= 1
C1876: + x98 + x111 <= 1
C1877: + x17 + x419 <= 1
C1878: + x62 + x65 <= 1
C1879: + x447 + x498 <= 1
C1880: + x32 + x184 <= 1
C1881: + x32 + x259 <= 1
C1882: + x107 + x245 <= 1
C1883: + x236 + x281 <= 1
C1884: + x273 + x303 <= 1
C1885: + x18 + x27 <= 1
C1886: + x34 + x266 <= 1
C1887: + x237 + x427 <= 1
C1888: + x5 + x55 <= 1
C1889: + x103 + x347 <= 1
C1890: + x12 + x45 <= 1
C1891: + x30 + x91 <= 1
C1892: + x134 + x138 <= 1
C1893: + x172 + x392 <= 1
C1894: + x50 + x242 <= 1
C1895: + x11 + x12 <= 1
C1896: + x397 + x470 <= 1
C1897: + x163 + x433 <= 1
C1898: + x57 + x233 <= 1
C1899: + x163 + x278 <= 1
C1900: + x100 + x267 <= 1
C1901: + x11 + x237 <= 1
C1902: + x188 + x264 <= 1
C1903: + x5 + x440 <= 1
C1904: + x34 + x137 <= 1
C1905: + x2 + x317 <= 1
C1906: + x158 + x495 <= 1
C1907: + x77 + x414 <= 1
C1908: + x155 + x211 <= 1
C1909: + x246 + x276 <= 1
C1910: + x300 + x334 <= 1
C1911: + x5 + x10 <= 1
C1912: + x15 + x262 <= 1
C1913: + x120 + x236 <= 1
C1914: + x242 + x428 <= 1
C1915: + x142 + x348 <= 1
C1916: + x15 + x68 <= 1
C1917: + x85 + x175 <= 1
C1918: + x5 + x395 <= 1
C1919: + x273 + x294 <= 1
C1920: + x244 + x370 <= 1
C1921: + x62 + x203 <= 1
C1922: + x71 + x256 <= 1
C1923: + x55 + x399 <= 1
C1924: + x76 + x193 <= 1
C1925: + x95 + x189 <= 1
C1926: + x99 + x164 <= 1
C1927: + x18 + x44 + x82 <= 1
C1928: + x248 + x412 <= 1
C1929: + x39 + x50 <= 1
C1930: + x13 + x61 <= 1
C1931: + x304 + x422 <= 1
C1932: + x26 + x29 <= 1
C1933: + x9 + x101 <= 1
C1934: + x151 + x310 <= 1
C1935: + x18 + x80 <= 1
C1936: + x19 + x344 <= 1
C1937: + x5 + x340 <= 1
C1938: + x17 + x485 <= 1
C1939: + x11 + x103 <= 1
C1940: + x225 + x264 <= 1
C1941: + x17 + x215 <= 1
C1942: + x66 + x487 <= 1
C1943: + x85 + x327 <= 1
C1944: + x2 + x167 <= 1
C1945: + x59 + x306 <= 1
C1946: + x33 + x234 <= 1
C1947: + x16 + x38 <= 1
C1948: + x66 + x130 <= 1

binary
x1 x2 x3 x4 x5 x6 x7 x8 x9 x10 x11 x12 x13 x14 x15 x16 x17 x18 x19 x20 x21 x22 x23 x24 x25 x26 x27 x28 x29 x30 x31 x32 x33 x34 x35 x36 x37 x38 x39 x40 x41 x42 x43 x44 x45 x46 x47 x48 x49 x50 x51 x52 x53 x54 x55 x56 x57 x58 x59 x60 x61 x62 x63 x64 x65 x66 x67 x68 x69 x70 x71 x72 x73 x74 x75 x76 x77 x78 x79 x80 x81 x82 x83 x84 x85 x86 x87 x88 x89 x90 x91 x92 x93 x94 x95 x96 x97 x98 x99 x100 x101 x102 x103 x104 x105 x106 x107 x108 x109 x110 x111 x112 x113 x114 x115 x116 x117 x118 x119 x120 x121 x122 x123 x124 x125 x126 x127 x128 x129 x130 x131 x132 x133 x134 x135 x136 x137 x138 x139 x140 x141 x142 x143 x144 x145 x146 x147 x148 x149 x150 x151 x152 x153 x154 x155 x156 x157 x158 x159 x160 x161 x162 x163 x164 x165 x166 x167 x168 x169 x170 x171 x172 x173 x174 x175 x176 x177 x178 x179 x180 x181 x182 x183 x184 x185 x186 x187 x188 x189 x190 x191 x192 x193 x194 x195 x196 x197 x198 x199 x200 x201 x202 x203 x204 x205 x206 x207 x208 x209 x210 x211 x212 x213 x214 x215 x216 x217 x218 x219 x220 x221 x222 x223 x224 x225 x226 x227 x228 x229 x230 x231 x232 x233 x234 x235 x236 x237 x238 x239 x240 x241 x242 x243 x244 x245 x246 x247 x248 x249 x250 x251 x252 x253 x254 x255 x256 x257 x258 x259 x260 x261 x262 x263 x264 x265 x266 x267 x268 x269 x270 x271 x272 x273 x274 x275 x276 x277 x278 x279 x280 x281 x282 x283 x284 x285 x286 x287 x288 x289 x290 x291 x292 x293 x294 x295 x296 x297 x298 x299 x300 x301 x302 x303 x304 x305 x306 x307 x308 x309 x310 x311 x312 x313 x314 x315 x316 x317 x318 x319 x320 x321 x322 x323 x324 x325 x326 x327 x328 x329 x330 x331 x332 x333 x334 x335 x336 x337 x338 x339 x340 x341 x342 x343 x344 x345 x346 x347 x348 x349 x350 x351 x352 x353 x354 x355 x356 x357 x358 x359 x360 x361 x362 x363 x364 x365 x366 x367 x368 x369 x370 x371 x372 x373 x374 x375 x376 x377 x378 x379 x380 x381 x382 x383 x384 x385 x386 x387 x388 x389 x390 x391 x392 x393 x394 x395 x396 x397 x398 x399 x400 x401 x402 x403 x404 x405 x406 x407 x408 x409 x410 x411 x412 x413 x414 x415 x416 x417 x418 x419 x420 x421 x422 x423 x424 x425 x426 x427 x428 x429 x430 x431 x432 x433 x434 x435 x436 x437 x438 x439 x440 x441 x442 x443 x444 x445 x446 x447 x448 x449 x450 x451 x452 x453 x454 x455 x456 x457 x458 x459 x460 x461 x462 x463 x464 x465 x466 x467 x468 x469 x470 x471 x472 x473 x474 x475 x476 x477 x478 x479 x480 x481 x482 x483 x484 x485 x486 x487 x488 x489 x490 x491 x492 x493 x494 x495 x496 x497 x498 x499 x500
