maximize
OBJ: + 1 x1 + 1 x2 + 1 x3 + 1 x4 + 1 x5 + 1 x6 + 1 x7 + 1 x8 + 1 x9 + 1 x10 + 1 x11 + 1 x12 + 1 x13 + 1 x14 + 1 x15 + 1 x16 + 1 x17 + 1 x18 + 1 x19 + 1 x20 + 1 x21 + 1 x22 + 1 x23 + 1 x24 + 1 x25 + 1 x26 + 1 x27 + 1 x28 + 1 x29 + 1 x30 + 1 x31 + 1 x32 + 1 x33 + 1 x34 + 1 x35 + 1 x36 + 1 x37 + 1 x38 + 1 x39 + 1 x40 + 1 x41 + 1 x42 + 1 x43 + 1 x44 + 1 x45 + 1 x46 + 1 x47 + 1 x48 + 1 x49 + 1 x50 + 1 x51 + 1 x52 + 1 x53 + 1 x54 + 1 x55 + 1 x56 + 1 x57 + 1 x58 + 1 x59 + 1 x60 + 1 x61 + 1 x62 + 1 x63 + 1 x64 + 1 x65 + 1 x66 + 1 x67 + 1 x68 + 1 x69 + 1 x70 + 1 x71 + 1 x72 + 1 x73 + 1 x74 + 1 x75 + 1 x76 + 1 x77 + 1 x78 + 1 x79 + 1 x80 + 1 x81 + 1 x82 + 1 x83 + 1 x84 + 1 x85 + 1 x86 + 1 x87 + 1 x88 + 1 x89 + 1 x90 + 1 x91 + 1 x92 + 1 x93 + 1 x94 + 1 x95 + 1 x96 + 1 x97 + 1 x98 + 1 x99 + 1 x100 + 1 x101 + 1 x102 + 1 x103 + 1 x104 + 1 x105 + 1 x106 + 1 x107 + 1 x108 + 1 x109 + 1 x110 + 1 x111 + 1 x112 + 1 x113 + 1 x114 + 1 x115 + 1 x116 + 1 x117 + 1 x118 + 1 x119 + 1 x120 + 1 x121 + 1 x122 + 1 x123 + 1 x124 + 1 x125 + 1 x126 + 1 x127 + 1 x128 + 1 x129 + 1 x130 + 1 x131 + 1 x132 + 1 x133 + 1 x134 + 1 x135 + 1 x136 + 1 x137 + 1 x138 + 1 x139 + 1 x140 + 1 x141 + 1 x142 + 1 x143 + 1 x144 + 1 x145 + 1 x146 + 1 x147 + 1 x148 + 1 x149 + 1 x150 + 1 x151 + 1 x152 + 1 x153 + 1 x154 + 1 x155 + 1 x156 + 1 x157 + 1 x158 + 1 x159 + 1 x160 + 1 x161 + 1 x162 + 1 x163 + 1 x164 + 1 x165 + 1 x166 + 1 x167 + 1 x168 + 1 x169 + 1 x170 + 1 x171 + 1 x172 + 1 x173 + 1 x174 + 1 x175 + 1 x176 + 1 x177 + 1 x178 + 1 x179 + 1 x180 + 1 x181 + 1 x182 + 1 x183 + 1 x184 + 1 x185 + 1 x186 + 1 x187 + 1 x188 + 1 x189 + 1 x190 + 1 x191 + 1 x192 + 1 x193 + 1 x194 + 1 x195 + 1 x196 + 1 x197 + 1 x198 + 1 x199 + 1 x200 + 1 x201 + 1 x202 + 1 x203 + 1 x204 + 1 x205 + 1 x206 + 1 x207 + 1 x208 + 1 x209 + 1 x210 + 1 x211 + 1 x212 + 1 x213 + 1 x214 + 1 x215 + 1 x216 + 1 x217 + 1 x218 + 1 x219 + 1 x220 + 1 x221 + 1 x222 + 1 x223 + 1 x224 + 1 x225 + 1 x226 + 1 x227 + 1 x228 + 1 x229 + 1 x230 + 1 x231 + 1 x232 + 1 x233 + 1 x234 + 1 x235 + 1 x236 + 1 x237 + 1 x238 + 1 x239 + 1 x240 + 1 x241 + 1 x242 + 1 x243 + 1 x244 + 1 x245 + 1 x246 + 1 x247 + 1 x248 + 1 x249 + 1 x250 + 1 x251 + 1 x252 + 1 x253 + 1 x254 + 1 x255 + 1 x256 + 1 x257 + 1 x258 + 1 x259 + 1 x260 + 1 x261 + 1 x262 + 1 x263 + 1 x264 + 1 x265 + 1 x266 + 1 x267 + 1 x268 + 1 x269 + 1 x270 + 1 x271 + 1 x272 + 1 x273 + 1 x274 + 1 x275 + 1 x276 + 1 x277 + 1 x278 + 1 x279 + 1 x280 + 1 x281 + 1 x282 + 1 x283 + 1 x284 + 1 x285 + 1 x286 + 1 x287 + 1 x288 + 1 x289 + 1 x290 + 1 x291 + 1 x292 + 1 x293 + 1 x294 + 1 x295 + 1 x296 + 1 x297 + 1 x298 + 1 x299 + 1 x300 + 1 x301 + 1 x302 + 1 x303 + 1 x304 + 1 x305 + 1 x306 + 1 x307 + 1 x308 + 1 x309 + 1 x310 + 1 x311 + 1 x312 + 1 x313 + 1 x314 + 1 x315 + 1 x316 + 1 x317 + 1 x318 + 1 x319 + 1 x320 + 1 x321 + 1 x322 + 1 x323 + 1 x324 + 1 x325 + 1 x326 + 1 x327 + 1 x328 + 1 x329 + 1 x330 + 1 x331 + 1 x332 + 1 x333 + 1 x334 + 1 x335 + 1 x336 + 1 x337 + 1 x338 + 1 x339 + 1 x340 + 1 x341 + 1 x342 + 1 x343 + 1 x344 + 1 x345 + 1 x346 + 1 x347 + 1 x348 + 1 x349 + 1 x350 + 1 x351 + 1 x352 + 1 x353 + 1 x354 + 1 x355 + 1 x356 + 1 x357 + 1 x358 + 1 x359 + 1 x360 + 1 x361 + 1 x362 + 1 x363 + 1 x364 + 1 x365 + 1 x366 + 1 x367 + 1 x368 + 1 x369 + 1 x370 + 1 x371 + 1 x372 + 1 x373 + 1 x374 + 1 x375 + 1 x376 + 1 x377 + 1 x378 + 1 x379 + 1 x380 + 1 x381 + 1 x382 + 1 x383 + 1 x384 + 1 x385 + 1 x386 + 1 x387 + 1 x388 + 1 x389 + 1 x390 + 1 x391 + 1 x392 + 1 x393 + 1 x394 + 1 x395 + 1 x396 + 1 x397 + 1 x398 + 1 x399 + 1 x400 + 1 x401 + 1 x402 + 1 x403 + 1 x404 + 1 x405 + 1 x406 + 1 x407 + 1 x408 + 1 x409 + 1 x410 + 1 x411 + 1 x412 + 1 x413 + 1 x414 + 1 x415 + 1 x416 + 1 x417 + 1 x418 + 1 x419 + 1 x420 + 1 x421 + 1 x422 + 1 x423 + 1 x424 + 1 x425 + 1 x426 + 1 x427 + 1 x428 + 1 x429 + 1 x430 + 1 x431 + 1 x432 + 1 x433 + 1 x434 + 1 x435 + 1 x436 + 1 x437 + 1 x438 + 1 x439 + 1 x440 + 1 x441 + 1 x442 + 1 x443 + 1 x444 + 1 x445 + 1 x446 + 1 x447 + 1 x448 + 1 x449 + 1 x450 + 1 x451 + 1 x452 + 1 x453 + 1 x454 + 1 x455 + 1 x456 + 1 x457 + 1 x458 + 1 x459 + 1 x460 + 1 x461 + 1 x462 + 1 x463 + 1 x464 + 1 x465 + 1 x466 + 1 x467 + 1 x468 + 1 x469 + 1 x470 + 1 x471 + 1 x472 + 1 x473 + 1 x474 + 1 x475 + 1 x476 + 1 x477 + 1 x478 + 1 x479 + 1 x480 + 1 x481 + 1 x482 + 1 x483 + 1 x484 + 1 x485 + 1 x486 + 1 x487 + 1 x488 + 1 x489 + 1 x490 + 1 x491 + 1 x492 + 1 x493 + 1 x494 + 1 x495 + 1 x496 + 1 x497 + 1 x498 + 1 x499 + 1 x500

subject to
C1: + x195 + x296 <= 1
C2: + x224 + x327 <= 1
C3: + x191 + x449 <= 1
C4: + x28 + x47 <= 1
C5: + x69 + x304 <= 1
C6: + x51 + x454 <= 1
C7: + x24 + x265 <= 1
C8: + x6 + x270 <= 1
C9: + x53 + x95 <= 1
C10: + x10 + x184 <= 1
C11: + x49 + x87 <= 1
C12: + x21 + x445 <= 1
C13: + x6 + x196 <= 1
C14: + x355 + x488 <= 1
C15: + x27 + x121 <= 1
C16: + x1 + x252 <= 1
C17: + x66 + x420 <= 1
C18: + x362 + x368 <= 1
C19: + x134 + x269 <= 1
C20: + x245 + x416 <= 1
C21: + x213 + x268 <= 1
C22: + x6 + x85 <= 1
C23: + x74 + x159 <= 1
C24: + x11 + x98 <= 1
C25: + x93 + x220 <= 1
C26: + x261 + x309 <= 1
C27: + x1 + x56 <= 1
C28: + x93 + x121 <= 1
C29: + x300 + x487 <= 1
C30: + x294 + x298 <= 1
C31: + x46 + x300 <= 1
C32: + x231 + x293 <= 1
C33: + x1 + x469 <= 1
C34: + x66 + x155 <= 1
C35: + x56 + x140 <= 1
C36: + x33 + x78 <= 1
C37: + x27 + x451 <= 1
C38: + x54 + x63 <= 1
C39: + x384 + x494 <= 1
C40: + x77 + x370 <= 1
C41: + x205 + x447 <= 1
C42: + x302 + x427 <= 1
C43: + x259 + x347 <= 1
C44: + x17 + x39 <= 1
C45: + x7 + x42 <= 1
C46: + x229 + x295 <= 1
C47: + x47 + x294 <= 1
C48: + x112 + x346 <= 1
C49: + x133 + x307 <= 1
C50: + x6 + x205 <= 1
C51: + x25 + x487 <= 1
C52: + x82 + x351 <= 1
C53: + x287 + x373 <= 1
C54: + x20 + x262 <= 1
C55: + x450 + x467 <= 1
C56: + x52 + x387 <= 1
C57: + x9 + x19 <= 1
C58: + x103 + x444 <= 1
C59: + x170 + x391 <= 1
C60: + x54 + x116 <= 1
C61: + x56 + x479 <= 1
C62: + x70 + x358 <= 1
C63: + x6 + x241 <= 1
C64: + x1 + x15 <= 1
C65: + x105 + x182 <= 1
C66: + x60 + x103 <= 1
C67: + x218 + x302 <= 1
C68: + x135 + x186 <= 1
C69: + x28 + x299 <= 1
C70: + x56 + x129 <= 1
C71: + x122 + x418 <= 1
C72: + x20 + x484 <= 1
C73: + x259 + x419 <= 1
C74: + x25 + x34 <= 1
C75: + x142 + x170 <= 1
C76: + x288 + x324 <= 1
C77: + x109 + x344 <= 1
C78: + x271 + x394 <= 1
C79: + x171 + x230 <= 1
C80: + x44 + x114 <= 1
C81: + x9 + x46 <= 1
C82: + x8 + x16 <= 1
C83: + x140 + x457 <= 1
C84: + x13 + x91 <= 1
C85: + x40 + x359 <= 1
C86: + x7 + x33 <= 1
C87: + x11 + x403 <= 1
C88: + x138 + x235 <= 1
C89: + x47 + x301 <= 1
C90: + x195 + x462 <= 1
C91: + x6 + x54 <= 1
C92: + x142 + x158 <= 1
C93: + x82 + x344 <= 1
C94: + x73 + x168 <= 1
C95: + x38 + x349 <= 1
C96: + x23 + x278 <= 1
C97: + x47 + x235 <= 1
C98: + x107 + x395 <= 1
C99: + x7 + x93 <= 1
C100: + x101 + x272 <= 1
C101: + x172 + x416 <= 1
C102: + x10 + x457 <= 1
C103: + x105 + x288 <= 1
C104: + x73 + x297 <= 1
C105: + x1 + x6 <= 1
C106: + x28 + x133 <= 1
C107: + x320 + x323 <= 1
C108: + x17 + x89 <= 1
C109: + x18 + x111 <= 1
C110: + x3 + x8 <= 1
C111: + x30 + x498 <= 1
C112: + x333 + x405 <= 1
C113: + x292 + x321 <= 1
C114: + x158 + x277 <= 1
C115: + x39 + x195 <= 1
C116: + x13 + x415 <= 1
C117: + x107 + x450 <= 1
C118: + x5 + x260 <= 1
C119: + x36 + x305 <= 1
C120: + x7 + x28 <= 1
C121: + x82 + x91 <= 1
C122: + x79 + x172 <= 1
C123: + x35 + x264 <= 1
C124: + x10 + x60 <= 1
C125: + x19 + x23 <= 1
C126: + x105 + x248 <= 1
C127: + x41 + x56 <= 1
C128: + x18 + x44 <= 1
C129: + x38 + x57 <= 1
C130: + x21 + x97 <= 1
C131: + x231 + x383 <= 1
C132: + x340 + x409 <= 1
C133: + x12 + x449 <= 1
C134: + x151 + x179 <= 1
C135: + x15 + x27 <= 1
C136: + x92 + x332 <= 1
C137: + x55 + x126 <= 1
C138: + x33 + x484 <= 1
C139: + x96 + x150 <= 1
C140: + x7 + x241 <= 1
C141: + x118 + x366 <= 1
C142: + x1 + x29 <= 1
C143: + x48 + x87 <= 1
C144: + x25 + x147 <= 1
C145: + x244 + x263 <= 1
C146: + x55 + x237 <= 1
C147: + x403 + x412 <= 1
C148: + x52 + x175 <= 1
C149: + x88 + x138 <= 1
C150: + x5 + x25 <= 1
C151: + x26 + x182 <= 1
C152: + x153 + x375 <= 1
C153: + x391 + x400 <= 1
C154: + x69 + x417 <= 1
C155: + x205 + x265 <= 1
C156: + x72 + x225 <= 1
C157: + x38 + x81 <= 1
C158: + x239 + x326 <= 1
C159: + x376 + x413 <= 1
C160: + x6 + x40 <= 1
C161: + x107 + x348 <= 1
C162: + x10 + x160 <= 1
C163: + x11 + x280 <= 1
C164: + x30 + x69 <= 1
C165: + x40 + x329 <= 1
C166: + x199 + x271 <= 1
C167: + x365 + x496 <= 1
C168: + x3 + x103 <= 1
C169: + x1 + x20 <= 1
C170: + x361 + x384 <= 1
C171: + x34 + x243 <= 1
C172: + x326 + x469 <= 1
C173: + x20 + x68 <= 1
C174: + x33 + x106 <= 1
C175: + x180 + x491 <= 1
C176: + x71 + x187 <= 1
C177: + x6 + x125 <= 1
C178: + x197 + x328 <= 1
C179: + x95 + x405 <= 1
C180: + x96 + x433 <= 1
C181: + x24 + x56 <= 1
C182: + x3 + x46 <= 1
C183: + x76 + x155 <= 1
C184: + x122 + x385 <= 1
C185: + x6 + x33 <= 1
C186: + x28 + x96 <= 1
C187: + x192 + x310 <= 1
C188: + x203 + x439 <= 1
C189: + x40 + x88 <= 1
C190: + x25 + x288 <= 1
C191: + x24 + x165 <= 1
C192: + x10 + x129 <= 1
C193: + x30 + x393 <= 1
C194: + x25 + x114 <= 1
C195: + x26 + x102 <= 1
C196: + x6 + x434 <= 1
C197: + x65 + x217 <= 1
C198: + x18 + x449 <= 1
C199: + x74 + x164 <= 1
C200: + x2 + x399 <= 1
C201: + x27 + x108 <= 1
C202: + x10 + x18 <= 1
C203: + x49 + x53 <= 1
C204: + x12 + x185 <= 1
C205: + x29 + x193 <= 1
C206: + x6 + x451 <= 1
C207: + x236 + x340 <= 1
C208: + x10 + x333 <= 1
C209: + x183 + x383 <= 1
C210: + x231 + x234 <= 1
C211: + x258 + x281 <= 1
C212: + x349 + x480 <= 1
C213: + x6 + x102 <= 1
C214: + x44 + x364 <= 1
C215: + x261 + x423 <= 1
C216: + x410 + x480 <= 1
C217: + x158 + x256 <= 1
C218: + x295 + x352 <= 1
C219: + x25 + x347 <= 1
C220: + x105 + x289 <= 1
C221: + x2 + x28 + x202 <= 1
C222: + x71 + x420 <= 1
C223: + x158 + x387 <= 1
C224: + x40 + x256 <= 1
C225: + x33 + x224 <= 1
C226: + x32 + x378 <= 1
C227: + x251 + x466 <= 1
C228: + x61 + x65 <= 1
C229: + x7 + x13 <= 1
C230: + x335 + x370 <= 1
C231: + x10 + x47 <= 1
C232: + x76 + x127 <= 1
C233: + x68 + x430 <= 1
C234: + x5 + x51 <= 1
C235: + x125 + x248 <= 1
C236: + x334 + x368 <= 1
C237: + x28 + x244 <= 1
C238: + x55 + x166 <= 1
C239: + x123 + x192 <= 1
C240: + x40 + x383 <= 1
C241: + x209 + x246 <= 1
C242: + x99 + x452 <= 1
C243: + x327 + x334 <= 1
C244: + x55 + x71 <= 1
C245: + x176 + x326 <= 1
C246: + x25 + x406 <= 1
C247: + x137 + x346 <= 1
C248: + x3 + x286 <= 1
C249: + x5 + x436 <= 1
C250: + x6 + x111 <= 1
C251: + x7 + x117 <= 1
C252: + x10 + x465 <= 1
C253: + x14 + x31 <= 1
C254: + x125 + x398 <= 1
C255: + x16 + x134 <= 1
C256: + x10 + x199 <= 1
C257: + x54 + x371 <= 1
C258: + x7 + x8 <= 1
C259: + x38 + x76 <= 1
C260: + x95 + x117 <= 1
C261: + x60 + x179 <= 1
C262: + x5 + x133 <= 1
C263: + x28 + x46 <= 1
C264: + x211 + x264 <= 1
C265: + x13 + x197 <= 1
C266: + x69 + x301 <= 1
C267: + x60 + x274 <= 1
C268: + x132 + x298 <= 1
C269: + x218 + x336 <= 1
C270: + x153 + x163 <= 1
C271: + x86 + x392 <= 1
C272: + x267 + x292 <= 1
C273: + x40 + x376 <= 1
C274: + x61 + x148 <= 1
C275: + x127 + x348 <= 1
C276: + x55 + x387 <= 1
C277: + x52 + x286 <= 1
C278: + x5 + x201 <= 1
C279: + x189 + x318 <= 1
C280: + x274 + x319 <= 1
C281: + x38 + x174 <= 1
C282: + x41 + x96 <= 1
C283: + x185 + x187 <= 1
C284: + x5 + x110 <= 1
C285: + x260 + x297 <= 1
C286: + x122 + x186 <= 1
C287: + x213 + x428 <= 1
C288: + x197 + x302 <= 1
C289: + x49 + x144 <= 1
C290: + x251 + x369 <= 1
C291: + x91 + x116 <= 1
C292: + x164 + x284 <= 1
C293: + x7 + x112 <= 1
C294: + x2 + x32 <= 1
C295: + x93 + x217 <= 1
C296: + x56 + x453 <= 1
C297: + x29 + x326 <= 1
C298: + x5 + x253 <= 1
C299: + x24 + x305 <= 1
C300: + x175 + x285 <= 1
C301: + x288 + x457 <= 1
C302: + x10 + x208 <= 1
C303: + x76 + x416 <= 1
C304: + x23 + x337 <= 1
C305: + x194 + x436 <= 1
C306: + x177 + x470 <= 1
C307: + x169 + x307 <= 1
C308: + x23 + x62 <= 1
C309: + x62 + x111 <= 1
C310: + x5 + x6 + x7 + x10 <= 1
C311: + x10 + x89 <= 1
C312: + x66 + x364 <= 1
C313: + x40 + x67 <= 1
C314: + x108 + x241 <= 1
C315: + x44 + x433 <= 1
C316: + x24 + x180 <= 1
C317: + x54 + x272 <= 1
C318: + x62 + x381 <= 1
C319: + x101 + x125 <= 1
C320: + x10 + x188 <= 1
C321: + x12 + x95 <= 1
C322: + x17 + x36 <= 1
C323: + x54 + x163 <= 1
C324: + x422 + x474 <= 1
C325: + x159 + x242 <= 1
C326: + x112 + x180 <= 1
C327: + x5 + x418 <= 1
C328: + x175 + x459 <= 1
C329: + x32 + x456 <= 1
C330: + x5 + x327 <= 1
C331: + x14 + x17 <= 1
C332: + x24 + x245 <= 1
C333: + x160 + x397 <= 1
C334: + x84 + x90 <= 1
C335: + x47 + x80 <= 1
C336: + x129 + x497 <= 1
C337: + x4 + x7 <= 1
C338: + x82 + x433 <= 1
C339: + x3 + x50 <= 1
C340: + x79 + x146 <= 1
C341: + x7 + x147 <= 1
C342: + x10 + x399 <= 1
C343: + x15 + x82 <= 1
C344: + x48 + x53 <= 1
C345: + x180 + x229 <= 1
C346: + x290 + x306 <= 1
C347: + x6 + x371 <= 1
C348: + x9 + x43 <= 1
C349: + x20 + x153 <= 1
C350: + x8 + x19 <= 1
C351: + x10 + x189 <= 1
C352: + x13 + x485 <= 1
C353: + x151 + x361 <= 1
C354: + x82 + x109 <= 1
C355: + x8 + x434 <= 1
C356: + x66 + x171 <= 1
C357: + x17 + x27 <= 1
C358: + x5 + x191 <= 1
C359: + x10 + x14 <= 1
C360: + x11 + x134 <= 1
C361: + x5 + x84 <= 1
C362: + x79 + x436 <= 1
C363: + x9 + x23 <= 1
C364: + x190 + x202 <= 1
C365: + x181 + x213 + x454 <= 1
C366: + x223 + x247 <= 1
C367: + x6 + x90 <= 1
C368: + x7 + x90 <= 1
C369: + x40 + x61 <= 1
C370: + x217 + x375 <= 1
C371: + x6 + x253 <= 1
C372: + x128 + x192 <= 1
C373: + x38 + x132 <= 1
C374: + x115 + x366 <= 1
C375: + x24 + x81 <= 1
C376: + x101 + x404 <= 1
C377: + x56 + x157 <= 1
C378: + x29 + x30 <= 1
C379: + x42 + x100 <= 1
C380: + x33 + x89 <= 1
C381: + x19 + x104 <= 1
C382: + x48 + x62 <= 1
C383: + x6 + x380 <= 1
C384: + x71 + x444 <= 1
C385: + x151 + x391 <= 1
C386: + x28 + x224 <= 1
C387: + x178 + x293 <= 1
C388: + x17 + x18 <= 1
C389: + x7 + x37 <= 1
C390: + x142 + x311 <= 1
C391: + x11 + x44 <= 1
C392: + x56 + x288 <= 1
C393: + x34 + x411 <= 1
C394: + x423 + x460 <= 1
C395: + x3 + x9 + x16 <= 1
C396: + x3 + x226 <= 1
C397: + x150 + x485 <= 1
C398: + x37 + x164 <= 1
C399: + x12 + x57 <= 1
C400: + x21 + x102 <= 1
C401: + x33 + x132 <= 1
C402: + x6 + x67 <= 1
C403: + x7 + x81 <= 1
C404: + x335 + x393 <= 1
C405: + x3 + x145 <= 1
C406: + x346 + x421 <= 1
C407: + x29 + x248 <= 1
C408: + x12 + x138 <= 1
C409: + x94 + x373 <= 1
C410: + x32 + x347 <= 1
C411: + x200 + x308 <= 1
C412: + x38 + x112 <= 1
C413: + x6 + x119 <= 1
C414: + x11 + x68 <= 1
C415: + x93 + x250 <= 1
C416: + x48 + x59 <= 1
C417: + x94 + x230 <= 1
C418: + x153 + x191 <= 1
C419: + x6 + x357 <= 1
C420: + x30 + x52 <= 1
C421: + x13 + x78 <= 1
C422: + x304 + x469 <= 1
C423: + x25 + x92 <= 1
C424: + x108 + x458 <= 1
C425: + x9 + x438 <= 1
C426: + x21 + x33 + x209 <= 1
C427: + x129 + x168 <= 1
C428: + x14 + x72 <= 1
C429: + x208 + x424 <= 1
C430: + x18 + x141 <= 1
C431: + x3 + x414 <= 1
C432: + x12 + x50 <= 1
C433: + x30 + x72 <= 1
C434: + x48 + x238 <= 1
C435: + x231 + x371 <= 1
C436: + x17 + x453 <= 1
C437: + x241 + x492 <= 1
C438: + x54 + x66 <= 1
C439: + x22 + x278 <= 1
C440: + x28 + x400 <= 1
C441: + x38 + x467 <= 1
C442: + x30 + x342 <= 1
C443: + x61 + x361 <= 1
C444: + x417 + x466 <= 1
C445: + x7 + x314 <= 1
C446: + x19 + x199 <= 1
C447: + x55 + x328 <= 1
C448: + x129 + x454 <= 1
C449: + x30 + x249 <= 1
C450: + x5 + x118 <= 1
C451: + x61 + x123 <= 1
C452: + x1 + x446 <= 1
C453: + x139 + x362 <= 1
C454: + x61 + x224 <= 1
C455: + x6 + x128 <= 1
C456: + x34 + x89 <= 1
C457: + x338 + x394 <= 1
C458: + x10 + x117 <= 1
C459: + x28 + x476 <= 1
C460: + x29 + x382 <= 1
C461: + x68 + x120 <= 1
C462: + x140 + x160 <= 1
C463: + x53 + x301 <= 1
C464: + x109 + x322 <= 1
C465: + x145 + x312 <= 1
C466: + x82 + x309 <= 1
C467: + x20 + x176 <= 1
C468: + x49 + x119 <= 1
C469: + x40 + x198 <= 1
C470: + x61 + x79 <= 1
C471: + x205 + x261 <= 1
C472: + x7 + x23 <= 1
C473: + x303 + x482 <= 1
C474: + x181 + x393 <= 1
C475: + x47 + x323 <= 1
C476: + x86 + x278 <= 1
C477: + x53 + x67 <= 1
C478: + x326 + x429 <= 1
C479: + x76 + x292 <= 1
C480: + x3 + x405 <= 1
C481: + x68 + x150 <= 1
C482: + x3 + x99 <= 1
C483: + x145 + x174 <= 1
C484: + x260 + x314 <= 1
C485: + x66 + x123 <= 1
C486: + x11 + x328 <= 1
C487: + x3 + x22 <= 1
C488: + x69 + x210 <= 1
C489: + x6 + x121 <= 1
C490: + x15 + x207 <= 1
C491: + x54 + x365 <= 1
C492: + x121 + x257 <= 1
C493: + x158 + x390 <= 1
C494: + x199 + x330 <= 1
C495: + x72 + x214 <= 1
C496: + x41 + x397 <= 1
C497: + x22 + x439 <= 1
C498: + x243 + x249 <= 1
C499: + x82 + x236 <= 1
C500: + x266 + x440 <= 1
C501: + x242 + x259 <= 1
C502: + x5 + x56 <= 1
C503: + x55 + x167 <= 1
C504: + x112 + x495 <= 1
C505: + x7 + x70 <= 1
C506: + x202 + x398 <= 1
C507: + x84 + x160 <= 1
C508: + x374 + x442 <= 1
C509: + x50 + x84 <= 1
C510: + x10 + x22 <= 1
C511: + x37 + x304 <= 1
C512: + x215 + x390 <= 1
C513: + x56 + x225 <= 1
C514: + x30 + x110 <= 1
C515: + x89 + x322 <= 1
C516: + x17 + x495 <= 1
C517: + x234 + x315 <= 1
C518: + x232 + x341 <= 1
C519: + x78 + x279 <= 1
C520: + x5 + x11 <= 1
C521: + x98 + x246 <= 1
C522: + x6 + x352 <= 1
C523: + x9 + x206 <= 1
C524: + x174 + x185 <= 1
C525: + x223 + x341 <= 1
C526: + x44 + x253 <= 1
C527: + x56 + x181 <= 1
C528: + x49 + x279 <= 1
C529: + x422 + x496 <= 1
C530: + x5 + x154 <= 1
C531: + x6 + x22 <= 1
C532: + x109 + x364 <= 1
C533: + x237 + x382 <= 1
C534: + x57 + x439 <= 1
C535: + x275 + x406 <= 1
C536: + x246 + x295 <= 1
C537: + x31 + x40 <= 1
C538: + x15 + x343 <= 1
C539: + x16 + x77 <= 1
C540: + x121 + x212 <= 1
C541: + x30 + x83 <= 1
C542: + x5 + x297 <= 1
C543: + x160 + x357 <= 1
C544: + x265 + x275 <= 1
C545: + x29 + x220 <= 1
C546: + x306 + x465 <= 1
C547: + x23 + x258 <= 1
C548: + x44 + x58 <= 1
C549: + x28 + x260 <= 1
C550: + x161 + x417 <= 1
C551: + x62 + x158 <= 1
C552: + x64 + x293 <= 1
C553: + x112 + x287 <= 1
C554: + x14 + x27 <= 1
C555: + x5 + x242 <= 1
C556: + x129 + x487 <= 1
C557: + x38 + x149 <= 1
C558: + x239 + x386 <= 1
C559: + x47 + x66 <= 1
C560: + x103 + x282 <= 1
C561: + x33 + x294 <= 1
C562: + x320 + x343 <= 1
C563: + x13 + x447 <= 1
C564: + x6 + x31 <= 1
C565: + x5 + x38 <= 1
C566: + x107 + x232 <= 1
C567: + x30 + x44 <= 1
C568: + x13 + x499 <= 1
C569: + x6 + x432 <= 1
C570: + x45 + x306 <= 1
C571: + x66 + x221 <= 1
C572: + x66 + x264 <= 1
C573: + x439 + x445 <= 1
C574: + x12 + x336 <= 1
C575: + x80 + x443 <= 1
C576: + x91 + x314 <= 1
C577: + x56 + x84 <= 1
C578: + x42 + x348 <= 1
C579: + x1 + x410 <= 1
C580: + x20 + x91 <= 1
C581: + x262 + x303 <= 1
C582: + x407 + x468 <= 1
C583: + x13 + x140 <= 1
C584: + x25 + x429 <= 1
C585: + x6 + x247 <= 1
C586: + x180 + x216 <= 1
C587: + x1 + x9 <= 1
C588: + x183 + x256 <= 1
C589: + x57 + x470 <= 1
C590: + x120 + x249 <= 1
C591: + x4 + x6 <= 1
C592: + x103 + x273 <= 1
C593: + x33 + x226 <= 1
C594: + x52 + x64 <= 1
C595: + x7 + x499 <= 1
C596: + x89 + x156 <= 1
C597: + x224 + x335 <= 1
C598: + x6 + x8 <= 1
C599: + x45 + x410 <= 1
C600: + x28 + x500 <= 1
C601: + x101 + x156 <= 1
C602: + x94 + x151 <= 1
C603: + x166 + x239 <= 1
C604: + x149 + x299 <= 1
C605: + x207 + x432 <= 1
C606: + x26 + x162 <= 1
C607: + x15 + x240 <= 1
C608: + x326 + x385 <= 1
C609: + x13 + x93 <= 1
C610: + x104 + x425 <= 1
C611: + x161 + x483 <= 1
C612: + x133 + x159 <= 1
C613: + x10 + x283 <= 1
C614: + x266 + x316 <= 1
C615: + x362 + x437 <= 1
C616: + x125 + x460 <= 1
C617: + x7 + x204 <= 1
C618: + x91 + x257 <= 1
C619: + x373 + x448 <= 1
C620: + x157 + x170 <= 1
C621: + x20 + x261 <= 1
C622: + x13 + x52 <= 1
C623: + x71 + x378 <= 1
C624: + x9 + x20 <= 1
C625: + x30 + x420 <= 1
C626: + x133 + x195 <= 1
C627: + x7 + x91 <= 1
C628: + x29 + x345 <= 1
C629: + x20 + x374 <= 1
C630: + x204 + x497 <= 1
C631: + x153 + x233 <= 1
C632: + x82 + x266 <= 1
C633: + x10 + x245 <= 1
C634: + x441 + x455 <= 1
C635: + x22 + x376 <= 1
C636: + x51 + x175 <= 1
C637: + x323 + x479 <= 1
C638: + x138 + x363 <= 1
C639: + x20 + x48 <= 1
C640: + x34 + x74 <= 1
C641: + x15 + x86 <= 1
C642: + x88 + x251 <= 1
C643: + x24 + x443 <= 1
C644: + x7 + x151 <= 1
C645: + x10 + x70 <= 1
C646: + x44 + x113 <= 1
C647: + x9 + x47 <= 1
C648: + x8 + x15 <= 1
C649: + x227 + x305 <= 1
C650: + x49 + x70 <= 1
C651: + x86 + x406 <= 1
C652: + x61 + x190 <= 1
C653: + x90 + x390 <= 1
C654: + x7 + x34 <= 1
C655: + x10 + x260 <= 1
C656: + x2 + x82 <= 1
C657: + x69 + x174 <= 1
C658: + x176 + x349 <= 1
C659: + x27 + x76 <= 1
C660: + x172 + x213 <= 1
C661: + x211 + x298 <= 1
C662: + x103 + x215 <= 1
C663: + x115 + x233 <= 1
C664: + x14 + x181 <= 1
C665: + x34 + x172 <= 1
C666: + x23 + x299 <= 1
C667: + x24 + x153 <= 1
C668: + x391 + x463 <= 1
C669: + x57 + x210 <= 1
C670: + x18 + x195 <= 1
C671: + x1 + x7 <= 1
C672: + x10 + x254 <= 1
C673: + x21 + x202 <= 1
C674: + x70 + x92 <= 1
C675: + x159 + x415 <= 1
C676: + x49 + x238 <= 1
C677: + x3 + x5 <= 1
C678: + x59 + x218 <= 1
C679: + x83 + x215 <= 1
C680: + x10 + x79 <= 1
C681: + x105 + x205 <= 1
C682: + x60 + x313 <= 1
C683: + x9 + x214 <= 1
C684: + x55 + x134 <= 1
C685: + x30 + x55 <= 1
C686: + x21 + x30 <= 1
C687: + x7 + x25 <= 1
C688: + x54 + x177 <= 1
C689: + x129 + x165 <= 1
C690: + x10 + x261 <= 1
C691: + x348 + x416 <= 1
C692: + x23 + x32 <= 1
C693: + x6 + x62 <= 1
C694: + x373 + x398 <= 1
C695: + x5 + x71 <= 1
C696: + x95 + x472 <= 1
C697: + x51 + x210 <= 1
C698: + x178 + x277 <= 1
C699: + x154 + x292 <= 1
C700: + x10 + x231 <= 1
C701: + x102 + x190 <= 1
C702: + x5 + x456 <= 1
C703: + x99 + x423 <= 1
C704: + x487 + x490 <= 1
C705: + x20 + x62 <= 1
C706: + x12 + x283 <= 1
C707: + x23 + x168 <= 1
C708: + x14 + x243 <= 1
C709: + x6 + x353 <= 1
C710: + x118 + x236 <= 1
C711: + x88 + x112 <= 1
C712: + x16 + x170 <= 1
C713: + x12 + x122 <= 1
C714: + x167 + x465 <= 1
C715: + x7 + x20 <= 1
C716: + x37 + x72 <= 1
C717: + x5 + x169 <= 1
C718: + x6 + x39 <= 1
C719: + x7 + x189 <= 1
C720: + x172 + x384 <= 1
C721: + x94 + x182 <= 1
C722: + x12 + x215 <= 1
C723: + x268 + x414 <= 1
C724: + x133 + x462 <= 1
C725: + x37 + x215 <= 1
C726: + x20 + x119 <= 1
C727: + x2 + x362 <= 1
C728: + x79 + x291 <= 1
C729: + x9 + x486 <= 1
C730: + x17 + x57 <= 1
C731: + x328 + x355 <= 1
C732: + x56 + x293 <= 1
C733: + x31 + x66 <= 1
C734: + x197 + x413 <= 1
C735: + x5 + x221 <= 1
C736: + x181 + x375 <= 1
C737: + x61 + x357 <= 1
C738: + x74 + x432 <= 1
C739: + x425 + x473 <= 1
C740: + x29 + x203 <= 1
C741: + x12 + x131 <= 1
C742: + x22 + x216 <= 1
C743: + x25 + x155 <= 1
C744: + x32 + x336 <= 1
C745: + x72 + x165 <= 1
C746: + x11 + x345 <= 1
C747: + x56 + x342 <= 1
C748: + x72 + x76 <= 1
C749: + x19 + x86 <= 1
C750: + x57 + x353 <= 1
C751: + x185 + x278 <= 1
C752: + x272 + x390 <= 1
C753: + x155 + x206 <= 1
C754: + x135 + x402 <= 1
C755: + x380 + x446 <= 1
C756: + x37 + x234 <= 1
C757: + x29 + x159 <= 1
C758: + x31 + x175 <= 1
C759: + x22 + x343 <= 1
C760: + x127 + x355 <= 1
C761: + x7 + x11 <= 1
C762: + x10 + x311 <= 1
C763: + x46 + x102 <= 1
C764: + x28 + x333 <= 1
C765: + x357 + x401 <= 1
C766: + x392 + x435 <= 1
C767: + x5 + x152 <= 1
C768: + x338 + x442 <= 1
C769: + x10 + x37 <= 1
C770: + x5 + x53 <= 1
C771: + x23 + x139 <= 1
C772: + x43 + x311 <= 1
C773: + x231 + x362 <= 1
C774: + x140 + x427 <= 1
C775: + x10 + x483 <= 1
C776: + x1 + x282 <= 1
C777: + x37 + x51 <= 1
C778: + x10 + x17 <= 1
C779: + x28 + x107 <= 1
C780: + x30 + x206 <= 1
C781: + x7 + x466 <= 1
C782: + x11 + x324 <= 1
C783: + x247 + x448 <= 1
C784: + x20 + x76 <= 1
C785: + x56 + x339 <= 1
C786: + x127 + x283 <= 1
C787: + x146 + x199 <= 1
C788: + x163 + x391 <= 1
C789: + x10 + x98 <= 1
C790: + x356 + x439 <= 1
C791: + x33 + x463 <= 1
C792: + x14 + x229 <= 1
C793: + x6 + x136 <= 1
C794: + x129 + x493 <= 1
C795: + x115 + x327 <= 1
C796: + x79 + x353 <= 1
C797: + x7 + x14 <= 1
C798: + x10 + x320 <= 1
C799: + x114 + x476 <= 1
C800: + x349 + x493 <= 1
C801: + x137 + x218 <= 1
C802: + x10 + x46 <= 1
C803: + x61 + x396 <= 1
C804: + x35 + x64 <= 1
C805: + x8 + x39 <= 1
C806: + x55 + x187 <= 1
C807: + x196 + x342 <= 1
C808: + x62 + x205 <= 1
C809: + x54 + x96 <= 1
C810: + x147 + x276 <= 1
C811: + x3 + x122 <= 1
C812: + x69 + x182 <= 1
C813: + x87 + x189 <= 1
C814: + x7 + x219 <= 1
C815: + x273 + x435 <= 1
C816: + x10 + x26 <= 1
C817: + x229 + x492 <= 1
C818: + x12 + x32 <= 1
C819: + x189 + x407 <= 1
C820: + x10 + x472 <= 1
C821: + x101 + x174 <= 1
C822: + x17 + x114 <= 1
C823: + x45 + x259 <= 1
C824: + x57 + x169 <= 1
C825: + x3 + x61 <= 1
C826: + x6 + x18 <= 1
C827: + x7 + x162 <= 1
C828: + x151 + x237 <= 1
C829: + x22 + x31 <= 1
C830: + x17 + x316 <= 1
C831: + x6 + x181 <= 1
C832: + x207 + x418 <= 1
C833: + x137 + x499 <= 1
C834: + x70 + x152 <= 1
C835: + x50 + x73 <= 1
C836: + x176 + x334 <= 1
C837: + x14 + x35 <= 1
C838: + x31 + x443 <= 1
C839: + x7 + x222 <= 1
C840: + x208 + x451 <= 1
C841: + x144 + x309 <= 1
C842: + x37 + x339 <= 1
C843: + x292 + x408 <= 1
C844: + x24 + x138 <= 1
C845: + x9 + x106 <= 1
C846: + x86 + x459 <= 1
C847: + x6 + x87 <= 1
C848: + x262 + x290 <= 1
C849: + x47 + x489 <= 1
C850: + x223 + x423 <= 1
C851: + x180 + x211 <= 1
C852: + x55 + x377 <= 1
C853: + x98 + x273 <= 1
C854: + x73 + x406 <= 1
C855: + x67 + x267 <= 1
C856: + x248 + x330 <= 1
C857: + x72 + x434 <= 1
C858: + x11 + x88 <= 1
C859: + x29 + x283 <= 1
C860: + x32 + x161 <= 1
C861: + x5 + x34 <= 1
C862: + x207 + x425 <= 1
C863: + x218 + x344 <= 1
C864: + x9 + x37 <= 1
C865: + x191 + x252 <= 1
C866: + x48 + x313 <= 1
C867: + x34 + x45 <= 1
C868: + x256 + x367 <= 1
C869: + x102 + x104 <= 1
C870: + x275 + x284 <= 1
C871: + x61 + x265 <= 1
C872: + x24 + x373 <= 1
C873: + x91 + x201 <= 1
C874: + x118 + x330 <= 1
C875: + x262 + x410 <= 1
C876: + x365 + x370 <= 1
C877: + x3 + x237 <= 1
C878: + x375 + x425 <= 1
C879: + x22 + x236 <= 1
C880: + x61 + x494 <= 1
C881: + x25 + x247 <= 1
C882: + x13 + x49 <= 1
C883: + x327 + x464 <= 1
C884: + x11 + x381 <= 1
C885: + x88 + x166 <= 1
C886: + x92 + x380 <= 1
C887: + x2 + x24 <= 1
C888: + x431 + x474 <= 1
C889: + x6 + x243 <= 1
C890: + x9 + x256 <= 1
C891: + x28 + x142 <= 1
C892: + x1 + x13 <= 1
C893: + x31 + x139 <= 1
C894: + x324 + x468 <= 1
C895: + x16 + x42 <= 1
C896: + x14 + x97 <= 1
C897: + x432 + x443 <= 1
C898: + x182 + x442 <= 1
C899: + x8 + x239 <= 1
C900: + x19 + x110 <= 1
C901: + x220 + x290 <= 1
C902: + x50 + x490 <= 1
C903: + x69 + x276 <= 1
C904: + x276 + x500 <= 1
C905: + x40 + x123 <= 1
C906: + x24 + x204 <= 1
C907: + x7 + x386 <= 1
C908: + x8 + x14 <= 1
C909: + x2 + x335 <= 1
C910: + x83 + x463 <= 1
C911: + x26 + x65 <= 1
C912: + x7 + x35 <= 1
C913: + x130 + x136 <= 1
C914: + x30 + x271 <= 1
C915: + x40 + x460 <= 1
C916: + x17 + x441 <= 1
C917: + x199 + x400 <= 1
C918: + x189 + x461 <= 1
C919: + x164 + x207 <= 1
C920: + x9 + x358 <= 1
C921: + x178 + x233 <= 1
C922: + x7 + x446 <= 1
C923: + x55 + x220 <= 1
C924: + x294 + x333 <= 1
C925: + x89 + x347 <= 1
C926: + x35 + x354 <= 1
C927: + x36 + x374 <= 1
C928: + x209 + x280 <= 1
C929: + x337 + x477 <= 1
C930: + x66 + x230 <= 1
C931: + x102 + x410 <= 1
C932: + x105 + x286 <= 1
C933: + x34 + x477 <= 1
C934: + x9 + x231 <= 1
C935: + x28 + x131 <= 1
C936: + x280 + x359 <= 1
C937: + x128 + x191 <= 1
C938: + x56 + x121 <= 1
C939: + x104 + x490 <= 1
C940: + x22 + x372 <= 1
C941: + x43 + x224 <= 1
C942: + x2 + x471 <= 1
C943: + x168 + x348 <= 1
C944: + x151 + x242 <= 1
C945: + x180 + x411 <= 1
C946: + x10 + x74 <= 1
C947: + x11 + x90 <= 1
C948: + x6 + x176 <= 1
C949: + x24 + x40 <= 1
C950: + x7 + x38 <= 1
C951: + x388 + x412 <= 1
C952: + x40 + x449 <= 1
C953: + x5 + x167 <= 1
C954: + x28 + x80 <= 1
C955: + x11 + x142 <= 1
C956: + x3 + x255 <= 1
C957: + x12 + x221 <= 1
C958: + x260 + x287 <= 1
C959: + x5 + x92 <= 1
C960: + x6 + x303 <= 1
C961: + x215 + x422 <= 1
C962: + x10 + x145 <= 1
C963: + x48 + x232 <= 1
C964: + x123 + x338 <= 1
C965: + x222 + x270 <= 1
C966: + x27 + x431 <= 1
C967: + x9 + x238 <= 1
C968: + x10 + x226 <= 1
C969: + x63 + x289 <= 1
C970: + x17 + x94 <= 1
C971: + x143 + x377 <= 1
C972: + x68 + x211 <= 1
C973: + x169 + x297 <= 1
C974: + x6 + x118 <= 1
C975: + x91 + x146 <= 1
C976: + x164 + x177 <= 1
C977: + x84 + x216 <= 1
C978: + x105 + x305 <= 1
C979: + x25 + x331 <= 1
C980: + x44 + x110 <= 1
C981: + x7 + x372 <= 1
C982: + x81 + x429 <= 1
C983: + x106 + x437 <= 1
C984: + x89 + x285 <= 1
C985: + x306 + x360 <= 1
C986: + x7 + x29 <= 1
C987: + x29 + x42 <= 1
C988: + x404 + x422 <= 1
C989: + x15 + x109 <= 1
C990: + x16 + x359 <= 1
C991: + x445 + x482 <= 1
C992: + x252 + x419 <= 1
C993: + x204 + x264 <= 1
C994: + x178 + x265 <= 1
C995: + x25 + x105 <= 1
C996: + x53 + x282 <= 1
C997: + x6 + x75 <= 1
C998: + x11 + x459 <= 1
C999: + x2 + x123 <= 1
C1000: + x202 + x387 <= 1
C1001: + x20 + x392 <= 1
C1002: + x12 + x291 <= 1
C1003: + x43 + x468 <= 1
C1004: + x153 + x251 <= 1
C1005: + x175 + x314 <= 1
C1006: + x129 + x455 <= 1
C1007: + x12 + x130 <= 1
C1008: + x17 + x85 <= 1
C1009: + x7 + x476 <= 1
C1010: + x49 + x153 <= 1
C1011: + x3 + x28 <= 1
C1012: + x14 + x396 <= 1
C1013: + x18 + x262 <= 1
C1014: + x28 + x475 <= 1
C1015: + x10 + x124 <= 1
C1016: + x19 + x87 <= 1
C1017: + x219 + x399 <= 1
C1018: + x195 + x426 <= 1
C1019: + x6 + x365 <= 1
C1020: + x82 + x300 <= 1
C1021: + x294 + x308 <= 1
C1022: + x51 + x145 <= 1
C1023: + x143 + x144 <= 1
C1024: + x19 + x285 <= 1
C1025: + x18 + x407 <= 1
C1026: + x56 + x162 <= 1
C1027: + x3 + x48 <= 1
C1028: + x15 + x120 <= 1
C1029: + x6 + x35 <= 1
C1030: + x91 + x282 <= 1
C1031: + x118 + x153 <= 1
C1032: + x10 + x40 <= 1
C1033: + x185 + x351 <= 1
C1034: + x30 + x189 <= 1
C1035: + x40 + x43 + x55 <= 1
C1036: + x98 + x183 <= 1
C1037: + x25 + x211 <= 1
C1038: + x26 + x197 <= 1
C1039: + x9 + x13 <= 1
C1040: + x27 + x251 <= 1
C1041: + x144 + x437 <= 1
C1042: + x43 + x58 <= 1
C1043: + x9 + x490 <= 1
C1044: + x146 + x150 <= 1
C1045: + x8 + x340 <= 1
C1046: + x75 + x207 <= 1
C1047: + x61 + x115 <= 1
C1048: + x15 + x402 <= 1
C1049: + x96 + x396 <= 1
C1050: + x250 + x389 <= 1
C1051: + x3 + x19 <= 1
C1052: + x130 + x216 <= 1
C1053: + x74 + x317 <= 1
C1054: + x3 + x184 <= 1
C1055: + x21 + x331 <= 1
C1056: + x22 + x69 <= 1
C1057: + x5 + x13 <= 1
C1058: + x2 + x171 <= 1
C1059: + x57 + x450 <= 1
C1060: + x21 + x48 <= 1
C1061: + x178 + x188 <= 1
C1062: + x232 + x446 <= 1
C1063: + x35 + x178 <= 1
C1064: + x18 + x400 <= 1
C1065: + x320 + x391 <= 1
C1066: + x33 + x59 <= 1
C1067: + x17 + x421 <= 1
C1068: + x45 + x430 <= 1
C1069: + x40 + x83 <= 1
C1070: + x9 + x52 <= 1
C1071: + x10 + x140 <= 1
C1072: + x16 + x71 <= 1
C1073: + x38 + x214 <= 1
C1074: + x37 + x63 <= 1
C1075: + x36 + x461 <= 1
C1076: + x9 + x131 <= 1
C1077: + x273 + x448 <= 1
C1078: + x84 + x126 <= 1
C1079: + x29 + x222 <= 1
C1080: + x112 + x164 <= 1
C1081: + x226 + x370 <= 1
C1082: + x46 + x167 <= 1
C1083: + x29 + x99 <= 1
C1084: + x49 + x151 <= 1
C1085: + x98 + x426 <= 1
C1086: + x44 + x367 <= 1
C1087: + x335 + x431 <= 1
C1088: + x66 + x321 <= 1
C1089: + x30 + x379 <= 1
C1090: + x368 + x464 <= 1
C1091: + x5 + x12 <= 1
C1092: + x63 + x227 <= 1
C1093: + x139 + x154 <= 1
C1094: + x6 + x21 <= 1
C1095: + x7 + x163 <= 1
C1096: + x10 + x82 <= 1
C1097: + x64 + x483 <= 1
C1098: + x189 + x250 <= 1
C1099: + x37 + x38 <= 1
C1100: + x23 + x263 <= 1
C1101: + x26 + x227 <= 1
C1102: + x50 + x165 <= 1
C1103: + x55 + x473 <= 1
C1104: + x221 + x396 <= 1
C1105: + x275 + x474 <= 1
C1106: + x18 + x223 <= 1
C1107: + x273 + x355 <= 1
C1108: + x77 + x486 <= 1
C1109: + x305 + x418 <= 1
C1110: + x36 + x212 <= 1
C1111: + x74 + x101 <= 1
C1112: + x20 + x33 <= 1
C1113: + x50 + x145 <= 1
C1114: + x5 + x130 <= 1
C1115: + x24 + x424 <= 1
C1116: + x25 + x470 <= 1
C1117: + x3 + x222 <= 1
C1118: + x38 + x357 <= 1
C1119: + x232 + x257 <= 1
C1120: + x224 + x488 <= 1
C1121: + x6 + x177 <= 1
C1122: + x215 + x473 <= 1
C1123: + x17 + x133 <= 1
C1124: + x131 + x300 <= 1
C1125: + x7 + x53 <= 1
C1126: + x10 + x273 <= 1
C1127: + x120 + x470 <= 1
C1128: + x212 + x356 <= 1
C1129: + x51 + x83 <= 1
C1130: + x134 + x472 <= 1
C1131: + x62 + x307 <= 1
C1132: + x10 + x354 <= 1
C1133: + x391 + x478 <= 1
C1134: + x76 + x262 <= 1
C1135: + x21 + x86 <= 1
C1136: + x175 + x453 <= 1
C1137: + x71 + x161 <= 1
C1138: + x283 + x288 <= 1
C1139: + x149 + x232 <= 1
C1140: + x6 + x321 <= 1
C1141: + x54 + x327 <= 1
C1142: + x28 + x137 <= 1
C1143: + x122 + x137 <= 1
C1144: + x30 + x240 <= 1
C1145: + x4 + x5 <= 1
C1146: + x38 + x128 <= 1
C1147: + x194 + x338 <= 1
C1148: + x6 + x373 <= 1
C1149: + x49 + x80 <= 1
C1150: + x20 + x151 <= 1
C1151: + x332 + x496 <= 1
C1152: + x16 + x497 <= 1
C1153: + x7 + x48 <= 1
C1154: + x77 + x195 <= 1
C1155: + x167 + x266 <= 1
C1156: + x96 + x254 <= 1
C1157: + x18 + x157 <= 1
C1158: + x10 + x16 <= 1
C1159: + x55 + x316 <= 1
C1160: + x447 + x469 <= 1
C1161: + x17 + x184 <= 1
C1162: + x6 + x313 <= 1
C1163: + x7 + x447 <= 1
C1164: + x56 + x207 <= 1
C1165: + x233 + x425 <= 1
C1166: + x107 + x386 <= 1
C1167: + x7 + x92 <= 1
C1168: + x62 + x175 <= 1
C1169: + x319 + x346 <= 1
C1170: + x103 + x176 <= 1
C1171: + x12 + x308 <= 1
C1172: + x10 + x252 <= 1
C1173: + x213 + x388 <= 1
C1174: + x277 + x377 <= 1
C1175: + x162 + x401 <= 1
C1176: + x326 + x488 <= 1
C1177: + x10 + x343 <= 1
C1178: + x129 + x147 <= 1
C1179: + x20 + x47 <= 1
C1180: + x130 + x208 <= 1
C1181: + x348 + x462 <= 1
C1182: + x343 + x435 <= 1
C1183: + x181 + x266 <= 1
C1184: + x38 + x279 <= 1
C1185: + x12 + x240 <= 1
C1186: + x167 + x178 <= 1
C1187: + x5 + x21 <= 1
C1188: + x6 + x163 <= 1
C1189: + x225 + x356 <= 1
C1190: + x50 + x494 <= 1
C1191: + x17 + x243 <= 1
C1192: + x9 + x397 <= 1
C1193: + x46 + x122 <= 1
C1194: + x3 + x95 <= 1
C1195: + x185 + x497 <= 1
C1196: + x10 + x49 <= 1
C1197: + x57 + x409 <= 1
C1198: + x178 + x237 <= 1
C1199: + x145 + x500 <= 1
C1200: + x10 + x148 <= 1
C1201: + x59 + x346 <= 1
C1202: + x261 + x392 <= 1
C1203: + x27 + x271 <= 1
C1204: + x41 + x450 <= 1
C1205: + x71 + x385 <= 1
C1206: + x56 + x117 <= 1
C1207: + x122 + x155 <= 1
C1208: + x32 + x345 <= 1
C1209: + x53 + x135 <= 1
C1210: + x91 + x498 <= 1
C1211: + x3 + x6 <= 1
C1212: + x39 + x315 <= 1
C1213: + x25 + x43 <= 1
C1214: + x6 + x9 <= 1
C1215: + x27 + x467 <= 1
C1216: + x1 + x183 <= 1
C1217: + x56 + x486 <= 1
C1218: + x12 + x229 <= 1
C1219: + x40 + x112 <= 1
C1220: + x61 + x428 <= 1
C1221: + x6 + x172 <= 1
C1222: + x253 + x350 <= 1
C1223: + x29 + x138 <= 1
C1224: + x12 + x68 <= 1
C1225: + x68 + x300 <= 1
C1226: + x24 + x36 <= 1
C1227: + x182 + x320 <= 1
C1228: + x3 + x493 <= 1
C1229: + x30 + x260 <= 1
C1230: + x6 + x61 <= 1
C1231: + x26 + x489 <= 1
C1232: + x7 + x272 <= 1
C1233: + x10 + x58 <= 1
C1234: + x134 + x451 <= 1
C1235: + x36 + x37 <= 1
C1236: + x4 + x80 <= 1
C1237: + x10 + x149 <= 1
C1238: + x66 + x88 <= 1
C1239: + x233 + x407 <= 1
C1240: + x55 + x116 <= 1
C1241: + x66 + x294 <= 1
C1242: + x129 + x295 <= 1
C1243: + x13 + x178 <= 1
C1244: + x82 + x184 <= 1
C1245: + x9 + x146 <= 1
C1246: + x378 + x471 <= 1
C1247: + x51 + x277 <= 1
C1248: + x4 + x463 <= 1
C1249: + x315 + x499 <= 1
C1250: + x53 + x142 <= 1
C1251: + x289 + x354 <= 1
C1252: + x94 + x403 <= 1
C1253: + x98 + x411 <= 1
C1254: + x74 + x228 <= 1
C1255: + x12 + x286 <= 1
C1256: + x6 + x368 <= 1
C1257: + x17 + x225 <= 1
C1258: + x115 + x137 <= 1
C1259: + x334 + x491 <= 1
C1260: + x7 + x17 <= 1
C1261: + x57 + x149 <= 1
C1262: + x56 + x276 <= 1
C1263: + x138 + x328 <= 1
C1264: + x9 + x173 <= 1
C1265: + x447 + x458 <= 1
C1266: + x86 + x280 <= 1
C1267: + x14 + x369 <= 1
C1268: + x24 + x170 <= 1
C1269: + x9 + x10 <= 1
C1270: + x110 + x114 <= 1
C1271: + x6 + x276 <= 1
C1272: + x56 + x214 <= 1
C1273: + x123 + x172 <= 1
C1274: + x23 + x60 + x69 <= 1
C1275: + x13 + x460 <= 1
C1276: + x208 + x340 <= 1
C1277: + x143 + x213 <= 1
C1278: + x428 + x493 <= 1
C1279: + x129 + x318 <= 1
C1280: + x3 + x101 <= 1
C1281: + x22 + x116 <= 1
C1282: + x25 + x394 <= 1
C1283: + x189 + x275 <= 1
C1284: + x73 + x132 <= 1
C1285: + x18 + x180 <= 1
C1286: + x381 + x453 <= 1
C1287: + x10 + x239 <= 1
C1288: + x40 + x141 <= 1
C1289: + x182 + x382 <= 1
C1290: + x56 + x234 <= 1
C1291: + x51 + x415 <= 1
C1292: + x10 + x219 <= 1
C1293: + x185 + x244 <= 1
C1294: + x115 + x132 <= 1
C1295: + x33 + x219 <= 1
C1296: + x22 + x342 <= 1
C1297: + x44 + x134 <= 1
C1298: + x18 + x395 <= 1
C1299: + x7 + x12 <= 1
C1300: + x28 + x336 <= 1
C1301: + x367 + x441 <= 1
C1302: + x52 + x326 <= 1
C1303: + x10 + x401 <= 1
C1304: + x112 + x211 <= 1
C1305: + x24 + x167 <= 1
C1306: + x9 + x49 <= 1
C1307: + x237 + x426 <= 1
C1308: + x74 + x455 <= 1
C1309: + x40 + x324 <= 1
C1310: + x5 + x296 <= 1
C1311: + x172 + x389 <= 1
C1312: + x31 + x74 <= 1
C1313: + x224 + x262 <= 1
C1314: + x153 + x198 <= 1
C1315: + x199 + x417 <= 1
C1316: + x80 + x427 <= 1
C1317: + x10 + x24 <= 1
C1318: + x49 + x55 <= 1
C1319: + x205 + x325 <= 1
C1320: + x25 + x302 <= 1
C1321: + x25 + x227 <= 1
C1322: + x12 + x26 <= 1
C1323: + x69 + x223 <= 1
C1324: + x410 + x478 <= 1
C1325: + x19 + x78 <= 1
C1326: + x92 + x219 <= 1
C1327: + x101 + x168 <= 1
C1328: + x5 + x9 <= 1
C1329: + x88 + x125 <= 1
C1330: + x37 + x274 <= 1
C1331: + x243 + x401 <= 1
C1332: + x96 + x444 <= 1
C1333: + x73 + x105 <= 1
C1334: + x16 + x478 <= 1
C1335: + x191 + x384 <= 1
C1336: + x6 + x24 <= 1
C1337: + x270 + x320 <= 1
C1338: + x155 + x301 <= 1
C1339: + x10 + x45 <= 1
C1340: + x16 + x369 <= 1
C1341: + x202 + x296 <= 1
C1342: + x213 + x475 <= 1
C1343: + x20 + x38 + x54 <= 1
C1344: + x96 + x126 <= 1
C1345: + x5 + x394 <= 1
C1346: + x2 + x379 <= 1
C1347: + x29 + x171 <= 1
C1348: + x302 + x442 <= 1
C1349: + x31 + x280 <= 1
C1350: + x5 + x303 <= 1
C1351: + x7 + x63 <= 1
C1352: + x2 + x73 <= 1
C1353: + x14 + x41 <= 1
C1354: + x15 + x143 <= 1
C1355: + x5 + x196 <= 1
C1356: + x10 + x25 <= 1
C1357: + x28 + x99 <= 1
C1358: + x86 + x366 <= 1
C1359: + x23 + x223 <= 1
C1360: + x34 + x352 <= 1
C1361: + x7 + x458 <= 1
C1362: + x57 + x94 <= 1
C1363: + x29 + x127 <= 1
C1364: + x242 + x477 <= 1
C1365: + x161 + x431 <= 1
C1366: + x61 + x235 <= 1
C1367: + x16 + x438 <= 1
C1368: + x24 + x471 <= 1
C1369: + x10 + x471 <= 1
C1370: + x2 + x5 <= 1
C1371: + x10 + x106 <= 1
C1372: + x78 + x274 <= 1
C1373: + x24 + x310 <= 1
C1374: + x71 + x409 <= 1
C1375: + x20 + x193 <= 1
C1376: + x4 + x27 <= 1
C1377: + x22 + x360 <= 1
C1378: + x159 + x424 <= 1
C1379: + x17 + x115 <= 1
C1380: + x16 + x475 <= 1
C1381: + x313 + x479 <= 1
C1382: + x50 + x148 <= 1
C1383: + x154 + x192 <= 1
C1384: + x145 + x229 <= 1
C1385: + x10 + x86 <= 1
C1386: + x55 + x274 <= 1
C1387: + x384 + x486 <= 1
C1388: + x13 + x199 <= 1
C1389: + x26 + x360 <= 1
C1390: + x471 + x485 <= 1
C1391: + x52 + x193 <= 1
C1392: + x11 + x484 <= 1
C1393: + x11 + x61 <= 1
C1394: + x12 + x334 <= 1
C1395: + x28 + x124 <= 1
C1396: + x66 + x429 <= 1
C1397: + x135 + x489 <= 1
C1398: + x277 + x291 <= 1
C1399: + x126 + x203 <= 1
C1400: + x28 + x263 <= 1
C1401: + x47 + x220 <= 1
C1402: + x213 + x267 <= 1
C1403: + x179 + x500 <= 1
C1404: + x61 + x226 <= 1
C1405: + x9 + x456 <= 1
C1406: + x183 + x492 <= 1
C1407: + x211 + x457 <= 1
C1408: + x56 + x455 <= 1
C1409: + x53 + x476 <= 1
C1410: + x38 + x160 <= 1
C1411: + x31 + x129 <= 1
C1412: + x150 + x412 <= 1
C1413: + x208 + x228 <= 1
C1414: + x5 + x142 <= 1
C1415: + x6 + x26 <= 1
C1416: + x3 + x218 <= 1
C1417: + x5 + x35 <= 1
C1418: + x201 + x315 <= 1
C1419: + x84 + x415 <= 1
C1420: + x241 + x269 <= 1
C1421: + x459 + x480 <= 1
C1422: + x321 + x405 <= 1
C1423: + x103 + x125 <= 1
C1424: + x423 + x480 <= 1
C1425: + x10 + x11 <= 1
C1426: + x111 + x141 <= 1
C1427: + x3 + x238 <= 1
C1428: + x213 + x445 <= 1
C1429: + x178 + x247 <= 1
C1430: + x168 + x395 <= 1
C1431: + x197 + x228 <= 1
C1432: + x134 + x375 <= 1
C1433: + x200 + x268 <= 1
C1434: + x55 + x194 <= 1
C1435: + x233 + x422 <= 1
C1436: + x97 + x312 <= 1
C1437: + x314 + x381 <= 1
C1438: + x259 + x402 <= 1
C1439: + x55 + x99 <= 1
C1440: + x171 + x270 <= 1
C1441: + x6 + x333 <= 1
C1442: + x28 + x141 <= 1
C1443: + x18 + x204 <= 1
C1444: + x12 + x158 <= 1
C1445: + x33 + x231 <= 1
C1446: + x252 + x491 <= 1
C1447: + x112 + x404 <= 1
C1448: + x187 + x398 <= 1
C1449: + x341 + x464 <= 1
C1450: + x12 + x235 <= 1
C1451: + x13 + x245 <= 1
C1452: + x117 + x228 <= 1
C1453: + x9 + x45 <= 1
C1454: + x103 + x322 <= 1
C1455: + x59 + x279 <= 1
C1456: + x24 + x42 <= 1
C1457: + x17 + x29 <= 1
C1458: + x110 + x498 <= 1
C1459: + x225 + x227 + x419 <= 1
C1460: + x56 + x257 <= 1
C1461: + x5 + x185 <= 1
C1462: + x72 + x478 <= 1
C1463: + x282 + x452 <= 1
C1464: + x161 + x162 <= 1
C1465: + x25 + x255 <= 1
C1466: + x135 + x136 <= 1
C1467: + x10 + x367 <= 1
C1468: + x55 + x217 <= 1
C1469: + x113 + x128 <= 1
C1470: + x50 + x203 <= 1
C1471: + x123 + x344 <= 1
C1472: + x324 + x331 <= 1
C1473: + x41 + x479 <= 1
C1474: + x1 + x5 <= 1
C1475: + x273 + x341 <= 1
C1476: + x22 + x200 <= 1
C1477: + x76 + x363 <= 1
C1478: + x49 + x236 <= 1
C1479: + x12 + x389 <= 1
C1480: + x6 + x12 <= 1
C1481: + x88 + x242 <= 1
C1482: + x65 + x143 <= 1
C1483: + x28 + x51 <= 1
C1484: + x10 + x73 <= 1
C1485: + x237 + x360 <= 1
C1486: + x129 + x377 <= 1
C1487: + x304 + x363 <= 1
C1488: + x242 + x290 <= 1
C1489: + x17 + x290 <= 1
C1490: + x5 + x17 <= 1
C1491: + x250 + x354 <= 1
C1492: + x69 + x118 <= 1
C1493: + x159 + x325 <= 1
C1494: + x31 + x372 <= 1
C1495: + x66 + x277 <= 1
C1496: + x6 + x64 <= 1
C1497: + x7 + x200 <= 1
C1498: + x145 + x331 <= 1
C1499: + x92 + x143 <= 1
C1500: + x185 + x338 <= 1
C1501: + x12 + x59 <= 1
C1502: + x170 + x498 <= 1
C1503: + x81 + x144 <= 1
C1504: + x134 + x156 <= 1
C1505: + x54 + x71 <= 1
C1506: + x335 + x399 <= 1
C1507: + x265 + x412 <= 1
C1508: + x3 + x111 <= 1
C1509: + x47 + x259 <= 1
C1510: + x197 + x428 <= 1
C1511: + x7 + x244 <= 1
C1512: + x55 + x323 <= 1
C1513: + x30 + x254 <= 1
C1514: + x95 + x353 <= 1
C1515: + x23 + x380 <= 1
C1516: + x16 + x63 <= 1
C1517: + x20 + x495 <= 1
C1518: + x251 + x352 <= 1
C1519: + x5 + x379 <= 1
C1520: + x66 + x381 <= 1
C1521: + x6 + x152 <= 1
C1522: + x180 + x245 <= 1
C1523: + x117 + x261 <= 1
C1524: + x142 + x302 <= 1
C1525: + x66 + x187 <= 1
C1526: + x29 + x408 <= 1
C1527: + x357 + x496 <= 1
C1528: + x58 + x185 <= 1
C1529: + x240 + x246 <= 1
C1530: + x36 + x41 <= 1
C1531: + x145 + x322 <= 1
C1532: + x2 + x201 <= 1
C1533: + x27 + x96 <= 1
C1534: + x12 + x213 <= 1
C1535: + x161 + x192 <= 1
C1536: + x36 + x136 <= 1
C1537: + x145 + x495 <= 1
C1538: + x111 + x259 <= 1
C1539: + x6 + x74 <= 1
C1540: + x185 + x456 <= 1
C1541: + x176 + x181 <= 1
C1542: + x197 + x403 <= 1
C1543: + x9 + x150 <= 1
C1544: + x68 + x489 <= 1
C1545: + x40 + x148 <= 1
C1546: + x32 + x334 <= 1
C1547: + x5 + x461 <= 1
C1548: + x327 + x494 <= 1
C1549: + x10 + x325 <= 1
C1550: + x249 + x269 <= 1
C1551: + x266 + x358 <= 1
C1552: + x9 + x304 <= 1
C1553: + x40 + x97 <= 1
C1554: + x217 + x403 <= 1
C1555: + x2 + x337 <= 1
C1556: + x7 + x21 <= 1
C1557: + x83 + x94 <= 1
C1558: + x74 + x113 <= 1
C1559: + x37 + x77 <= 1
C1560: + x20 + x452 <= 1
C1561: + x177 + x304 <= 1
C1562: + x10 + x404 <= 1
C1563: + x28 + x93 <= 1
C1564: + x37 + x383 <= 1
C1565: + x12 + x206 <= 1
C1566: + x47 + x107 + x317 <= 1
C1567: + x5 + x75 <= 1
C1568: + x25 + x212 <= 1
C1569: + x9 + x14 <= 1
C1570: + x213 + x310 <= 1
C1571: + x23 + x411 <= 1
C1572: + x7 + x65 <= 1
C1573: + x19 + x466 <= 1
C1574: + x190 + x310 <= 1
C1575: + x15 + x129 <= 1
C1576: + x45 + x49 <= 1
C1577: + x10 + x19 <= 1
C1578: + x9 + x157 <= 1
C1579: + x16 + x234 <= 1
C1580: + x213 + x421 <= 1
C1581: + x98 + x130 <= 1
C1582: + x87 + x438 <= 1
C1583: + x81 + x269 <= 1
C1584: + x56 + x230 <= 1
C1585: + x3 + x423 <= 1
C1586: + x175 + x433 <= 1
C1587: + x159 + x303 <= 1
C1588: + x6 + x103 <= 1
C1589: + x107 + x427 <= 1
C1590: + x16 + x420 <= 1
C1591: + x83 + x271 <= 1
C1592: + x2 + x15 <= 1
C1593: + x21 + x332 <= 1
C1594: + x269 + x294 <= 1
C1595: + x88 + x100 <= 1
C1596: + x34 + x307 <= 1
C1597: + x117 + x267 <= 1
C1598: + x38 + x225 <= 1
C1599: + x304 + x485 <= 1
C1600: + x26 + x36 <= 1
C1601: + x9 + x422 <= 1
C1602: + x28 + x324 <= 1
C1603: + x155 + x397 <= 1
C1604: + x221 + x249 <= 1
C1605: + x14 + x120 <= 1
C1606: + x53 + x378 <= 1
C1607: + x71 + x105 <= 1
C1608: + x163 + x349 <= 1
C1609: + x219 + x475 <= 1
C1610: + x6 + x43 <= 1
C1611: + x170 + x330 <= 1
C1612: + x135 + x356 <= 1
C1613: + x54 + x319 <= 1
C1614: + x3 + x366 <= 1
C1615: + x31 + x273 <= 1
C1616: + x127 + x340 <= 1
C1617: + x9 + x402 <= 1
C1618: + x55 + x66 <= 1
C1619: + x318 + x378 <= 1
C1620: + x66 + x268 <= 1
C1621: + x212 + x341 <= 1
C1622: + x13 + x164 <= 1
C1623: + x23 + x127 <= 1
C1624: + x44 + x465 <= 1
C1625: + x28 + x98 <= 1
C1626: + x102 + x171 <= 1
C1627: + x391 + x481 <= 1
C1628: + x29 + x100 <= 1
C1629: + x21 + x65 <= 1
C1630: + x60 + x232 <= 1
C1631: + x2 + x8 <= 1
C1632: + x129 + x325 <= 1
C1633: + x195 + x441 <= 1
C1634: + x31 + x122 <= 1
C1635: + x87 + x139 <= 1
C1636: + x33 + x452 <= 1
C1637: + x22 + x77 <= 1
C1638: + x27 + x58 <= 1
C1639: + x9 + x208 <= 1
C1640: + x157 + x275 <= 1
C1641: + x86 + x437 <= 1
C1642: + x159 + x417 <= 1
C1643: + x164 + x481 <= 1
C1644: + x2 + x462 <= 1
C1645: + x122 + x404 <= 1
C1646: + x61 + x292 <= 1
C1647: + x9 + x266 <= 1
C1648: + x63 + x93 <= 1
C1649: + x3 + x196 <= 1
C1650: + x43 + x315 <= 1
C1651: + x326 + x413 <= 1
C1652: + x10 + x180 <= 1
C1653: + x38 + x222 <= 1
C1654: + x123 + x371 <= 1
C1655: + x7 + x51 <= 1
C1656: + x3 + x115 <= 1
C1657: + x20 + x414 <= 1
C1658: + x212 + x350 <= 1
C1659: + x123 + x472 <= 1
C1660: + x209 + x393 <= 1
C1661: + x27 + x388 <= 1
C1662: + x32 + x79 <= 1
C1663: + x10 + x29 <= 1
C1664: + x15 + x147 <= 1
C1665: + x37 + x337 <= 1
C1666: + x30 + x194 <= 1
C1667: + x362 + x364 <= 1
C1668: + x80 + x339 <= 1
C1669: + x10 + x384 <= 1
C1670: + x66 + x75 <= 1
C1671: + x20 + x88 <= 1
C1672: + x21 + x389 <= 1
C1673: + x251 + x372 <= 1
C1674: + x91 + x115 <= 1
C1675: + x3 + x135 <= 1
C1676: + x35 + x128 <= 1
C1677: + x180 + x209 <= 1
C1678: + x1 + x52 <= 1
C1679: + x73 + x311 <= 1
C1680: + x56 + x105 <= 1
C1681: + x241 + x350 <= 1
C1682: + x44 + x73 <= 1
C1683: + x82 + x441 <= 1
C1684: + x74 + x108 <= 1
C1685: + x320 + x440 <= 1
C1686: + x28 + x36 <= 1
C1687: + x30 + x135 <= 1
C1688: + x22 + x26 <= 1
C1689: + x105 + x218 <= 1
C1690: + x81 + x113 <= 1
C1691: + x6 + x267 <= 1
C1692: + x334 + x355 <= 1
C1693: + x34 + x281 <= 1
C1694: + x70 + x421 <= 1
C1695: + x165 + x329 <= 1
C1696: + x94 + x319 <= 1
C1697: + x77 + x104 <= 1
C1698: + x59 + x190 <= 1
C1699: + x133 + x146 <= 1
C1700: + x7 + x284 <= 1
C1701: + x1 + x255 <= 1
C1702: + x301 + x440 <= 1
C1703: + x20 + x258 <= 1
C1704: + x14 + x332 <= 1
C1705: + x23 + x287 <= 1
C1706: + x16 + x28 <= 1
C1707: + x18 + x70 <= 1
C1708: + x36 + x240 <= 1
C1709: + x95 + x481 <= 1
C1710: + x69 + x201 <= 1
C1711: + x6 + x82 <= 1
C1712: + x134 + x173 <= 1
C1713: + x31 + x108 <= 1
C1714: + x224 + x316 <= 1
C1715: + x35 + x119 <= 1
C1716: + x9 + x254 <= 1
C1717: + x47 + x79 <= 1
C1718: + x85 + x329 <= 1
C1719: + x115 + x169 <= 1
C1720: + x53 + x178 <= 1
C1721: + x122 + x414 <= 1
C1722: + x60 + x194 <= 1
C1723: + x197 + x458 <= 1
C1724: + x81 + x203 <= 1
C1725: + x9 + x312 <= 1
C1726: + x72 + x98 <= 1
C1727: + x10 + x67 <= 1
C1728: + x38 + x365 <= 1
C1729: + x185 + x380 <= 1
C1730: + x153 + x176 <= 1
C1731: + x171 + x250 <= 1
C1732: + x8 + x20 <= 1
C1733: + x10 + x190 <= 1
C1734: + x200 + x212 <= 1
C1735: + x123 + x204 <= 1
C1736: + x94 + x312 <= 1
C1737: + x53 + x198 <= 1
C1738: + x7 + x45 <= 1
C1739: + x37 + x85 <= 1
C1740: + x37 + x482 <= 1
C1741: + x348 + x388 <= 1
C1742: + x84 + x258 <= 1
C1743: + x270 + x482 <= 1
C1744: + x71 + x467 <= 1
C1745: + x2 + x250 <= 1
C1746: + x20 + x263 <= 1
C1747: + x40 + x173 <= 1
C1748: + x326 + x435 <= 1
C1749: + x9 + x22 <= 1
C1750: + x88 + x161 <= 1
C1751: + x80 + x200 <= 1
C1752: + x35 + x356 <= 1
C1753: + x11 + x24 <= 1
C1754: + x32 + x97 <= 1
C1755: + x372 + x428 <= 1
C1756: + x142 + x481 <= 1
C1757: + x31 + x144 <= 1
C1758: + x15 + x447 <= 1
C1759: + x20 + x50 <= 1
C1760: + x3 + x12 <= 1
C1761: + x50 + x130 <= 1
C1762: + x38 + x104 <= 1
C1763: + x6 + x15 <= 1
C1764: + x364 + x408 <= 1
C1765: + x28 + x459 <= 1
C1766: + x1 + x177 <= 1
C1767: + x67 + x109 <= 1
C1768: + x61 + x430 <= 1
C1769: + x153 + x183 <= 1
C1770: + x99 + x217 <= 1
C1771: + x145 + x313 <= 1
C1772: + x328 + x408 <= 1
C1773: + x286 + x359 <= 1
C1774: + x33 + x183 <= 1
C1775: + x49 + x362 <= 1
C1776: + x177 + x319 <= 1
C1777: + x78 + x197 <= 1
C1778: + x35 + x268 <= 1
C1779: + x181 + x351 <= 1
C1780: + x245 + x332 <= 1
C1781: + x164 + x246 <= 1
C1782: + x274 + x291 <= 1
C1783: + x20 + x272 <= 1
C1784: + x30 + x173 <= 1
C1785: + x185 + x335 <= 1
C1786: + x40 + x166 <= 1
C1787: + x443 + x492 <= 1
C1788: + x55 + x221 <= 1
C1789: + x6 + x68 <= 1
C1790: + x7 + x84 <= 1
C1791: + x92 + x376 <= 1
C1792: + x2 + x100 <= 1
C1793: + x58 + x127 <= 1
C1794: + x104 + x251 <= 1
C1795: + x40 + x59 <= 1
C1796: + x16 + x159 <= 1
C1797: + x71 + x386 <= 1
C1798: + x13 + x25 <= 1
C1799: + x27 + x191 <= 1
C1800: + x130 + x285 <= 1
C1801: + x70 + x253 <= 1
C1802: + x6 + x120 <= 1
C1803: + x1 + x323 <= 1
C1804: + x2 + x64 <= 1
C1805: + x29 + x358 <= 1
C1806: + x48 + x60 <= 1
C1807: + x29 + x139 <= 1
C1808: + x50 + x321 <= 1
C1809: + x51 + x335 <= 1
C1810: + x40 + x281 <= 1
C1811: + x6 + x409 <= 1
C1812: + x7 + x31 <= 1
C1813: + x38 + x85 <= 1
C1814: + x23 + x30 <= 1
C1815: + x6 + x60 <= 1
C1816: + x134 + x450 <= 1
C1817: + x292 + x434 <= 1
C1818: + x23 + x255 <= 1
C1819: + x36 + x131 <= 1
C1820: + x10 + x156 <= 1
C1821: + x47 + x241 <= 1
C1822: + x112 + x474 <= 1
C1823: + x412 + x438 <= 1
C1824: + x6 + x77 <= 1
C1825: + x7 + x75 <= 1
C1826: + x191 + x440 <= 1
C1827: + x1 + x270 <= 1
C1828: + x2 + x101 <= 1
C1829: + x3 + x107 <= 1
C1830: + x112 + x317 <= 1
C1831: + x109 + x306 <= 1
C1832: + x18 + x186 <= 1
C1833: + x7 + x248 <= 1
C1834: + x86 + x338 <= 1
C1835: + x18 + x101 <= 1
C1836: + x230 + x298 <= 1
C1837: + x13 + x258 <= 1
C1838: + x10 + x118 <= 1
C1839: + x228 + x376 <= 1
C1840: + x260 + x351 <= 1
C1841: + x6 + x367 <= 1
C1842: + x1 + x44 <= 1
C1843: + x124 + x223 <= 1
C1844: + x106 + x448 <= 1
C1845: + x73 + x124 <= 1
C1846: + x7 + x18 <= 1
C1847: + x9 + x444 <= 1
C1848: + x69 + x158 <= 1
C1849: + x425 + x431 <= 1
C1850: + x13 + x374 <= 1
C1851: + x7 + x179 <= 1
C1852: + x10 + x34 <= 1
C1853: + x34 + x369 <= 1
C1854: + x6 + x275 <= 1
C1855: + x9 + x11 <= 1
C1856: + x28 + x231 <= 1
C1857: + x112 + x487 <= 1
C1858: + x66 + x318 <= 1
C1859: + x67 + x166 <= 1
C1860: + x29 + x424 <= 1
C1861: + x20 + x395 <= 1
C1862: + x40 + x41 <= 1
C1863: + x218 + x491 <= 1
C1864: + x45 + x54 <= 1
C1865: + x37 + x296 <= 1
C1866: + x9 + x154 <= 1
C1867: + x229 + x488 <= 1
C1868: + x223 + x289 <= 1
C1869: + x177 + x198 <= 1
C1870: + x197 + x308 <= 1
C1871: + x29 + x106 <= 1
C1872: + x230 + x339 <= 1
C1873: + x175 + x430 <= 1
C1874: + x78 + x188 <= 1
C1875: + x63 + x107 <= 1
C1876: + x338 + x388 <= 1
C1877: + x3 + x186 <= 1
C1878: + x157 + x252 <= 1
C1879: + x7 + x368 <= 1
C1880: + x192 + x468 <= 1
C1881: + x18 + x309 <= 1
C1882: + x28 + x81 <= 1
C1883: + x304 + x329 <= 1
C1884: + x23 + x137 <= 1
C1885: + x14 + x361 <= 1
C1886: + x6 + x284 <= 1
C1887: + x9 + x50 <= 1
C1888: + x128 + x196 <= 1
C1889: + x77 + x426 <= 1
C1890: + x129 + x193 <= 1
C1891: + x356 + x461 <= 1
C1892: + x57 + x233 <= 1
C1893: + x42 + x464 <= 1
C1894: + x87 + x188 <= 1
C1895: + x23 + x124 <= 1
C1896: + x364 + x483 <= 1
C1897: + x145 + x361 <= 1
C1898: + x6 + x210 <= 1
C1899: + x7 + x299 <= 1
C1900: + x125 + x208 <= 1
C1901: + x53 + x157 <= 1
C1902: + x9 + x126 <= 1
C1903: + x20 + x78 <= 1
C1904: + x112 + x436 <= 1
C1905: + x106 + x281 <= 1
C1906: + x107 + x407 <= 1
C1907: + x7 + x113 <= 1
C1908: + x83 + x194 <= 1
C1909: + x291 + x379 <= 1
C1910: + x410 + x477 <= 1
C1911: + x13 + x149 <= 1
C1912: + x44 + x95 <= 1
C1913: + x26 + x133 <= 1
C1914: + x6 + x337 <= 1
C1915: + x11 + x209 <= 1
C1916: + x373 + x374 <= 1
C1917: + x30 + x32 <= 1
C1918: + x126 + x169 <= 1
C1919: + x55 + x365 <= 1
C1920: + x131 + x287 <= 1
C1921: + x4 + x21 <= 1
C1922: + x22 + x350 <= 1
C1923: + x10 + x318 <= 1
C1924: + x129 + x140 <= 1
C1925: + x23 + x39 <= 1
C1926: + x6 + x23 <= 1
C1927: + x61 + x289 <= 1
C1928: + x118 + x306 <= 1
C1929: + x109 + x363 <= 1
C1930: + x38 + x382 <= 1
C1931: + x56 + x392 <= 1
C1932: + x225 + x349 <= 1
C1933: + x43 + x320 <= 1
C1934: + x9 + x57 <= 1
C1935: + x176 + x484 <= 1
C1936: + x224 + x239 <= 1
C1937: + x24 + x30 <= 1
C1938: + x61 + x152 <= 1
C1939: + x80 + x161 <= 1
C1940: + x263 + x385 <= 1
C1941: + x17 + x41 <= 1
C1942: + x212 + x345 <= 1
C1943: + x54 + x94 <= 1
C1944: + x128 + x432 <= 1
C1945: + x365 + x473 <= 1
C1946: + x5 + x205 <= 1
C1947: + x73 + x179 <= 1
C1948: + x82 + x154 <= 1
C1949: + x110 + x244 <= 1
C1950: + x17 + x72 <= 1
C1951: + x20 + x83 <= 1
C1952: + x34 + x109 <= 1
C1953: + x52 + x135 <= 1
C1954: + x7 + x108 <= 1
C1955: + x58 + x103 <= 1
C1956: + x123 + x413 <= 1
C1957: + x6 + x143 <= 1
C1958: + x118 + x197 <= 1
C1959: + x10 + x295 <= 1
C1960: + x11 + x445 <= 1
C1961: + x49 + x200 <= 1

binary
x1 x2 x3 x4 x5 x6 x7 x8 x9 x10 x11 x12 x13 x14 x15 x16 x17 x18 x19 x20 x21 x22 x23 x24 x25 x26 x27 x28 x29 x30 x31 x32 x33 x34 x35 x36 x37 x38 x39 x40 x41 x42 x43 x44 x45 x46 x47 x48 x49 x50 x51 x52 x53 x54 x55 x56 x57 x58 x59 x60 x61 x62 x63 x64 x65 x66 x67 x68 x69 x70 x71 x72 x73 x74 x75 x76 x77 x78 x79 x80 x81 x82 x83 x84 x85 x86 x87 x88 x89 x90 x91 x92 x93 x94 x95 x96 x97 x98 x99 x100 x101 x102 x103 x104 x105 x106 x107 x108 x109 x110 x111 x112 x113 x114 x115 x116 x117 x118 x119 x120 x121 x122 x123 x124 x125 x126 x127 x128 x129 x130 x131 x132 x133 x134 x135 x136 x137 x138 x139 x140 x141 x142 x143 x144 x145 x146 x147 x148 x149 x150 x151 x152 x153 x154 x155 x156 x157 x158 x159 x160 x161 x162 x163 x164 x165 x166 x167 x168 x169 x170 x171 x172 x173 x174 x175 x176 x177 x178 x179 x180 x181 x182 x183 x184 x185 x186 x187 x188 x189 x190 x191 x192 x193 x194 x195 x196 x197 x198 x199 x200 x201 x202 x203 x204 x205 x206 x207 x208 x209 x210 x211 x212 x213 x214 x215 x216 x217 x218 x219 x220 x221 x222 x223 x224 x225 x226 x227 x228 x229 x230 x231 x232 x233 x234 x235 x236 x237 x238 x239 x240 x241 x242 x243 x244 x245 x246 x247 x248 x249 x250 x251 x252 x253 x254 x255 x256 x257 x258 x259 x260 x261 x262 x263 x264 x265 x266 x267 x268 x269 x270 x271 x272 x273 x274 x275 x276 x277 x278 x279 x280 x281 x282 x283 x284 x285 x286 x287 x288 x289 x290 x291 x292 x293 x294 x295 x296 x297 x298 x299 x300 x301 x302 x303 x304 x305 x306 x307 x308 x309 x310 x311 x312 x313 x314 x315 x316 x317 x318 x319 x320 x321 x322 x323 x324 x325 x326 x327 x328 x329 x330 x331 x332 x333 x334 x335 x336 x337 x338 x339 x340 x341 x342 x343 x344 x345 x346 x347 x348 x349 x350 x351 x352 x353 x354 x355 x356 x357 x358 x359 x360 x361 x362 x363 x364 x365 x366 x367 x368 x369 x370 x371 x372 x373 x374 x375 x376 x377 x378 x379 x380 x381 x382 x383 x384 x385 x386 x387 x388 x389 x390 x391 x392 x393 x394 x395 x396 x397 x398 x399 x400 x401 x402 x403 x404 x405 x406 x407 x408 x409 x410 x411 x412 x413 x414 x415 x416 x417 x418 x419 x420 x421 x422 x423 x424 x425 x426 x427 x428 x429 x430 x431 x432 x433 x434 x435 x436 x437 x438 x439 x440 x441 x442 x443 x444 x445 x446 x447 x448 x449 x450 x451 x452 x453 x454 x455 x456 x457 x458 x459 x460 x461 x462 x463 x464 x465 x466 x467 x468 x469 x470 x471 x472 x473 x474 x475 x476 x477 x478 x479 x480 x481 x482 x483 x484 x485 x486 x487 x488 x489 x490 x491 x492 x493 x494 x495 x496 x497 x498 x499 x500
