maximize
OBJ: + 1 x1 + 1 x2 + 1 x3 + 1 x4 + 1 x5 + 1 x6 + 1 x7 + 1 x8 + 1 x9 + 1 x10 + 1 x11 + 1 x12 + 1 x13 + 1 x14 + 1 x15 + 1 x16 + 1 x17 + 1 x18 + 1 x19 + 1 x20 + 1 x21 + 1 x22 + 1 x23 + 1 x24 + 1 x25 + 1 x26 + 1 x27 + 1 x28 + 1 x29 + 1 x30 + 1 x31 + 1 x32 + 1 x33 + 1 x34 + 1 x35 + 1 x36 + 1 x37 + 1 x38 + 1 x39 + 1 x40 + 1 x41 + 1 x42 + 1 x43 + 1 x44 + 1 x45 + 1 x46 + 1 x47 + 1 x48 + 1 x49 + 1 x50 + 1 x51 + 1 x52 + 1 x53 + 1 x54 + 1 x55 + 1 x56 + 1 x57 + 1 x58 + 1 x59 + 1 x60 + 1 x61 + 1 x62 + 1 x63 + 1 x64 + 1 x65 + 1 x66 + 1 x67 + 1 x68 + 1 x69 + 1 x70 + 1 x71 + 1 x72 + 1 x73 + 1 x74 + 1 x75 + 1 x76 + 1 x77 + 1 x78 + 1 x79 + 1 x80 + 1 x81 + 1 x82 + 1 x83 + 1 x84 + 1 x85 + 1 x86 + 1 x87 + 1 x88 + 1 x89 + 1 x90 + 1 x91 + 1 x92 + 1 x93 + 1 x94 + 1 x95 + 1 x96 + 1 x97 + 1 x98 + 1 x99 + 1 x100 + 1 x101 + 1 x102 + 1 x103 + 1 x104 + 1 x105 + 1 x106 + 1 x107 + 1 x108 + 1 x109 + 1 x110 + 1 x111 + 1 x112 + 1 x113 + 1 x114 + 1 x115 + 1 x116 + 1 x117 + 1 x118 + 1 x119 + 1 x120 + 1 x121 + 1 x122 + 1 x123 + 1 x124 + 1 x125 + 1 x126 + 1 x127 + 1 x128 + 1 x129 + 1 x130 + 1 x131 + 1 x132 + 1 x133 + 1 x134 + 1 x135 + 1 x136 + 1 x137 + 1 x138 + 1 x139 + 1 x140 + 1 x141 + 1 x142 + 1 x143 + 1 x144 + 1 x145 + 1 x146 + 1 x147 + 1 x148 + 1 x149 + 1 x150 + 1 x151 + 1 x152 + 1 x153 + 1 x154 + 1 x155 + 1 x156 + 1 x157 + 1 x158 + 1 x159 + 1 x160 + 1 x161 + 1 x162 + 1 x163 + 1 x164 + 1 x165 + 1 x166 + 1 x167 + 1 x168 + 1 x169 + 1 x170 + 1 x171 + 1 x172 + 1 x173 + 1 x174 + 1 x175 + 1 x176 + 1 x177 + 1 x178 + 1 x179 + 1 x180 + 1 x181 + 1 x182 + 1 x183 + 1 x184 + 1 x185 + 1 x186 + 1 x187 + 1 x188 + 1 x189 + 1 x190 + 1 x191 + 1 x192 + 1 x193 + 1 x194 + 1 x195 + 1 x196 + 1 x197 + 1 x198 + 1 x199 + 1 x200 + 1 x201 + 1 x202 + 1 x203 + 1 x204 + 1 x205 + 1 x206 + 1 x207 + 1 x208 + 1 x209 + 1 x210 + 1 x211 + 1 x212 + 1 x213 + 1 x214 + 1 x215 + 1 x216 + 1 x217 + 1 x218 + 1 x219 + 1 x220 + 1 x221 + 1 x222 + 1 x223 + 1 x224 + 1 x225 + 1 x226 + 1 x227 + 1 x228 + 1 x229 + 1 x230 + 1 x231 + 1 x232 + 1 x233 + 1 x234 + 1 x235 + 1 x236 + 1 x237 + 1 x238 + 1 x239 + 1 x240 + 1 x241 + 1 x242 + 1 x243 + 1 x244 + 1 x245 + 1 x246 + 1 x247 + 1 x248 + 1 x249 + 1 x250 + 1 x251 + 1 x252 + 1 x253 + 1 x254 + 1 x255 + 1 x256 + 1 x257 + 1 x258 + 1 x259 + 1 x260 + 1 x261 + 1 x262 + 1 x263 + 1 x264 + 1 x265 + 1 x266 + 1 x267 + 1 x268 + 1 x269 + 1 x270 + 1 x271 + 1 x272 + 1 x273 + 1 x274 + 1 x275 + 1 x276 + 1 x277 + 1 x278 + 1 x279 + 1 x280 + 1 x281 + 1 x282 + 1 x283 + 1 x284 + 1 x285 + 1 x286 + 1 x287 + 1 x288 + 1 x289 + 1 x290 + 1 x291 + 1 x292 + 1 x293 + 1 x294 + 1 x295 + 1 x296 + 1 x297 + 1 x298 + 1 x299 + 1 x300 + 1 x301 + 1 x302 + 1 x303 + 1 x304 + 1 x305 + 1 x306 + 1 x307 + 1 x308 + 1 x309 + 1 x310 + 1 x311 + 1 x312 + 1 x313 + 1 x314 + 1 x315 + 1 x316 + 1 x317 + 1 x318 + 1 x319 + 1 x320 + 1 x321 + 1 x322 + 1 x323 + 1 x324 + 1 x325 + 1 x326 + 1 x327 + 1 x328 + 1 x329 + 1 x330 + 1 x331 + 1 x332 + 1 x333 + 1 x334 + 1 x335 + 1 x336 + 1 x337 + 1 x338 + 1 x339 + 1 x340 + 1 x341 + 1 x342 + 1 x343 + 1 x344 + 1 x345 + 1 x346 + 1 x347 + 1 x348 + 1 x349 + 1 x350 + 1 x351 + 1 x352 + 1 x353 + 1 x354 + 1 x355 + 1 x356 + 1 x357 + 1 x358 + 1 x359 + 1 x360 + 1 x361 + 1 x362 + 1 x363 + 1 x364 + 1 x365 + 1 x366 + 1 x367 + 1 x368 + 1 x369 + 1 x370 + 1 x371 + 1 x372 + 1 x373 + 1 x374 + 1 x375 + 1 x376 + 1 x377 + 1 x378 + 1 x379 + 1 x380 + 1 x381 + 1 x382 + 1 x383 + 1 x384 + 1 x385 + 1 x386 + 1 x387 + 1 x388 + 1 x389 + 1 x390 + 1 x391 + 1 x392 + 1 x393 + 1 x394 + 1 x395 + 1 x396 + 1 x397 + 1 x398 + 1 x399 + 1 x400 + 1 x401 + 1 x402 + 1 x403 + 1 x404 + 1 x405 + 1 x406 + 1 x407 + 1 x408 + 1 x409 + 1 x410 + 1 x411 + 1 x412 + 1 x413 + 1 x414 + 1 x415 + 1 x416 + 1 x417 + 1 x418 + 1 x419 + 1 x420 + 1 x421 + 1 x422 + 1 x423 + 1 x424 + 1 x425 + 1 x426 + 1 x427 + 1 x428 + 1 x429 + 1 x430 + 1 x431 + 1 x432 + 1 x433 + 1 x434 + 1 x435 + 1 x436 + 1 x437 + 1 x438 + 1 x439 + 1 x440 + 1 x441 + 1 x442 + 1 x443 + 1 x444 + 1 x445 + 1 x446 + 1 x447 + 1 x448 + 1 x449 + 1 x450 + 1 x451 + 1 x452 + 1 x453 + 1 x454 + 1 x455 + 1 x456 + 1 x457 + 1 x458 + 1 x459 + 1 x460 + 1 x461 + 1 x462 + 1 x463 + 1 x464 + 1 x465 + 1 x466 + 1 x467 + 1 x468 + 1 x469 + 1 x470 + 1 x471 + 1 x472 + 1 x473 + 1 x474 + 1 x475 + 1 x476 + 1 x477 + 1 x478 + 1 x479 + 1 x480 + 1 x481 + 1 x482 + 1 x483 + 1 x484 + 1 x485 + 1 x486 + 1 x487 + 1 x488 + 1 x489 + 1 x490 + 1 x491 + 1 x492 + 1 x493 + 1 x494 + 1 x495 + 1 x496 + 1 x497 + 1 x498 + 1 x499 + 1 x500

subject to
C1: + x51 + x97 <= 1
C2: + x9 + x270 <= 1
C3: + x74 + x194 <= 1
C4: + x146 + x234 <= 1
C5: + x263 + x489 <= 1
C6: + x8 + x251 <= 1
C7: + x46 + x324 <= 1
C8: + x117 + x159 <= 1
C9: + x84 + x409 <= 1
C10: + x49 + x87 <= 1
C11: + x41 + x180 <= 1
C12: + x6 + x417 <= 1
C13: + x7 + x55 <= 1
C14: + x2 + x65 <= 1
C15: + x96 + x139 <= 1
C16: + x79 + x87 <= 1
C17: + x172 + x273 <= 1
C18: + x61 + x372 <= 1
C19: + x163 + x296 <= 1
C20: + x164 + x195 <= 1
C21: + x74 + x321 <= 1
C22: + x6 + x306 <= 1
C23: + x16 + x31 <= 1
C24: + x48 + x203 <= 1
C25: + x170 + x414 <= 1
C26: + x208 + x382 <= 1
C27: + x2 + x29 <= 1
C28: + x241 + x245 <= 1
C29: + x12 + x313 <= 1
C30: + x286 + x442 <= 1
C31: + x32 + x127 <= 1
C32: + x117 + x357 <= 1
C33: + x24 + x249 <= 1
C34: + x181 + x207 <= 1
C35: + x9 + x251 <= 1
C36: + x117 + x119 <= 1
C37: + x82 + x445 <= 1
C38: + x182 + x284 <= 1
C39: + x12 + x394 <= 1
C40: + x24 + x419 <= 1
C41: + x7 + x159 <= 1
C42: + x74 + x203 <= 1
C43: + x19 + x113 <= 1
C44: + x10 + x74 + x147 <= 1
C45: + x5 + x36 <= 1
C46: + x9 + x39 <= 1
C47: + x65 + x388 <= 1
C48: + x22 + x308 <= 1
C49: + x209 + x231 <= 1
C50: + x82 + x105 <= 1
C51: + x72 + x246 <= 1
C52: + x37 + x42 <= 1
C53: + x10 + x284 <= 1
C54: + x11 + x37 <= 1
C55: + x36 + x53 <= 1
C56: + x146 + x354 <= 1
C57: + x64 + x475 <= 1
C58: + x85 + x129 <= 1
C59: + x30 + x215 <= 1
C60: + x70 + x469 <= 1
C61: + x34 + x148 <= 1
C62: + x153 + x302 <= 1
C63: + x9 + x19 <= 1
C64: + x38 + x55 <= 1
C65: + x6 + x94 <= 1
C66: + x7 + x102 <= 1
C67: + x57 + x202 <= 1
C68: + x136 + x260 <= 1
C69: + x122 + x305 <= 1
C70: + x2 + x22 <= 1
C71: + x141 + x258 <= 1
C72: + x89 + x243 <= 1
C73: + x12 + x157 <= 1
C74: + x13 + x436 <= 1
C75: + x18 + x118 <= 1
C76: + x330 + x428 <= 1
C77: + x2 + x468 <= 1
C78: + x72 + x94 <= 1
C79: + x155 + x263 <= 1
C80: + x11 + x93 <= 1
C81: + x21 + x177 <= 1
C82: + x34 + x278 <= 1
C83: + x6 + x165 <= 1
C84: + x153 + x361 <= 1
C85: + x190 + x243 <= 1
C86: + x62 + x371 <= 1
C87: + x64 + x115 <= 1
C88: + x46 + x217 <= 1
C89: + x70 + x426 <= 1
C90: + x4 + x56 <= 1
C91: + x70 + x136 <= 1
C92: + x52 + x210 <= 1
C93: + x26 + x71 <= 1
C94: + x7 + x33 <= 1
C95: + x75 + x339 <= 1
C96: + x2 + x83 <= 1
C97: + x66 + x275 <= 1
C98: + x60 + x146 <= 1
C99: + x80 + x83 <= 1
C100: + x9 + x189 <= 1
C101: + x262 + x385 <= 1
C102: + x19 + x32 <= 1
C103: + x92 + x137 <= 1
C104: + x285 + x493 <= 1
C105: + x131 + x431 <= 1
C106: + x171 + x355 <= 1
C107: + x101 + x427 <= 1
C108: + x120 + x351 <= 1
C109: + x42 + x181 <= 1
C110: + x6 + x71 <= 1
C111: + x279 + x316 <= 1
C112: + x355 + x361 <= 1
C113: + x57 + x262 <= 1
C114: + x13 + x185 <= 1
C115: + x287 + x300 <= 1
C116: + x34 + x467 <= 1
C117: + x40 + x58 <= 1
C118: + x80 + x478 <= 1
C119: + x1 + x6 <= 1
C120: + x8 + x81 <= 1
C121: + x234 + x435 <= 1
C122: + x121 + x128 <= 1
C123: + x68 + x240 <= 1
C124: + x139 + x192 <= 1
C125: + x8 + x283 <= 1
C126: + x101 + x137 <= 1
C127: + x292 + x321 <= 1
C128: + x47 + x453 <= 1
C129: + x21 + x192 <= 1
C130: + x5 + x18 <= 1
C131: + x302 + x413 <= 1
C132: + x12 + x66 <= 1
C133: + x195 + x247 <= 1
C134: + x306 + x365 <= 1
C135: + x7 + x28 <= 1
C136: + x172 + x473 <= 1
C137: + x156 + x291 <= 1
C138: + x23 + x31 <= 1
C139: + x26 + x491 <= 1
C140: + x35 + x264 <= 1
C141: + x12 + x223 <= 1
C142: + x234 + x400 <= 1
C143: + x78 + x420 <= 1
C144: + x34 + x174 <= 1
C145: + x17 + x164 <= 1
C146: + x6 + x301 <= 1
C147: + x12 + x62 <= 1
C148: + x150 + x325 <= 1
C149: + x8 + x352 <= 1
C150: + x128 + x440 <= 1
C151: + x122 + x451 <= 1
C152: + x158 + x218 <= 1
C153: + x185 + x450 <= 1
C154: + x360 + x446 <= 1
C155: + x43 + x471 <= 1
C156: + x99 + x156 <= 1
C157: + x6 + x227 <= 1
C158: + x11 + x256 <= 1
C159: + x56 + x116 <= 1
C160: + x11 + x337 <= 1
C161: + x194 + x412 <= 1
C162: + x3 + x31 <= 1
C163: + x40 + x107 <= 1
C164: + x5 + x25 <= 1
C165: + x209 + x474 <= 1
C166: + x153 + x375 <= 1
C167: + x197 + x345 <= 1
C168: + x217 + x397 <= 1
C169: + x35 + x89 <= 1
C170: + x30 + x49 <= 1
C171: + x51 + x331 <= 1
C172: + x21 + x28 <= 1
C173: + x167 + x468 <= 1
C174: + x316 + x443 <= 1
C175: + x73 + x121 <= 1
C176: + x7 + x19 <= 1
C177: + x119 + x312 <= 1
C178: + x3 + x83 <= 1
C179: + x52 + x379 <= 1
C180: + x6 + x40 <= 1
C181: + x7 + x257 <= 1
C182: + x74 + x381 <= 1
C183: + x38 + x335 <= 1
C184: + x21 + x139 <= 1
C185: + x296 + x486 <= 1
C186: + x32 + x281 <= 1
C187: + x5 + x410 <= 1
C188: + x245 + x500 <= 1
C189: + x55 + x172 <= 1
C190: + x130 + x350 <= 1
C191: + x2 + x363 <= 1
C192: + x204 + x314 <= 1
C193: + x59 + x366 <= 1
C194: + x29 + x91 <= 1
C195: + x30 + x400 <= 1
C196: + x126 + x433 <= 1
C197: + x64 + x140 <= 1
C198: + x47 + x267 <= 1
C199: + x38 + x480 <= 1
C200: + x39 + x424 <= 1
C201: + x91 + x248 <= 1
C202: + x82 + x171 <= 1
C203: + x1 + x20 <= 1
C204: + x118 + x162 <= 1
C205: + x136 + x398 <= 1
C206: + x12 + x132 <= 1
C207: + x177 + x195 <= 1
C208: + x298 + x350 <= 1
C209: + x63 + x139 <= 1
C210: + x57 + x78 <= 1
C211: + x20 + x68 <= 1
C212: + x2 + x6 + x46 + x128 <= 1
C213: + x21 + x489 <= 1
C214: + x104 + x381 <= 1
C215: + x422 + x439 <= 1
C216: + x7 + x123 <= 1
C217: + x63 + x104 <= 1
C218: + x92 + x111 <= 1
C219: + x51 + x143 <= 1
C220: + x34 + x207 <= 1
C221: + x43 + x244 <= 1
C222: + x81 + x323 <= 1
C223: + x150 + x387 <= 1
C224: + x83 + x91 <= 1
C225: + x156 + x305 <= 1
C226: + x3 + x46 <= 1
C227: + x257 + x428 <= 1
C228: + x263 + x351 <= 1
C229: + x296 + x320 <= 1
C230: + x192 + x471 <= 1
C231: + x15 + x118 <= 1
C232: + x8 + x140 <= 1
C233: + x101 + x227 <= 1
C234: + x47 + x419 <= 1
C235: + x12 + x205 <= 1
C236: + x116 + x223 <= 1
C237: + x145 + x487 <= 1
C238: + x9 + x15 <= 1
C239: + x123 + x181 <= 1
C240: + x75 + x205 <= 1
C241: + x77 + x217 <= 1
C242: + x292 + x487 <= 1
C243: + x22 + x210 <= 1
C244: + x179 + x214 <= 1
C245: + x76 + x168 <= 1
C246: + x12 + x427 <= 1
C247: + x51 + x55 <= 1
C248: + x26 + x434 <= 1
C249: + x398 + x409 <= 1
C250: + x101 + x166 <= 1
C251: + x292 + x376 <= 1
C252: + x5 + x15 <= 1
C253: + x171 + x218 <= 1
C254: + x32 + x144 <= 1
C255: + x72 + x308 <= 1
C256: + x183 + x234 <= 1
C257: + x113 + x161 <= 1
C258: + x313 + x377 <= 1
C259: + x115 + x189 <= 1
C260: + x96 + x442 <= 1
C261: + x42 + x211 <= 1
C262: + x73 + x103 <= 1
C263: + x2 + x460 <= 1
C264: + x313 + x470 <= 1
C265: + x58 + x202 <= 1
C266: + x5 + x158 <= 1
C267: + x52 + x329 <= 1
C268: + x28 + x482 <= 1
C269: + x146 + x244 <= 1
C270: + x46 + x334 <= 1
C271: + x121 + x371 <= 1
C272: + x12 + x198 <= 1
C273: + x2 + x357 <= 1
C274: + x174 + x369 <= 1
C275: + x391 + x438 <= 1
C276: + x7 + x57 <= 1
C277: + x2 + x75 <= 1
C278: + x130 + x190 <= 1
C279: + x196 + x498 <= 1
C280: + x380 + x381 <= 1
C281: + x187 + x455 <= 1
C282: + x150 + x179 <= 1
C283: + x7 + x230 <= 1
C284: + x7 + x303 <= 1
C285: + x8 + x181 <= 1
C286: + x9 + x98 <= 1
C287: + x318 + x490 <= 1
C288: + x54 + x194 <= 1
C289: + x159 + x279 <= 1
C290: + x32 + x466 <= 1
C291: + x127 + x285 <= 1
C292: + x300 + x322 <= 1
C293: + x2 + x7 <= 1
C294: + x56 + x464 <= 1
C295: + x253 + x360 <= 1
C296: + x88 + x423 <= 1
C297: + x8 + x105 <= 1
C298: + x174 + x182 <= 1
C299: + x121 + x267 <= 1
C300: + x205 + x310 <= 1
C301: + x5 + x488 <= 1
C302: + x74 + x98 <= 1
C303: + x1 + x475 <= 1
C304: + x38 + x76 <= 1
C305: + x47 + x340 <= 1
C306: + x267 + x337 <= 1
C307: + x99 + x108 <= 1
C308: + x8 + x250 <= 1
C309: + x237 + x377 <= 1
C310: + x3 + x193 <= 1
C311: + x99 + x378 <= 1
C312: + x70 + x169 <= 1
C313: + x7 + x52 <= 1
C314: + x16 + x493 <= 1
C315: + x2 + x409 <= 1
C316: + x11 + x63 <= 1
C317: + x6 + x199 <= 1
C318: + x39 + x54 <= 1
C319: + x235 + x438 <= 1
C320: + x18 + x68 <= 1
C321: + x2 + x266 <= 1
C322: + x3 + x442 <= 1
C323: + x209 + x281 <= 1
C324: + x36 + x325 <= 1
C325: + x92 + x215 <= 1
C326: + x146 + x261 <= 1
C327: + x8 + x195 <= 1
C328: + x77 + x131 <= 1
C329: + x66 + x352 <= 1
C330: + x32 + x126 <= 1
C331: + x372 + x477 <= 1
C332: + x290 + x336 <= 1
C333: + x39 + x280 <= 1
C334: + x141 + x159 <= 1
C335: + x6 + x28 <= 1
C336: + x7 + x156 <= 1
C337: + x345 + x461 <= 1
C338: + x346 + x451 <= 1
C339: + x219 + x430 <= 1
C340: + x213 + x495 <= 1
C341: + x21 + x175 <= 1
C342: + x215 + x479 <= 1
C343: + x79 + x413 <= 1
C344: + x185 + x211 <= 1
C345: + x293 + x391 <= 1
C346: + x267 + x299 <= 1
C347: + x123 + x379 <= 1
C348: + x32 + x404 <= 1
C349: + x107 + x465 <= 1
C350: + x7 + x43 <= 1
C351: + x134 + x232 <= 1
C352: + x121 + x496 <= 1
C353: + x40 + x468 <= 1
C354: + x89 + x164 <= 1
C355: + x25 + x484 <= 1
C356: + x6 + x208 <= 1
C357: + x9 + x382 <= 1
C358: + x9 + x179 <= 1
C359: + x2 + x232 <= 1
C360: + x115 + x246 <= 1
C361: + x8 + x458 <= 1
C362: + x41 + x228 <= 1
C363: + x59 + x143 <= 1
C364: + x41 + x313 <= 1
C365: + x347 + x440 <= 1
C366: + x2 + x430 <= 1
C367: + x2 + x17 <= 1
C368: + x257 + x281 <= 1
C369: + x155 + x376 <= 1
C370: + x64 + x303 <= 1
C371: + x46 + x389 <= 1
C372: + x6 + x244 <= 1
C373: + x44 + x65 <= 1
C374: + x118 + x202 <= 1
C375: + x12 + x317 <= 1
C376: + x19 + x222 <= 1
C377: + x213 + x391 <= 1
C378: + x22 + x364 <= 1
C379: + x174 + x459 <= 1
C380: + x331 + x387 <= 1
C381: + x404 + x457 <= 1
C382: + x12 + x398 <= 1
C383: + x282 + x434 <= 1
C384: + x113 + x293 <= 1
C385: + x21 + x182 <= 1
C386: + x40 + x124 <= 1
C387: + x107 + x238 <= 1
C388: + x112 + x245 <= 1
C389: + x78 + x378 <= 1
C390: + x36 + x172 <= 1
C391: + x117 + x226 <= 1
C392: + x9 + x43 <= 1
C393: + x8 + x19 <= 1
C394: + x77 + x467 <= 1
C395: + x205 + x443 <= 1
C396: + x30 + x34 <= 1
C397: + x150 + x363 <= 1
C398: + x6 + x406 <= 1
C399: + x48 + x140 <= 1
C400: + x19 + x307 <= 1
C401: + x11 + x33 <= 1
C402: + x167 + x272 <= 1
C403: + x5 + x191 <= 1
C404: + x364 + x462 <= 1
C405: + x92 + x184 <= 1
C406: + x42 + x322 <= 1
C407: + x5 + x84 <= 1
C408: + x43 + x171 <= 1
C409: + x116 + x199 <= 1
C410: + x92 + x467 <= 1
C411: + x222 + x225 <= 1
C412: + x258 + x357 <= 1
C413: + x96 + x269 <= 1
C414: + x117 + x459 <= 1
C415: + x85 + x244 <= 1
C416: + x287 + x293 <= 1
C417: + x16 + x294 <= 1
C418: + x265 + x336 <= 1
C419: + x250 + x280 <= 1
C420: + x57 + x480 <= 1
C421: + x20 + x214 <= 1
C422: + x115 + x366 <= 1
C423: + x53 + x186 <= 1
C424: + x38 + x103 <= 1
C425: + x3 + x9 <= 1
C426: + x59 + x222 <= 1
C427: + x314 + x340 <= 1
C428: + x62 + x97 <= 1
C429: + x181 + x268 <= 1
C430: + x72 + x90 <= 1
C431: + x107 + x213 <= 1
C432: + x61 + x431 <= 1
C433: + x171 + x226 <= 1
C434: + x24 + x194 <= 1
C435: + x256 + x447 <= 1
C436: + x7 + x37 <= 1
C437: + x164 + x451 <= 1
C438: + x274 + x391 <= 1
C439: + x21 + x292 <= 1
C440: + x70 + x295 <= 1
C441: + x26 + x486 <= 1
C442: + x8 + x153 <= 1
C443: + x2 + x242 <= 1
C444: + x11 + x141 <= 1
C445: + x22 + x117 + x176 <= 1
C446: + x25 + x271 <= 1
C447: + x99 + x343 <= 1
C448: + x9 + x30 <= 1
C449: + x171 + x367 <= 1
C450: + x68 + x168 <= 1
C451: + x5 + x309 <= 1
C452: + x164 + x271 <= 1
C453: + x173 + x292 <= 1
C454: + x202 + x411 <= 1
C455: + x77 + x176 <= 1
C456: + x40 + x54 <= 1
C457: + x36 + x110 <= 1
C458: + x2 + x142 <= 1
C459: + x47 + x90 <= 1
C460: + x141 + x410 <= 1
C461: + x16 + x61 <= 1
C462: + x65 + x103 <= 1
C463: + x70 + x252 <= 1
C464: + x6 + x119 <= 1
C465: + x15 + x36 <= 1
C466: + x77 + x356 <= 1
C467: + x232 + x298 <= 1
C468: + x52 + x457 <= 1
C469: + x287 + x476 <= 1
C470: + x172 + x178 <= 1
C471: + x9 + x217 <= 1
C472: + x3 + x330 <= 1
C473: + x26 + x84 <= 1
C474: + x80 + x129 <= 1
C475: + x149 + x171 <= 1
C476: + x13 + x384 <= 1
C477: + x78 + x253 <= 1
C478: + x6 + x59 <= 1
C479: + x7 + x185 <= 1
C480: + x146 + x344 <= 1
C481: + x292 + x433 <= 1
C482: + x94 + x186 <= 1
C483: + x3 + x249 <= 1
C484: + x223 + x499 <= 1
C485: + x107 + x132 <= 1
C486: + x470 + x473 <= 1
C487: + x131 + x327 <= 1
C488: + x13 + x463 <= 1
C489: + x43 + x50 <= 1
C490: + x16 + x405 <= 1
C491: + x7 + x76 <= 1
C492: + x264 + x441 <= 1
C493: + x14 + x60 <= 1
C494: + x32 + x82 <= 1
C495: + x197 + x401 <= 1
C496: + x27 + x102 <= 1
C497: + x3 + x269 <= 1
C498: + x21 + x212 <= 1
C499: + x13 + x17 <= 1
C500: + x67 + x274 <= 1
C501: + x25 + x52 <= 1
C502: + x7 + x136 <= 1
C503: + x15 + x43 <= 1
C504: + x3 + x192 <= 1
C505: + x206 + x304 <= 1
C506: + x13 + x69 <= 1
C507: + x31 + x384 <= 1
C508: + x163 + x483 <= 1
C509: + x6 + x36 <= 1
C510: + x299 + x393 <= 1
C511: + x92 + x155 <= 1
C512: + x242 + x266 <= 1
C513: + x13 + x220 <= 1
C514: + x53 + x67 <= 1
C515: + x210 + x300 <= 1
C516: + x249 + x326 <= 1
C517: + x256 + x401 <= 1
C518: + x50 + x309 <= 1
C519: + x58 + x378 <= 1
C520: + x8 + x337 <= 1
C521: + x156 + x191 <= 1
C522: + x3 + x99 <= 1
C523: + x80 + x113 <= 1
C524: + x245 + x367 <= 1
C525: + x299 + x445 <= 1
C526: + x84 + x118 <= 1
C527: + x56 + x69 <= 1
C528: + x91 + x450 <= 1
C529: + x3 + x22 <= 1
C530: + x67 + x214 <= 1
C531: + x70 + x238 <= 1
C532: + x7 + x127 <= 1
C533: + x2 + x9 <= 1
C534: + x20 + x346 <= 1
C535: + x287 + x454 <= 1
C536: + x26 + x131 <= 1
C537: + x28 + x100 + x404 <= 1
C538: + x92 + x99 <= 1
C539: + x196 + x294 <= 1
C540: + x107 + x320 <= 1
C541: + x50 + x104 <= 1
C542: + x358 + x492 <= 1
C543: + x70 + x274 <= 1
C544: + x168 + x188 <= 1
C545: + x6 + x45 <= 1
C546: + x146 + x322 <= 1
C547: + x117 + x448 <= 1
C548: + x103 + x255 <= 1
C549: + x86 + x287 <= 1
C550: + x5 + x56 <= 1
C551: + x23 + x307 <= 1
C552: + x5 + x397 <= 1
C553: + x79 + x400 <= 1
C554: + x17 + x150 <= 1
C555: + x128 + x195 <= 1
C556: + x194 + x235 <= 1
C557: + x12 + x48 <= 1
C558: + x2 + x360 <= 1
C559: + x178 + x316 <= 1
C560: + x22 + x296 <= 1
C561: + x17 + x51 <= 1
C562: + x127 + x302 <= 1
C563: + x1 + x285 <= 1
C564: + x5 + x290 <= 1
C565: + x4 + x402 <= 1
C566: + x22 + x123 <= 1
C567: + x228 + x280 <= 1
C568: + x40 + x136 <= 1
C569: + x5 + x124 <= 1
C570: + x6 + x463 <= 1
C571: + x12 + x28 <= 1
C572: + x200 + x446 <= 1
C573: + x11 + x125 <= 1
C574: + x192 + x331 <= 1
C575: + x31 + x124 <= 1
C576: + x206 + x290 <= 1
C577: + x6 + x133 <= 1
C578: + x99 + x295 <= 1
C579: + x36 + x77 <= 1
C580: + x74 + x386 <= 1
C581: + x111 + x198 <= 1
C582: + x120 + x235 <= 1
C583: + x9 + x427 <= 1
C584: + x255 + x446 <= 1
C585: + x81 + x219 <= 1
C586: + x5 + x63 <= 1
C587: + x52 + x492 <= 1
C588: + x63 + x92 + x201 <= 1
C589: + x12 + x37 <= 1
C590: + x48 + x249 <= 1
C591: + x140 + x421 <= 1
C592: + x78 + x121 <= 1
C593: + x181 + x419 <= 1
C594: + x70 + x335 <= 1
C595: + x35 + x481 <= 1
C596: + x56 + x91 <= 1
C597: + x38 + x161 <= 1
C598: + x52 + x107 <= 1
C599: + x307 + x479 <= 1
C600: + x36 + x229 <= 1
C601: + x19 + x341 <= 1
C602: + x57 + x96 <= 1
C603: + x84 + x241 <= 1
C604: + x46 + x399 <= 1
C605: + x158 + x245 <= 1
C606: + x60 + x346 <= 1
C607: + x14 + x27 <= 1
C608: + x43 + x500 <= 1
C609: + x108 + x279 <= 1
C610: + x182 + x255 <= 1
C611: + x8 + x101 <= 1
C612: + x9 + x82 <= 1
C613: + x45 + x254 <= 1
C614: + x8 + x396 <= 1
C615: + x47 + x163 <= 1
C616: + x36 + x209 <= 1
C617: + x131 + x229 <= 1
C618: + x61 + x313 <= 1
C619: + x118 + x314 <= 1
C620: + x16 + x86 <= 1
C621: + x8 + x25 <= 1
C622: + x85 + x268 <= 1
C623: + x30 + x44 <= 1
C624: + x39 + x356 <= 1
C625: + x99 + x471 <= 1
C626: + x9 + x414 <= 1
C627: + x13 + x53 <= 1
C628: + x89 + x126 <= 1
C629: + x22 + x240 <= 1
C630: + x6 + x305 <= 1
C631: + x200 + x269 <= 1
C632: + x6 + x84 <= 1
C633: + x335 + x444 <= 1
C634: + x8 + x372 <= 1
C635: + x14 + x20 <= 1
C636: + x43 + x52 + x77 <= 1
C637: + x67 + x485 <= 1
C638: + x21 + x60 <= 1
C639: + x314 + x491 <= 1
C640: + x6 + x485 <= 1
C641: + x182 + x283 <= 1
C642: + x366 + x420 <= 1
C643: + x70 + x269 <= 1
C644: + x74 + x202 <= 1
C645: + x173 + x359 <= 1
C646: + x8 + x243 <= 1
C647: + x140 + x376 <= 1
C648: + x8 + x18 <= 1
C649: + x135 + x343 <= 1
C650: + x123 + x206 <= 1
C651: + x13 + x93 <= 1
C652: + x86 + x397 <= 1
C653: + x6 + x425 <= 1
C654: + x57 + x308 <= 1
C655: + x215 + x334 <= 1
C656: + x7 + x204 <= 1
C657: + x3 + x236 <= 1
C658: + x14 + x188 <= 1
C659: + x206 + x380 <= 1
C660: + x45 + x192 <= 1
C661: + x395 + x472 <= 1
C662: + x179 + x489 <= 1
C663: + x189 + x424 <= 1
C664: + x1 + x16 <= 1
C665: + x41 + x119 <= 1
C666: + x59 + x449 <= 1
C667: + x34 + x239 <= 1
C668: + x26 + x58 <= 1
C669: + x46 + x71 <= 1
C670: + x185 + x420 <= 1
C671: + x86 + x96 <= 1
C672: + x33 + x70 <= 1
C673: + x124 + x389 <= 1
C674: + x142 + x169 <= 1
C675: + x59 + x223 <= 1
C676: + x98 + x394 <= 1
C677: + x2 + x33 <= 1
C678: + x12 + x237 <= 1
C679: + x81 + x109 <= 1
C680: + x90 + x184 <= 1
C681: + x121 + x233 <= 1
C682: + x21 + x23 <= 1
C683: + x60 + x399 <= 1
C684: + x44 + x160 <= 1
C685: + x151 + x365 <= 1
C686: + x6 + x402 <= 1
C687: + x283 + x349 <= 1
C688: + x130 + x133 <= 1
C689: + x13 + x326 <= 1
C690: + x18 + x151 <= 1
C691: + x129 + x448 <= 1
C692: + x78 + x426 <= 1
C693: + x34 + x172 <= 1
C694: + x252 + x426 <= 1
C695: + x16 + x112 <= 1
C696: + x182 + x345 <= 1
C697: + x5 + x405 <= 1
C698: + x6 + x291 <= 1
C699: + x78 + x88 <= 1
C700: + x7 + x94 <= 1
C701: + x138 + x259 <= 1
C702: + x234 + x279 <= 1
C703: + x9 + x341 <= 1
C704: + x163 + x184 <= 1
C705: + x1 + x7 <= 1
C706: + x63 + x154 <= 1
C707: + x37 + x149 <= 1
C708: + x264 + x472 <= 1
C709: + x69 + x225 <= 1
C710: + x25 + x42 <= 1
C711: + x6 + x10 <= 1
C712: + x64 + x264 <= 1
C713: + x3 + x170 <= 1
C714: + x361 + x386 <= 1
C715: + x180 + x315 <= 1
C716: + x62 + x395 <= 1
C717: + x63 + x361 <= 1
C718: + x103 + x383 <= 1
C719: + x12 + x65 <= 1
C720: + x333 + x485 <= 1
C721: + x316 + x421 <= 1
C722: + x420 + x488 <= 1
C723: + x181 + x348 <= 1
C724: + x174 + x226 <= 1
C725: + x15 + x383 <= 1
C726: + x38 + x40 <= 1
C727: + x12 + x61 <= 1
C728: + x12 + x452 <= 1
C729: + x124 + x327 <= 1
C730: + x6 + x79 <= 1
C731: + x146 + x153 <= 1
C732: + x3 + x109 <= 1
C733: + x106 + x160 <= 1
C734: + x370 + x440 <= 1
C735: + x45 + x61 <= 1
C736: + x9 + x145 <= 1
C737: + x78 + x407 <= 1
C738: + x60 + x449 <= 1
C739: + x98 + x313 <= 1
C740: + x107 + x262 <= 1
C741: + x3 + x32 <= 1
C742: + x70 + x232 <= 1
C743: + x261 + x434 <= 1
C744: + x355 + x437 <= 1
C745: + x365 + x422 <= 1
C746: + x123 + x390 <= 1
C747: + x22 + x64 <= 1
C748: + x5 + x26 <= 1
C749: + x117 + x263 <= 1
C750: + x207 + x385 <= 1
C751: + x9 + x221 <= 1
C752: + x8 + x125 <= 1
C753: + x34 + x295 <= 1
C754: + x15 + x193 <= 1
C755: + x305 + x441 <= 1
C756: + x108 + x220 <= 1
C757: + x2 + x350 <= 1
C758: + x89 + x288 <= 1
C759: + x32 + x395 <= 1
C760: + x26 + x88 <= 1
C761: + x7 + x20 <= 1
C762: + x6 + x388 <= 1
C763: + x139 + x351 <= 1
C764: + x49 + x358 <= 1
C765: + x78 + x249 <= 1
C766: + x44 + x297 <= 1
C767: + x261 + x486 <= 1
C768: + x262 + x498 <= 1
C769: + x202 + x311 <= 1
C770: + x80 + x318 <= 1
C771: + x273 + x310 <= 1
C772: + x166 + x417 <= 1
C773: + x28 + x388 <= 1
C774: + x74 + x186 <= 1
C775: + x304 + x311 <= 1
C776: + x16 + x312 <= 1
C777: + x16 + x227 <= 1
C778: + x72 + x258 <= 1
C779: + x344 + x352 <= 1
C780: + x7 + x233 <= 1
C781: + x154 + x293 <= 1
C782: + x115 + x207 <= 1
C783: + x8 + x66 <= 1
C784: + x64 + x421 <= 1
C785: + x12 + x131 <= 1
C786: + x86 + x349 <= 1
C787: + x165 + x283 <= 1
C788: + x58 + x321 <= 1
C789: + x310 + x426 <= 1
C790: + x34 + x93 <= 1
C791: + x44 + x374 <= 1
C792: + x10 + x121 <= 1
C793: + x86 + x206 <= 1
C794: + x12 + x127 <= 1
C795: + x51 + x323 <= 1
C796: + x70 + x114 <= 1
C797: + x7 + x11 <= 1
C798: + x49 + x216 <= 1
C799: + x76 + x158 <= 1
C800: + x59 + x64 <= 1
C801: + x331 + x368 <= 1
C802: + x115 + x433 <= 1
C803: + x6 + x48 <= 1
C804: + x12 + x353 <= 1
C805: + x15 + x123 <= 1
C806: + x8 + x139 <= 1
C807: + x75 + x123 <= 1
C808: + x53 + x79 <= 1
C809: + x151 + x481 <= 1
C810: + x9 + x16 <= 1
C811: + x256 + x413 <= 1
C812: + x8 + x42 <= 1
C813: + x49 + x167 <= 1
C814: + x7 + x71 <= 1
C815: + x16 + x410 <= 1
C816: + x416 + x458 <= 1
C817: + x93 + x184 <= 1
C818: + x14 + x49 <= 1
C819: + x261 + x273 <= 1
C820: + x10 + x17 <= 1
C821: + x22 + x209 <= 1
C822: + x23 + x199 <= 1
C823: + x33 + x352 <= 1
C824: + x379 + x466 <= 1
C825: + x230 + x233 <= 1
C826: + x207 + x370 <= 1
C827: + x16 + x430 <= 1
C828: + x7 + x115 <= 1
C829: + x2 + x13 <= 1
C830: + x66 + x333 <= 1
C831: + x59 + x88 <= 1
C832: + x30 + x383 <= 1
C833: + x299 + x493 <= 1
C834: + x36 + x76 <= 1
C835: + x171 + x437 <= 1
C836: + x56 + x188 <= 1
C837: + x331 + x407 <= 1
C838: + x6 + x41 <= 1
C839: + x102 + x229 <= 1
C840: + x75 + x102 <= 1
C841: + x2 + x217 <= 1
C842: + x21 + x154 <= 1
C843: + x5 + x52 <= 1
C844: + x23 + x142 <= 1
C845: + x25 + x122 <= 1
C846: + x121 + x483 <= 1
C847: + x56 + x315 <= 1
C848: + x78 + x223 <= 1
C849: + x99 + x166 <= 1
C850: + x172 + x282 <= 1
C851: + x100 + x306 <= 1
C852: + x2 + x149 <= 1
C853: + x136 + x387 <= 1
C854: + x41 + x90 <= 1
C855: + x40 + x132 <= 1
C856: + x44 + x197 <= 1
C857: + x151 + x312 <= 1
C858: + x20 + x81 <= 1
C859: + x60 + x250 <= 1
C860: + x8 + x197 <= 1
C861: + x123 + x415 <= 1
C862: + x44 + x86 <= 1
C863: + x16 + x133 <= 1
C864: + x52 + x54 <= 1
C865: + x143 + x157 <= 1
C866: + x26 + x454 <= 1
C867: + x198 + x466 <= 1
C868: + x131 + x304 <= 1
C869: + x158 + x431 <= 1
C870: + x78 + x117 <= 1
C871: + x191 + x430 <= 1
C872: + x429 + x483 <= 1
C873: + x31 + x443 <= 1
C874: + x40 + x470 <= 1
C875: + x9 + x141 <= 1
C876: + x19 + x48 <= 1
C877: + x313 + x316 <= 1
C878: + x70 + x494 <= 1
C879: + x24 + x138 <= 1
C880: + x16 + x29 <= 1
C881: + x72 + x148 <= 1
C882: + x12 + x21 <= 1
C883: + x6 + x87 <= 1
C884: + x11 + x100 <= 1
C885: + x175 + x286 <= 1
C886: + x88 + x116 <= 1
C887: + x180 + x288 <= 1
C888: + x34 + x209 <= 1
C889: + x16 + x33 <= 1
C890: + x8 + x392 <= 1
C891: + x38 + x399 <= 1
C892: + x284 + x305 <= 1
C893: + x12 + x408 <= 1
C894: + x279 + x360 <= 1
C895: + x197 + x354 <= 1
C896: + x111 + x285 <= 1
C897: + x17 + x37 <= 1
C898: + x156 + x339 <= 1
C899: + x11 + x39 <= 1
C900: + x129 + x281 <= 1
C901: + x140 + x196 <= 1
C902: + x3 + x76 <= 1
C903: + x2 + x92 <= 1
C904: + x22 + x393 <= 1
C905: + x5 + x177 <= 1
C906: + x172 + x219 <= 1
C907: + x8 + x166 <= 1
C908: + x202 + x287 <= 1
C909: + x2 + x231 <= 1
C910: + x11 + x156 <= 1
C911: + x115 + x243 <= 1
C912: + x25 + x258 <= 1
C913: + x13 + x49 <= 1
C914: + x161 + x170 <= 1
C915: + x135 + x144 <= 1
C916: + x77 + x86 <= 1
C917: + x13 + x291 <= 1
C918: + x146 + x170 <= 1
C919: + x8 + x368 <= 1
C920: + x64 + x147 <= 1
C921: + x294 + x469 <= 1
C922: + x4 + x10 <= 1
C923: + x263 + x316 <= 1
C924: + x3 + x15 <= 1
C925: + x264 + x478 <= 1
C926: + x11 + x95 <= 1
C927: + x13 + x252 <= 1
C928: + x5 + x41 <= 1
C929: + x170 + x240 <= 1
C930: + x226 + x462 <= 1
C931: + x143 + x282 <= 1
C932: + x8 + x14 <= 1
C933: + x186 + x205 <= 1
C934: + x196 + x246 <= 1
C935: + x4 + x393 <= 1
C936: + x7 + x35 <= 1
C937: + x10 + x287 <= 1
C938: + x143 + x187 <= 1
C939: + x34 + x385 <= 1
C940: + x25 + x492 <= 1
C941: + x8 + x163 <= 1
C942: + x12 + x168 <= 1
C943: + x179 + x247 <= 1
C944: + x117 + x183 <= 1
C945: + x9 + x24 <= 1
C946: + x67 + x329 <= 1
C947: + x157 + x459 <= 1
C948: + x38 + x50 <= 1
C949: + x40 + x345 <= 1
C950: + x263 + x420 <= 1
C951: + x2 + x105 <= 1
C952: + x75 + x214 <= 1
C953: + x57 + x260 <= 1
C954: + x85 + x253 <= 1
C955: + x7 + x252 <= 1
C956: + x47 + x358 <= 1
C957: + x34 + x78 <= 1
C958: + x44 + x259 <= 1
C959: + x109 + x333 <= 1
C960: + x217 + x231 <= 1
C961: + x72 + x89 <= 1
C962: + x49 + x413 <= 1
C963: + x32 + x151 <= 1
C964: + x5 + x24 <= 1
C965: + x117 + x317 <= 1
C966: + x64 + x122 <= 1
C967: + x85 + x294 <= 1
C968: + x167 + x475 <= 1
C969: + x252 + x317 <= 1
C970: + x57 + x138 <= 1
C971: + x11 + x41 <= 1
C972: + x37 + x491 <= 1
C973: + x27 + x411 <= 1
C974: + x10 + x54 <= 1
C975: + x136 + x487 <= 1
C976: + x141 + x423 <= 1
C977: + x5 + x92 <= 1
C978: + x119 + x170 <= 1
C979: + x123 + x338 <= 1
C980: + x59 + x146 <= 1
C981: + x223 + x255 <= 1
C982: + x23 + x396 <= 1
C983: + x1 + x265 <= 1
C984: + x228 + x242 <= 1
C985: + x197 + x427 <= 1
C986: + x80 + x110 <= 1
C987: + x7 + x328 <= 1
C988: + x8 + x80 <= 1
C989: + x246 + x406 <= 1
C990: + x273 + x331 <= 1
C991: + x48 + x85 <= 1
C992: + x5 + x453 <= 1
C993: + x44 + x221 <= 1
C994: + x36 + x204 <= 1
C995: + x281 + x315 <= 1
C996: + x6 + x467 <= 1
C997: + x293 + x302 <= 1
C998: + x11 + x339 <= 1
C999: + x101 + x182 <= 1
C1000: + x237 + x350 <= 1
C1001: + x3 + x166 <= 1
C1002: + x26 + x381 <= 1
C1003: + x180 + x246 <= 1
C1004: + x6 + x356 <= 1
C1005: + x472 + x500 <= 1
C1006: + x62 + x391 <= 1
C1007: + x40 + x208 <= 1
C1008: + x13 + x79 <= 1
C1009: + x7 + x29 <= 1
C1010: + x80 + x414 <= 1
C1011: + x5 + x67 <= 1
C1012: + x188 + x227 <= 1
C1013: + x198 + x216 <= 1
C1014: + x2 + x277 <= 1
C1015: + x354 + x375 <= 1
C1016: + x122 + x454 <= 1
C1017: + x6 + x238 <= 1
C1018: + x80 + x107 <= 1
C1019: + x254 + x268 <= 1
C1020: + x218 + x488 <= 1
C1021: + x38 + x181 <= 1
C1022: + x26 + x36 + x57 <= 1
C1023: + x33 + x326 <= 1
C1024: + x115 + x212 <= 1
C1025: + x78 + x403 <= 1
C1026: + x81 + x277 <= 1
C1027: + x7 + x476 <= 1
C1028: + x131 + x197 <= 1
C1029: + x18 + x262 <= 1
C1030: + x364 + x392 <= 1
C1031: + x5 + x6 <= 1
C1032: + x6 + x146 <= 1
C1033: + x24 + x300 <= 1
C1034: + x46 + x198 <= 1
C1035: + x178 + x342 <= 1
C1036: + x26 + x92 <= 1
C1037: + x199 + x344 <= 1
C1038: + x6 + x35 <= 1
C1039: + x7 + x177 <= 1
C1040: + x18 + x133 <= 1
C1041: + x23 + x248 <= 1
C1042: + x61 + x63 <= 1
C1043: + x73 + x461 <= 1
C1044: + x8 + x45 <= 1
C1045: + x2 + x366 <= 1
C1046: + x160 + x370 <= 1
C1047: + x11 + x15 <= 1
C1048: + x78 + x297 <= 1
C1049: + x28 + x106 <= 1
C1050: + x38 + x190 <= 1
C1051: + x61 + x115 <= 1
C1052: + x25 + x159 <= 1
C1053: + x9 + x121 <= 1
C1054: + x111 + x337 <= 1
C1055: + x183 + x377 <= 1
C1056: + x48 + x373 <= 1
C1057: + x89 + x380 <= 1
C1058: + x9 + x470 <= 1
C1059: + x382 + x417 <= 1
C1060: + x106 + x177 <= 1
C1061: + x14 + x232 <= 1
C1062: + x6 + x342 <= 1
C1063: + x103 + x365 <= 1
C1064: + x124 + x234 <= 1
C1065: + x33 + x297 <= 1
C1066: + x32 + x384 <= 1
C1067: + x26 + x93 <= 1
C1068: + x38 + x69 <= 1
C1069: + x127 + x452 <= 1
C1070: + x7 + x172 <= 1
C1071: + x57 + x433 <= 1
C1072: + x3 + x204 <= 1
C1073: + x112 + x224 <= 1
C1074: + x141 + x340 <= 1
C1075: + x33 + x392 <= 1
C1076: + x334 + x370 <= 1
C1077: + x174 + x371 <= 1
C1078: + x12 + x47 <= 1
C1079: + x21 + x116 <= 1
C1080: + x1 + x286 <= 1
C1081: + x57 + x288 <= 1
C1082: + x22 + x122 <= 1
C1083: + x6 + x224 <= 1
C1084: + x92 + x175 <= 1
C1085: + x2 + x152 <= 1
C1086: + x107 + x372 <= 1
C1087: + x57 + x90 <= 1
C1088: + x20 + x80 <= 1
C1089: + x42 + x95 <= 1
C1090: + x88 + x155 <= 1
C1091: + x72 + x396 <= 1
C1092: + x93 + x200 <= 1
C1093: + x123 + x404 <= 1
C1094: + x5 + x12 <= 1
C1095: + x8 + x111 <= 1
C1096: + x120 + x230 <= 1
C1097: + x59 + x309 <= 1
C1098: + x178 + x189 <= 1
C1099: + x332 + x390 <= 1
C1100: + x51 + x378 <= 1
C1101: + x34 + x219 <= 1
C1102: + x102 + x499 <= 1
C1103: + x139 + x333 <= 1
C1104: + x122 + x397 <= 1
C1105: + x3 + x34 <= 1
C1106: + x76 + x151 <= 1
C1107: + x6 + x21 <= 1
C1108: + x79 + x130 <= 1
C1109: + x72 + x113 <= 1
C1110: + x101 + x346 <= 1
C1111: + x7 + x401 <= 1
C1112: + x236 + x276 <= 1
C1113: + x30 + x82 <= 1
C1114: + x252 + x277 <= 1
C1115: + x226 + x282 <= 1
C1116: + x7 + x62 <= 1
C1117: + x260 + x396 <= 1
C1118: + x32 + x80 <= 1
C1119: + x155 + x169 <= 1
C1120: + x229 + x408 <= 1
C1121: + x235 + x440 <= 1
C1122: + x7 + x461 <= 1
C1123: + x121 + x161 <= 1
C1124: + x311 + x320 <= 1
C1125: + x39 + x145 <= 1
C1126: + x49 + x142 <= 1
C1127: + x195 + x274 <= 1
C1128: + x123 + x314 <= 1
C1129: + x164 + x173 <= 1
C1130: + x2 + x26 <= 1
C1131: + x257 + x272 <= 1
C1132: + x77 + x129 <= 1
C1133: + x13 + x142 <= 1
C1134: + x91 + x324 <= 1
C1135: + x8 + x104 <= 1
C1136: + x2 + x165 <= 1
C1137: + x77 + x486 <= 1
C1138: + x4 + x32 <= 1
C1139: + x12 + x97 <= 1
C1140: + x125 + x149 <= 1
C1141: + x81 + x310 <= 1
C1142: + x36 + x212 <= 1
C1143: + x18 + x293 <= 1
C1144: + x265 + x303 <= 1
C1145: + x22 + x27 <= 1
C1146: + x5 + x39 <= 1
C1147: + x78 + x323 <= 1
C1148: + x16 + x85 <= 1
C1149: + x68 + x309 <= 1
C1150: + x285 + x362 <= 1
C1151: + x106 + x477 <= 1
C1152: + x307 + x328 <= 1
C1153: + x143 + x173 <= 1
C1154: + x156 + x338 <= 1
C1155: + x11 + x495 <= 1
C1156: + x79 + x85 <= 1
C1157: + x15 + x149 <= 1
C1158: + x62 + x496 <= 1
C1159: + x92 + x189 <= 1
C1160: + x121 + x331 <= 1
C1161: + x48 + x114 <= 1
C1162: + x215 + x405 <= 1
C1163: + x15 + x363 <= 1
C1164: + x81 + x497 <= 1
C1165: + x7 + x456 <= 1
C1166: + x198 + x403 <= 1
C1167: + x319 + x343 <= 1
C1168: + x2 + x432 <= 1
C1169: + x2 + x19 <= 1
C1170: + x56 + x452 <= 1
C1171: + x59 + x455 <= 1
C1172: + x4 + x5 <= 1
C1173: + x13 + x106 <= 1
C1174: + x61 + x84 <= 1
C1175: + x43 + x234 <= 1
C1176: + x59 + x213 <= 1
C1177: + x5 + x137 <= 1
C1178: + x192 + x304 <= 1
C1179: + x12 + x247 <= 1
C1180: + x49 + x483 <= 1
C1181: + x98 + x211 <= 1
C1182: + x207 + x429 <= 1
C1183: + x93 + x399 <= 1
C1184: + x77 + x465 <= 1
C1185: + x460 + x473 <= 1
C1186: + x187 + x369 <= 1
C1187: + x24 + x46 <= 1
C1188: + x72 + x248 <= 1
C1189: + x402 + x453 <= 1
C1190: + x3 + x72 <= 1
C1191: + x185 + x490 <= 1
C1192: + x32 + x62 <= 1
C1193: + x52 + x362 <= 1
C1194: + x188 + x212 <= 1
C1195: + x36 + x150 <= 1
C1196: + x190 + x204 <= 1
C1197: + x80 + x290 <= 1
C1198: + x47 + x226 <= 1
C1199: + x59 + x140 <= 1
C1200: + x80 + x197 <= 1
C1201: + x9 + x498 <= 1
C1202: + x11 + x23 <= 1
C1203: + x66 + x225 <= 1
C1204: + x149 + x239 <= 1
C1205: + x4 + x239 <= 1
C1206: + x432 + x466 <= 1
C1207: + x37 + x266 <= 1
C1208: + x220 + x437 <= 1
C1209: + x41 + x120 <= 1
C1210: + x33 + x250 <= 1
C1211: + x159 + x405 <= 1
C1212: + x63 + x152 <= 1
C1213: + x3 + x11 <= 1
C1214: + x123 + x288 <= 1
C1215: + x106 + x318 <= 1
C1216: + x34 + x73 <= 1
C1217: + x12 + x385 <= 1
C1218: + x342 + x453 <= 1
C1219: + x95 + x108 <= 1
C1220: + x167 + x341 <= 1
C1221: + x7 + x152 <= 1
C1222: + x22 + x45 <= 1
C1223: + x9 + x48 <= 1
C1224: + x8 + x10 <= 1
C1225: + x210 + x272 <= 1
C1226: + x306 + x362 <= 1
C1227: + x45 + x289 <= 1
C1228: + x129 + x276 <= 1
C1229: + x4 + x300 <= 1
C1230: + x9 + x191 <= 1
C1231: + x10 + x49 <= 1
C1232: + x91 + x265 <= 1
C1233: + x13 + x44 <= 1
C1234: + x34 + x171 <= 1
C1235: + x88 + x476 <= 1
C1236: + x16 + x111 <= 1
C1237: + x7 + x434 <= 1
C1238: + x10 + x148 <= 1
C1239: + x14 + x418 <= 1
C1240: + x179 + x481 <= 1
C1241: + x143 + x203 <= 1
C1242: + x157 + x209 <= 1
C1243: + x214 + x418 <= 1
C1244: + x89 + x252 <= 1
C1245: + x18 + x383 <= 1
C1246: + x7 + x256 <= 1
C1247: + x172 + x317 <= 1
C1248: + x118 + x355 <= 1
C1249: + x84 + x102 <= 1
C1250: + x286 + x301 <= 1
C1251: + x70 + x91 <= 1
C1252: + x125 + x162 <= 1
C1253: + x16 + x51 <= 1
C1254: + x166 + x482 <= 1
C1255: + x3 + x6 <= 1
C1256: + x99 + x114 <= 1
C1257: + x72 + x85 <= 1
C1258: + x229 + x328 <= 1
C1259: + x231 + x424 <= 1
C1260: + x6 + x359 <= 1
C1261: + x79 + x500 <= 1
C1262: + x28 + x211 <= 1
C1263: + x15 + x25 + x34 <= 1
C1264: + x20 + x165 <= 1
C1265: + x60 + x78 <= 1
C1266: + x350 + x364 <= 1
C1267: + x7 + x26 <= 1
C1268: + x8 + x422 <= 1
C1269: + x29 + x47 <= 1
C1270: + x7 + x187 <= 1
C1271: + x19 + x21 <= 1
C1272: + x11 + x138 <= 1
C1273: + x14 + x173 <= 1
C1274: + x34 + x164 <= 1
C1275: + x23 + x250 <= 1
C1276: + x8 + x59 <= 1
C1277: + x63 + x342 <= 1
C1278: + x21 + x99 <= 1
C1279: + x21 + x416 <= 1
C1280: + x95 + x469 <= 1
C1281: + x12 + x64 <= 1
C1282: + x80 + x203 <= 1
C1283: + x55 + x215 <= 1
C1284: + x16 + x395 <= 1
C1285: + x192 + x407 <= 1
C1286: + x3 + x110 <= 1
C1287: + x109 + x120 + x347 <= 1
C1288: + x109 + x254 <= 1
C1289: + x231 + x464 <= 1
C1290: + x60 + x119 <= 1
C1291: + x7 + x485 <= 1
C1292: + x16 + x60 <= 1
C1293: + x57 + x73 <= 1
C1294: + x20 + x61 <= 1
C1295: + x42 + x112 <= 1
C1296: + x25 + x50 <= 1
C1297: + x72 + x78 <= 1
C1298: + x272 + x448 <= 1
C1299: + x265 + x459 <= 1
C1300: + x48 + x450 <= 1
C1301: + x137 + x403 <= 1
C1302: + x46 + x201 <= 1
C1303: + x21 + x38 <= 1
C1304: + x96 + x438 <= 1
C1305: + x16 + x464 <= 1
C1306: + x7 + x17 <= 1
C1307: + x95 + x130 <= 1
C1308: + x114 + x297 <= 1
C1309: + x6 + x38 <= 1
C1310: + x7 + x190 <= 1
C1311: + x118 + x289 <= 1
C1312: + x83 + x336 <= 1
C1313: + x2 + x206 <= 1
C1314: + x113 + x260 <= 1
C1315: + x31 + x56 <= 1
C1316: + x42 + x439 <= 1
C1317: + x17 + x157 <= 1
C1318: + x9 + x10 <= 1
C1319: + x158 + x451 <= 1
C1320: + x137 + x188 <= 1
C1321: + x411 + x429 <= 1
C1322: + x4 + x198 <= 1
C1323: + x52 + x265 <= 1
C1324: + x295 + x367 <= 1
C1325: + x36 + x245 <= 1
C1326: + x38 + x431 <= 1
C1327: + x180 + x493 <= 1
C1328: + x2 + x11 <= 1
C1329: + x185 + x279 <= 1
C1330: + x257 + x319 <= 1
C1331: + x11 + x120 <= 1
C1332: + x121 + x418 <= 1
C1333: + x12 + x275 <= 1
C1334: + x430 + x437 <= 1
C1335: + x57 + x63 <= 1
C1336: + x183 + x277 <= 1
C1337: + x76 + x491 <= 1
C1338: + x33 + x278 <= 1
C1339: + x151 + x375 <= 1
C1340: + x7 + x12 <= 1
C1341: + x101 + x499 <= 1
C1342: + x166 + x456 <= 1
C1343: + x3 + x44 <= 1
C1344: + x177 + x291 <= 1
C1345: + x52 + x326 <= 1
C1346: + x35 + x280 <= 1
C1347: + x36 + x416 <= 1
C1348: + x26 + x201 <= 1
C1349: + x55 + x161 <= 1
C1350: + x178 + x262 <= 1
C1351: + x16 + x409 <= 1
C1352: + x64 + x330 <= 1
C1353: + x31 + x74 <= 1
C1354: + x234 + x265 <= 1
C1355: + x22 + x125 <= 1
C1356: + x56 + x68 <= 1
C1357: + x276 + x419 <= 1
C1358: + x51 + x263 <= 1
C1359: + x25 + x302 <= 1
C1360: + x34 + x138 <= 1
C1361: + x157 + x488 <= 1
C1362: + x12 + x26 <= 1
C1363: + x52 + x191 <= 1
C1364: + x3 + x180 <= 1
C1365: + x5 + x9 <= 1
C1366: + x6 + x135 <= 1
C1367: + x171 + x200 <= 1
C1368: + x117 + x278 <= 1
C1369: + x198 + x327 <= 1
C1370: + x464 + x481 <= 1
C1371: + x93 + x106 <= 1
C1372: + x285 + x324 <= 1
C1373: + x2 + x175 <= 1
C1374: + x59 + x298 <= 1
C1375: + x115 + x187 <= 1
C1376: + x60 + x81 <= 1
C1377: + x44 + x251 <= 1
C1378: + x9 + x425 <= 1
C1379: + x28 + x325 <= 1
C1380: + x20 + x23 <= 1
C1381: + x29 + x60 <= 1
C1382: + x123 + x264 <= 1
C1383: + x5 + x160 <= 1
C1384: + x75 + x99 <= 1
C1385: + x111 + x183 <= 1
C1386: + x225 + x348 <= 1
C1387: + x34 + x183 <= 1
C1388: + x179 + x389 <= 1
C1389: + x143 + x167 <= 1
C1390: + x48 + x393 <= 1
C1391: + x188 + x447 <= 1
C1392: + x82 + x155 <= 1
C1393: + x9 + x135 <= 1
C1394: + x9 + x370 <= 1
C1395: + x2 + x236 <= 1
C1396: + x38 + x163 <= 1
C1397: + x265 + x273 <= 1
C1398: + x207 + x221 <= 1
C1399: + x45 + x208 <= 1
C1400: + x10 + x380 <= 1
C1401: + x12 + x422 <= 1
C1402: + x70 + x210 <= 1
C1403: + x15 + x58 <= 1
C1404: + x6 + x109 <= 1
C1405: + x2 + x5 <= 1
C1406: + x166 + x180 <= 1
C1407: + x69 + x379 <= 1
C1408: + x159 + x178 <= 1
C1409: + x2 + x168 <= 1
C1410: + x21 + x51 <= 1
C1411: + x31 + x154 <= 1
C1412: + x52 + x53 <= 1
C1413: + x250 + x478 <= 1
C1414: + x88 + x235 <= 1
C1415: + x7 + x167 <= 1
C1416: + x18 + x296 <= 1
C1417: + x216 + x458 <= 1
C1418: + x15 + x348 <= 1
C1419: + x171 + x336 <= 1
C1420: + x2 + x372 <= 1
C1421: + x77 + x479 <= 1
C1422: + x77 + x108 <= 1
C1423: + x124 + x358 <= 1
C1424: + x133 + x150 <= 1
C1425: + x2 + x66 <= 1
C1426: + x411 + x442 <= 1
C1427: + x56 + x307 <= 1
C1428: + x167 + x276 <= 1
C1429: + x162 + x185 <= 1
C1430: + x82 + x359 <= 1
C1431: + x383 + x470 <= 1
C1432: + x233 + x258 <= 1
C1433: + x5 + x112 <= 1
C1434: + x334 + x347 <= 1
C1435: + x9 + x107 <= 1
C1436: + x139 + x272 <= 1
C1437: + x34 + x103 <= 1
C1438: + x16 + x435 <= 1
C1439: + x28 + x422 <= 1
C1440: + x42 + x146 + x174 <= 1
C1441: + x2 + x30 <= 1
C1442: + x11 + x97 <= 1
C1443: + x13 + x111 <= 1
C1444: + x3 + x53 <= 1
C1445: + x4 + x374 <= 1
C1446: + x52 + x345 <= 1
C1447: + x7 + x154 <= 1
C1448: + x19 + x423 <= 1
C1449: + x68 + x414 <= 1
C1450: + x225 + x362 <= 1
C1451: + x316 + x330 <= 1
C1452: + x149 + x398 <= 1
C1453: + x98 + x484 <= 1
C1454: + x27 + x373 <= 1
C1455: + x118 + x438 <= 1
C1456: + x194 + x462 <= 1
C1457: + x141 + x205 <= 1
C1458: + x21 + x253 <= 1
C1459: + x9 + x18 <= 1
C1460: + x135 + x141 <= 1
C1461: + x63 + x165 <= 1
C1462: + x12 + x13 <= 1
C1463: + x42 + x77 <= 1
C1464: + x117 + x462 <= 1
C1465: + x9 + x463 <= 1
C1466: + x286 + x436 <= 1
C1467: + x159 + x164 <= 1
C1468: + x6 + x242 <= 1
C1469: + x6 + x333 <= 1
C1470: + x8 + x89 <= 1
C1471: + x2 + x178 <= 1
C1472: + x122 + x141 <= 1
C1473: + x12 + x158 <= 1
C1474: + x124 + x241 <= 1
C1475: + x41 + x117 <= 1
C1476: + x34 + x233 <= 1
C1477: + x16 + x41 <= 1
C1478: + x62 + x259 <= 1
C1479: + x46 + x73 <= 1
C1480: + x56 + x130 <= 1
C1481: + x58 + x304 <= 1
C1482: + x14 + x416 <= 1
C1483: + x17 + x398 <= 1
C1484: + x7 + x145 <= 1
C1485: + x95 + x143 + x261 <= 1
C1486: + x113 + x295 <= 1
C1487: + x171 + x306 <= 1
C1488: + x8 + x13 <= 1
C1489: + x83 + x113 <= 1
C1490: + x49 + x374 <= 1
C1491: + x32 + x58 <= 1
C1492: + x15 + x100 <= 1
C1493: + x8 + x158 <= 1
C1494: + x173 + x221 <= 1
C1495: + x5 + x94 <= 1
C1496: + x9 + x25 <= 1
C1497: + x11 + x13 + x38 <= 1
C1498: + x105 + x482 <= 1
C1499: + x61 + x248 <= 1
C1500: + x6 + x72 <= 1
C1501: + x220 + x366 <= 1
C1502: + x3 + x152 <= 1
C1503: + x123 + x425 <= 1
C1504: + x353 + x465 <= 1
C1505: + x73 + x147 <= 1
C1506: + x8 + x82 <= 1
C1507: + x1 + x5 <= 1
C1508: + x20 + x216 <= 1
C1509: + x13 + x29 <= 1
C1510: + x33 + x254 <= 1
C1511: + x98 + x290 <= 1
C1512: + x5 + x479 <= 1
C1513: + x25 + x40 <= 1
C1514: + x6 + x12 <= 1
C1515: + x15 + x95 <= 1
C1516: + x273 + x484 <= 1
C1517: + x81 + x439 <= 1
C1518: + x183 + x264 <= 1
C1519: + x391 + x408 <= 1
C1520: + x84 + x429 <= 1
C1521: + x7 + x27 <= 1
C1522: + x190 + x368 <= 1
C1523: + x84 + x268 <= 1
C1524: + x11 + x42 <= 1
C1525: + x8 + x425 <= 1
C1526: + x127 + x371 <= 1
C1527: + x80 + x89 <= 1
C1528: + x254 + x318 <= 1
C1529: + x7 + x200 <= 1
C1530: + x41 + x55 <= 1
C1531: + x4 + x75 <= 1
C1532: + x115 + x230 <= 1
C1533: + x188 + x237 <= 1
C1534: + x22 + x253 <= 1
C1535: + x188 + x314 <= 1
C1536: + x12 + x224 <= 1
C1537: + x50 + x478 <= 1
C1538: + x88 + x472 <= 1
C1539: + x56 + x196 <= 1
C1540: + x223 + x256 <= 1
C1541: + x52 + x228 <= 1
C1542: + x4 + x445 <= 1
C1543: + x143 + x207 <= 1
C1544: + x44 + x335 <= 1
C1545: + x8 + x349 <= 1
C1546: + x12 + x301 <= 1
C1547: + x97 + x163 <= 1
C1548: + x198 + x292 <= 1
C1549: + x343 + x351 <= 1
C1550: + x47 + x96 <= 1
C1551: + x95 + x353 <= 1
C1552: + x318 + x480 <= 1
C1553: + x102 + x275 <= 1
C1554: + x78 + x135 <= 1
C1555: + x4 + x361 <= 1
C1556: + x74 + x255 <= 1
C1557: + x10 + x114 <= 1
C1558: + x300 + x348 <= 1
C1559: + x47 + x463 <= 1
C1560: + x57 + x344 <= 1
C1561: + x9 + x219 <= 1
C1562: + x237 + x388 <= 1
C1563: + x134 + x446 <= 1
C1564: + x51 + x334 <= 1
C1565: + x6 + x390 <= 1
C1566: + x7 + x30 <= 1
C1567: + x165 + x454 <= 1
C1568: + x248 + x364 <= 1
C1569: + x139 + x238 <= 1
C1570: + x345 + x496 <= 1
C1571: + x109 + x377 <= 1
C1572: + x79 + x174 <= 1
C1573: + x14 + x169 <= 1
C1574: + x117 + x134 <= 1
C1575: + x110 + x117 <= 1
C1576: + x138 + x468 <= 1
C1577: + x111 + x259 <= 1
C1578: + x213 + x220 <= 1
C1579: + x115 + x267 <= 1
C1580: + x7 + x74 <= 1
C1581: + x4 + x193 <= 1
C1582: + x89 + x199 <= 1
C1583: + x6 + x237 <= 1
C1584: + x158 + x375 <= 1
C1585: + x59 + x480 <= 1
C1586: + x32 + x247 <= 1
C1587: + x366 + x394 <= 1
C1588: + x21 + x496 <= 1
C1589: + x49 + x303 <= 1
C1590: + x12 + x435 <= 1
C1591: + x209 + x307 <= 1
C1592: + x7 + x134 <= 1
C1593: + x27 + x474 <= 1
C1594: + x264 + x460 <= 1
C1595: + x146 + x208 <= 1
C1596: + x164 + x185 <= 1
C1597: + x12 + x274 <= 1
C1598: + x59 + x79 <= 1
C1599: + x260 + x324 <= 1
C1600: + x228 + x472 <= 1
C1601: + x156 + x403 <= 1
C1602: + x158 + x395 <= 1
C1603: + x4 + x44 <= 1
C1604: + x9 + x447 <= 1
C1605: + x8 + x415 <= 1
C1606: + x3 + x45 <= 1
C1607: + x115 + x435 <= 1
C1608: + x63 + x83 <= 1
C1609: + x356 + x380 <= 1
C1610: + x60 + x257 <= 1
C1611: + x179 + x225 <= 1
C1612: + x7 + x424 <= 1
C1613: + x120 + x299 <= 1
C1614: + x249 + x328 <= 1
C1615: + x80 + x224 <= 1
C1616: + x100 + x428 <= 1
C1617: + x11 + x16 <= 1
C1618: + x70 + x347 <= 1
C1619: + x15 + x129 <= 1
C1620: + x276 + x418 <= 1
C1621: + x25 + x299 <= 1
C1622: + x14 + x289 <= 1
C1623: + x488 + x490 <= 1
C1624: + x119 + x373 <= 1
C1625: + x8 + x484 <= 1
C1626: + x56 + x230 <= 1
C1627: + x3 + x20 <= 1
C1628: + x49 + x145 <= 1
C1629: + x122 + x447 <= 1
C1630: + x137 + x236 <= 1
C1631: + x164 + x363 <= 1
C1632: + x38 + x270 <= 1
C1633: + x21 + x332 <= 1
C1634: + x51 + x411 <= 1
C1635: + x161 + x242 <= 1
C1636: + x5 + x14 <= 1
C1637: + x24 + x239 <= 1
C1638: + x6 + x341 <= 1
C1639: + x41 + x157 <= 1
C1640: + x61 + x72 <= 1
C1641: + x7 + x16 <= 1
C1642: + x88 + x270 <= 1
C1643: + x74 + x122 <= 1
C1644: + x57 + x160 <= 1
C1645: + x20 + x22 <= 1
C1646: + x31 + x386 <= 1
C1647: + x359 + x490 <= 1
C1648: + x8 + x315 <= 1
C1649: + x31 + x35 <= 1
C1650: + x102 + x346 <= 1
C1651: + x84 + x400 <= 1
C1652: + x357 + x450 <= 1
C1653: + x277 + x444 <= 1
C1654: + x92 + x162 <= 1
C1655: + x66 + x471 <= 1
C1656: + x2 + x151 <= 1
C1657: + x215 + x412 <= 1
C1658: + x2 + x306 <= 1
C1659: + x12 + x30 <= 1
C1660: + x87 + x298 <= 1
C1661: + x57 + x365 <= 1
C1662: + x140 + x144 <= 1
C1663: + x286 + x421 <= 1
C1664: + x70 + x376 <= 1
C1665: + x95 + x229 <= 1
C1666: + x41 + x487 <= 1
C1667: + x6 + x131 <= 1
C1668: + x26 + x343 <= 1
C1669: + x8 + x106 <= 1
C1670: + x59 + x310 <= 1
C1671: + x435 + x492 <= 1
C1672: + x46 + x311 <= 1
C1673: + x34 + x218 <= 1
C1674: + x6 + x497 <= 1
C1675: + x102 + x498 <= 1
C1676: + x61 + x292 <= 1
C1677: + x72 + x116 <= 1
C1678: + x40 + x75 <= 1
C1679: + x279 + x460 <= 1
C1680: + x12 + x39 <= 1
C1681: + x338 + x455 <= 1
C1682: + x104 + x127 <= 1
C1683: + x51 + x318 <= 1
C1684: + x225 + x428 <= 1
C1685: + x66 + x75 <= 1
C1686: + x20 + x88 <= 1
C1687: + x233 + x444 <= 1
C1688: + x12 + x474 <= 1
C1689: + x6 + x105 <= 1
C1690: + x71 + x175 <= 1
C1691: + x246 + x282 <= 1
C1692: + x32 + x115 <= 1
C1693: + x189 + x369 <= 1
C1694: + x326 + x338 <= 1
C1695: + x201 + x332 <= 1
C1696: + x33 + x237 <= 1
C1697: + x5 + x494 <= 1
C1698: + x63 + x235 <= 1
C1699: + x74 + x108 <= 1
C1700: + x183 + x392 <= 1
C1701: + x2 + x455 <= 1
C1702: + x98 + x126 <= 1
C1703: + x127 + x499 <= 1
C1704: + x62 + x112 <= 1
C1705: + x7 + x155 <= 1
C1706: + x101 + x322 <= 1
C1707: + x38 + x356 <= 1
C1708: + x5 + x40 <= 1
C1709: + x287 + x482 <= 1
C1710: + x6 + x267 <= 1
C1711: + x9 + x35 <= 1
C1712: + x8 + x27 <= 1
C1713: + x190 + x254 <= 1
C1714: + x86 + x386 <= 1
C1715: + x22 + x312 <= 1
C1716: + x34 + x47 <= 1
C1717: + x153 + x443 <= 1
C1718: + x9 + x416 <= 1
C1719: + x272 + x460 <= 1
C1720: + x56 + x271 <= 1
C1721: + x140 + x194 <= 1
C1722: + x13 + x338 <= 1
C1723: + x61 + x271 <= 1
C1724: + x159 + x241 <= 1
C1725: + x7 + x284 <= 1
C1726: + x62 + x495 <= 1
C1727: + x237 + x299 <= 1
C1728: + x12 + x173 <= 1
C1729: + x23 + x287 <= 1
C1730: + x72 + x143 <= 1
C1731: + x3 + x436 <= 1
C1732: + x104 + x354 <= 1
C1733: + x359 + x423 <= 1
C1734: + x13 + x134 <= 1
C1735: + x215 + x261 <= 1
C1736: + x56 + x98 <= 1
C1737: + x12 + x153 <= 1
C1738: + x4 + x8 <= 1
C1739: + x40 + x236 <= 1
C1740: + x50 + x411 <= 1
C1741: + x7 + x497 <= 1
C1742: + x203 + x329 <= 1
C1743: + x275 + x353 <= 1
C1744: + x40 + x406 <= 1
C1745: + x23 + x56 <= 1
C1746: + x15 + x81 <= 1
C1747: + x72 + x429 <= 1
C1748: + x28 + x57 <= 1
C1749: + x101 + x134 <= 1
C1750: + x5 + x47 <= 1
C1751: + x67 + x439 <= 1
C1752: + x140 + x469 <= 1
C1753: + x268 + x284 <= 1
C1754: + x178 + x301 <= 1
C1755: + x26 + x67 <= 1
C1756: + x272 + x465 <= 1
C1757: + x77 + x196 <= 1
C1758: + x9 + x12 + x14 <= 1
C1759: + x121 + x339 <= 1
C1760: + x64 + x456 <= 1
C1761: + x305 + x357 <= 1
C1762: + x76 + x95 <= 1
C1763: + x5 + x432 <= 1
C1764: + x9 + x22 <= 1
C1765: + x72 + x136 <= 1
C1766: + x27 + x228 <= 1
C1767: + x58 + x360 <= 1
C1768: + x7 + x448 <= 1
C1769: + x8 + x456 <= 1
C1770: + x128 + x387 <= 1
C1771: + x11 + x24 <= 1
C1772: + x325 + x332 <= 1
C1773: + x139 + x390 <= 1
C1774: + x33 + x251 <= 1
C1775: + x17 + x101 <= 1
C1776: + x127 + x132 <= 1
C1777: + x20 + x50 <= 1
C1778: + x33 + x72 <= 1
C1779: + x42 + x125 <= 1
C1780: + x9 + x319 <= 1
C1781: + x83 + x222 <= 1
C1782: + x57 + x334 <= 1
C1783: + x30 + x153 <= 1
C1784: + x296 + x445 <= 1
C1785: + x289 + x452 <= 1
C1786: + x10 + x167 <= 1
C1787: + x13 + x86 <= 1
C1788: + x151 + x355 <= 1
C1789: + x8 + x432 <= 1
C1790: + x220 + x342 <= 1
C1791: + x11 + x43 <= 1
C1792: + x84 + x190 <= 1
C1793: + x51 + x70 <= 1
C1794: + x224 + x358 <= 1
C1795: + x64 + x461 <= 1
C1796: + x180 + x183 <= 1
C1797: + x117 + x180 <= 1
C1798: + x22 + x270 <= 1
C1799: + x6 + x68 <= 1
C1800: + x11 + x31 <= 1
C1801: + x2 + x100 <= 1
C1802: + x40 + x59 <= 1
C1803: + x4 + x215 <= 1
C1804: + x18 + x382 <= 1
C1805: + x178 + x355 <= 1
C1806: + x80 + x382 <= 1
C1807: + x2 + x298 <= 1
C1808: + x20 + x494 <= 1
C1809: + x7 + x144 <= 1
C1810: + x9 + x294 <= 1
C1811: + x228 + x335 <= 1
C1812: + x238 + x364 <= 1
C1813: + x66 + x384 <= 1
C1814: + x91 + x354 <= 1
C1815: + x10 + x176 <= 1
C1816: + x3 + x5 + x7 + x8 <= 1
C1817: + x80 + x130 <= 1
C1818: + x3 + x87 <= 1
C1819: + x87 + x222 <= 1
C1820: + x333 + x374 <= 1
C1821: + x218 + x369 <= 1
C1822: + x322 + x410 <= 1
C1823: + x2 + x101 <= 1
C1824: + x192 + x402 <= 1
C1825: + x145 + x182 <= 1
C1826: + x1 + x32 <= 1
C1827: + x83 + x394 <= 1
C1828: + x46 + x276 <= 1
C1829: + x114 + x206 <= 1
C1830: + x13 + x24 <= 1
C1831: + x9 + x80 <= 1
C1832: + x62 + x273 <= 1
C1833: + x174 + x311 <= 1
C1834: + x57 + x74 <= 1
C1835: + x348 + x475 <= 1
C1836: + x58 + x137 + x286 <= 1
C1837: + x90 + x101 <= 1
C1838: + x121 + x412 <= 1
C1839: + x40 + x104 <= 1
C1840: + x141 + x359 <= 1
C1841: + x107 + x218 <= 1
C1842: + x26 + x187 <= 1
C1843: + x6 + x367 <= 1
C1844: + x25 + x162 <= 1
C1845: + x171 + x449 <= 1
C1846: + x256 + x257 <= 1
C1847: + x58 + x266 <= 1
C1848: + x239 + x329 <= 1
C1849: + x164 + x228 <= 1
C1850: + x272 + x323 <= 1
C1851: + x47 + x415 <= 1
C1852: + x146 + x330 <= 1
C1853: + x14 + x368 <= 1
C1854: + x53 + x66 <= 1
C1855: + x5 + x389 <= 1
C1856: + x9 + x11 <= 1
C1857: + x17 + x59 <= 1
C1858: + x2 + x126 <= 1
C1859: + x234 + x263 <= 1
C1860: + x93 + x96 <= 1
C1861: + x56 + x70 <= 1
C1862: + x129 + x476 <= 1
C1863: + x121 + x308 <= 1
C1864: + x66 + x473 <= 1
C1865: + x79 + x340 <= 1
C1866: + x91 + x449 <= 1
C1867: + x3 + x21 <= 1
C1868: + x407 + x458 <= 1
C1869: + x72 + x401 <= 1
C1870: + x438 + x497 <= 1
C1871: + x167 + x220 <= 1
C1872: + x4 + x241 <= 1
C1873: + x107 + x193 <= 1
C1874: + x8 + x120 <= 1
C1875: + x193 + x216 <= 1
C1876: + x174 + x321 <= 1
C1877: + x195 + x200 <= 1
C1878: + x13 + x67 <= 1
C1879: + x124 + x283 <= 1
C1880: + x123 + x240 <= 1
C1881: + x187 + x278 <= 1
C1882: + x61 + x69 <= 1
C1883: + x7 + x9 <= 1
C1884: + x59 + x62 <= 1
C1885: + x137 + x213 <= 1
C1886: + x265 + x319 <= 1
C1887: + x283 + x457 <= 1
C1888: + x37 + x379 <= 1
C1889: + x38 + x373 <= 1
C1890: + x59 + x415 <= 1
C1891: + x142 + x436 <= 1
C1892: + x7 + x412 <= 1
C1893: + x63 + x325 <= 1
C1894: + x122 + x196 <= 1
C1895: + x230 + x408 <= 1
C1896: + x5 + x289 <= 1
C1897: + x161 + x477 <= 1
C1898: + x9 + x495 <= 1
C1899: + x136 + x150 <= 1
C1900: + x21 + x260 <= 1
C1901: + x167 + x231 <= 1
C1902: + x25 + x402 <= 1
C1903: + x6 + x210 <= 1
C1904: + x18 + x353 <= 1
C1905: + x9 + x332 <= 1
C1906: + x14 + x349 <= 1
C1907: + x6 + x464 <= 1
C1908: + x21 + x70 <= 1
C1909: + x31 + x474 <= 1
C1910: + x118 + x494 <= 1
C1911: + x63 + x110 <= 1
C1912: + x119 + x406 <= 1
C1913: + x220 + x257 <= 1
C1914: + x410 + x477 <= 1
C1915: + x86 + x213 <= 1
C1916: + x51 + x407 <= 1
C1917: + x16 + x186 <= 1
C1918: + x8 + x109 <= 1
C1919: + x458 + x489 <= 1
C1920: + x143 + x156 <= 1
C1921: + x225 + x256 <= 1
C1922: + x6 + x23 <= 1
C1923: + x192 + x320 <= 1
C1924: + x140 + x327 <= 1
C1925: + x302 + x441 <= 1
C1926: + x7 + x64 <= 1
C1927: + x1 + x275 <= 1
C1928: + x12 + x344 <= 1
C1929: + x19 + x51 <= 1
C1930: + x8 + x178 <= 1
C1931: + x213 + x432 <= 1
C1932: + x51 + x319 <= 1
C1933: + x188 + x285 <= 1
C1934: + x89 + x118 <= 1
C1935: + x6 + x457 <= 1
C1936: + x385 + x444 <= 1
C1937: + x12 + x18 <= 1
C1938: + x233 + x441 <= 1
C1939: + x77 + x135 <= 1
C1940: + x13 + x148 <= 1
C1941: + x286 + x417 <= 1
C1942: + x100 + x179 <= 1
C1943: + x47 + x65 <= 1
C1944: + x48 + x179 <= 1
C1945: + x187 + x296 <= 1
C1946: + x70 + x98 <= 1
C1947: + x18 + x124 <= 1
C1948: + x38 + x73 <= 1

binary
x1 x2 x3 x4 x5 x6 x7 x8 x9 x10 x11 x12 x13 x14 x15 x16 x17 x18 x19 x20 x21 x22 x23 x24 x25 x26 x27 x28 x29 x30 x31 x32 x33 x34 x35 x36 x37 x38 x39 x40 x41 x42 x43 x44 x45 x46 x47 x48 x49 x50 x51 x52 x53 x54 x55 x56 x57 x58 x59 x60 x61 x62 x63 x64 x65 x66 x67 x68 x69 x70 x71 x72 x73 x74 x75 x76 x77 x78 x79 x80 x81 x82 x83 x84 x85 x86 x87 x88 x89 x90 x91 x92 x93 x94 x95 x96 x97 x98 x99 x100 x101 x102 x103 x104 x105 x106 x107 x108 x109 x110 x111 x112 x113 x114 x115 x116 x117 x118 x119 x120 x121 x122 x123 x124 x125 x126 x127 x128 x129 x130 x131 x132 x133 x134 x135 x136 x137 x138 x139 x140 x141 x142 x143 x144 x145 x146 x147 x148 x149 x150 x151 x152 x153 x154 x155 x156 x157 x158 x159 x160 x161 x162 x163 x164 x165 x166 x167 x168 x169 x170 x171 x172 x173 x174 x175 x176 x177 x178 x179 x180 x181 x182 x183 x184 x185 x186 x187 x188 x189 x190 x191 x192 x193 x194 x195 x196 x197 x198 x199 x200 x201 x202 x203 x204 x205 x206 x207 x208 x209 x210 x211 x212 x213 x214 x215 x216 x217 x218 x219 x220 x221 x222 x223 x224 x225 x226 x227 x228 x229 x230 x231 x232 x233 x234 x235 x236 x237 x238 x239 x240 x241 x242 x243 x244 x245 x246 x247 x248 x249 x250 x251 x252 x253 x254 x255 x256 x257 x258 x259 x260 x261 x262 x263 x264 x265 x266 x267 x268 x269 x270 x271 x272 x273 x274 x275 x276 x277 x278 x279 x280 x281 x282 x283 x284 x285 x286 x287 x288 x289 x290 x291 x292 x293 x294 x295 x296 x297 x298 x299 x300 x301 x302 x303 x304 x305 x306 x307 x308 x309 x310 x311 x312 x313 x314 x315 x316 x317 x318 x319 x320 x321 x322 x323 x324 x325 x326 x327 x328 x329 x330 x331 x332 x333 x334 x335 x336 x337 x338 x339 x340 x341 x342 x343 x344 x345 x346 x347 x348 x349 x350 x351 x352 x353 x354 x355 x356 x357 x358 x359 x360 x361 x362 x363 x364 x365 x366 x367 x368 x369 x370 x371 x372 x373 x374 x375 x376 x377 x378 x379 x380 x381 x382 x383 x384 x385 x386 x387 x388 x389 x390 x391 x392 x393 x394 x395 x396 x397 x398 x399 x400 x401 x402 x403 x404 x405 x406 x407 x408 x409 x410 x411 x412 x413 x414 x415 x416 x417 x418 x419 x420 x421 x422 x423 x424 x425 x426 x427 x428 x429 x430 x431 x432 x433 x434 x435 x436 x437 x438 x439 x440 x441 x442 x443 x444 x445 x446 x447 x448 x449 x450 x451 x452 x453 x454 x455 x456 x457 x458 x459 x460 x461 x462 x463 x464 x465 x466 x467 x468 x469 x470 x471 x472 x473 x474 x475 x476 x477 x478 x479 x480 x481 x482 x483 x484 x485 x486 x487 x488 x489 x490 x491 x492 x493 x494 x495 x496 x497 x498 x499 x500
