maximize
OBJ: + 1 x1 + 1 x2 + 1 x3 + 1 x4 + 1 x5 + 1 x6 + 1 x7 + 1 x8 + 1 x9 + 1 x10 + 1 x11 + 1 x12 + 1 x13 + 1 x14 + 1 x15 + 1 x16 + 1 x17 + 1 x18 + 1 x19 + 1 x20 + 1 x21 + 1 x22 + 1 x23 + 1 x24 + 1 x25 + 1 x26 + 1 x27 + 1 x28 + 1 x29 + 1 x30 + 1 x31 + 1 x32 + 1 x33 + 1 x34 + 1 x35 + 1 x36 + 1 x37 + 1 x38 + 1 x39 + 1 x40 + 1 x41 + 1 x42 + 1 x43 + 1 x44 + 1 x45 + 1 x46 + 1 x47 + 1 x48 + 1 x49 + 1 x50 + 1 x51 + 1 x52 + 1 x53 + 1 x54 + 1 x55 + 1 x56 + 1 x57 + 1 x58 + 1 x59 + 1 x60 + 1 x61 + 1 x62 + 1 x63 + 1 x64 + 1 x65 + 1 x66 + 1 x67 + 1 x68 + 1 x69 + 1 x70 + 1 x71 + 1 x72 + 1 x73 + 1 x74 + 1 x75 + 1 x76 + 1 x77 + 1 x78 + 1 x79 + 1 x80 + 1 x81 + 1 x82 + 1 x83 + 1 x84 + 1 x85 + 1 x86 + 1 x87 + 1 x88 + 1 x89 + 1 x90 + 1 x91 + 1 x92 + 1 x93 + 1 x94 + 1 x95 + 1 x96 + 1 x97 + 1 x98 + 1 x99 + 1 x100 + 1 x101 + 1 x102 + 1 x103 + 1 x104 + 1 x105 + 1 x106 + 1 x107 + 1 x108 + 1 x109 + 1 x110 + 1 x111 + 1 x112 + 1 x113 + 1 x114 + 1 x115 + 1 x116 + 1 x117 + 1 x118 + 1 x119 + 1 x120 + 1 x121 + 1 x122 + 1 x123 + 1 x124 + 1 x125 + 1 x126 + 1 x127 + 1 x128 + 1 x129 + 1 x130 + 1 x131 + 1 x132 + 1 x133 + 1 x134 + 1 x135 + 1 x136 + 1 x137 + 1 x138 + 1 x139 + 1 x140 + 1 x141 + 1 x142 + 1 x143 + 1 x144 + 1 x145 + 1 x146 + 1 x147 + 1 x148 + 1 x149 + 1 x150 + 1 x151 + 1 x152 + 1 x153 + 1 x154 + 1 x155 + 1 x156 + 1 x157 + 1 x158 + 1 x159 + 1 x160 + 1 x161 + 1 x162 + 1 x163 + 1 x164 + 1 x165 + 1 x166 + 1 x167 + 1 x168 + 1 x169 + 1 x170 + 1 x171 + 1 x172 + 1 x173 + 1 x174 + 1 x175 + 1 x176 + 1 x177 + 1 x178 + 1 x179 + 1 x180 + 1 x181 + 1 x182 + 1 x183 + 1 x184 + 1 x185 + 1 x186 + 1 x187 + 1 x188 + 1 x189 + 1 x190 + 1 x191 + 1 x192 + 1 x193 + 1 x194 + 1 x195 + 1 x196 + 1 x197 + 1 x198 + 1 x199 + 1 x200 + 1 x201 + 1 x202 + 1 x203 + 1 x204 + 1 x205 + 1 x206 + 1 x207 + 1 x208 + 1 x209 + 1 x210 + 1 x211 + 1 x212 + 1 x213 + 1 x214 + 1 x215 + 1 x216 + 1 x217 + 1 x218 + 1 x219 + 1 x220 + 1 x221 + 1 x222 + 1 x223 + 1 x224 + 1 x225 + 1 x226 + 1 x227 + 1 x228 + 1 x229 + 1 x230 + 1 x231 + 1 x232 + 1 x233 + 1 x234 + 1 x235 + 1 x236 + 1 x237 + 1 x238 + 1 x239 + 1 x240 + 1 x241 + 1 x242 + 1 x243 + 1 x244 + 1 x245 + 1 x246 + 1 x247 + 1 x248 + 1 x249 + 1 x250 + 1 x251 + 1 x252 + 1 x253 + 1 x254 + 1 x255 + 1 x256 + 1 x257 + 1 x258 + 1 x259 + 1 x260 + 1 x261 + 1 x262 + 1 x263 + 1 x264 + 1 x265 + 1 x266 + 1 x267 + 1 x268 + 1 x269 + 1 x270 + 1 x271 + 1 x272 + 1 x273 + 1 x274 + 1 x275 + 1 x276 + 1 x277 + 1 x278 + 1 x279 + 1 x280 + 1 x281 + 1 x282 + 1 x283 + 1 x284 + 1 x285 + 1 x286 + 1 x287 + 1 x288 + 1 x289 + 1 x290 + 1 x291 + 1 x292 + 1 x293 + 1 x294 + 1 x295 + 1 x296 + 1 x297 + 1 x298 + 1 x299 + 1 x300 + 1 x301 + 1 x302 + 1 x303 + 1 x304 + 1 x305 + 1 x306 + 1 x307 + 1 x308 + 1 x309 + 1 x310 + 1 x311 + 1 x312 + 1 x313 + 1 x314 + 1 x315 + 1 x316 + 1 x317 + 1 x318 + 1 x319 + 1 x320 + 1 x321 + 1 x322 + 1 x323 + 1 x324 + 1 x325 + 1 x326 + 1 x327 + 1 x328 + 1 x329 + 1 x330 + 1 x331 + 1 x332 + 1 x333 + 1 x334 + 1 x335 + 1 x336 + 1 x337 + 1 x338 + 1 x339 + 1 x340 + 1 x341 + 1 x342 + 1 x343 + 1 x344 + 1 x345 + 1 x346 + 1 x347 + 1 x348 + 1 x349 + 1 x350 + 1 x351 + 1 x352 + 1 x353 + 1 x354 + 1 x355 + 1 x356 + 1 x357 + 1 x358 + 1 x359 + 1 x360 + 1 x361 + 1 x362 + 1 x363 + 1 x364 + 1 x365 + 1 x366 + 1 x367 + 1 x368 + 1 x369 + 1 x370 + 1 x371 + 1 x372 + 1 x373 + 1 x374 + 1 x375 + 1 x376 + 1 x377 + 1 x378 + 1 x379 + 1 x380 + 1 x381 + 1 x382 + 1 x383 + 1 x384 + 1 x385 + 1 x386 + 1 x387 + 1 x388 + 1 x389 + 1 x390 + 1 x391 + 1 x392 + 1 x393 + 1 x394 + 1 x395 + 1 x396 + 1 x397 + 1 x398 + 1 x399 + 1 x400 + 1 x401 + 1 x402 + 1 x403 + 1 x404 + 1 x405 + 1 x406 + 1 x407 + 1 x408 + 1 x409 + 1 x410 + 1 x411 + 1 x412 + 1 x413 + 1 x414 + 1 x415 + 1 x416 + 1 x417 + 1 x418 + 1 x419 + 1 x420 + 1 x421 + 1 x422 + 1 x423 + 1 x424 + 1 x425 + 1 x426 + 1 x427 + 1 x428 + 1 x429 + 1 x430 + 1 x431 + 1 x432 + 1 x433 + 1 x434 + 1 x435 + 1 x436 + 1 x437 + 1 x438 + 1 x439 + 1 x440 + 1 x441 + 1 x442 + 1 x443 + 1 x444 + 1 x445 + 1 x446 + 1 x447 + 1 x448 + 1 x449 + 1 x450 + 1 x451 + 1 x452 + 1 x453 + 1 x454 + 1 x455 + 1 x456 + 1 x457 + 1 x458 + 1 x459 + 1 x460 + 1 x461 + 1 x462 + 1 x463 + 1 x464 + 1 x465 + 1 x466 + 1 x467 + 1 x468 + 1 x469 + 1 x470 + 1 x471 + 1 x472 + 1 x473 + 1 x474 + 1 x475 + 1 x476 + 1 x477 + 1 x478 + 1 x479 + 1 x480 + 1 x481 + 1 x482 + 1 x483 + 1 x484 + 1 x485 + 1 x486 + 1 x487 + 1 x488 + 1 x489 + 1 x490 + 1 x491 + 1 x492 + 1 x493 + 1 x494 + 1 x495 + 1 x496 + 1 x497 + 1 x498 + 1 x499 + 1 x500

subject to
C1: + x43 + x390 <= 1
C2: + x6 + x32 <= 1
C3: + x16 + x377 <= 1
C4: + x7 + x168 <= 1
C5: + x1 + x176 <= 1
C6: + x8 + x304 <= 1
C7: + x96 + x102 <= 1
C8: + x87 + x91 <= 1
C9: + x17 + x318 <= 1
C10: + x7 + x406 <= 1
C11: + x53 + x95 <= 1
C12: + x247 + x500 <= 1
C13: + x35 + x396 <= 1
C14: + x130 + x140 <= 1
C15: + x359 + x465 <= 1
C16: + x80 + x444 <= 1
C17: + x158 + x350 <= 1
C18: + x33 + x368 <= 1
C19: + x5 + x105 <= 1
C20: + x208 + x223 <= 1
C21: + x30 + x428 <= 1
C22: + x4 + x329 <= 1
C23: + x7 + x99 <= 1
C24: + x337 + x481 <= 1
C25: + x277 + x403 <= 1
C26: + x24 + x334 <= 1
C27: + x6 + x323 <= 1
C28: + x117 + x357 <= 1
C29: + x83 + x418 <= 1
C30: + x63 + x88 + x148 <= 1
C31: + x315 + x476 <= 1
C32: + x2 + x475 <= 1
C33: + x139 + x142 <= 1
C34: + x23 + x49 <= 1
C35: + x180 + x399 <= 1
C36: + x6 + x25 <= 1
C37: + x202 + x465 <= 1
C38: + x14 + x201 <= 1
C39: + x126 + x143 <= 1
C40: + x281 + x343 <= 1
C41: + x180 + x225 <= 1
C42: + x20 + x149 <= 1
C43: + x82 + x105 <= 1
C44: + x19 + x311 <= 1
C45: + x5 + x179 <= 1
C46: + x362 + x438 <= 1
C47: + x7 + x203 <= 1
C48: + x94 + x172 <= 1
C49: + x20 + x262 <= 1
C50: + x98 + x169 <= 1
C51: + x23 + x234 <= 1
C52: + x164 + x423 <= 1
C53: + x49 + x186 <= 1
C54: + x77 + x395 <= 1
C55: + x47 + x228 <= 1
C56: + x24 + x488 <= 1
C57: + x144 + x242 <= 1
C58: + x75 + x169 <= 1
C59: + x114 + x372 <= 1
C60: + x23 + x89 <= 1
C61: + x181 + x214 <= 1
C62: + x4 + x12 <= 1
C63: + x23 + x367 <= 1
C64: + x221 + x271 <= 1
C65: + x406 + x434 <= 1
C66: + x74 + x263 <= 1
C67: + x275 + x386 <= 1
C68: + x37 + x415 <= 1
C69: + x46 + x438 <= 1
C70: + x5 + x43 <= 1
C71: + x11 + x306 <= 1
C72: + x4 + x56 <= 1
C73: + x123 + x486 <= 1
C74: + x108 + x124 <= 1
C75: + x227 + x419 <= 1
C76: + x18 + x152 <= 1
C77: + x15 + x375 <= 1
C78: + x117 + x177 <= 1
C79: + x6 + x292 <= 1
C80: + x20 + x106 <= 1
C81: + x7 + x436 <= 1
C82: + x30 + x115 <= 1
C83: + x37 + x466 <= 1
C84: + x4 + x214 <= 1
C85: + x23 + x84 <= 1
C86: + x167 + x255 <= 1
C87: + x8 + x81 <= 1
C88: + x20 + x215 <= 1
C89: + x191 + x192 <= 1
C90: + x22 + x199 <= 1
C91: + x87 + x418 <= 1
C92: + x254 + x475 <= 1
C93: + x28 + x292 <= 1
C94: + x11 + x426 <= 1
C95: + x49 + x237 <= 1
C96: + x326 + x483 <= 1
C97: + x69 + x232 <= 1
C98: + x6 + x11 <= 1
C99: + x118 + x278 <= 1
C100: + x10 + x437 <= 1
C101: + x19 + x99 <= 1
C102: + x265 + x450 <= 1
C103: + x4 + x130 <= 1
C104: + x5 + x18 <= 1
C105: + x270 + x390 <= 1
C106: + x72 + x325 <= 1
C107: + x156 + x392 <= 1
C108: + x60 + x76 <= 1
C109: + x25 + x88 <= 1
C110: + x17 + x21 <= 1
C111: + x7 + x28 <= 1
C112: + x111 + x394 <= 1
C113: + x139 + x343 <= 1
C114: + x67 + x156 <= 1
C115: + x175 + x361 <= 1
C116: + x23 + x31 <= 1
C117: + x5 + x161 <= 1
C118: + x9 + x164 <= 1
C119: + x33 + x373 <= 1
C120: + x282 + x359 <= 1
C121: + x319 + x489 <= 1
C122: + x47 + x238 <= 1
C123: + x156 + x383 <= 1
C124: + x95 + x197 <= 1
C125: + x22 + x109 <= 1
C126: + x6 + x227 <= 1
C127: + x80 + x112 <= 1
C128: + x8 + x74 <= 1
C129: + x38 + x138 <= 1
C130: + x20 + x224 <= 1
C131: + x30 + x253 <= 1
C132: + x42 + x207 <= 1
C133: + x304 + x398 <= 1
C134: + x16 + x58 <= 1
C135: + x182 + x375 <= 1
C136: + x211 + x249 <= 1
C137: + x186 + x295 <= 1
C138: + x33 + x83 <= 1
C139: + x98 + x389 <= 1
C140: + x9 + x298 <= 1
C141: + x29 + x354 <= 1
C142: + x368 + x435 <= 1
C143: + x43 + x283 <= 1
C144: + x81 + x90 <= 1
C145: + x26 + x182 <= 1
C146: + x18 + x241 <= 1
C147: + x1 + x41 <= 1
C148: + x291 + x463 <= 1
C149: + x230 + x446 <= 1
C150: + x213 + x348 <= 1
C151: + x58 + x192 <= 1
C152: + x95 + x132 <= 1
C153: + x47 + x319 <= 1
C154: + x5 + x176 <= 1
C155: + x188 + x467 <= 1
C156: + x13 + x379 <= 1
C157: + x14 + x69 <= 1
C158: + x8 + x147 <= 1
C159: + x110 + x209 <= 1
C160: + x52 + x77 <= 1
C161: + x14 + x470 <= 1
C162: + x144 + x205 <= 1
C163: + x1 + x258 <= 1
C164: + x265 + x388 <= 1
C165: + x49 + x337 <= 1
C166: + x29 + x421 <= 1
C167: + x2 + x438 <= 1
C168: + x23 + x110 <= 1
C169: + x109 + x302 <= 1
C170: + x290 + x398 <= 1
C171: + x218 + x486 <= 1
C172: + x2 + x156 <= 1
C173: + x45 + x59 <= 1
C174: + x441 + x475 <= 1
C175: + x4 + x127 <= 1
C176: + x15 + x397 <= 1
C177: + x108 + x408 <= 1
C178: + x68 + x222 <= 1
C179: + x141 + x190 <= 1
C180: + x34 + x94 <= 1
C181: + x345 + x428 <= 1
C182: + x6 + x125 <= 1
C183: + x1 + x131 <= 1
C184: + x20 + x342 <= 1
C185: + x4 + x144 <= 1
C186: + x5 + x8 <= 1
C187: + x6 + x160 <= 1
C188: + x156 + x406 <= 1
C189: + x248 + x477 <= 1
C190: + x256 + x426 <= 1
C191: + x4 + x43 <= 1
C192: + x168 + x473 <= 1
C193: + x7 + x22 <= 1
C194: + x172 + x471 <= 1
C195: + x67 + x289 <= 1
C196: + x94 + x109 <= 1
C197: + x6 + x33 <= 1
C198: + x8 + x140 <= 1
C199: + x54 + x402 <= 1
C200: + x176 + x208 <= 1
C201: + x6 + x287 <= 1
C202: + x9 + x15 <= 1
C203: + x310 + x496 <= 1
C204: + x12 + x44 <= 1
C205: + x19 + x463 <= 1
C206: + x58 + x141 <= 1
C207: + x7 + x227 <= 1
C208: + x7 + x312 <= 1
C209: + x31 + x229 <= 1
C210: + x23 + x194 <= 1
C211: + x171 + x388 <= 1
C212: + x8 + x483 <= 1
C213: + x67 + x209 <= 1
C214: + x13 + x309 <= 1
C215: + x159 + x304 <= 1
C216: + x261 + x423 <= 1
C217: + x19 + x80 <= 1
C218: + x1 + x154 <= 1
C219: + x220 + x272 <= 1
C220: + x301 + x347 <= 1
C221: + x5 + x15 <= 1
C222: + x88 + x99 <= 1
C223: + x122 + x252 <= 1
C224: + x21 + x42 <= 1
C225: + x17 + x122 <= 1
C226: + x226 + x331 <= 1
C227: + x7 + x13 <= 1
C228: + x10 + x412 <= 1
C229: + x1 + x214 <= 1
C230: + x15 + x339 <= 1
C231: + x18 + x31 <= 1
C232: + x321 + x360 <= 1
C233: + x96 + x366 <= 1
C234: + x181 + x423 <= 1
C235: + x16 + x488 <= 1
C236: + x321 + x389 <= 1
C237: + x49 + x335 <= 1
C238: + x30 + x293 <= 1
C239: + x41 + x444 <= 1
C240: + x7 + x303 <= 1
C241: + x122 + x177 <= 1
C242: + x167 + x374 <= 1
C243: + x87 + x303 <= 1
C244: + x8 + x383 <= 1
C245: + x19 + x71 <= 1
C246: + x2 + x7 <= 1
C247: + x1 + x145 <= 1
C248: + x20 + x356 <= 1
C249: + x11 + x124 <= 1
C250: + x211 + x468 <= 1
C251: + x266 + x498 <= 1
C252: + x17 + x212 <= 1
C253: + x9 + x241 <= 1
C254: + x1 + x62 <= 1
C255: + x309 + x434 <= 1
C256: + x12 + x110 <= 1
C257: + x7 + x8 <= 1
C258: + x135 + x201 <= 1
C259: + x256 + x307 <= 1
C260: + x250 + x480 <= 1
C261: + x44 + x285 <= 1
C262: + x336 + x363 <= 1
C263: + x108 + x335 <= 1
C264: + x111 + x277 <= 1
C265: + x319 + x389 <= 1
C266: + x276 + x322 <= 1
C267: + x37 + x40 <= 1
C268: + x2 + x68 <= 1
C269: + x30 + x318 <= 1
C270: + x178 + x413 <= 1
C271: + x6 + x199 <= 1
C272: + x26 + x275 <= 1
C273: + x292 + x405 <= 1
C274: + x44 + x59 <= 1
C275: + x46 + x158 <= 1
C276: + x48 + x261 <= 1
C277: + x34 + x97 <= 1
C278: + x296 + x342 <= 1
C279: + x24 + x305 <= 1
C280: + x88 + x113 <= 1
C281: + x162 + x314 <= 1
C282: + x36 + x119 <= 1
C283: + x102 + x135 <= 1
C284: + x122 + x134 <= 1
C285: + x16 + x131 <= 1
C286: + x16 + x34 <= 1
C287: + x19 + x264 <= 1
C288: + x129 + x135 <= 1
C289: + x136 + x212 <= 1
C290: + x156 + x264 <= 1
C291: + x33 + x75 <= 1
C292: + x6 + x28 <= 1
C293: + x117 + x393 <= 1
C294: + x65 + x191 <= 1
C295: + x76 + x109 <= 1
C296: + x5 + x33 <= 1
C297: + x35 + x392 <= 1
C298: + x17 + x135 <= 1
C299: + x99 + x200 <= 1
C300: + x98 + x224 <= 1
C301: + x9 + x36 <= 1
C302: + x317 + x448 <= 1
C303: + x64 + x73 <= 1
C304: + x1 + x494 <= 1
C305: + x5 + x184 <= 1
C306: + x53 + x413 <= 1
C307: + x165 + x217 <= 1
C308: + x380 + x490 <= 1
C309: + x159 + x488 <= 1
C310: + x24 + x136 <= 1
C311: + x7 + x454 <= 1
C312: + x15 + x361 <= 1
C313: + x307 + x469 <= 1
C314: + x5 + x327 <= 1
C315: + x262 + x300 <= 1
C316: + x164 + x257 <= 1
C317: + x92 + x377 <= 1
C318: + x49 + x425 <= 1
C319: + x41 + x470 <= 1
C320: + x50 + x63 <= 1
C321: + x432 + x459 <= 1
C322: + x417 + x461 <= 1
C323: + x24 + x245 <= 1
C324: + x99 + x312 <= 1
C325: + x8 + x95 <= 1
C326: + x12 + x156 <= 1
C327: + x50 + x410 <= 1
C328: + x103 + x497 <= 1
C329: + x7 + x147 <= 1
C330: + x63 + x385 <= 1
C331: + x48 + x53 <= 1
C332: + x26 + x372 <= 1
C333: + x19 + x146 <= 1
C334: + x246 + x457 <= 1
C335: + x86 + x394 <= 1
C336: + x60 + x395 <= 1
C337: + x31 + x267 <= 1
C338: + x16 + x499 <= 1
C339: + x327 + x439 <= 1
C340: + x20 + x427 <= 1
C341: + x204 + x442 <= 1
C342: + x69 + x162 <= 1
C343: + x14 + x86 <= 1
C344: + x15 + x158 <= 1
C345: + x73 + x378 <= 1
C346: + x55 + x314 <= 1
C347: + x240 + x313 <= 1
C348: + x42 + x322 <= 1
C349: + x98 + x173 <= 1
C350: + x132 + x452 <= 1
C351: + x158 + x339 <= 1
C352: + x165 + x293 <= 1
C353: + x6 + x90 <= 1
C354: + x318 + x344 <= 1
C355: + x108 + x129 + x366 <= 1
C356: + x103 + x174 <= 1
C357: + x105 + x285 <= 1
C358: + x370 + x443 <= 1
C359: + x6 + x253 <= 1
C360: + x26 + x63 <= 1
C361: + x23 + x464 <= 1
C362: + x6 + x14 <= 1
C363: + x288 + x336 <= 1
C364: + x123 + x127 <= 1
C365: + x285 + x469 <= 1
C366: + x5 + x23 <= 1
C367: + x6 + x380 <= 1
C368: + x27 + x40 <= 1
C369: + x45 + x126 <= 1
C370: + x9 + x210 <= 1
C371: + x22 + x142 <= 1
C372: + x295 + x401 <= 1
C373: + x13 + x87 <= 1
C374: + x52 + x369 <= 1
C375: + x7 + x194 <= 1
C376: + x28 + x77 <= 1
C377: + x94 + x161 <= 1
C378: + x6 + x304 <= 1
C379: + x7 + x440 <= 1
C380: + x151 + x467 <= 1
C381: + x47 + x239 <= 1
C382: + x15 + x24 <= 1
C383: + x271 + x329 <= 1
C384: + x129 + x253 <= 1
C385: + x40 + x54 <= 1
C386: + x23 + x88 <= 1
C387: + x9 + x344 <= 1
C388: + x16 + x291 <= 1
C389: + x22 + x195 <= 1
C390: + x125 + x164 <= 1
C391: + x63 + x157 <= 1
C392: + x366 + x403 <= 1
C393: + x314 + x341 <= 1
C394: + x74 + x249 <= 1
C395: + x135 + x411 <= 1
C396: + x211 + x492 <= 1
C397: + x105 + x208 <= 1
C398: + x50 + x485 <= 1
C399: + x4 + x134 <= 1
C400: + x5 + x30 <= 1
C401: + x25 + x330 <= 1
C402: + x44 + x107 <= 1
C403: + x55 + x153 <= 1
C404: + x261 + x363 <= 1
C405: + x174 + x334 <= 1
C406: + x4 + x33 <= 1
C407: + x207 + x445 <= 1
C408: + x5 + x272 <= 1
C409: + x116 + x411 <= 1
C410: + x155 + x445 <= 1
C411: + x136 + x243 <= 1
C412: + x130 + x147 <= 1
C413: + x86 + x170 <= 1
C414: + x21 + x299 <= 1
C415: + x6 + x59 <= 1
C416: + x36 + x404 <= 1
C417: + x27 + x82 <= 1
C418: + x65 + x261 <= 1
C419: + x226 + x405 <= 1
C420: + x16 + x114 <= 1
C421: + x128 + x221 <= 1
C422: + x31 + x289 <= 1
C423: + x133 + x180 <= 1
C424: + x147 + x294 <= 1
C425: + x68 + x76 <= 1
C426: + x223 + x414 <= 1
C427: + x1 + x17 <= 1
C428: + x64 + x441 <= 1
C429: + x5 + x451 <= 1
C430: + x102 + x286 <= 1
C431: + x6 + x128 <= 1
C432: + x271 + x416 <= 1
C433: + x12 + x288 <= 1
C434: + x1 + x45 <= 1
C435: + x8 + x122 <= 1
C436: + x7 + x23 <= 1
C437: + x39 + x496 <= 1
C438: + x7 + x180 <= 1
C439: + x9 + x175 <= 1
C440: + x5 + x73 <= 1
C441: + x26 + x198 <= 1
C442: + x19 + x175 <= 1
C443: + x248 + x280 <= 1
C444: + x294 + x377 <= 1
C445: + x349 + x393 <= 1
C446: + x167 + x388 <= 1
C447: + x17 + x60 <= 1
C448: + x63 + x64 <= 1
C449: + x129 + x203 <= 1
C450: + x120 + x464 <= 1
C451: + x67 + x163 <= 1
C452: + x69 + x323 <= 1
C453: + x5 + x224 <= 1
C454: + x427 + x484 <= 1
C455: + x91 + x301 <= 1
C456: + x21 + x219 <= 1
C457: + x9 + x120 <= 1
C458: + x161 + x403 <= 1
C459: + x36 + x342 <= 1
C460: + x10 + x427 <= 1
C461: + x374 + x453 <= 1
C462: + x140 + x149 <= 1
C463: + x88 + x429 <= 1
C464: + x9 + x199 <= 1
C465: + x21 + x47 <= 1
C466: + x4 + x47 <= 1
C467: + x98 + x259 <= 1
C468: + x24 + x52 <= 1
C469: + x7 + x10 <= 1
C470: + x23 + x324 <= 1
C471: + x100 + x483 <= 1
C472: + x203 + x338 <= 1
C473: + x51 + x112 <= 1
C474: + x6 + x45 <= 1
C475: + x163 + x351 <= 1
C476: + x244 + x251 <= 1
C477: + x12 + x193 <= 1
C478: + x106 + x254 <= 1
C479: + x158 + x311 <= 1
C480: + x17 + x150 <= 1
C481: + x7 + x409 <= 1
C482: + x15 + x336 <= 1
C483: + x61 + x154 <= 1
C484: + x76 + x203 <= 1
C485: + x23 + x121 <= 1
C486: + x9 + x333 <= 1
C487: + x157 + x349 <= 1
C488: + x21 + x226 <= 1
C489: + x276 + x421 <= 1
C490: + x161 + x333 <= 1
C491: + x327 + x474 <= 1
C492: + x211 + x231 <= 1
C493: + x6 + x98 <= 1
C494: + x7 + x114 <= 1
C495: + x28 + x29 <= 1
C496: + x142 + x265 + x449 <= 1
C497: + x106 + x187 <= 1
C498: + x5 + x11 <= 1
C499: + x235 + x479 <= 1
C500: + x37 + x276 <= 1
C501: + x98 + x284 <= 1
C502: + x243 + x399 <= 1
C503: + x96 + x422 <= 1
C504: + x17 + x126 <= 1
C505: + x56 + x181 <= 1
C506: + x266 + x350 <= 1
C507: + x30 + x493 <= 1
C508: + x13 + x357 <= 1
C509: + x132 + x138 <= 1
C510: + x5 + x154 <= 1
C511: + x6 + x22 <= 1
C512: + x26 + x450 <= 1
C513: + x28 + x41 <= 1
C514: + x292 + x424 <= 1
C515: + x12 + x250 <= 1
C516: + x40 + x73 <= 1
C517: + x116 + x172 <= 1
C518: + x68 + x402 <= 1
C519: + x18 + x19 <= 1
C520: + x8 + x36 <= 1
C521: + x119 + x181 <= 1
C522: + x210 + x294 <= 1
C523: + x39 + x168 <= 1
C524: + x30 + x414 <= 1
C525: + x331 + x485 <= 1
C526: + x32 + x426 <= 1
C527: + x253 + x414 <= 1
C528: + x93 + x349 <= 1
C529: + x5 + x206 <= 1
C530: + x26 + x270 <= 1
C531: + x118 + x325 <= 1
C532: + x131 + x451 <= 1
C533: + x5 + x448 <= 1
C534: + x16 + x17 <= 1
C535: + x28 + x260 <= 1
C536: + x20 + x86 <= 1
C537: + x252 + x354 <= 1
C538: + x100 + x388 <= 1
C539: + x91 + x117 <= 1
C540: + x58 + x102 <= 1
C541: + x86 + x221 <= 1
C542: + x117 + x204 <= 1
C543: + x219 + x320 <= 1
C544: + x63 + x268 <= 1
C545: + x186 + x252 <= 1
C546: + x268 + x309 <= 1
C547: + x10 + x294 <= 1
C548: + x311 + x331 <= 1
C549: + x375 + x384 <= 1
C550: + x313 + x481 <= 1
C551: + x96 + x194 <= 1
C552: + x53 + x334 <= 1
C553: + x6 + x31 <= 1
C554: + x62 + x82 <= 1
C555: + x63 + x66 <= 1
C556: + x9 + x271 <= 1
C557: + x8 + x303 <= 1
C558: + x30 + x137 <= 1
C559: + x223 + x495 <= 1
C560: + x98 + x219 <= 1
C561: + x87 + x92 <= 1
C562: + x68 + x137 <= 1
C563: + x25 + x481 <= 1
C564: + x32 + x54 <= 1
C565: + x245 + x380 <= 1
C566: + x28 + x126 <= 1
C567: + x16 + x251 <= 1
C568: + x115 + x247 <= 1
C569: + x179 + x196 <= 1
C570: + x32 + x296 <= 1
C571: + x324 + x420 <= 1
C572: + x5 + x106 <= 1
C573: + x23 + x281 <= 1
C574: + x20 + x91 <= 1
C575: + x59 + x132 <= 1
C576: + x75 + x278 <= 1
C577: + x20 + x365 <= 1
C578: + x69 + x356 <= 1
C579: + x4 + x6 <= 1
C580: + x60 + x446 <= 1
C581: + x23 + x341 <= 1
C582: + x171 + x422 <= 1
C583: + x6 + x485 <= 1
C584: + x1 + x470 <= 1
C585: + x256 + x296 <= 1
C586: + x49 + x256 <= 1
C587: + x47 + x351 <= 1
C588: + x485 + x500 <= 1
C589: + x313 + x488 <= 1
C590: + x6 + x8 <= 1
C591: + x36 + x437 <= 1
C592: + x10 + x93 <= 1
C593: + x6 + x187 <= 1
C594: + x26 + x367 <= 1
C595: + x219 + x331 <= 1
C596: + x49 + x79 <= 1
C597: + x60 + x61 <= 1
C598: + x42 + x135 <= 1
C599: + x346 + x376 <= 1
C600: + x22 + x67 + x165 <= 1
C601: + x212 + x362 <= 1
C602: + x1 + x244 <= 1
C603: + x48 + x128 <= 1
C604: + x86 + x382 <= 1
C605: + x53 + x107 <= 1
C606: + x10 + x364 <= 1
C607: + x79 + x202 <= 1
C608: + x17 + x468 <= 1
C609: + x156 + x215 <= 1
C610: + x69 + x363 <= 1
C611: + x5 + x232 <= 1
C612: + x35 + x116 <= 1
C613: + x16 + x152 <= 1
C614: + x1 + x16 <= 1
C615: + x128 + x179 <= 1
C616: + x44 + x69 <= 1
C617: + x299 + x453 <= 1
C618: + x23 + x368 <= 1
C619: + x18 + x117 <= 1
C620: + x63 + x151 <= 1
C621: + x67 + x257 <= 1
C622: + x130 + x201 <= 1
C623: + x33 + x70 <= 1
C624: + x413 + x482 <= 1
C625: + x133 + x247 <= 1
C626: + x23 + x457 <= 1
C627: + x10 + x70 <= 1
C628: + x94 + x240 <= 1
C629: + x21 + x178 <= 1
C630: + x14 + x193 <= 1
C631: + x108 + x305 <= 1
C632: + x8 + x15 <= 1
C633: + x235 + x273 <= 1
C634: + x99 + x489 <= 1
C635: + x100 + x459 <= 1
C636: + x50 + x128 <= 1
C637: + x31 + x428 <= 1
C638: + x6 + x53 <= 1
C639: + x19 + x29 <= 1
C640: + x23 + x35 + x37 <= 1
C641: + x1 + x408 <= 1
C642: + x21 + x373 <= 1
C643: + x5 + x239 <= 1
C644: + x346 + x424 <= 1
C645: + x94 + x376 <= 1
C646: + x58 + x476 <= 1
C647: + x85 + x349 <= 1
C648: + x213 + x394 <= 1
C649: + x104 + x491 <= 1
C650: + x107 + x283 <= 1
C651: + x70 + x92 <= 1
C652: + x67 + x197 <= 1
C653: + x3 + x5 <= 1
C654: + x15 + x93 <= 1
C655: + x6 + x10 <= 1
C656: + x207 + x285 <= 1
C657: + x2 + x58 <= 1
C658: + x77 + x353 <= 1
C659: + x441 + x445 <= 1
C660: + x14 + x250 <= 1
C661: + x6 + x173 <= 1
C662: + x96 + x107 + x345 <= 1
C663: + x10 + x170 <= 1
C664: + x191 + x233 <= 1
C665: + x157 + x265 <= 1
C666: + x68 + x297 <= 1
C667: + x86 + x415 <= 1
C668: + x31 + x370 <= 1
C669: + x158 + x439 <= 1
C670: + x1 + x83 <= 1
C671: + x38 + x244 <= 1
C672: + x4 + x64 <= 1
C673: + x60 + x75 <= 1
C674: + x313 + x450 <= 1
C675: + x7 + x25 <= 1
C676: + x49 + x218 <= 1
C677: + x17 + x435 <= 1
C678: + x2 + x246 <= 1
C679: + x55 + x309 <= 1
C680: + x37 + x331 <= 1
C681: + x14 + x174 <= 1
C682: + x32 + x275 <= 1
C683: + x52 + x404 <= 1
C684: + x82 + x491 <= 1
C685: + x10 + x150 <= 1
C686: + x66 + x81 <= 1
C687: + x246 + x482 <= 1
C688: + x216 + x309 <= 1
C689: + x25 + x386 <= 1
C690: + x6 + x226 <= 1
C691: + x7 + x242 <= 1
C692: + x9 + x145 <= 1
C693: + x129 + x451 <= 1
C694: + x4 + x121 <= 1
C695: + x65 + x123 <= 1
C696: + x3 + x32 <= 1
C697: + x19 + x402 <= 1
C698: + x35 + x429 <= 1
C699: + x289 + x480 <= 1
C700: + x10 + x211 <= 1
C701: + x321 + x351 <= 1
C702: + x21 + x37 <= 1
C703: + x124 + x260 <= 1
C704: + x25 + x96 <= 1
C705: + x37 + x72 <= 1
C706: + x15 + x116 <= 1
C707: + x7 + x189 <= 1
C708: + x118 + x157 <= 1
C709: + x10 + x36 <= 1
C710: + x8 + x142 <= 1
C711: + x199 + x227 <= 1
C712: + x81 + x377 <= 1
C713: + x7 + x80 <= 1
C714: + x57 + x277 <= 1
C715: + x13 + x176 <= 1
C716: + x1 + x21 <= 1
C717: + x220 + x409 <= 1
C718: + x76 + x448 <= 1
C719: + x10 + x240 <= 1
C720: + x166 + x306 <= 1
C721: + x188 + x269 <= 1
C722: + x6 + x473 <= 1
C723: + x46 + x178 <= 1
C724: + x49 + x289 <= 1
C725: + x164 + x360 <= 1
C726: + x157 + x250 <= 1
C727: + x223 + x462 <= 1
C728: + x14 + x236 <= 1
C729: + x8 + x118 <= 1
C730: + x182 + x240 <= 1
C731: + x47 + x49 <= 1
C732: + x107 + x305 <= 1
C733: + x7 + x11 <= 1
C734: + x176 + x364 <= 1
C735: + x14 + x125 <= 1
C736: + x1 + x363 <= 1
C737: + x456 + x477 <= 1
C738: + x5 + x386 <= 1
C739: + x254 + x401 <= 1
C740: + x28 + x254 <= 1
C741: + x175 + x491 <= 1
C742: + x26 + x101 <= 1
C743: + x7 + x71 <= 1
C744: + x6 + x433 <= 1
C745: + x182 + x471 <= 1
C746: + x84 + x155 <= 1
C747: + x27 + x47 + x118 <= 1
C748: + x14 + x49 <= 1
C749: + x6 + x212 <= 1
C750: + x227 + x385 <= 1
C751: + x3 + x260 <= 1
C752: + x390 + x472 <= 1
C753: + x37 + x130 <= 1
C754: + x148 + x460 <= 1
C755: + x349 + x473 <= 1
C756: + x413 + x454 <= 1
C757: + x22 + x495 <= 1
C758: + x15 + x50 <= 1
C759: + x6 + x101 <= 1
C760: + x182 + x411 <= 1
C761: + x10 + x98 <= 1
C762: + x83 + x269 <= 1
C763: + x6 + x136 <= 1
C764: + x117 + x194 <= 1
C765: + x27 + x61 <= 1
C766: + x282 + x301 <= 1
C767: + x40 + x255 <= 1
C768: + x4 + x19 <= 1
C769: + x350 + x376 <= 1
C770: + x85 + x403 <= 1
C771: + x130 + x225 <= 1
C772: + x67 + x230 <= 1
C773: + x8 + x17 + x30 <= 1
C774: + x23 + x33 <= 1
C775: + x180 + x447 <= 1
C776: + x140 + x325 <= 1
C777: + x26 + x211 <= 1
C778: + x55 + x187 <= 1
C779: + x21 + x127 <= 1
C780: + x50 + x245 <= 1
C781: + x27 + x358 <= 1
C782: + x147 + x276 <= 1
C783: + x84 + x164 <= 1
C784: + x130 + x189 <= 1
C785: + x21 + x265 <= 1
C786: + x51 + x96 <= 1
C787: + x60 + x137 <= 1
C788: + x17 + x340 <= 1
C789: + x96 + x132 <= 1
C790: + x118 + x179 <= 1
C791: + x19 + x53 <= 1
C792: + x3 + x283 <= 1
C793: + x143 + x337 <= 1
C794: + x21 + x67 <= 1
C795: + x98 + x431 <= 1
C796: + x65 + x338 <= 1
C797: + x93 + x195 <= 1
C798: + x84 + x240 <= 1
C799: + x25 + x419 <= 1
C800: + x6 + x129 <= 1
C801: + x151 + x423 <= 1
C802: + x206 + x478 <= 1
C803: + x1 + x63 <= 1
C804: + x248 + x430 <= 1
C805: + x41 + x134 <= 1
C806: + x44 + x241 <= 1
C807: + x191 + x354 <= 1
C808: + x147 + x343 <= 1
C809: + x314 + x320 <= 1
C810: + x6 + x18 <= 1
C811: + x18 + x20 + x160 <= 1
C812: + x101 + x146 <= 1
C813: + x30 + x140 <= 1
C814: + x117 + x157 <= 1
C815: + x18 + x23 <= 1
C816: + x201 + x307 <= 1
C817: + x6 + x272 <= 1
C818: + x50 + x238 <= 1
C819: + x27 + x365 <= 1
C820: + x1 + x280 <= 1
C821: + x11 + x64 <= 1
C822: + x130 + x182 <= 1
C823: + x221 + x371 <= 1
C824: + x181 + x185 <= 1
C825: + x92 + x185 <= 1
C826: + x164 + x193 <= 1
C827: + x28 + x121 <= 1
C828: + x48 + x118 <= 1
C829: + x4 + x85 <= 1
C830: + x53 + x97 <= 1
C831: + x7 + x452 <= 1
C832: + x54 + x202 <= 1
C833: + x50 + x279 <= 1
C834: + x17 + x474 <= 1
C835: + x6 + x87 <= 1
C836: + x186 + x413 <= 1
C837: + x68 + x111 <= 1
C838: + x189 + x371 <= 1
C839: + x17 + x263 <= 1
C840: + x134 + x416 <= 1
C841: + x15 + x274 <= 1
C842: + x274 + x362 <= 1
C843: + x48 + x186 <= 1
C844: + x21 + x57 <= 1
C845: + x223 + x324 <= 1
C846: + x60 + x441 <= 1
C847: + x184 + x420 <= 1
C848: + x50 + x150 <= 1
C849: + x23 + x51 <= 1
C850: + x6 + x27 <= 1
C851: + x44 + x277 <= 1
C852: + x13 + x288 <= 1
C853: + x228 + x350 <= 1
C854: + x16 + x328 <= 1
C855: + x36 + x436 <= 1
C856: + x213 + x496 <= 1
C857: + x291 + x323 <= 1
C858: + x131 + x390 <= 1
C859: + x6 + x190 <= 1
C860: + x17 + x136 <= 1
C861: + x13 + x42 + x81 <= 1
C862: + x46 + x226 <= 1
C863: + x78 + x110 <= 1
C864: + x44 + x166 <= 1
C865: + x265 + x417 <= 1
C866: + x73 + x191 <= 1
C867: + x72 + x486 <= 1
C868: + x10 + x12 <= 1
C869: + x284 + x492 <= 1
C870: + x42 + x352 <= 1
C871: + x6 + x317 <= 1
C872: + x46 + x150 <= 1
C873: + x139 + x266 <= 1
C874: + x147 + x405 <= 1
C875: + x176 + x316 <= 1
C876: + x133 + x200 <= 1
C877: + x216 + x294 <= 1
C878: + x6 + x96 <= 1
C879: + x1 + x315 <= 1
C880: + x7 + x104 <= 1
C881: + x189 + x266 <= 1
C882: + x44 + x68 <= 1
C883: + x1 + x13 <= 1
C884: + x2 + x478 <= 1
C885: + x15 + x87 <= 1
C886: + x137 + x481 <= 1
C887: + x84 + x421 <= 1
C888: + x99 + x494 <= 1
C889: + x60 + x160 <= 1
C890: + x4 + x296 <= 1
C891: + x425 + x444 <= 1
C892: + x199 + x400 <= 1
C893: + x7 + x208 <= 1
C894: + x110 + x225 <= 1
C895: + x4 + x67 <= 1
C896: + x15 + x369 <= 1
C897: + x83 + x168 <= 1
C898: + x328 + x372 <= 1
C899: + x191 + x396 <= 1
C900: + x13 + x191 <= 1
C901: + x23 + x94 <= 1
C902: + x102 + x184 <= 1
C903: + x20 + x213 <= 1
C904: + x160 + x300 <= 1
C905: + x18 + x105 <= 1
C906: + x218 + x305 <= 1
C907: + x173 + x346 <= 1
C908: + x138 + x157 <= 1
C909: + x286 + x450 <= 1
C910: + x23 + x170 <= 1
C911: + x6 + x176 <= 1
C912: + x17 + x246 <= 1
C913: + x26 + x175 <= 1
C914: + x54 + x273 <= 1
C915: + x2 + x328 <= 1
C916: + x25 + x324 <= 1
C917: + x84 + x430 <= 1
C918: + x22 + x141 <= 1
C919: + x49 + x122 <= 1
C920: + x286 + x357 <= 1
C921: + x6 + x414 <= 1
C922: + x45 + x292 <= 1
C923: + x34 + x63 <= 1
C924: + x53 + x207 <= 1
C925: + x10 + x14 + x16 <= 1
C926: + x13 + x322 <= 1
C927: + x78 + x195 <= 1
C928: + x9 + x365 <= 1
C929: + x203 + x391 <= 1
C930: + x268 + x356 <= 1
C931: + x34 + x357 <= 1
C932: + x63 + x338 <= 1
C933: + x1 + x108 <= 1
C934: + x39 + x185 <= 1
C935: + x42 + x192 <= 1
C936: + x5 + x310 <= 1
C937: + x21 + x369 <= 1
C938: + x25 + x447 <= 1
C939: + x6 + x229 <= 1
C940: + x53 + x440 <= 1
C941: + x27 + x28 <= 1
C942: + x9 + x238 <= 1
C943: + x7 + x328 <= 1
C944: + x320 + x330 <= 1
C945: + x48 + x85 <= 1
C946: + x1 + x27 <= 1
C947: + x294 + x455 <= 1
C948: + x37 + x145 <= 1
C949: + x122 + x123 <= 1
C950: + x41 + x340 <= 1
C951: + x133 + x250 <= 1
C952: + x24 + x26 + x39 <= 1
C953: + x2 + x34 + x38 <= 1
C954: + x8 + x274 <= 1
C955: + x104 + x169 <= 1
C956: + x268 + x429 <= 1
C957: + x22 + x51 <= 1
C958: + x46 + x205 <= 1
C959: + x21 + x26 <= 1
C960: + x124 + x220 <= 1
C961: + x168 + x290 <= 1
C962: + x44 + x137 <= 1
C963: + x82 + x94 <= 1
C964: + x84 + x274 <= 1
C965: + x7 + x186 <= 1
C966: + x36 + x42 <= 1
C967: + x197 + x259 <= 1
C968: + x29 + x89 <= 1
C969: + x248 + x282 <= 1
C970: + x21 + x110 <= 1
C971: + x93 + x190 <= 1
C972: + x86 + x253 <= 1
C973: + x189 + x279 <= 1
C974: + x7 + x246 <= 1
C975: + x299 + x435 <= 1
C976: + x8 + x69 <= 1
C977: + x1 + x18 <= 1
C978: + x49 + x60 <= 1
C979: + x21 + x221 <= 1
C980: + x235 + x347 <= 1
C981: + x275 + x332 <= 1
C982: + x211 + x484 <= 1
C983: + x32 + x133 <= 1
C984: + x15 + x314 <= 1
C985: + x27 + x55 <= 1
C986: + x2 + x338 <= 1
C987: + x20 + x175 <= 1
C988: + x122 + x237 <= 1
C989: + x60 + x401 <= 1
C990: + x42 + x254 <= 1
C991: + x7 + x24 <= 1
C992: + x190 + x355 <= 1
C993: + x199 + x344 <= 1
C994: + x38 + x92 <= 1
C995: + x6 + x35 <= 1
C996: + x27 + x493 <= 1
C997: + x36 + x47 <= 1
C998: + x7 + x262 <= 1
C999: + x21 + x152 <= 1
C1000: + x5 + x74 <= 1
C1001: + x5 + x391 <= 1
C1002: + x14 + x163 <= 1
C1003: + x20 + x123 <= 1
C1004: + x59 + x164 <= 1
C1005: + x61 + x132 <= 1
C1006: + x53 + x225 <= 1
C1007: + x220 + x370 <= 1
C1008: + x234 + x261 <= 1
C1009: + x24 + x365 <= 1
C1010: + x7 + x237 <= 1
C1011: + x118 + x173 <= 1
C1012: + x63 + x467 <= 1
C1013: + x30 + x241 <= 1
C1014: + x25 + x159 <= 1
C1015: + x6 + x453 <= 1
C1016: + x10 + x426 <= 1
C1017: + x11 + x115 <= 1
C1018: + x31 + x114 <= 1
C1019: + x225 + x268 <= 1
C1020: + x133 + x397 <= 1
C1021: + x317 + x348 <= 1
C1022: + x54 + x364 <= 1
C1023: + x47 + x53 <= 1
C1024: + x88 + x371 <= 1
C1025: + x28 + x321 <= 1
C1026: + x220 + x248 <= 1
C1027: + x20 + x458 <= 1
C1028: + x167 + x297 <= 1
C1029: + x25 + x456 <= 1
C1030: + x6 + x44 <= 1
C1031: + x146 + x254 <= 1
C1032: + x120 + x158 <= 1
C1033: + x4 + x191 <= 1
C1034: + x324 + x393 <= 1
C1035: + x25 + x41 + x287 <= 1
C1036: + x16 + x71 <= 1
C1037: + x174 + x371 <= 1
C1038: + x48 + x298 <= 1
C1039: + x33 + x170 <= 1
C1040: + x259 + x336 <= 1
C1041: + x419 + x466 <= 1
C1042: + x108 + x146 <= 1
C1043: + x7 + x232 <= 1
C1044: + x7 + x297 <= 1
C1045: + x199 + x424 <= 1
C1046: + x23 + x219 <= 1
C1047: + x17 + x67 <= 1
C1048: + x134 + x281 <= 1
C1049: + x6 + x97 <= 1
C1050: + x93 + x200 <= 1
C1051: + x67 + x79 <= 1
C1052: + x30 + x379 <= 1
C1053: + x32 + x139 <= 1
C1054: + x15 + x268 <= 1
C1055: + x16 + x188 <= 1
C1056: + x99 + x296 <= 1
C1057: + x130 + x407 <= 1
C1058: + x61 + x94 <= 1
C1059: + x6 + x498 <= 1
C1060: + x27 + x350 <= 1
C1061: + x79 + x130 <= 1
C1062: + x25 + x463 <= 1
C1063: + x8 + x256 <= 1
C1064: + x283 + x466 <= 1
C1065: + x21 + x166 <= 1
C1066: + x14 + x213 <= 1
C1067: + x53 + x485 <= 1
C1068: + x226 + x447 <= 1
C1069: + x17 + x142 <= 1
C1070: + x38 + x223 <= 1
C1071: + x68 + x131 <= 1
C1072: + x17 + x43 <= 1
C1073: + x307 + x333 <= 1
C1074: + x24 + x32 <= 1
C1075: + x8 + x322 <= 1
C1076: + x139 + x206 <= 1
C1077: + x47 + x282 <= 1
C1078: + x4 + x84 <= 1
C1079: + x16 + x20 <= 1
C1080: + x9 + x103 <= 1
C1081: + x63 + x186 <= 1
C1082: + x7 + x461 <= 1
C1083: + x42 + x72 <= 1
C1084: + x16 + x439 <= 1
C1085: + x14 + x26 <= 1
C1086: + x91 + x324 <= 1
C1087: + x7 + x352 <= 1
C1088: + x55 + x358 <= 1
C1089: + x192 + x210 <= 1
C1090: + x34 + x212 <= 1
C1091: + x142 + x339 <= 1
C1092: + x1 + x480 <= 1
C1093: + x58 + x214 <= 1
C1094: + x251 + x327 <= 1
C1095: + x52 + x341 <= 1
C1096: + x6 + x30 <= 1
C1097: + x8 + x298 <= 1
C1098: + x10 + x91 <= 1
C1099: + x8 + x245 <= 1
C1100: + x56 + x415 <= 1
C1101: + x1 + x79 <= 1
C1102: + x19 + x153 <= 1
C1103: + x12 + x93 <= 1
C1104: + x50 + x226 <= 1
C1105: + x41 + x182 <= 1
C1106: + x6 + x431 <= 1
C1107: + x4 + x318 <= 1
C1108: + x425 + x434 <= 1
C1109: + x26 + x278 <= 1
C1110: + x7 + x283 <= 1
C1111: + x173 + x234 <= 1
C1112: + x14 + x130 <= 1
C1113: + x6 + x83 <= 1
C1114: + x2 + x19 <= 1
C1115: + x105 + x276 <= 1
C1116: + x41 + x468 <= 1
C1117: + x14 + x19 <= 1
C1118: + x16 + x138 <= 1
C1119: + x177 + x217 <= 1
C1120: + x4 + x5 <= 1
C1121: + x60 + x100 <= 1
C1122: + x50 + x412 <= 1
C1123: + x26 + x56 <= 1
C1124: + x107 + x298 <= 1
C1125: + x92 + x408 <= 1
C1126: + x221 + x306 <= 1
C1127: + x97 + x272 <= 1
C1128: + x197 + x457 <= 1
C1129: + x53 + x342 <= 1
C1130: + x8 + x295 <= 1
C1131: + x146 + x300 <= 1
C1132: + x37 + x402 <= 1
C1133: + x5 + x46 <= 1
C1134: + x6 + x373 <= 1
C1135: + x471 + x499 <= 1
C1136: + x46 + x222 <= 1
C1137: + x1 + x70 <= 1
C1138: + x86 + x396 <= 1
C1139: + x4 + x392 <= 1
C1140: + x17 + x25 <= 1
C1141: + x26 + x68 <= 1
C1142: + x7 + x48 <= 1
C1143: + x400 + x411 <= 1
C1144: + x136 + x330 <= 1
C1145: + x32 + x62 <= 1
C1146: + x4 + x66 <= 1
C1147: + x40 + x174 <= 1
C1148: + x44 + x55 <= 1
C1149: + x16 + x98 <= 1
C1150: + x7 + x447 <= 1
C1151: + x157 + x464 <= 1
C1152: + x79 + x207 <= 1
C1153: + x247 + x290 <= 1
C1154: + x86 + x238 <= 1
C1155: + x30 + x326 <= 1
C1156: + x17 + x199 <= 1
C1157: + x254 + x381 <= 1
C1158: + x19 + x215 <= 1
C1159: + x369 + x416 <= 1
C1160: + x4 + x14 <= 1
C1161: + x60 + x121 <= 1
C1162: + x86 + x321 <= 1
C1163: + x107 + x273 <= 1
C1164: + x37 + x111 <= 1
C1165: + x47 + x359 <= 1
C1166: + x17 + x385 <= 1
C1167: + x6 + x16 <= 1
C1168: + x75 + x155 <= 1
C1169: + x94 + x239 <= 1
C1170: + x37 + x409 <= 1
C1171: + x368 + x431 <= 1
C1172: + x46 + x436 <= 1
C1173: + x70 + x408 <= 1
C1174: + x53 + x498 <= 1
C1175: + x302 + x418 <= 1
C1176: + x7 + x39 <= 1
C1177: + x19 + x304 <= 1
C1178: + x113 + x425 <= 1
C1179: + x376 + x393 <= 1
C1180: + x27 + x73 <= 1
C1181: + x16 + x204 <= 1
C1182: + x29 + x290 <= 1
C1183: + x70 + x476 <= 1
C1184: + x5 + x89 <= 1
C1185: + x9 + x28 <= 1
C1186: + x8 + x62 <= 1
C1187: + x20 + x108 <= 1
C1188: + x47 + x233 <= 1
C1189: + x157 + x455 <= 1
C1190: + x211 + x442 <= 1
C1191: + x140 + x169 <= 1
C1192: + x26 + x308 <= 1
C1193: + x27 + x420 <= 1
C1194: + x4 + x115 <= 1
C1195: + x115 + x222 <= 1
C1196: + x20 + x56 <= 1
C1197: + x3 + x6 <= 1
C1198: + x38 + x98 <= 1
C1199: + x59 + x231 <= 1
C1200: + x142 + x161 <= 1
C1201: + x270 + x289 <= 1
C1202: + x6 + x9 <= 1
C1203: + x100 + x358 <= 1
C1204: + x37 + x392 <= 1
C1205: + x30 + x147 <= 1
C1206: + x5 + x20 <= 1
C1207: + x189 + x337 <= 1
C1208: + x44 + x105 <= 1
C1209: + x73 + x279 <= 1
C1210: + x460 + x471 <= 1
C1211: + x98 + x499 <= 1
C1212: + x7 + x26 <= 1
C1213: + x18 + x316 <= 1
C1214: + x2 + x245 <= 1
C1215: + x5 + x413 <= 1
C1216: + x6 + x299 <= 1
C1217: + x18 + x42 <= 1
C1218: + x20 + x113 <= 1
C1219: + x77 + x443 <= 1
C1220: + x12 + x64 <= 1
C1221: + x6 + x78 <= 1
C1222: + x75 + x217 <= 1
C1223: + x203 + x278 <= 1
C1224: + x39 + x419 <= 1
C1225: + x423 + x441 <= 1
C1226: + x38 + x184 <= 1
C1227: + x76 + x442 <= 1
C1228: + x130 + x460 <= 1
C1229: + x140 + x269 <= 1
C1230: + x96 + x386 <= 1
C1231: + x86 + x339 <= 1
C1232: + x51 + x162 <= 1
C1233: + x17 + x82 <= 1
C1234: + x176 + x282 <= 1
C1235: + x9 + x300 <= 1
C1236: + x72 + x409 <= 1
C1237: + x37 + x399 <= 1
C1238: + x10 + x119 <= 1
C1239: + x204 + x478 <= 1
C1240: + x282 + x391 <= 1
C1241: + x46 + x422 <= 1
C1242: + x123 + x387 <= 1
C1243: + x107 + x217 <= 1
C1244: + x7 + x376 <= 1
C1245: + x53 + x456 <= 1
C1246: + x37 + x228 <= 1
C1247: + x21 + x38 <= 1
C1248: + x43 + x247 <= 1
C1249: + x44 + x141 <= 1
C1250: + x6 + x387 <= 1
C1251: + x10 + x269 <= 1
C1252: + x23 + x24 <= 1
C1253: + x8 + x141 <= 1
C1254: + x13 + x218 <= 1
C1255: + x5 + x79 <= 1
C1256: + x8 + x52 <= 1
C1257: + x63 + x349 <= 1
C1258: + x25 + x109 <= 1
C1259: + x7 + x77 <= 1
C1260: + x1 + x260 <= 1
C1261: + x255 + x378 <= 1
C1262: + x216 + x404 <= 1
C1263: + x80 + x119 <= 1
C1264: + x9 + x153 <= 1
C1265: + x152 + x326 <= 1
C1266: + x136 + x400 <= 1
C1267: + x23 + x205 <= 1
C1268: + x23 + x370 <= 1
C1269: + x6 + x456 <= 1
C1270: + x152 + x425 <= 1
C1271: + x139 + x275 <= 1
C1272: + x76 + x161 <= 1
C1273: + x366 + x391 <= 1
C1274: + x133 + x237 <= 1
C1275: + x1 + x352 <= 1
C1276: + x374 + x455 <= 1
C1277: + x77 + x152 <= 1
C1278: + x22 + x72 <= 1
C1279: + x188 + x381 <= 1
C1280: + x151 + x406 <= 1
C1281: + x7 + x367 <= 1
C1282: + x19 + x248 <= 1
C1283: + x21 + x45 <= 1
C1284: + x294 + x320 <= 1
C1285: + x24 + x50 <= 1
C1286: + x7 + x12 <= 1
C1287: + x110 + x474 <= 1
C1288: + x28 + x336 <= 1
C1289: + x136 + x231 <= 1
C1290: + x67 + x319 <= 1
C1291: + x9 + x418 <= 1
C1292: + x7 + x181 <= 1
C1293: + x10 + x44 <= 1
C1294: + x30 + x185 <= 1
C1295: + x6 + x285 <= 1
C1296: + x199 + x219 <= 1
C1297: + x273 + x302 <= 1
C1298: + x39 + x372 <= 1
C1299: + x151 + x323 <= 1
C1300: + x17 + x49 <= 1
C1301: + x136 + x155 <= 1
C1302: + x265 + x397 <= 1
C1303: + x139 + x200 <= 1
C1304: + x238 + x292 <= 1
C1305: + x92 + x174 <= 1
C1306: + x46 + x263 <= 1
C1307: + x49 + x55 <= 1
C1308: + x39 + x58 <= 1
C1309: + x121 + x314 <= 1
C1310: + x140 + x315 <= 1
C1311: + x32 + x312 <= 1
C1312: + x88 + x315 <= 1
C1313: + x9 + x125 <= 1
C1314: + x2 + x318 <= 1
C1315: + x139 + x286 <= 1
C1316: + x15 + x55 <= 1
C1317: + x6 + x100 <= 1
C1318: + x7 + x116 <= 1
C1319: + x408 + x436 <= 1
C1320: + x84 + x234 <= 1
C1321: + x48 + x472 <= 1
C1322: + x24 + x236 <= 1
C1323: + x20 + x188 <= 1
C1324: + x223 + x343 <= 1
C1325: + x129 + x139 <= 1
C1326: + x47 + x335 <= 1
C1327: + x21 + x454 <= 1
C1328: + x350 + x410 <= 1
C1329: + x192 + x474 <= 1
C1330: + x1 + x355 <= 1
C1331: + x1 + x216 <= 1
C1332: + x229 + x417 <= 1
C1333: + x455 + x463 <= 1
C1334: + x185 + x362 <= 1
C1335: + x6 + x262 <= 1
C1336: + x18 + x29 <= 1
C1337: + x1 + x117 <= 1
C1338: + x20 + x136 <= 1
C1339: + x110 + x263 <= 1
C1340: + x77 + x210 <= 1
C1341: + x130 + x479 <= 1
C1342: + x158 + x326 <= 1
C1343: + x6 + x458 <= 1
C1344: + x138 + x399 <= 1
C1345: + x47 + x209 <= 1
C1346: + x230 + x326 <= 1
C1347: + x50 + x168 <= 1
C1348: + x394 + x432 <= 1
C1349: + x98 + x430 <= 1
C1350: + x10 + x106 <= 1
C1351: + x2 + x5 <= 1
C1352: + x58 + x104 <= 1
C1353: + x96 + x183 <= 1
C1354: + x353 + x460 <= 1
C1355: + x9 + x243 <= 1
C1356: + x21 + x51 <= 1
C1357: + x74 + x104 <= 1
C1358: + x110 + x460 <= 1
C1359: + x63 + x231 <= 1
C1360: + x249 + x490 <= 1
C1361: + x33 + x54 <= 1
C1362: + x23 + x57 <= 1
C1363: + x24 + x427 <= 1
C1364: + x7 + x167 <= 1
C1365: + x37 + x368 <= 1
C1366: + x103 + x235 <= 1
C1367: + x69 + x303 <= 1
C1368: + x216 + x458 <= 1
C1369: + x26 + x360 <= 1
C1370: + x151 + x500 <= 1
C1371: + x1 + x76 <= 1
C1372: + x41 + x179 <= 1
C1373: + x50 + x346 <= 1
C1374: + x87 + x364 <= 1
C1375: + x108 + x496 <= 1
C1376: + x319 + x360 <= 1
C1377: + x265 + x443 <= 1
C1378: + x86 + x148 <= 1
C1379: + x6 + x197 <= 1
C1380: + x13 + x59 <= 1
C1381: + x44 + x61 <= 1
C1382: + x47 + x220 <= 1
C1383: + x68 + x384 <= 1
C1384: + x120 + x493 <= 1
C1385: + x97 + x158 <= 1
C1386: + x14 + x22 <= 1
C1387: + x7 + x340 <= 1
C1388: + x20 + x202 <= 1
C1389: + x311 + x419 <= 1
C1390: + x40 + x315 <= 1
C1391: + x6 + x487 <= 1
C1392: + x94 + x395 <= 1
C1393: + x61 + x310 <= 1
C1394: + x70 + x271 <= 1
C1395: + x72 + x102 <= 1
C1396: + x1 + x369 <= 1
C1397: + x223 + x468 <= 1
C1398: + x5 + x35 <= 1
C1399: + x6 + x189 <= 1
C1400: + x54 + x270 <= 1
C1401: + x237 + x407 <= 1
C1402: + x8 + x24 <= 1
C1403: + x102 + x329 <= 1
C1404: + x30 + x39 <= 1
C1405: + x48 + x316 <= 1
C1406: + x140 + x465 <= 1
C1407: + x11 + x40 <= 1
C1408: + x5 + x178 <= 1
C1409: + x6 + x206 <= 1
C1410: + x16 + x267 <= 1
C1411: + x423 + x480 <= 1
C1412: + x82 + x352 <= 1
C1413: + x30 + x216 <= 1
C1414: + x5 + x87 <= 1
C1415: + x37 + x192 <= 1
C1416: + x133 + x398 <= 1
C1417: + x21 + x82 <= 1
C1418: + x88 + x165 <= 1
C1419: + x343 + x484 <= 1
C1420: + x7 + x101 <= 1
C1421: + x44 + x243 <= 1
C1422: + x2 + x23 <= 1
C1423: + x223 + x431 <= 1
C1424: + x23 + x92 <= 1
C1425: + x6 + x242 <= 1
C1426: + x47 + x78 <= 1
C1427: + x4 + x9 <= 1
C1428: + x61 + x112 <= 1
C1429: + x82 + x439 <= 1
C1430: + x338 + x378 <= 1
C1431: + x93 + x284 <= 1
C1432: + x20 + x46 <= 1
C1433: + x81 + x206 <= 1
C1434: + x7 + x145 <= 1
C1435: + x54 + x57 <= 1
C1436: + x2 + x35 <= 1
C1437: + x6 + x166 <= 1
C1438: + x17 + x256 <= 1
C1439: + x127 + x239 <= 1
C1440: + x24 + x203 <= 1
C1441: + x8 + x13 <= 1
C1442: + x50 + x332 <= 1
C1443: + x187 + x196 <= 1
C1444: + x168 + x307 <= 1
C1445: + x34 + x37 <= 1
C1446: + x7 + x36 <= 1
C1447: + x178 + x397 <= 1
C1448: + x362 + x448 <= 1
C1449: + x142 + x159 <= 1
C1450: + x19 + x21 + x183 <= 1
C1451: + x20 + x268 <= 1
C1452: + x140 + x295 <= 1
C1453: + x161 + x162 <= 1
C1454: + x307 + x462 <= 1
C1455: + x9 + x25 <= 1
C1456: + x93 + x479 <= 1
C1457: + x20 + x103 <= 1
C1458: + x22 + x258 <= 1
C1459: + x14 + x421 <= 1
C1460: + x199 + x288 <= 1
C1461: + x337 + x478 <= 1
C1462: + x165 + x412 <= 1
C1463: + x75 + x211 <= 1
C1464: + x94 + x215 <= 1
C1465: + x37 + x465 <= 1
C1466: + x48 + x492 <= 1
C1467: + x172 + x316 <= 1
C1468: + x7 + x334 <= 1
C1469: + x10 + x256 <= 1
C1470: + x14 + x310 <= 1
C1471: + x326 + x484 <= 1
C1472: + x39 + x264 <= 1
C1473: + x48 + x345 <= 1
C1474: + x324 + x375 <= 1
C1475: + x6 + x12 <= 1
C1476: + x207 + x287 <= 1
C1477: + x33 + x424 <= 1
C1478: + x5 + x17 <= 1
C1479: + x180 + x313 <= 1
C1480: + x26 + x379 <= 1
C1481: + x44 + x120 <= 1
C1482: + x137 + x489 <= 1
C1483: + x17 + x20 <= 1
C1484: + x42 + x46 <= 1
C1485: + x174 + x228 <= 1
C1486: + x40 + x167 <= 1
C1487: + x42 + x329 <= 1
C1488: + x98 + x367 <= 1
C1489: + x315 + x420 <= 1
C1490: + x62 + x321 <= 1
C1491: + x13 + x40 <= 1
C1492: + x154 + x235 <= 1
C1493: + x37 + x317 <= 1
C1494: + x103 + x264 <= 1
C1495: + x202 + x380 <= 1
C1496: + x13 + x417 <= 1
C1497: + x23 + x380 <= 1
C1498: + x17 + x95 <= 1
C1499: + x15 + x389 <= 1
C1500: + x9 + x76 <= 1
C1501: + x84 + x453 <= 1
C1502: + x150 + x266 <= 1
C1503: + x19 + x93 <= 1
C1504: + x164 + x180 <= 1
C1505: + x59 + x72 <= 1
C1506: + x69 + x259 <= 1
C1507: + x26 + x183 <= 1
C1508: + x27 + x45 <= 1
C1509: + x281 + x427 <= 1
C1510: + x13 + x80 <= 1
C1511: + x178 + x340 <= 1
C1512: + x49 + x223 <= 1
C1513: + x60 + x173 <= 1
C1514: + x207 + x302 <= 1
C1515: + x10 + x62 <= 1
C1516: + x8 + x148 <= 1
C1517: + x136 + x479 <= 1
C1518: + x114 + x151 <= 1
C1519: + x5 + x68 <= 1
C1520: + x224 + x387 <= 1
C1521: + x87 + x487 <= 1
C1522: + x17 + x154 <= 1
C1523: + x90 + x259 <= 1
C1524: + x64 + x86 <= 1
C1525: + x55 + x171 <= 1
C1526: + x55 + x120 <= 1
C1527: + x22 + x119 <= 1
C1528: + x27 + x100 <= 1
C1529: + x10 + x234 <= 1
C1530: + x7 + x320 <= 1
C1531: + x103 + x319 <= 1
C1532: + x12 + x129 <= 1
C1533: + x145 + x382 <= 1
C1534: + x165 + x188 <= 1
C1535: + x21 + x222 <= 1
C1536: + x6 + x475 <= 1
C1537: + x302 + x383 <= 1
C1538: + x12 + x435 <= 1
C1539: + x394 + x441 <= 1
C1540: + x6 + x126 <= 1
C1541: + x90 + x106 <= 1
C1542: + x191 + x487 <= 1
C1543: + x8 + x213 <= 1
C1544: + x19 + x88 <= 1
C1545: + x358 + x416 <= 1
C1546: + x24 + x299 <= 1
C1547: + x228 + x472 <= 1
C1548: + x132 + x428 <= 1
C1549: + x13 + x71 <= 1
C1550: + x5 + x497 <= 1
C1551: + x7 + x21 <= 1
C1552: + x156 + x306 <= 1
C1553: + x47 + x144 <= 1
C1554: + x60 + x166 <= 1
C1555: + x6 + x34 <= 1
C1556: + x30 + x394 <= 1
C1557: + x7 + x65 <= 1
C1558: + x113 + x407 <= 1
C1559: + x86 + x133 <= 1
C1560: + x33 + x497 <= 1
C1561: + x23 + x374 <= 1
C1562: + x36 + x249 <= 1
C1563: + x19 + x353 <= 1
C1564: + x476 + x482 <= 1
C1565: + x42 + x85 <= 1
C1566: + x25 + x61 <= 1
C1567: + x5 + x361 <= 1
C1568: + x148 + x220 <= 1
C1569: + x48 + x459 <= 1
C1570: + x13 + x153 <= 1
C1571: + x4 + x246 <= 1
C1572: + x88 + x100 <= 1
C1573: + x5 + x14 <= 1
C1574: + x23 + x180 <= 1
C1575: + x26 + x129 <= 1
C1576: + x6 + x341 <= 1
C1577: + x132 + x374 <= 1
C1578: + x21 + x41 <= 1
C1579: + x11 + x213 <= 1
C1580: + x244 + x387 <= 1
C1581: + x1 + x451 <= 1
C1582: + x22 + x437 <= 1
C1583: + x287 + x347 <= 1
C1584: + x10 + x48 <= 1
C1585: + x80 + x258 <= 1
C1586: + x10 + x139 <= 1
C1587: + x7 + x415 <= 1
C1588: + x1 + x114 <= 1
C1589: + x12 + x34 <= 1
C1590: + x55 + x165 <= 1
C1591: + x31 + x273 <= 1
C1592: + x14 + x457 <= 1
C1593: + x244 + x366 <= 1
C1594: + x7 + x60 <= 1
C1595: + x93 + x328 <= 1
C1596: + x129 + x265 <= 1
C1597: + x136 + x151 <= 1
C1598: + x104 + x227 <= 1
C1599: + x9 + x335 <= 1
C1600: + x45 + x48 <= 1
C1601: + x8 + x182 <= 1
C1602: + x122 + x178 <= 1
C1603: + x16 + x247 <= 1
C1604: + x129 + x470 <= 1
C1605: + x278 + x407 <= 1
C1606: + x6 + x461 <= 1
C1607: + x19 + x348 <= 1
C1608: + x37 + x143 <= 1
C1609: + x21 + x65 <= 1
C1610: + x5 + x344 <= 1
C1611: + x23 + x490 <= 1
C1612: + x7 + x120 <= 1
C1613: + x288 + x302 <= 1
C1614: + x156 + x198 <= 1
C1615: + x2 + x8 <= 1
C1616: + x22 + x77 <= 1
C1617: + x23 + x75 <= 1
C1618: + x15 + x216 <= 1
C1619: + x99 + x293 <= 1
C1620: + x19 + x235 <= 1
C1621: + x11 + x224 <= 1
C1622: + x120 + x229 <= 1
C1623: + x121 + x266 <= 1
C1624: + x40 + x257 <= 1
C1625: + x23 + x345 <= 1
C1626: + x6 + x497 <= 1
C1627: + x46 + x90 <= 1
C1628: + x37 + x115 <= 1
C1629: + x132 + x140 <= 1
C1630: + x23 + x38 <= 1
C1631: + x1 + x172 <= 1
C1632: + x8 + x255 <= 1
C1633: + x17 + x44 <= 1
C1634: + x181 + x429 <= 1
C1635: + x128 + x425 <= 1
C1636: + x19 + x452 <= 1
C1637: + x398 + x472 <= 1
C1638: + x151 + x346 <= 1
C1639: + x7 + x51 <= 1
C1640: + x187 + x449 <= 1
C1641: + x156 + x348 <= 1
C1642: + x28 + x103 <= 1
C1643: + x19 + x50 <= 1
C1644: + x47 + x124 <= 1
C1645: + x124 + x171 <= 1
C1646: + x4 + x83 <= 1
C1647: + x114 + x412 <= 1
C1648: + x115 + x492 <= 1
C1649: + x7 + x111 <= 1
C1650: + x110 + x311 <= 1
C1651: + x8 + x196 <= 1
C1652: + x1 + x151 <= 1
C1653: + x92 + x353 <= 1
C1654: + x78 + x270 <= 1
C1655: + x42 + x482 <= 1
C1656: + x17 + x202 <= 1
C1657: + x307 + x432 <= 1
C1658: + x19 + x230 <= 1
C1659: + x6 + x327 <= 1
C1660: + x131 + x277 <= 1
C1661: + x233 + x459 <= 1
C1662: + x80 + x359 <= 1
C1663: + x84 + x301 <= 1
C1664: + x13 + x286 <= 1
C1665: + x7 + x155 <= 1
C1666: + x1 + x163 <= 1
C1667: + x10 + x90 <= 1
C1668: + x211 + x258 <= 1
C1669: + x242 + x307 <= 1
C1670: + x210 + x498 <= 1
C1671: + x32 + x167 <= 1
C1672: + x34 + x281 <= 1
C1673: + x24 + x177 <= 1
C1674: + x26 + x223 <= 1
C1675: + x8 + x27 <= 1
C1676: + x6 + x267 <= 1
C1677: + x186 + x198 <= 1
C1678: + x30 + x405 <= 1
C1679: + x124 + x378 <= 1
C1680: + x27 + x362 <= 1
C1681: + x11 + x57 <= 1
C1682: + x366 + x477 <= 1
C1683: + x29 + x400 <= 1
C1684: + x30 + x312 <= 1
C1685: + x53 + x404 <= 1
C1686: + x28 + x128 <= 1
C1687: + x21 + x242 <= 1
C1688: + x33 + x355 <= 1
C1689: + x72 + x143 <= 1
C1690: + x165 + x317 <= 1
C1691: + x98 + x443 <= 1
C1692: + x192 + x379 <= 1
C1693: + x140 + x190 <= 1
C1694: + x47 + x494 <= 1
C1695: + x14 + x18 <= 1
C1696: + x42 + x491 <= 1
C1697: + x36 + x125 <= 1
C1698: + x21 + x198 <= 1
C1699: + x234 + x454 <= 1
C1700: + x247 + x351 <= 1
C1701: + x376 + x383 <= 1
C1702: + x76 + x99 <= 1
C1703: + x48 + x54 <= 1
C1704: + x4 + x149 <= 1
C1705: + x161 + x211 <= 1
C1706: + x70 + x430 <= 1
C1707: + x120 + x271 <= 1
C1708: + x49 + x65 <= 1
C1709: + x37 + x248 <= 1
C1710: + x124 + x204 <= 1
C1711: + x2 + x95 <= 1
C1712: + x25 + x490 <= 1
C1713: + x159 + x252 <= 1
C1714: + x4 + x65 <= 1
C1715: + x25 + x252 <= 1
C1716: + x90 + x308 <= 1
C1717: + x75 + x442 <= 1
C1718: + x66 + x69 <= 1
C1719: + x102 + x313 <= 1
C1720: + x22 + x261 <= 1
C1721: + x5 + x333 <= 1
C1722: + x159 + x267 <= 1
C1723: + x129 + x229 <= 1
C1724: + x30 + x325 <= 1
C1725: + x41 + x476 <= 1
C1726: + x23 + x96 <= 1
C1727: + x171 + x189 <= 1
C1728: + x325 + x332 <= 1
C1729: + x4 + x13 <= 1
C1730: + x176 + x440 <= 1
C1731: + x17 + x101 <= 1
C1732: + x154 + x499 <= 1
C1733: + x37 + x112 <= 1
C1734: + x93 + x280 <= 1
C1735: + x67 + x204 <= 1
C1736: + x142 + x167 <= 1
C1737: + x160 + x205 <= 1
C1738: + x16 + x332 <= 1
C1739: + x1 + x177 <= 1
C1740: + x6 + x15 <= 1
C1741: + x58 + x66 <= 1
C1742: + x131 + x410 <= 1
C1743: + x7 + x149 <= 1
C1744: + x5 + x22 <= 1
C1745: + x44 + x257 <= 1
C1746: + x28 + x50 <= 1
C1747: + x50 + x493 <= 1
C1748: + x8 + x9 <= 1
C1749: + x126 + x133 <= 1
C1750: + x17 + x244 <= 1
C1751: + x106 + x123 <= 1
C1752: + x218 + x255 <= 1
C1753: + x19 + x301 <= 1
C1754: + x136 + x251 <= 1
C1755: + x57 + x317 <= 1
C1756: + x20 + x433 <= 1
C1757: + x7 + x193 <= 1
C1758: + x27 + x74 <= 1
C1759: + x10 + x56 <= 1
C1760: + x154 + x218 <= 1
C1761: + x91 + x221 <= 1
C1762: + x346 + x410 <= 1
C1763: + x178 + x228 <= 1
C1764: + x19 + x27 <= 1
C1765: + x2 + x243 <= 1
C1766: + x160 + x483 <= 1
C1767: + x94 + x162 <= 1
C1768: + x37 + x163 <= 1
C1769: + x20 + x107 <= 1
C1770: + x4 + x444 <= 1
C1771: + x7 + x84 <= 1
C1772: + x172 + x401 <= 1
C1773: + x28 + x440 <= 1
C1774: + x37 + x477 <= 1
C1775: + x5 + x233 <= 1
C1776: + x133 + x361 <= 1
C1777: + x129 + x462 <= 1
C1778: + x11 + x244 <= 1
C1779: + x77 + x276 <= 1
C1780: + x48 + x75 <= 1
C1781: + x486 + x495 <= 1
C1782: + x6 + x469 <= 1
C1783: + x62 + x280 <= 1
C1784: + x1 + x422 <= 1
C1785: + x67 + x282 <= 1
C1786: + x122 + x432 <= 1
C1787: + x131 + x208 <= 1
C1788: + x78 + x138 <= 1
C1789: + x186 + x291 <= 1
C1790: + x7 + x144 <= 1
C1791: + x1 + x184 <= 1
C1792: + x83 + x290 <= 1
C1793: + x264 + x373 <= 1
C1794: + x1 + x5 + x6 + x7 <= 1
C1795: + x5 + x29 <= 1
C1796: + x6 + x171 <= 1
C1797: + x6 + x358 <= 1
C1798: + x7 + x382 <= 1
C1799: + x17 + x235 <= 1
C1800: + x1 + x85 <= 1
C1801: + x77 + x456 <= 1
C1802: + x51 + x156 <= 1
C1803: + x252 + x308 <= 1
C1804: + x36 + x310 <= 1
C1805: + x7 + x31 <= 1
C1806: + x130 + x139 + x433 <= 1
C1807: + x376 + x385 <= 1
C1808: + x7 + x188 <= 1
C1809: + x290 + x446 <= 1
C1810: + x86 + x270 <= 1
C1811: + x297 + x400 <= 1
C1812: + x1 + x97 <= 1
C1813: + x46 + x131 <= 1
C1814: + x52 + x232 <= 1
C1815: + x147 + x293 <= 1
C1816: + x5 + x216 <= 1
C1817: + x35 + x471 <= 1
C1818: + x143 + x417 <= 1
C1819: + x7 + x313 <= 1
C1820: + x28 + x159 <= 1
C1821: + x23 + x384 <= 1
C1822: + x32 + x321 <= 1
C1823: + x9 + x80 <= 1
C1824: + x53 + x143 <= 1
C1825: + x115 + x452 <= 1
C1826: + x87 + x281 <= 1
C1827: + x23 + x473 <= 1
C1828: + x127 + x495 <= 1
C1829: + x1 + x346 <= 1
C1830: + x19 + x89 <= 1
C1831: + x93 + x248 <= 1
C1832: + x6 + x113 <= 1
C1833: + x79 + x230 <= 1
C1834: + x48 + x449 <= 1
C1835: + x269 + x308 <= 1
C1836: + x26 + x187 <= 1
C1837: + x180 + x249 <= 1
C1838: + x10 + x209 <= 1
C1839: + x145 + x311 <= 1
C1840: + x312 + x464 <= 1
C1841: + x40 + x274 <= 1
C1842: + x37 + x66 <= 1
C1843: + x230 + x286 <= 1
C1844: + x359 + x500 <= 1
C1845: + x5 + x171 <= 1
C1846: + x44 + x299 <= 1
C1847: + x34 + x406 <= 1
C1848: + x282 + x466 <= 1
C1849: + x146 + x330 <= 1
C1850: + x179 + x230 <= 1
C1851: + x9 + x11 <= 1
C1852: + x201 + x288 <= 1
C1853: + x54 + x297 <= 1
C1854: + x165 + x337 <= 1
C1855: + x29 + x86 <= 1
C1856: + x48 + x236 <= 1
C1857: + x48 + x295 <= 1
C1858: + x14 + x467 <= 1
C1859: + x7 + x78 <= 1
C1860: + x18 + x368 <= 1
C1861: + x122 + x172 <= 1
C1862: + x8 + x487 <= 1
C1863: + x74 + x319 <= 1
C1864: + x2 + x10 <= 1
C1865: + x75 + x181 <= 1
C1866: + x149 + x201 <= 1
C1867: + x93 + x207 <= 1
C1868: + x349 + x353 <= 1
C1869: + x67 + x122 <= 1
C1870: + x33 + x458 <= 1
C1871: + x27 + x52 <= 1
C1872: + x88 + x103 <= 1
C1873: + x35 + x111 <= 1
C1874: + x7 + x9 <= 1
C1875: + x147 + x355 <= 1
C1876: + x58 + x275 <= 1
C1877: + x23 + x48 <= 1
C1878: + x6 + x46 <= 1
C1879: + x10 + x43 <= 1
C1880: + x20 + x291 <= 1
C1881: + x98 + x381 <= 1
C1882: + x6 + x284 <= 1
C1883: + x1 + x127 <= 1
C1884: + x122 + x196 <= 1
C1885: + x30 + x91 <= 1
C1886: + x25 + x117 <= 1
C1887: + x65 + x220 <= 1
C1888: + x106 + x144 <= 1
C1889: + x15 + x133 <= 1
C1890: + x181 + x384 <= 1
C1891: + x26 + x262 <= 1
C1892: + x19 + x60 <= 1
C1893: + x73 + x446 <= 1
C1894: + x210 + x218 <= 1
C1895: + x10 + x370 <= 1
C1896: + x318 + x494 <= 1
C1897: + x1 + x395 <= 1
C1898: + x20 + x78 <= 1
C1899: + x21 + x70 <= 1
C1900: + x34 + x108 <= 1
C1901: + x41 + x327 <= 1
C1902: + x4 + x347 <= 1
C1903: + x422 + x445 <= 1
C1904: + x273 + x461 <= 1
C1905: + x7 + x113 <= 1
C1906: + x84 + x233 <= 1
C1907: + x30 + x381 <= 1
C1908: + x5 + x10 <= 1
C1909: + x6 + x134 <= 1
C1910: + x171 + x197 <= 1
C1911: + x7 + x359 <= 1
C1912: + x10 + x195 <= 1
C1913: + x44 + x396 <= 1
C1914: + x90 + x146 <= 1
C1915: + x30 + x32 <= 1
C1916: + x1 + x58 <= 1
C1917: + x24 + x74 <= 1
C1918: + x21 + x455 <= 1
C1919: + x31 + x390 <= 1
C1920: + x150 + x236 <= 1
C1921: + x364 + x432 <= 1
C1922: + x1 + x356 <= 1
C1923: + x10 + x84 <= 1
C1924: + x19 + x438 <= 1
C1925: + x37 + x354 <= 1
C1926: + x131 + x434 <= 1
C1927: + x176 + x210 <= 1
C1928: + x152 + x486 <= 1
C1929: + x458 + x469 <= 1
C1930: + x25 + x124 <= 1
C1931: + x52 + x251 <= 1
C1932: + x177 + x279 <= 1
C1933: + x220 + x489 <= 1
C1934: + x233 + x284 <= 1
C1935: + x98 + x159 <= 1
C1936: + x52 + x437 <= 1
C1937: + x138 + x398 <= 1
C1938: + x30 + x104 <= 1
C1939: + x7 + x108 <= 1
C1940: + x291 + x374 <= 1
C1941: + x113 + x382 <= 1
C1942: + x431 + x462 <= 1
C1943: + x126 + x375 <= 1
C1944: + x8 + x102 <= 1
C1945: + x135 + x291 <= 1
C1946: + x21 + x52 <= 1
C1947: + x17 + x116 <= 1

binary
x1 x2 x3 x4 x5 x6 x7 x8 x9 x10 x11 x12 x13 x14 x15 x16 x17 x18 x19 x20 x21 x22 x23 x24 x25 x26 x27 x28 x29 x30 x31 x32 x33 x34 x35 x36 x37 x38 x39 x40 x41 x42 x43 x44 x45 x46 x47 x48 x49 x50 x51 x52 x53 x54 x55 x56 x57 x58 x59 x60 x61 x62 x63 x64 x65 x66 x67 x68 x69 x70 x71 x72 x73 x74 x75 x76 x77 x78 x79 x80 x81 x82 x83 x84 x85 x86 x87 x88 x89 x90 x91 x92 x93 x94 x95 x96 x97 x98 x99 x100 x101 x102 x103 x104 x105 x106 x107 x108 x109 x110 x111 x112 x113 x114 x115 x116 x117 x118 x119 x120 x121 x122 x123 x124 x125 x126 x127 x128 x129 x130 x131 x132 x133 x134 x135 x136 x137 x138 x139 x140 x141 x142 x143 x144 x145 x146 x147 x148 x149 x150 x151 x152 x153 x154 x155 x156 x157 x158 x159 x160 x161 x162 x163 x164 x165 x166 x167 x168 x169 x170 x171 x172 x173 x174 x175 x176 x177 x178 x179 x180 x181 x182 x183 x184 x185 x186 x187 x188 x189 x190 x191 x192 x193 x194 x195 x196 x197 x198 x199 x200 x201 x202 x203 x204 x205 x206 x207 x208 x209 x210 x211 x212 x213 x214 x215 x216 x217 x218 x219 x220 x221 x222 x223 x224 x225 x226 x227 x228 x229 x230 x231 x232 x233 x234 x235 x236 x237 x238 x239 x240 x241 x242 x243 x244 x245 x246 x247 x248 x249 x250 x251 x252 x253 x254 x255 x256 x257 x258 x259 x260 x261 x262 x263 x264 x265 x266 x267 x268 x269 x270 x271 x272 x273 x274 x275 x276 x277 x278 x279 x280 x281 x282 x283 x284 x285 x286 x287 x288 x289 x290 x291 x292 x293 x294 x295 x296 x297 x298 x299 x300 x301 x302 x303 x304 x305 x306 x307 x308 x309 x310 x311 x312 x313 x314 x315 x316 x317 x318 x319 x320 x321 x322 x323 x324 x325 x326 x327 x328 x329 x330 x331 x332 x333 x334 x335 x336 x337 x338 x339 x340 x341 x342 x343 x344 x345 x346 x347 x348 x349 x350 x351 x352 x353 x354 x355 x356 x357 x358 x359 x360 x361 x362 x363 x364 x365 x366 x367 x368 x369 x370 x371 x372 x373 x374 x375 x376 x377 x378 x379 x380 x381 x382 x383 x384 x385 x386 x387 x388 x389 x390 x391 x392 x393 x394 x395 x396 x397 x398 x399 x400 x401 x402 x403 x404 x405 x406 x407 x408 x409 x410 x411 x412 x413 x414 x415 x416 x417 x418 x419 x420 x421 x422 x423 x424 x425 x426 x427 x428 x429 x430 x431 x432 x433 x434 x435 x436 x437 x438 x439 x440 x441 x442 x443 x444 x445 x446 x447 x448 x449 x450 x451 x452 x453 x454 x455 x456 x457 x458 x459 x460 x461 x462 x463 x464 x465 x466 x467 x468 x469 x470 x471 x472 x473 x474 x475 x476 x477 x478 x479 x480 x481 x482 x483 x484 x485 x486 x487 x488 x489 x490 x491 x492 x493 x494 x495 x496 x497 x498 x499 x500
