maximize
OBJ: + 1 x1 + 1 x2 + 1 x3 + 1 x4 + 1 x5 + 1 x6 + 1 x7 + 1 x8 + 1 x9 + 1 x10 + 1 x11 + 1 x12 + 1 x13 + 1 x14 + 1 x15 + 1 x16 + 1 x17 + 1 x18 + 1 x19 + 1 x20 + 1 x21 + 1 x22 + 1 x23 + 1 x24 + 1 x25 + 1 x26 + 1 x27 + 1 x28 + 1 x29 + 1 x30 + 1 x31 + 1 x32 + 1 x33 + 1 x34 + 1 x35 + 1 x36 + 1 x37 + 1 x38 + 1 x39 + 1 x40 + 1 x41 + 1 x42 + 1 x43 + 1 x44 + 1 x45 + 1 x46 + 1 x47 + 1 x48 + 1 x49 + 1 x50 + 1 x51 + 1 x52 + 1 x53 + 1 x54 + 1 x55 + 1 x56 + 1 x57 + 1 x58 + 1 x59 + 1 x60 + 1 x61 + 1 x62 + 1 x63 + 1 x64 + 1 x65 + 1 x66 + 1 x67 + 1 x68 + 1 x69 + 1 x70 + 1 x71 + 1 x72 + 1 x73 + 1 x74 + 1 x75 + 1 x76 + 1 x77 + 1 x78 + 1 x79 + 1 x80 + 1 x81 + 1 x82 + 1 x83 + 1 x84 + 1 x85 + 1 x86 + 1 x87 + 1 x88 + 1 x89 + 1 x90 + 1 x91 + 1 x92 + 1 x93 + 1 x94 + 1 x95 + 1 x96 + 1 x97 + 1 x98 + 1 x99 + 1 x100 + 1 x101 + 1 x102 + 1 x103 + 1 x104 + 1 x105 + 1 x106 + 1 x107 + 1 x108 + 1 x109 + 1 x110 + 1 x111 + 1 x112 + 1 x113 + 1 x114 + 1 x115 + 1 x116 + 1 x117 + 1 x118 + 1 x119 + 1 x120 + 1 x121 + 1 x122 + 1 x123 + 1 x124 + 1 x125 + 1 x126 + 1 x127 + 1 x128 + 1 x129 + 1 x130 + 1 x131 + 1 x132 + 1 x133 + 1 x134 + 1 x135 + 1 x136 + 1 x137 + 1 x138 + 1 x139 + 1 x140 + 1 x141 + 1 x142 + 1 x143 + 1 x144 + 1 x145 + 1 x146 + 1 x147 + 1 x148 + 1 x149 + 1 x150 + 1 x151 + 1 x152 + 1 x153 + 1 x154 + 1 x155 + 1 x156 + 1 x157 + 1 x158 + 1 x159 + 1 x160 + 1 x161 + 1 x162 + 1 x163 + 1 x164 + 1 x165 + 1 x166 + 1 x167 + 1 x168 + 1 x169 + 1 x170 + 1 x171 + 1 x172 + 1 x173 + 1 x174 + 1 x175 + 1 x176 + 1 x177 + 1 x178 + 1 x179 + 1 x180 + 1 x181 + 1 x182 + 1 x183 + 1 x184 + 1 x185 + 1 x186 + 1 x187 + 1 x188 + 1 x189 + 1 x190 + 1 x191 + 1 x192 + 1 x193 + 1 x194 + 1 x195 + 1 x196 + 1 x197 + 1 x198 + 1 x199 + 1 x200 + 1 x201 + 1 x202 + 1 x203 + 1 x204 + 1 x205 + 1 x206 + 1 x207 + 1 x208 + 1 x209 + 1 x210 + 1 x211 + 1 x212 + 1 x213 + 1 x214 + 1 x215 + 1 x216 + 1 x217 + 1 x218 + 1 x219 + 1 x220 + 1 x221 + 1 x222 + 1 x223 + 1 x224 + 1 x225 + 1 x226 + 1 x227 + 1 x228 + 1 x229 + 1 x230 + 1 x231 + 1 x232 + 1 x233 + 1 x234 + 1 x235 + 1 x236 + 1 x237 + 1 x238 + 1 x239 + 1 x240 + 1 x241 + 1 x242 + 1 x243 + 1 x244 + 1 x245 + 1 x246 + 1 x247 + 1 x248 + 1 x249 + 1 x250 + 1 x251 + 1 x252 + 1 x253 + 1 x254 + 1 x255 + 1 x256 + 1 x257 + 1 x258 + 1 x259 + 1 x260 + 1 x261 + 1 x262 + 1 x263 + 1 x264 + 1 x265 + 1 x266 + 1 x267 + 1 x268 + 1 x269 + 1 x270 + 1 x271 + 1 x272 + 1 x273 + 1 x274 + 1 x275 + 1 x276 + 1 x277 + 1 x278 + 1 x279 + 1 x280 + 1 x281 + 1 x282 + 1 x283 + 1 x284 + 1 x285 + 1 x286 + 1 x287 + 1 x288 + 1 x289 + 1 x290 + 1 x291 + 1 x292 + 1 x293 + 1 x294 + 1 x295 + 1 x296 + 1 x297 + 1 x298 + 1 x299 + 1 x300 + 1 x301 + 1 x302 + 1 x303 + 1 x304 + 1 x305 + 1 x306 + 1 x307 + 1 x308 + 1 x309 + 1 x310 + 1 x311 + 1 x312 + 1 x313 + 1 x314 + 1 x315 + 1 x316 + 1 x317 + 1 x318 + 1 x319 + 1 x320 + 1 x321 + 1 x322 + 1 x323 + 1 x324 + 1 x325 + 1 x326 + 1 x327 + 1 x328 + 1 x329 + 1 x330 + 1 x331 + 1 x332 + 1 x333 + 1 x334 + 1 x335 + 1 x336 + 1 x337 + 1 x338 + 1 x339 + 1 x340 + 1 x341 + 1 x342 + 1 x343 + 1 x344 + 1 x345 + 1 x346 + 1 x347 + 1 x348 + 1 x349 + 1 x350 + 1 x351 + 1 x352 + 1 x353 + 1 x354 + 1 x355 + 1 x356 + 1 x357 + 1 x358 + 1 x359 + 1 x360 + 1 x361 + 1 x362 + 1 x363 + 1 x364 + 1 x365 + 1 x366 + 1 x367 + 1 x368 + 1 x369 + 1 x370 + 1 x371 + 1 x372 + 1 x373 + 1 x374 + 1 x375 + 1 x376 + 1 x377 + 1 x378 + 1 x379 + 1 x380 + 1 x381 + 1 x382 + 1 x383 + 1 x384 + 1 x385 + 1 x386 + 1 x387 + 1 x388 + 1 x389 + 1 x390 + 1 x391 + 1 x392 + 1 x393 + 1 x394 + 1 x395 + 1 x396 + 1 x397 + 1 x398 + 1 x399 + 1 x400 + 1 x401 + 1 x402 + 1 x403 + 1 x404 + 1 x405 + 1 x406 + 1 x407 + 1 x408 + 1 x409 + 1 x410 + 1 x411 + 1 x412 + 1 x413 + 1 x414 + 1 x415 + 1 x416 + 1 x417 + 1 x418 + 1 x419 + 1 x420 + 1 x421 + 1 x422 + 1 x423 + 1 x424 + 1 x425 + 1 x426 + 1 x427 + 1 x428 + 1 x429 + 1 x430 + 1 x431 + 1 x432 + 1 x433 + 1 x434 + 1 x435 + 1 x436 + 1 x437 + 1 x438 + 1 x439 + 1 x440 + 1 x441 + 1 x442 + 1 x443 + 1 x444 + 1 x445 + 1 x446 + 1 x447 + 1 x448 + 1 x449 + 1 x450 + 1 x451 + 1 x452 + 1 x453 + 1 x454 + 1 x455 + 1 x456 + 1 x457 + 1 x458 + 1 x459 + 1 x460 + 1 x461 + 1 x462 + 1 x463 + 1 x464 + 1 x465 + 1 x466 + 1 x467 + 1 x468 + 1 x469 + 1 x470 + 1 x471 + 1 x472 + 1 x473 + 1 x474 + 1 x475 + 1 x476 + 1 x477 + 1 x478 + 1 x479 + 1 x480 + 1 x481 + 1 x482 + 1 x483 + 1 x484 + 1 x485 + 1 x486 + 1 x487 + 1 x488 + 1 x489 + 1 x490 + 1 x491 + 1 x492 + 1 x493 + 1 x494 + 1 x495 + 1 x496 + 1 x497 + 1 x498 + 1 x499 + 1 x500

subject to
C1: + x81 + x209 <= 1
C2: + x155 + x226 <= 1
C3: + x20 + x305 <= 1
C4: + x38 + x359 <= 1
C5: + x177 + x191 <= 1
C6: + x11 + x62 <= 1
C7: + x15 + x151 <= 1
C8: + x9 + x143 <= 1
C9: + x7 + x293 <= 1
C10: + x11 + x159 <= 1
C11: + x3 + x276 <= 1
C12: + x31 + x214 <= 1
C13: + x14 + x132 <= 1
C14: + x141 + x444 <= 1
C15: + x116 + x254 <= 1
C16: + x5 + x422 <= 1
C17: + x63 + x163 <= 1
C18: + x150 + x298 <= 1
C19: + x7 + x99 <= 1
C20: + x138 + x274 <= 1
C21: + x84 + x247 <= 1
C22: + x111 + x449 <= 1
C23: + x184 + x269 <= 1
C24: + x87 + x130 <= 1
C25: + x25 + x428 <= 1
C26: + x69 + x392 <= 1
C27: + x4 + x474 <= 1
C28: + x24 + x96 <= 1
C29: + x388 + x484 <= 1
C30: + x160 + x296 <= 1
C31: + x46 + x79 <= 1
C32: + x49 + x255 <= 1
C33: + x49 + x260 <= 1
C34: + x321 + x474 <= 1
C35: + x14 + x102 <= 1
C36: + x17 + x408 <= 1
C37: + x7 + x159 <= 1
C38: + x10 + x94 <= 1
C39: + x4 + x148 <= 1
C40: + x42 + x402 <= 1
C41: + x99 + x272 <= 1
C42: + x8 + x23 <= 1
C43: + x174 + x387 <= 1
C44: + x69 + x166 <= 1
C45: + x150 + x194 <= 1
C46: + x25 + x487 <= 1
C47: + x18 + x332 <= 1
C48: + x27 + x68 <= 1
C49: + x5 + x88 <= 1
C50: + x19 + x330 <= 1
C51: + x6 + x94 <= 1
C52: + x262 + x297 <= 1
C53: + x35 + x357 <= 1
C54: + x6 + x332 <= 1
C55: + x36 + x97 <= 1
C56: + x62 + x447 <= 1
C57: + x84 + x91 <= 1
C58: + x3 + x319 <= 1
C59: + x25 + x133 <= 1
C60: + x43 + x211 <= 1
C61: + x388 + x489 <= 1
C62: + x58 + x303 <= 1
C63: + x3 + x452 <= 1
C64: + x7 + x146 <= 1
C65: + x19 + x415 <= 1
C66: + x1 + x190 <= 1
C67: + x291 + x348 <= 1
C68: + x8 + x286 <= 1
C69: + x262 + x477 <= 1
C70: + x17 + x300 <= 1
C71: + x27 + x220 <= 1
C72: + x21 + x22 <= 1
C73: + x5 + x261 <= 1
C74: + x6 + x403 <= 1
C75: + x4 + x298 <= 1
C76: + x32 + x57 <= 1
C77: + x87 + x200 <= 1
C78: + x202 + x262 <= 1
C79: + x214 + x307 <= 1
C80: + x389 + x446 <= 1
C81: + x11 + x358 <= 1
C82: + x5 + x329 <= 1
C83: + x32 + x458 <= 1
C84: + x57 + x167 + x304 <= 1
C85: + x140 + x183 <= 1
C86: + x150 + x159 <= 1
C87: + x22 + x172 <= 1
C88: + x43 + x222 <= 1
C89: + x27 + x180 <= 1
C90: + x134 + x291 <= 1
C91: + x120 + x403 <= 1
C92: + x20 + x54 <= 1
C93: + x40 + x399 <= 1
C94: + x243 + x279 <= 1
C95: + x6 + x11 <= 1
C96: + x73 + x227 <= 1
C97: + x27 + x469 <= 1
C98: + x101 + x137 <= 1
C99: + x59 + x446 <= 1
C100: + x295 + x299 <= 1
C101: + x5 + x18 <= 1
C102: + x44 + x119 <= 1
C103: + x17 + x248 <= 1
C104: + x69 + x119 <= 1
C105: + x115 + x349 <= 1
C106: + x27 + x328 <= 1
C107: + x27 + x86 <= 1
C108: + x308 + x339 <= 1
C109: + x121 + x350 <= 1
C110: + x57 + x414 <= 1
C111: + x13 + x33 <= 1
C112: + x107 + x136 <= 1
C113: + x5 + x70 <= 1
C114: + x198 + x237 <= 1
C115: + x162 + x337 <= 1
C116: + x47 + x238 <= 1
C117: + x42 + x190 <= 1
C118: + x43 + x54 <= 1
C119: + x196 + x384 <= 1
C120: + x8 + x352 <= 1
C121: + x59 + x113 <= 1
C122: + x4 + x219 <= 1
C123: + x188 + x426 <= 1
C124: + x99 + x156 <= 1
C125: + x210 + x336 <= 1
C126: + x84 + x105 <= 1
C127: + x102 + x191 <= 1
C128: + x312 + x319 <= 1
C129: + x40 + x289 <= 1
C130: + x10 + x323 <= 1
C131: + x94 + x405 <= 1
C132: + x39 + x320 <= 1
C133: + x6 + x116 <= 1
C134: + x18 + x259 <= 1
C135: + x208 + x413 <= 1
C136: + x138 + x140 <= 1
C137: + x36 + x91 <= 1
C138: + x83 + x447 <= 1
C139: + x144 + x486 <= 1
C140: + x48 + x155 <= 1
C141: + x25 + x95 <= 1
C142: + x3 + x83 <= 1
C143: + x41 + x386 <= 1
C144: + x237 + x276 <= 1
C145: + x16 + x115 <= 1
C146: + x471 + x478 <= 1
C147: + x3 + x409 <= 1
C148: + x21 + x112 <= 1
C149: + x114 + x444 <= 1
C150: + x42 + x167 <= 1
C151: + x6 + x73 <= 1
C152: + x46 + x493 <= 1
C153: + x220 + x379 <= 1
C154: + x60 + x380 <= 1
C155: + x23 + x110 <= 1
C156: + x262 + x423 <= 1
C157: + x286 + x289 <= 1
C158: + x151 + x293 <= 1
C159: + x488 + x500 <= 1
C160: + x110 + x424 <= 1
C161: + x55 + x232 <= 1
C162: + x67 + x218 <= 1
C163: + x267 + x379 <= 1
C164: + x3 + x26 <= 1
C165: + x146 + x207 <= 1
C166: + x283 + x314 <= 1
C167: + x20 + x342 <= 1
C168: + x4 + x144 <= 1
C169: + x5 + x8 <= 1
C170: + x108 + x210 <= 1
C171: + x6 + x363 <= 1
C172: + x9 + x195 <= 1
C173: + x118 + x246 <= 1
C174: + x42 + x297 <= 1
C175: + x482 + x485 <= 1
C176: + x1 + x461 <= 1
C177: + x37 + x78 <= 1
C178: + x46 + x103 <= 1
C179: + x23 + x41 <= 1
C180: + x180 + x439 <= 1
C181: + x16 + x362 <= 1
C182: + x10 + x403 <= 1
C183: + x72 + x125 <= 1
C184: + x92 + x160 <= 1
C185: + x13 + x215 <= 1
C186: + x23 + x319 <= 1
C187: + x9 + x15 <= 1
C188: + x1 + x124 <= 1
C189: + x27 + x286 <= 1
C190: + x1 + x281 <= 1
C191: + x11 + x13 <= 1
C192: + x3 + x98 <= 1
C193: + x31 + x76 <= 1
C194: + x423 + x437 <= 1
C195: + x9 + x158 <= 1
C196: + x154 + x303 <= 1
C197: + x94 + x324 <= 1
C198: + x48 + x101 <= 1
C199: + x147 + x427 <= 1
C200: + x411 + x473 <= 1
C201: + x12 + x427 <= 1
C202: + x3 + x17 <= 1
C203: + x78 + x184 <= 1
C204: + x4 + x346 <= 1
C205: + x81 + x171 <= 1
C206: + x22 + x496 <= 1
C207: + x135 + x396 <= 1
C208: + x84 + x232 <= 1
C209: + x103 + x130 <= 1
C210: + x69 + x370 <= 1
C211: + x7 + x356 <= 1
C212: + x73 + x266 <= 1
C213: + x11 + x214 <= 1
C214: + x92 + x104 <= 1
C215: + x231 + x312 <= 1
C216: + x69 + x407 <= 1
C217: + x232 + x448 <= 1
C218: + x14 + x276 <= 1
C219: + x312 + x449 <= 1
C220: + x7 + x13 <= 1
C221: + x139 + x157 <= 1
C222: + x33 + x61 <= 1
C223: + x269 + x438 <= 1
C224: + x24 + x404 <= 1
C225: + x45 + x432 <= 1
C226: + x10 + x47 <= 1
C227: + x43 + x305 <= 1
C228: + x16 + x65 <= 1
C229: + x182 + x190 <= 1
C230: + x138 + x477 <= 1
C231: + x313 + x325 <= 1
C232: + x41 + x287 <= 1
C233: + x316 + x389 <= 1
C234: + x11 + x56 <= 1
C235: + x58 + x150 <= 1
C236: + x296 + x361 <= 1
C237: + x143 + x439 <= 1
C238: + x152 + x346 <= 1
C239: + x227 + x411 <= 1
C240: + x38 + x165 <= 1
C241: + x276 + x426 <= 1
C242: + x121 + x156 <= 1
C243: + x37 + x144 <= 1
C244: + x351 + x471 <= 1
C245: + x6 + x111 <= 1
C246: + x2 + x7 <= 1
C247: + x267 + x450 <= 1
C248: + x60 + x326 <= 1
C249: + x106 + x192 <= 1
C250: + x14 + x31 <= 1
C251: + x46 + x310 <= 1
C252: + x31 + x156 <= 1
C253: + x14 + x269 <= 1
C254: + x98 + x281 <= 1
C255: + x23 + x346 <= 1
C256: + x7 + x8 <= 1
C257: + x10 + x290 <= 1
C258: + x8 + x400 <= 1
C259: + x56 + x381 <= 1
C260: + x5 + x133 <= 1
C261: + x15 + x72 <= 1
C262: + x12 + x251 <= 1
C263: + x17 + x144 <= 1
C264: + x26 + x213 <= 1
C265: + x62 + x356 <= 1
C266: + x54 + x90 <= 1
C267: + x14 + x36 <= 1
C268: + x108 + x137 <= 1
C269: + x73 + x183 <= 1
C270: + x18 + x161 <= 1
C271: + x9 + x375 <= 1
C272: + x111 + x136 <= 1
C273: + x172 + x227 <= 1
C274: + x155 + x183 <= 1
C275: + x11 + x148 <= 1
C276: + x152 + x343 <= 1
C277: + x134 + x493 <= 1
C278: + x235 + x438 <= 1
C279: + x85 + x468 <= 1
C280: + x159 + x282 <= 1
C281: + x6 + x88 <= 1
C282: + x164 + x284 <= 1
C283: + x246 + x281 <= 1
C284: + x77 + x131 <= 1
C285: + x171 + x204 <= 1
C286: + x7 + x350 <= 1
C287: + x71 + x414 <= 1
C288: + x68 + x267 <= 1
C289: + x39 + x226 <= 1
C290: + x17 + x120 <= 1
C291: + x72 + x197 <= 1
C292: + x1 + x466 <= 1
C293: + x3 + x462 <= 1
C294: + x63 + x236 <= 1
C295: + x59 + x204 <= 1
C296: + x139 + x143 <= 1
C297: + x7 + x156 <= 1
C298: + x10 + x89 <= 1
C299: + x20 + x309 <= 1
C300: + x68 + x412 <= 1
C301: + x80 + x279 <= 1
C302: + x28 + x194 <= 1
C303: + x75 + x460 <= 1
C304: + x39 + x359 <= 1
C305: + x106 + x451 <= 1
C306: + x25 + x71 <= 1
C307: + x11 + x493 <= 1
C308: + x64 + x379 <= 1
C309: + x75 + x250 <= 1
C310: + x6 + x208 <= 1
C311: + x279 + x435 <= 1
C312: + x9 + x179 <= 1
C313: + x11 + x155 <= 1
C314: + x96 + x481 <= 1
C315: + x44 + x52 <= 1
C316: + x17 + x179 <= 1
C317: + x336 + x402 <= 1
C318: + x128 + x290 <= 1
C319: + x116 + x468 <= 1
C320: + x138 + x278 <= 1
C321: + x120 + x246 <= 1
C322: + x60 + x447 <= 1
C323: + x51 + x179 <= 1
C324: + x350 + x487 <= 1
C325: + x61 + x307 <= 1
C326: + x423 + x485 <= 1
C327: + x48 + x53 <= 1
C328: + x160 + x433 <= 1
C329: + x82 + x450 <= 1
C330: + x472 + x483 <= 1
C331: + x20 + x153 <= 1
C332: + x150 + x363 <= 1
C333: + x34 + x39 <= 1
C334: + x82 + x109 <= 1
C335: + x9 + x392 <= 1
C336: + x11 + x408 <= 1
C337: + x84 + x184 <= 1
C338: + x52 + x364 <= 1
C339: + x109 + x265 <= 1
C340: + x111 + x146 <= 1
C341: + x240 + x313 <= 1
C342: + x6 + x295 <= 1
C343: + x109 + x123 <= 1
C344: + x31 + x43 + x80 <= 1
C345: + x22 + x260 <= 1
C346: + x25 + x26 <= 1
C347: + x126 + x418 <= 1
C348: + x7 + x90 <= 1
C349: + x55 + x104 <= 1
C350: + x83 + x167 <= 1
C351: + x44 + x344 <= 1
C352: + x6 + x253 <= 1
C353: + x145 + x270 <= 1
C354: + x320 + x322 <= 1
C355: + x112 + x141 <= 1
C356: + x33 + x311 <= 1
C357: + x223 + x333 <= 1
C358: + x23 + x355 <= 1
C359: + x24 + x81 <= 1
C360: + x230 + x242 <= 1
C361: + x359 + x395 <= 1
C362: + x25 + x38 <= 1
C363: + x107 + x436 <= 1
C364: + x342 + x451 <= 1
C365: + x31 + x483 <= 1
C366: + x11 + x89 <= 1
C367: + x67 + x110 <= 1
C368: + x30 + x152 <= 1
C369: + x40 + x113 <= 1
C370: + x5 + x23 <= 1
C371: + x44 + x431 <= 1
C372: + x27 + x40 <= 1
C373: + x219 + x337 <= 1
C374: + x84 + x427 <= 1
C375: + x38 + x248 <= 1
C376: + x285 + x378 <= 1
C377: + x13 + x87 <= 1
C378: + x24 + x37 <= 1
C379: + x88 + x204 <= 1
C380: + x73 + x172 <= 1
C381: + x53 + x355 <= 1
C382: + x144 + x257 <= 1
C383: + x75 + x77 <= 1
C384: + x6 + x50 <= 1
C385: + x10 + x55 <= 1
C386: + x136 + x488 <= 1
C387: + x14 + x178 <= 1
C388: + x32 + x220 <= 1
C389: + x108 + x354 <= 1
C390: + x38 + x60 <= 1
C391: + x50 + x315 <= 1
C392: + x195 + x377 <= 1
C393: + x2 + x99 <= 1
C394: + x20 + x384 <= 1
C395: + x59 + x118 <= 1
C396: + x77 + x176 <= 1
C397: + x5 + x234 <= 1
C398: + x13 + x181 <= 1
C399: + x118 + x220 <= 1
C400: + x139 + x398 <= 1
C401: + x12 + x138 <= 1
C402: + x33 + x334 <= 1
C403: + x104 + x488 <= 1
C404: + x148 + x347 <= 1
C405: + x5 + x476 <= 1
C406: + x290 + x339 <= 1
C407: + x227 + x344 <= 1
C408: + x119 + x357 <= 1
C409: + x139 + x188 <= 1
C410: + x39 + x313 <= 1
C411: + x251 + x338 <= 1
C412: + x6 + x119 <= 1
C413: + x83 + x214 <= 1
C414: + x75 + x132 <= 1
C415: + x69 + x257 <= 1
C416: + x223 + x455 <= 1
C417: + x44 + x424 <= 1
C418: + x1 + x86 <= 1
C419: + x48 + x154 <= 1
C420: + x315 + x318 <= 1
C421: + x33 + x44 <= 1
C422: + x97 + x364 <= 1
C423: + x154 + x162 <= 1
C424: + x27 + x82 <= 1
C425: + x10 + x64 <= 1
C426: + x20 + x280 <= 1
C427: + x31 + x51 <= 1
C428: + x23 + x256 <= 1
C429: + x116 + x268 <= 1
C430: + x126 + x209 <= 1
C431: + x73 + x453 <= 1
C432: + x97 + x475 <= 1
C433: + x32 + x435 <= 1
C434: + x6 + x76 <= 1
C435: + x134 + x135 <= 1
C436: + x75 + x270 <= 1
C437: + x2 + x433 <= 1
C438: + x150 + x164 <= 1
C439: + x6 + x239 <= 1
C440: + x53 + x446 <= 1
C441: + x16 + x231 <= 1
C442: + x10 + x236 <= 1
C443: + x1 + x17 <= 1
C444: + x254 + x496 <= 1
C445: + x119 + x384 <= 1
C446: + x275 + x331 <= 1
C447: + x63 + x97 <= 1
C448: + x200 + x464 <= 1
C449: + x11 + x75 <= 1
C450: + x19 + x90 <= 1
C451: + x87 + x123 <= 1
C452: + x152 + x259 <= 1
C453: + x83 + x443 <= 1
C454: + x57 + x58 <= 1
C455: + x4 + x42 <= 1
C456: + x7 + x23 <= 1
C457: + x127 + x383 <= 1
C458: + x14 + x65 <= 1
C459: + x5 + x172 <= 1
C460: + x453 + x459 <= 1
C461: + x299 + x393 <= 1
C462: + x122 + x351 <= 1
C463: + x23 + x247 <= 1
C464: + x88 + x492 <= 1
C465: + x236 + x291 <= 1
C466: + x87 + x325 <= 1
C467: + x15 + x482 <= 1
C468: + x80 + x222 <= 1
C469: + x66 + x317 <= 1
C470: + x41 + x434 <= 1
C471: + x18 + x367 <= 1
C472: + x219 + x282 <= 1
C473: + x20 + x233 <= 1
C474: + x222 + x434 <= 1
C475: + x115 + x206 <= 1
C476: + x218 + x261 <= 1
C477: + x58 + x249 <= 1
C478: + x49 + x292 <= 1
C479: + x181 + x481 <= 1
C480: + x28 + x465 <= 1
C481: + x1 + x338 <= 1
C482: + x202 + x497 <= 1
C483: + x94 + x248 <= 1
C484: + x112 + x265 <= 1
C485: + x31 + x113 <= 1
C486: + x14 + x233 <= 1
C487: + x27 + x49 <= 1
C488: + x10 + x217 <= 1
C489: + x282 + x297 <= 1
C490: + x194 + x223 <= 1
C491: + x154 + x374 <= 1
C492: + x244 + x352 <= 1
C493: + x36 + x291 <= 1
C494: + x28 + x322 <= 1
C495: + x148 + x404 <= 1
C496: + x20 + x455 <= 1
C497: + x195 + x467 <= 1
C498: + x69 + x134 <= 1
C499: + x287 + x341 <= 1
C500: + x4 + x257 <= 1
C501: + x5 + x147 <= 1
C502: + x6 + x45 <= 1
C503: + x5 + x56 <= 1
C504: + x6 + x283 <= 1
C505: + x10 + x133 <= 1
C506: + x19 + x170 <= 1
C507: + x20 + x129 <= 1
C508: + x140 + x432 <= 1
C509: + x148 + x257 <= 1
C510: + x33 + x169 <= 1
C511: + x242 + x494 <= 1
C512: + x331 + x351 <= 1
C513: + x140 + x210 <= 1
C514: + x346 + x448 <= 1
C515: + x444 + x473 <= 1
C516: + x28 + x112 <= 1
C517: + x17 + x66 <= 1
C518: + x63 + x178 <= 1
C519: + x37 + x141 <= 1
C520: + x126 + x410 <= 1
C521: + x128 + x406 <= 1
C522: + x340 + x342 <= 1
C523: + x14 + x226 <= 1
C524: + x36 + x77 <= 1
C525: + x7 + x360 <= 1
C526: + x93 + x108 <= 1
C527: + x202 + x341 <= 1
C528: + x248 + x466 <= 1
C529: + x4 + x491 <= 1
C530: + x176 + x415 <= 1
C531: + x84 + x294 <= 1
C532: + x3 + x33 <= 1
C533: + x68 + x243 <= 1
C534: + x41 + x372 <= 1
C535: + x7 + x174 <= 1
C536: + x46 + x330 <= 1
C537: + x32 + x192 <= 1
C538: + x5 + x396 <= 1
C539: + x471 + x484 <= 1
C540: + x52 + x254 <= 1
C541: + x24 + x29 <= 1
C542: + x7 + x61 <= 1
C543: + x134 + x242 <= 1
C544: + x27 + x353 <= 1
C545: + x114 + x277 <= 1
C546: + x60 + x142 <= 1
C547: + x27 + x127 <= 1
C548: + x11 + x149 <= 1
C549: + x40 + x189 <= 1
C550: + x296 + x460 <= 1
C551: + x27 + x148 <= 1
C552: + x12 + x17 <= 1
C553: + x42 + x65 <= 1
C554: + x176 + x311 <= 1
C555: + x178 + x489 <= 1
C556: + x416 + x488 <= 1
C557: + x84 + x241 <= 1
C558: + x194 + x270 <= 1
C559: + x134 + x404 <= 1
C560: + x19 + x232 <= 1
C561: + x37 + x283 <= 1
C562: + x102 + x154 <= 1
C563: + x449 + x492 <= 1
C564: + x17 + x117 <= 1
C565: + x275 + x364 <= 1
C566: + x87 + x255 <= 1
C567: + x6 + x31 <= 1
C568: + x44 + x273 <= 1
C569: + x56 + x416 <= 1
C570: + x433 + x453 <= 1
C571: + x15 + x229 <= 1
C572: + x108 + x256 <= 1
C573: + x8 + x25 <= 1
C574: + x191 + x248 <= 1
C575: + x183 + x305 <= 1
C576: + x102 + x197 + x245 <= 1
C577: + x68 + x137 <= 1
C578: + x64 + x163 <= 1
C579: + x292 + x318 <= 1
C580: + x11 + x59 <= 1
C581: + x23 + x216 <= 1
C582: + x43 + x364 <= 1
C583: + x7 + x455 <= 1
C584: + x310 + x386 <= 1
C585: + x68 + x354 <= 1
C586: + x45 + x358 <= 1
C587: + x11 + x470 <= 1
C588: + x138 + x172 <= 1
C589: + x29 + x322 <= 1
C590: + x14 + x20 <= 1
C591: + x96 + x186 <= 1
C592: + x180 + x216 <= 1
C593: + x5 + x249 <= 1
C594: + x1 + x9 <= 1
C595: + x81 + x399 <= 1
C596: + x62 + x421 <= 1
C597: + x86 + x441 <= 1
C598: + x4 + x6 <= 1
C599: + x28 + x341 <= 1
C600: + x20 + x39 <= 1
C601: + x25 + x476 <= 1
C602: + x6 + x8 <= 1
C603: + x54 + x62 <= 1
C604: + x40 + x127 <= 1
C605: + x132 + x275 <= 1
C606: + x65 + x389 <= 1
C607: + x472 + x482 <= 1
C608: + x328 + x413 <= 1
C609: + x332 + x493 <= 1
C610: + x388 + x431 <= 1
C611: + x257 + x449 <= 1
C612: + x61 + x268 <= 1
C613: + x32 + x51 <= 1
C614: + x100 + x289 <= 1
C615: + x45 + x462 <= 1
C616: + x61 + x489 <= 1
C617: + x226 + x390 <= 1
C618: + x8 + x454 <= 1
C619: + x11 + x380 <= 1
C620: + x12 + x15 <= 1
C621: + x208 + x326 <= 1
C622: + x129 + x344 <= 1
C623: + x175 + x300 <= 1
C624: + x13 + x131 <= 1
C625: + x7 + x329 <= 1
C626: + x237 + x476 <= 1
C627: + x3 + x320 <= 1
C628: + x4 + x11 <= 1
C629: + x40 + x231 <= 1
C630: + x87 + x432 <= 1
C631: + x298 + x362 <= 1
C632: + x27 + x170 <= 1
C633: + x36 + x223 <= 1
C634: + x147 + x328 <= 1
C635: + x259 + x420 <= 1
C636: + x1 + x191 <= 1
C637: + x2 + x33 <= 1
C638: + x58 + x68 <= 1
C639: + x11 + x94 <= 1
C640: + x30 + x155 <= 1
C641: + x12 + x237 <= 1
C642: + x100 + x112 <= 1
C643: + x152 + x500 <= 1
C644: + x40 + x219 <= 1
C645: + x235 + x273 <= 1
C646: + x26 + x70 <= 1
C647: + x27 + x382 <= 1
C648: + x11 + x45 <= 1
C649: + x5 + x187 <= 1
C650: + x14 + x82 <= 1
C651: + x15 + x98 <= 1
C652: + x137 + x371 <= 1
C653: + x149 + x262 <= 1
C654: + x104 + x108 <= 1
C655: + x236 + x308 <= 1
C656: + x255 + x494 <= 1
C657: + x9 + x27 <= 1
C658: + x251 + x399 <= 1
C659: + x87 + x312 <= 1
C660: + x134 + x145 <= 1
C661: + x30 + x352 <= 1
C662: + x13 + x186 <= 1
C663: + x21 + x373 <= 1
C664: + x15 + x174 <= 1
C665: + x6 + x249 <= 1
C666: + x7 + x255 <= 1
C667: + x8 + x84 <= 1
C668: + x10 + x254 <= 1
C669: + x42 + x197 <= 1
C670: + x196 + x263 <= 1
C671: + x24 + x109 <= 1
C672: + x31 + x326 <= 1
C673: + x63 + x154 <= 1
C674: + x36 + x200 <= 1
C675: + x3 + x5 <= 1
C676: + x180 + x416 <= 1
C677: + x6 + x10 <= 1
C678: + x19 + x407 <= 1
C679: + x62 + x125 <= 1
C680: + x38 + x273 <= 1
C681: + x157 + x236 <= 1
C682: + x285 + x465 <= 1
C683: + x375 + x494 <= 1
C684: + x26 + x377 <= 1
C685: + x435 + x454 <= 1
C686: + x42 + x318 <= 1
C687: + x18 + x410 <= 1
C688: + x3 + x496 <= 1
C689: + x23 + x32 <= 1
C690: + x6 + x62 <= 1
C691: + x7 + x198 <= 1
C692: + x27 + x83 <= 1
C693: + x126 + x454 <= 1
C694: + x85 + x152 <= 1
C695: + x4 + x77 <= 1
C696: + x188 + x239 <= 1
C697: + x151 + x471 <= 1
C698: + x33 + x136 <= 1
C699: + x35 + x376 <= 1
C700: + x36 + x384 <= 1
C701: + x110 + x285 <= 1
C702: + x158 + x217 <= 1
C703: + x30 + x345 <= 1
C704: + x163 + x262 <= 1
C705: + x7 + x242 <= 1
C706: + x60 + x120 <= 1
C707: + x298 + x348 <= 1
C708: + x218 + x319 <= 1
C709: + x67 + x275 <= 1
C710: + x3 + x32 <= 1
C711: + x69 + x240 <= 1
C712: + x60 + x211 <= 1
C713: + x61 + x221 <= 1
C714: + x117 + x482 <= 1
C715: + x46 + x423 <= 1
C716: + x30 + x365 <= 1
C717: + x27 + x43 <= 1
C718: + x7 + x375 <= 1
C719: + x181 + x233 <= 1
C720: + x13 + x74 <= 1
C721: + x42 + x250 <= 1
C722: + x216 + x250 <= 1
C723: + x6 + x388 <= 1
C724: + x5 + x169 <= 1
C725: + x343 + x412 <= 1
C726: + x8 + x142 <= 1
C727: + x11 + x180 <= 1
C728: + x192 + x272 <= 1
C729: + x111 + x168 <= 1
C730: + x40 + x90 <= 1
C731: + x70 + x463 <= 1
C732: + x43 + x336 <= 1
C733: + x15 + x322 <= 1
C734: + x108 + x347 <= 1
C735: + x206 + x359 <= 1
C736: + x37 + x215 <= 1
C737: + x256 + x408 <= 1
C738: + x3 + x410 <= 1
C739: + x189 + x240 <= 1
C740: + x6 + x277 <= 1
C741: + x123 + x171 <= 1
C742: + x48 + x293 <= 1
C743: + x319 + x334 <= 1
C744: + x3 + x104 <= 1
C745: + x204 + x488 <= 1
C746: + x40 + x47 <= 1
C747: + x189 + x274 <= 1
C748: + x27 + x437 <= 1
C749: + x9 + x152 <= 1
C750: + x309 + x409 <= 1
C751: + x55 + x348 <= 1
C752: + x84 + x113 <= 1
C753: + x40 + x142 <= 1
C754: + x130 + x361 <= 1
C755: + x1 + x351 <= 1
C756: + x211 + x479 <= 1
C757: + x60 + x311 <= 1
C758: + x131 + x263 + x356 <= 1
C759: + x28 + x162 <= 1
C760: + x3 + x349 <= 1
C761: + x14 + x282 <= 1
C762: + x32 + x372 <= 1
C763: + x24 + x55 <= 1
C764: + x7 + x11 <= 1
C765: + x6 + x397 <= 1
C766: + x95 + x140 <= 1
C767: + x12 + x353 <= 1
C768: + x87 + x234 <= 1
C769: + x11 + x187 <= 1
C770: + x97 + x196 <= 1
C771: + x161 + x201 <= 1
C772: + x168 + x425 <= 1
C773: + x53 + x79 <= 1
C774: + x142 + x438 <= 1
C775: + x200 + x234 <= 1
C776: + x54 + x308 <= 1
C777: + x227 + x274 <= 1
C778: + x30 + x93 <= 1
C779: + x87 + x345 <= 1
C780: + x54 + x87 <= 1
C781: + x11 + x14 <= 1
C782: + x284 + x378 <= 1
C783: + x267 + x404 <= 1
C784: + x147 + x230 <= 1
C785: + x14 + x49 <= 1
C786: + x274 + x324 <= 1
C787: + x20 + x237 <= 1
C788: + x141 + x396 <= 1
C789: + x5 + x121 <= 1
C790: + x52 + x430 <= 1
C791: + x24 + x124 <= 1
C792: + x299 + x350 <= 1
C793: + x147 + x428 <= 1
C794: + x49 + x147 <= 1
C795: + x20 + x76 <= 1
C796: + x4 + x345 <= 1
C797: + x91 + x111 <= 1
C798: + x7 + x115 <= 1
C799: + x27 + x303 <= 1
C800: + x30 + x383 <= 1
C801: + x26 + x340 <= 1
C802: + x44 + x394 <= 1
C803: + x9 + x203 <= 1
C804: + x282 + x301 <= 1
C805: + x108 + x202 <= 1
C806: + x111 + x199 <= 1
C807: + x4 + x19 <= 1
C808: + x17 + x123 <= 1
C809: + x62 + x249 <= 1
C810: + x63 + x255 <= 1
C811: + x20 + x24 <= 1
C812: + x1 + x215 <= 1
C813: + x144 + x284 <= 1
C814: + x25 + x360 <= 1
C815: + x282 + x377 <= 1
C816: + x250 + x327 <= 1
C817: + x258 + x325 <= 1
C818: + x105 + x480 <= 1
C819: + x25 + x122 <= 1
C820: + x251 + x419 <= 1
C821: + x119 + x467 <= 1
C822: + x247 + x264 <= 1
C823: + x39 + x471 <= 1
C824: + x69 + x182 <= 1
C825: + x61 + x379 <= 1
C826: + x17 + x340 <= 1
C827: + x6 + x221 <= 1
C828: + x18 + x175 <= 1
C829: + x27 + x116 <= 1
C830: + x228 + x284 <= 1
C831: + x16 + x68 + x85 <= 1
C832: + x33 + x343 <= 1
C833: + x17 + x70 <= 1
C834: + x36 + x228 <= 1
C835: + x162 + x439 <= 1
C836: + x49 + x138 <= 1
C837: + x54 + x100 <= 1
C838: + x2 + x6 <= 1
C839: + x349 + x373 <= 1
C840: + x108 + x207 <= 1
C841: + x20 + x194 <= 1
C842: + x15 + x428 <= 1
C843: + x247 + x323 <= 1
C844: + x230 + x267 <= 1
C845: + x44 + x288 <= 1
C846: + x6 + x18 <= 1
C847: + x117 + x387 <= 1
C848: + x10 + x87 <= 1
C849: + x63 + x408 <= 1
C850: + x15 + x69 <= 1
C851: + x19 + x124 <= 1
C852: + x2 + x210 <= 1
C853: + x162 + x201 <= 1
C854: + x67 + x419 <= 1
C855: + x143 + x169 <= 1
C856: + x14 + x35 <= 1
C857: + x53 + x407 <= 1
C858: + x44 + x460 <= 1
C859: + x27 + x386 <= 1
C860: + x19 + x48 <= 1
C861: + x9 + x141 <= 1
C862: + x13 + x58 <= 1
C863: + x9 + x106 <= 1
C864: + x16 + x29 <= 1
C865: + x110 + x402 <= 1
C866: + x156 + x459 <= 1
C867: + x7 + x109 <= 1
C868: + x2 + x31 <= 1
C869: + x37 + x418 <= 1
C870: + x211 + x460 <= 1
C871: + x48 + x475 <= 1
C872: + x14 + x23 <= 1
C873: + x52 + x297 <= 1
C874: + x7 + x339 <= 1
C875: + x251 + x481 <= 1
C876: + x23 + x338 <= 1
C877: + x11 + x442 <= 1
C878: + x27 + x453 <= 1
C879: + x28 + x38 <= 1
C880: + x11 + x88 <= 1
C881: + x59 + x430 <= 1
C882: + x5 + x34 <= 1
C883: + x180 + x300 <= 1
C884: + x198 + x382 <= 1
C885: + x9 + x37 <= 1
C886: + x11 + x265 <= 1
C887: + x41 + x185 <= 1
C888: + x78 + x110 <= 1
C889: + x66 + x209 <= 1
C890: + x55 + x82 <= 1
C891: + x55 + x411 <= 1
C892: + x254 + x301 <= 1
C893: + x80 + x391 <= 1
C894: + x28 + x114 <= 1
C895: + x65 + x305 <= 1
C896: + x59 + x498 <= 1
C897: + x194 + x362 <= 1
C898: + x5 + x86 <= 1
C899: + x315 + x401 <= 1
C900: + x81 + x500 <= 1
C901: + x104 + x114 <= 1
C902: + x42 + x78 <= 1
C903: + x6 + x96 <= 1
C904: + x16 + x441 <= 1
C905: + x10 + x450 <= 1
C906: + x69 + x368 <= 1
C907: + x14 + x16 <= 1
C908: + x13 + x101 <= 1
C909: + x15 + x438 <= 1
C910: + x26 + x53 <= 1
C911: + x6 + x481 <= 1
C912: + x330 + x422 <= 1
C913: + x105 + x422 <= 1
C914: + x2 + x36 <= 1
C915: + x96 + x106 <= 1
C916: + x24 + x285 <= 1
C917: + x44 + x425 <= 1
C918: + x36 + x171 <= 1
C919: + x13 + x486 <= 1
C920: + x25 + x79 <= 1
C921: + x99 + x494 <= 1
C922: + x7 + x35 <= 1
C923: + x83 + x116 <= 1
C924: + x398 + x456 <= 1
C925: + x11 + x34 <= 1
C926: + x19 + x308 <= 1
C927: + x112 + x188 <= 1
C928: + x104 + x111 <= 1
C929: + x107 + x159 <= 1
C930: + x15 + x369 <= 1
C931: + x250 + x422 <= 1
C932: + x196 + x373 <= 1
C933: + x96 + x272 <= 1
C934: + x6 + x89 <= 1
C935: + x227 + x235 <= 1
C936: + x5 + x335 <= 1
C937: + x57 + x207 <= 1
C938: + x12 + x309 <= 1
C939: + x215 + x286 <= 1
C940: + x126 + x260 <= 1
C941: + x7 + x333 <= 1
C942: + x18 + x206 <= 1
C943: + x20 + x213 <= 1
C944: + x43 + x224 <= 1
C945: + x17 + x103 <= 1
C946: + x151 + x277 <= 1
C947: + x3 + x10 <= 1
C948: + x48 + x346 <= 1
C949: + x5 + x371 <= 1
C950: + x23 + x461 <= 1
C951: + x252 + x336 <= 1
C952: + x119 + x400 <= 1
C953: + x65 + x371 <= 1
C954: + x35 + x310 <= 1
C955: + x36 + x418 <= 1
C956: + x215 + x490 <= 1
C957: + x5 + x24 <= 1
C958: + x24 + x193 <= 1
C959: + x64 + x122 <= 1
C960: + x4 + x59 <= 1
C961: + x96 + x321 <= 1
C962: + x14 + x491 <= 1
C963: + x7 + x38 <= 1
C964: + x10 + x264 <= 1
C965: + x71 + x230 <= 1
C966: + x38 + x485 <= 1
C967: + x86 + x176 <= 1
C968: + x430 + x472 <= 1
C969: + x159 + x225 <= 1
C970: + x23 + x25 <= 1
C971: + x163 + x307 <= 1
C972: + x21 + x130 <= 1
C973: + x12 + x221 <= 1
C974: + x116 + x207 <= 1
C975: + x260 + x287 <= 1
C976: + x6 + x303 <= 1
C977: + x14 + x177 <= 1
C978: + x34 + x176 <= 1
C979: + x11 + x367 <= 1
C980: + x5 + x6 + x7 + x14 <= 1
C981: + x48 + x275 <= 1
C982: + x22 + x268 <= 1
C983: + x15 + x21 <= 1
C984: + x2 + x98 <= 1
C985: + x95 + x199 <= 1
C986: + x340 + x374 <= 1
C987: + x2 + x141 <= 1
C988: + x33 + x335 <= 1
C989: + x31 + x330 <= 1
C990: + x70 + x72 <= 1
C991: + x17 + x94 <= 1
C992: + x22 + x194 <= 1
C993: + x40 + x295 <= 1
C994: + x96 + x390 <= 1
C995: + x58 + x238 <= 1
C996: + x39 + x314 <= 1
C997: + x6 + x118 <= 1
C998: + x27 + x466 <= 1
C999: + x173 + x337 <= 1
C1000: + x119 + x391 <= 1
C1001: + x11 + x65 <= 1
C1002: + x103 + x146 <= 1
C1003: + x23 + x161 <= 1
C1004: + x20 + x170 <= 1
C1005: + x167 + x478 <= 1
C1006: + x24 + x61 <= 1
C1007: + x27 + x321 <= 1
C1008: + x29 + x42 <= 1
C1009: + x20 + x444 <= 1
C1010: + x245 + x349 <= 1
C1011: + x8 + x145 <= 1
C1012: + x105 + x253 <= 1
C1013: + x5 + x67 <= 1
C1014: + x24 + x174 <= 1
C1015: + x105 + x495 <= 1
C1016: + x25 + x105 <= 1
C1017: + x7 + x73 <= 1
C1018: + x40 + x46 <= 1
C1019: + x35 + x469 <= 1
C1020: + x27 + x426 <= 1
C1021: + x27 + x99 <= 1
C1022: + x1 + x18 <= 1
C1023: + x6 + x127 <= 1
C1024: + x15 + x44 <= 1
C1025: + x255 + x290 <= 1
C1026: + x37 + x394 <= 1
C1027: + x44 + x416 <= 1
C1028: + x44 + x99 <= 1
C1029: + x36 + x66 <= 1
C1030: + x28 + x173 <= 1
C1031: + x20 + x175 <= 1
C1032: + x42 + x299 <= 1
C1033: + x178 + x342 <= 1
C1034: + x142 + x296 <= 1
C1035: + x7 + x24 <= 1
C1036: + x62 + x227 <= 1
C1037: + x208 + x265 <= 1
C1038: + x90 + x412 <= 1
C1039: + x184 + x348 <= 1
C1040: + x33 + x36 <= 1
C1041: + x23 + x43 <= 1
C1042: + x7 + x262 <= 1
C1043: + x46 + x343 <= 1
C1044: + x221 + x499 <= 1
C1045: + x30 + x189 <= 1
C1046: + x368 + x398 <= 1
C1047: + x14 + x163 <= 1
C1048: + x5 + x391 <= 1
C1049: + x9 + x13 <= 1
C1050: + x49 + x164 <= 1
C1051: + x222 + x288 <= 1
C1052: + x105 + x470 <= 1
C1053: + x52 + x239 <= 1
C1054: + x84 + x355 <= 1
C1055: + x58 + x143 <= 1
C1056: + x393 + x500 <= 1
C1057: + x14 + x52 <= 1
C1058: + x99 + x176 <= 1
C1059: + x82 + x369 <= 1
C1060: + x84 + x117 <= 1
C1061: + x377 + x491 <= 1
C1062: + x14 + x151 <= 1
C1063: + x87 + x437 <= 1
C1064: + x5 + x459 <= 1
C1065: + x313 + x392 <= 1
C1066: + x49 + x160 <= 1
C1067: + x232 + x252 <= 1
C1068: + x14 + x389 <= 1
C1069: + x7 + x128 <= 1
C1070: + x47 + x476 <= 1
C1071: + x5 + x13 <= 1
C1072: + x126 + x174 <= 1
C1073: + x100 + x135 <= 1
C1074: + x7 + x366 <= 1
C1075: + x148 + x312 <= 1
C1076: + x170 + x314 <= 1
C1077: + x24 + x51 <= 1
C1078: + x14 + x278 <= 1
C1079: + x371 + x378 <= 1
C1080: + x8 + x316 <= 1
C1081: + x211 + x271 <= 1
C1082: + x217 + x421 <= 1
C1083: + x27 + x198 <= 1
C1084: + x227 + x302 <= 1
C1085: + x102 + x347 <= 1
C1086: + x37 + x218 <= 1
C1087: + x13 + x20 + x25 <= 1
C1088: + x147 + x226 <= 1
C1089: + x32 + x71 <= 1
C1090: + x15 + x139 <= 1
C1091: + x101 + x212 <= 1
C1092: + x19 + x58 <= 1
C1093: + x170 + x375 <= 1
C1094: + x44 + x196 <= 1
C1095: + x171 + x397 <= 1
C1096: + x6 + x462 <= 1
C1097: + x55 + x244 <= 1
C1098: + x184 + x406 <= 1
C1099: + x96 + x280 <= 1
C1100: + x151 + x158 <= 1
C1101: + x262 + x316 <= 1
C1102: + x10 + x467 <= 1
C1103: + x216 + x283 <= 1
C1104: + x198 + x417 <= 1
C1105: + x54 + x466 <= 1
C1106: + x340 + x341 <= 1
C1107: + x5 + x12 <= 1
C1108: + x15 + x215 <= 1
C1109: + x15 + x268 <= 1
C1110: + x188 + x375 <= 1
C1111: + x60 + x431 <= 1
C1112: + x18 + x385 <= 1
C1113: + x20 + x28 <= 1
C1114: + x69 + x142 <= 1
C1115: + x13 + x358 <= 1
C1116: + x175 + x228 <= 1
C1117: + x40 + x76 <= 1
C1118: + x5 + x64 <= 1
C1119: + x6 + x184 <= 1
C1120: + x53 + x82 <= 1
C1121: + x28 + x247 <= 1
C1122: + x1 + x120 <= 1
C1123: + x22 + x304 <= 1
C1124: + x388 + x420 <= 1
C1125: + x27 + x354 <= 1
C1126: + x67 + x182 <= 1
C1127: + x6 + x217 <= 1
C1128: + x18 + x352 <= 1
C1129: + x12 + x181 <= 1
C1130: + x13 + x63 <= 1
C1131: + x40 + x192 <= 1
C1132: + x5 + x100 <= 1
C1133: + x222 + x294 <= 1
C1134: + x90 + x126 <= 1
C1135: + x28 + x418 <= 1
C1136: + x155 + x220 <= 1
C1137: + x144 + x238 <= 1
C1138: + x14 + x26 <= 1
C1139: + x53 + x480 <= 1
C1140: + x65 + x499 <= 1
C1141: + x196 + x224 <= 1
C1142: + x4 + x467 <= 1
C1143: + x25 + x185 <= 1
C1144: + x243 + x391 <= 1
C1145: + x227 + x333 <= 1
C1146: + x18 + x122 <= 1
C1147: + x58 + x214 <= 1
C1148: + x59 + x206 <= 1
C1149: + x14 + x107 <= 1
C1150: + x6 + x30 <= 1
C1151: + x189 + x487 <= 1
C1152: + x155 + x307 <= 1
C1153: + x3 + x222 <= 1
C1154: + x38 + x357 <= 1
C1155: + x51 + x452 <= 1
C1156: + x5 + x39 <= 1
C1157: + x81 + x128 <= 1
C1158: + x7 + x53 <= 1
C1159: + x27 + x361 <= 1
C1160: + x129 + x209 <= 1
C1161: + x42 + x64 <= 1
C1162: + x188 + x457 <= 1
C1163: + x7 + x210 <= 1
C1164: + x11 + x157 <= 1
C1165: + x446 + x454 <= 1
C1166: + x55 + x289 <= 1
C1167: + x13 + x54 <= 1
C1168: + x34 + x153 <= 1
C1169: + x2 + x269 <= 1
C1170: + x12 + x480 <= 1
C1171: + x142 + x251 <= 1
C1172: + x7 + x97 <= 1
C1173: + x14 + x19 <= 1
C1174: + x44 + x79 <= 1
C1175: + x47 + x74 <= 1
C1176: + x96 + x145 + x252 <= 1
C1177: + x4 + x5 <= 1
C1178: + x31 + x345 <= 1
C1179: + x52 + x63 <= 1
C1180: + x171 + x419 <= 1
C1181: + x49 + x241 <= 1
C1182: + x12 + x396 <= 1
C1183: + x99 + x128 <= 1
C1184: + x74 + x201 <= 1
C1185: + x83 + x230 <= 1
C1186: + x152 + x236 <= 1
C1187: + x5 + x46 <= 1
C1188: + x32 + x173 <= 1
C1189: + x35 + x385 <= 1
C1190: + x467 + x490 <= 1
C1191: + x105 + x125 <= 1
C1192: + x42 + x134 <= 1
C1193: + x3 + x72 <= 1
C1194: + x14 + x88 <= 1
C1195: + x87 + x195 <= 1
C1196: + x245 + x324 <= 1
C1197: + x10 + x16 <= 1
C1198: + x373 + x441 <= 1
C1199: + x63 + x463 <= 1
C1200: + x236 + x415 <= 1
C1201: + x4 + x66 <= 1
C1202: + x154 + x424 <= 1
C1203: + x39 + x131 <= 1
C1204: + x30 + x120 <= 1
C1205: + x178 + x282 <= 1
C1206: + x5 + x324 <= 1
C1207: + x13 + x479 <= 1
C1208: + x54 + x114 <= 1
C1209: + x220 + x437 <= 1
C1210: + x94 + x382 <= 1
C1211: + x124 + x246 <= 1
C1212: + x332 + x425 <= 1
C1213: + x33 + x309 <= 1
C1214: + x151 + x274 <= 1
C1215: + x289 + x340 <= 1
C1216: + x136 + x200 <= 1
C1217: + x11 + x429 <= 1
C1218: + x192 + x498 <= 1
C1219: + x105 + x426 <= 1
C1220: + x53 + x349 <= 1
C1221: + x28 + x63 <= 1
C1222: + x10 + x69 <= 1
C1223: + x11 + x91 <= 1
C1224: + x40 + x119 <= 1
C1225: + x5 + x21 <= 1
C1226: + x42 + x409 <= 1
C1227: + x317 + x436 <= 1
C1228: + x256 + x445 <= 1
C1229: + x140 + x459 <= 1
C1230: + x199 + x359 <= 1
C1231: + x10 + x259 <= 1
C1232: + x28 + x377 <= 1
C1233: + x55 + x402 <= 1
C1234: + x185 + x497 <= 1
C1235: + x115 + x389 <= 1
C1236: + x13 + x327 <= 1
C1237: + x7 + x196 <= 1
C1238: + x100 + x256 <= 1
C1239: + x19 + x30 <= 1
C1240: + x3 + x228 <= 1
C1241: + x43 + x347 <= 1
C1242: + x117 + x179 <= 1
C1243: + x9 + x28 <= 1
C1244: + x45 + x184 <= 1
C1245: + x22 + x271 <= 1
C1246: + x6 + x69 <= 1
C1247: + x81 + x140 <= 1
C1248: + x27 + x271 <= 1
C1249: + x208 + x334 <= 1
C1250: + x271 + x331 <= 1
C1251: + x256 + x328 <= 1
C1252: + x141 + x315 <= 1
C1253: + x27 + x29 <= 1
C1254: + x9 + x235 <= 1
C1255: + x47 + x92 <= 1
C1256: + x3 + x6 <= 1
C1257: + x96 + x320 <= 1
C1258: + x345 + x480 <= 1
C1259: + x6 + x9 <= 1
C1260: + x29 + x357 <= 1
C1261: + x50 + x487 <= 1
C1262: + x40 + x112 <= 1
C1263: + x296 + x443 <= 1
C1264: + x32 + x147 <= 1
C1265: + x27 + x33 <= 1
C1266: + x12 + x68 <= 1
C1267: + x69 + x444 <= 1
C1268: + x22 + x137 <= 1
C1269: + x35 + x161 <= 1
C1270: + x10 + x58 <= 1
C1271: + x31 + x205 <= 1
C1272: + x5 + x413 <= 1
C1273: + x330 + x368 <= 1
C1274: + x38 + x39 <= 1
C1275: + x133 + x178 <= 1
C1276: + x6 + x78 <= 1
C1277: + x66 + x243 <= 1
C1278: + x158 + x216 <= 1
C1279: + x52 + x260 <= 1
C1280: + x15 + x182 <= 1
C1281: + x6 + x225 <= 1
C1282: + x7 + x316 <= 1
C1283: + x28 + x160 <= 1
C1284: + x386 + x469 <= 1
C1285: + x24 + x101 <= 1
C1286: + x19 + x92 <= 1
C1287: + x11 + x77 <= 1
C1288: + x20 + x335 <= 1
C1289: + x86 + x196 <= 1
C1290: + x234 + x331 <= 1
C1291: + x36 + x93 <= 1
C1292: + x68 + x273 <= 1
C1293: + x51 + x150 <= 1
C1294: + x24 + x57 <= 1
C1295: + x128 + x331 <= 1
C1296: + x50 + x105 <= 1
C1297: + x86 + x181 <= 1
C1298: + x101 + x230 <= 1
C1299: + x210 + x395 <= 1
C1300: + x23 + x294 <= 1
C1301: + x17 + x157 <= 1
C1302: + x19 + x177 <= 1
C1303: + x30 + x67 <= 1
C1304: + x70 + x188 <= 1
C1305: + x226 + x267 <= 1
C1306: + x59 + x122 <= 1
C1307: + x42 + x456 <= 1
C1308: + x18 + x180 <= 1
C1309: + x93 + x95 <= 1
C1310: + x30 + x244 <= 1
C1311: + x5 + x115 <= 1
C1312: + x23 + x205 <= 1
C1313: + x5 + x464 <= 1
C1314: + x36 + x245 <= 1
C1315: + x20 + x70 <= 1
C1316: + x15 + x48 <= 1
C1317: + x10 + x128 <= 1
C1318: + x122 + x278 <= 1
C1319: + x12 + x114 <= 1
C1320: + x4 + x45 <= 1
C1321: + x149 + x429 <= 1
C1322: + x7 + x12 <= 1
C1323: + x1 + x463 <= 1
C1324: + x3 + x44 <= 1
C1325: + x429 + x442 <= 1
C1326: + x274 + x279 <= 1
C1327: + x30 + x185 <= 1
C1328: + x169 + x253 <= 1
C1329: + x34 + x267 <= 1
C1330: + x269 + x286 <= 1
C1331: + x162 + x353 <= 1
C1332: + x43 + x129 <= 1
C1333: + x9 + x49 <= 1
C1334: + x27 + x199 <= 1
C1335: + x11 + x285 <= 1
C1336: + x29 + x84 <= 1
C1337: + x21 + x430 <= 1
C1338: + x267 + x320 <= 1
C1339: + x15 + x491 <= 1
C1340: + x29 + x446 <= 1
C1341: + x13 + x168 <= 1
C1342: + x14 + x48 <= 1
C1343: + x7 + x225 <= 1
C1344: + x30 + x205 <= 1
C1345: + x6 + x449 <= 1
C1346: + x20 + x75 <= 1
C1347: + x48 + x198 <= 1
C1348: + x105 + x390 <= 1
C1349: + x30 + x475 <= 1
C1350: + x40 + x440 <= 1
C1351: + x6 + x100 <= 1
C1352: + x79 + x247 <= 1
C1353: + x246 + x277 <= 1
C1354: + x3 + x180 <= 1
C1355: + x277 + x388 <= 1
C1356: + x15 + x212 <= 1
C1357: + x54 + x376 <= 1
C1358: + x93 + x106 <= 1
C1359: + x131 + x258 <= 1
C1360: + x314 + x475 <= 1
C1361: + x4 + x489 <= 1
C1362: + x17 + x124 <= 1
C1363: + x134 + x208 <= 1
C1364: + x111 + x417 <= 1
C1365: + x2 + x458 <= 1
C1366: + x23 + x34 <= 1
C1367: + x6 + x24 <= 1
C1368: + x150 + x237 <= 1
C1369: + x371 + x374 <= 1
C1370: + x5 + x394 <= 1
C1371: + x16 + x67 <= 1
C1372: + x118 + x420 <= 1
C1373: + x74 + x171 <= 1
C1374: + x55 + x69 <= 1
C1375: + x93 + x323 <= 1
C1376: + x273 + x436 <= 1
C1377: + x51 + x258 <= 1
C1378: + x5 + x97 <= 1
C1379: + x14 + x140 <= 1
C1380: + x24 + x116 <= 1
C1381: + x134 + x261 <= 1
C1382: + x287 + x423 <= 1
C1383: + x11 + x332 <= 1
C1384: + x310 + x443 <= 1
C1385: + x20 + x84 <= 1
C1386: + x110 + x134 <= 1
C1387: + x2 + x5 <= 1
C1388: + x135 + x385 <= 1
C1389: + x121 + x432 <= 1
C1390: + x97 + x135 <= 1
C1391: + x298 + x378 <= 1
C1392: + x72 + x202 <= 1
C1393: + x20 + x32 <= 1
C1394: + x6 + x17 <= 1
C1395: + x7 + x167 <= 1
C1396: + x83 + x240 <= 1
C1397: + x8 + x252 <= 1
C1398: + x118 + x316 <= 1
C1399: + x270 + x313 <= 1
C1400: + x112 + x225 <= 1
C1401: + x31 + x41 <= 1
C1402: + x106 + x234 <= 1
C1403: + x180 + x294 <= 1
C1404: + x17 + x317 <= 1
C1405: + x363 + x435 <= 1
C1406: + x22 + x30 <= 1
C1407: + x117 + x158 <= 1
C1408: + x7 + x405 <= 1
C1409: + x13 + x497 <= 1
C1410: + x7 + x50 <= 1
C1411: + x62 + x197 <= 1
C1412: + x174 + x395 <= 1
C1413: + x55 + x96 <= 1
C1414: + x75 + x292 <= 1
C1415: + x40 + x469 <= 1
C1416: + x445 + x479 <= 1
C1417: + x48 + x117 <= 1
C1418: + x73 + x427 <= 1
C1419: + x247 + x399 <= 1
C1420: + x30 + x98 <= 1
C1421: + x48 + x263 <= 1
C1422: + x6 + x86 <= 1
C1423: + x55 + x477 <= 1
C1424: + x376 + x462 <= 1
C1425: + x15 + x222 <= 1
C1426: + x9 + x250 <= 1
C1427: + x36 + x121 <= 1
C1428: + x18 + x211 <= 1
C1429: + x43 + x235 <= 1
C1430: + x18 + x126 <= 1
C1431: + x27 + x161 <= 1
C1432: + x20 + x37 <= 1
C1433: + x3 + x53 <= 1
C1434: + x47 + x168 <= 1
C1435: + x23 + x52 <= 1
C1436: + x6 + x26 <= 1
C1437: + x343 + x421 <= 1
C1438: + x199 + x474 <= 1
C1439: + x6 + x376 <= 1
C1440: + x20 + x150 <= 1
C1441: + x4 + x387 <= 1
C1442: + x44 + x165 <= 1
C1443: + x27 + x373 <= 1
C1444: + x23 + x42 + x251 <= 1
C1445: + x96 + x241 <= 1
C1446: + x15 + x153 <= 1
C1447: + x145 + x152 <= 1
C1448: + x109 + x217 <= 1
C1449: + x453 + x465 <= 1
C1450: + x129 + x423 <= 1
C1451: + x27 + x394 <= 1
C1452: + x118 + x132 <= 1
C1453: + x13 + x50 <= 1
C1454: + x99 + x323 <= 1
C1455: + x4 + x335 <= 1
C1456: + x7 + x101 <= 1
C1457: + x74 + x129 <= 1
C1458: + x8 + x367 <= 1
C1459: + x410 + x433 <= 1
C1460: + x6 + x242 <= 1
C1461: + x44 + x67 <= 1
C1462: + x35 + x457 <= 1
C1463: + x121 + x283 <= 1
C1464: + x4 + x9 <= 1
C1465: + x5 + x472 <= 1
C1466: + x73 + x414 <= 1
C1467: + x154 + x495 <= 1
C1468: + x63 + x145 <= 1
C1469: + x20 + x46 <= 1
C1470: + x3 + x16 <= 1
C1471: + x42 + x121 <= 1
C1472: + x155 + x243 <= 1
C1473: + x11 + x96 <= 1
C1474: + x64 + x285 <= 1
C1475: + x37 + x414 <= 1
C1476: + x15 + x241 <= 1
C1477: + x20 + x155 <= 1
C1478: + x94 + x309 <= 1
C1479: + x293 + x400 <= 1
C1480: + x42 + x138 <= 1
C1481: + x68 + x290 <= 1
C1482: + x69 + x434 <= 1
C1483: + x28 + x360 <= 1
C1484: + x54 + x170 <= 1
C1485: + x11 + x47 <= 1
C1486: + x20 + x429 <= 1
C1487: + x34 + x392 <= 1
C1488: + x172 + x272 <= 1
C1489: + x194 + x354 <= 1
C1490: + x47 + x393 <= 1
C1491: + x25 + x266 <= 1
C1492: + x389 + x445 <= 1
C1493: + x83 + x165 <= 1
C1494: + x11 + x19 <= 1
C1495: + x64 + x338 <= 1
C1496: + x59 + x105 <= 1
C1497: + x145 + x187 <= 1
C1498: + x236 + x463 <= 1
C1499: + x1 + x5 <= 1
C1500: + x102 + x183 <= 1
C1501: + x2 + x139 <= 1
C1502: + x33 + x329 <= 1
C1503: + x4 + x453 <= 1
C1504: + x24 + x83 <= 1
C1505: + x44 + x231 <= 1
C1506: + x318 + x455 <= 1
C1507: + x3 + x7 <= 1
C1508: + x115 + x461 <= 1
C1509: + x6 + x12 <= 1
C1510: + x119 + x397 <= 1
C1511: + x28 + x51 <= 1
C1512: + x10 + x73 <= 1
C1513: + x155 + x254 <= 1
C1514: + x231 + x417 <= 1
C1515: + x164 + x376 <= 1
C1516: + x245 + x296 <= 1
C1517: + x20 + x164 <= 1
C1518: + x87 + x381 <= 1
C1519: + x172 + x474 <= 1
C1520: + x11 + x42 <= 1
C1521: + x201 + x440 <= 1
C1522: + x11 + x139 <= 1
C1523: + x41 + x55 <= 1
C1524: + x86 + x258 <= 1
C1525: + x13 + x40 <= 1
C1526: + x79 + x441 <= 1
C1527: + x32 + x198 <= 1
C1528: + x214 + x317 <= 1
C1529: + x112 + x478 <= 1
C1530: + x14 + x478 <= 1
C1531: + x46 + x280 <= 1
C1532: + x240 + x280 <= 1
C1533: + x334 + x442 <= 1
C1534: + x36 + x203 <= 1
C1535: + x236 + x355 <= 1
C1536: + x27 + x190 <= 1
C1537: + x7 + x482 <= 1
C1538: + x47 + x366 <= 1
C1539: + x86 + x100 <= 1
C1540: + x8 + x224 <= 1
C1541: + x264 + x370 <= 1
C1542: + x38 + x284 <= 1
C1543: + x13 + x235 <= 1
C1544: + x95 + x244 <= 1
C1545: + x167 + x173 <= 1
C1546: + x23 + x162 <= 1
C1547: + x14 + x483 <= 1
C1548: + x9 + x440 <= 1
C1549: + x128 + x330 <= 1
C1550: + x176 + x353 <= 1
C1551: + x5 + x175 <= 1
C1552: + x6 + x57 <= 1
C1553: + x36 + x406 <= 1
C1554: + x28 + x72 <= 1
C1555: + x149 + x266 <= 1
C1556: + x169 + x243 <= 1
C1557: + x5 + x409 <= 1
C1558: + x35 + x48 <= 1
C1559: + x239 + x312 <= 1
C1560: + x68 + x175 <= 1
C1561: + x97 + x477 <= 1
C1562: + x7 + x74 <= 1
C1563: + x401 + x465 <= 1
C1564: + x40 + x45 <= 1
C1565: + x22 + x202 <= 1
C1566: + x7 + x473 <= 1
C1567: + x50 + x177 <= 1
C1568: + x150 + x275 <= 1
C1569: + x315 + x340 <= 1
C1570: + x87 + x288 <= 1
C1571: + x36 + x431 <= 1
C1572: + x2 + x54 <= 1
C1573: + x85 + x216 <= 1
C1574: + x20 + x339 <= 1
C1575: + x51 + x484 <= 1
C1576: + x258 + x420 <= 1
C1577: + x97 + x246 <= 1
C1578: + x44 + x102 <= 1
C1579: + x11 + x302 <= 1
C1580: + x293 + x421 <= 1
C1581: + x174 + x325 <= 1
C1582: + x38 + x91 <= 1
C1583: + x69 + x318 <= 1
C1584: + x5 + x75 <= 1
C1585: + x7 + x424 <= 1
C1586: + x146 + x490 <= 1
C1587: + x2 + x365 <= 1
C1588: + x20 + x126 <= 1
C1589: + x30 + x95 <= 1
C1590: + x40 + x327 <= 1
C1591: + x169 + x492 <= 1
C1592: + x81 + x382 <= 1
C1593: + x83 + x146 <= 1
C1594: + x37 + x49 <= 1
C1595: + x2 + x115 <= 1
C1596: + x11 + x16 <= 1
C1597: + x208 + x499 <= 1
C1598: + x154 + x304 <= 1
C1599: + x12 + x186 <= 1
C1600: + x41 + x81 <= 1
C1601: + x170 + x186 <= 1
C1602: + x15 + x407 <= 1
C1603: + x66 + x121 <= 1
C1604: + x42 + x85 <= 1
C1605: + x25 + x61 <= 1
C1606: + x9 + x471 <= 1
C1607: + x55 + x464 <= 1
C1608: + x14 + x231 <= 1
C1609: + x28 + x165 <= 1
C1610: + x59 + x299 <= 1
C1611: + x69 + x406 <= 1
C1612: + x388 + x498 <= 1
C1613: + x136 + x227 <= 1
C1614: + x20 + x22 <= 1
C1615: + x224 + x350 <= 1
C1616: + x1 + x368 <= 1
C1617: + x8 + x130 <= 1
C1618: + x38 + x370 <= 1
C1619: + x5 + x50 <= 1
C1620: + x227 + x299 <= 1
C1621: + x37 + x219 <= 1
C1622: + x94 + x301 <= 1
C1623: + x74 + x166 <= 1
C1624: + x10 + x486 <= 1
C1625: + x11 + x55 <= 1
C1626: + x286 + x401 <= 1
C1627: + x5 + x193 <= 1
C1628: + x25 + x405 <= 1
C1629: + x7 + x229 <= 1
C1630: + x20 + x244 <= 1
C1631: + x4 + x110 <= 1
C1632: + x107 + x168 <= 1
C1633: + x23 + x269 <= 1
C1634: + x16 + x22 <= 1
C1635: + x27 + x151 <= 1
C1636: + x80 + x342 <= 1
C1637: + x46 + x166 <= 1
C1638: + x86 + x452 <= 1
C1639: + x12 + x417 <= 1
C1640: + x33 + x103 <= 1
C1641: + x2 + x8 <= 1
C1642: + x75 + x187 <= 1
C1643: + x23 + x75 <= 1
C1644: + x5 + x245 <= 1
C1645: + x26 + x138 <= 1
C1646: + x18 + x229 <= 1
C1647: + x218 + x445 <= 1
C1648: + x24 + x232 <= 1
C1649: + x241 + x295 <= 1
C1650: + x61 + x95 <= 1
C1651: + x118 + x412 <= 1
C1652: + x47 + x154 <= 1
C1653: + x251 + x317 <= 1
C1654: + x15 + x71 <= 1
C1655: + x6 + x20 <= 1
C1656: + x9 + x266 <= 1
C1657: + x8 + x308 <= 1
C1658: + x46 + x328 <= 1
C1659: + x76 + x117 <= 1
C1660: + x229 + x429 <= 1
C1661: + x6 + x258 <= 1
C1662: + x9 + x60 <= 1
C1663: + x48 + x306 <= 1
C1664: + x306 + x326 <= 1
C1665: + x27 + x367 <= 1
C1666: + x147 + x218 <= 1
C1667: + x158 + x191 <= 1
C1668: + x5 + x208 <= 1
C1669: + x79 + x83 <= 1
C1670: + x7 + x224 <= 1
C1671: + x14 + x37 <= 1
C1672: + x15 + x147 <= 1
C1673: + x229 + x401 <= 1
C1674: + x18 + x162 <= 1
C1675: + x170 + x383 <= 1
C1676: + x253 + x271 <= 1
C1677: + x16 + x19 <= 1
C1678: + x44 + x60 <= 1
C1679: + x24 + x144 <= 1
C1680: + x45 + x204 <= 1
C1681: + x6 + x310 <= 1
C1682: + x140 + x403 <= 1
C1683: + x43 + x93 <= 1
C1684: + x24 + x27 + x28 <= 1
C1685: + x11 + x102 <= 1
C1686: + x59 + x92 <= 1
C1687: + x95 + x240 <= 1
C1688: + x23 + x78 <= 1
C1689: + x61 + x332 <= 1
C1690: + x162 + x315 <= 1
C1691: + x110 + x456 <= 1
C1692: + x320 + x440 <= 1
C1693: + x58 + x213 <= 1
C1694: + x350 + x495 <= 1
C1695: + x74 + x199 <= 1
C1696: + x110 + x363 <= 1
C1697: + x336 + x369 <= 1
C1698: + x205 + x387 <= 1
C1699: + x5 + x40 <= 1
C1700: + x6 + x192 <= 1
C1701: + x26 + x223 <= 1
C1702: + x9 + x35 <= 1
C1703: + x7 + x393 <= 1
C1704: + x13 + x195 <= 1
C1705: + x35 + x52 <= 1
C1706: + x48 + x132 <= 1
C1707: + x17 + x35 <= 1
C1708: + x6 + x430 <= 1
C1709: + x19 + x315 <= 1
C1710: + x84 + x300 <= 1
C1711: + x20 + x419 <= 1
C1712: + x42 + x63 <= 1
C1713: + x6 + x193 <= 1
C1714: + x18 + x344 <= 1
C1715: + x154 + x259 <= 1
C1716: + x73 + x370 <= 1
C1717: + x19 + x41 <= 1
C1718: + x60 + x484 <= 1
C1719: + x98 + x149 <= 1
C1720: + x289 + x386 <= 1
C1721: + x81 + x498 <= 1
C1722: + x30 + x126 <= 1
C1723: + x258 + x365 <= 1
C1724: + x422 + x428 <= 1
C1725: + x303 + x401 <= 1
C1726: + x46 + x59 <= 1
C1727: + x301 + x327 <= 1
C1728: + x438 + x457 <= 1
C1729: + x168 + x212 <= 1
C1730: + x95 + x372 <= 1
C1731: + x50 + x411 <= 1
C1732: + x332 + x435 <= 1
C1733: + x25 + x129 <= 1
C1734: + x13 + x107 <= 1
C1735: + x101 + x492 <= 1
C1736: + x48 + x343 <= 1
C1737: + x15 + x81 <= 1
C1738: + x24 + x448 <= 1
C1739: + x74 + x208 <= 1
C1740: + x2 + x46 <= 1
C1741: + x275 + x390 <= 1
C1742: + x223 + x472 <= 1
C1743: + x6 + x185 <= 1
C1744: + x15 + x238 <= 1
C1745: + x63 + x381 <= 1
C1746: + x169 + x456 <= 1
C1747: + x63 + x218 <= 1
C1748: + x14 + x87 <= 1
C1749: + x6 + x202 <= 1
C1750: + x19 + x36 <= 1
C1751: + x46 + x366 <= 1
C1752: + x86 + x380 <= 1
C1753: + x96 + x495 <= 1
C1754: + x6 + x296 <= 1
C1755: + x9 + x22 <= 1
C1756: + x63 + x169 <= 1
C1757: + x27 + x228 <= 1
C1758: + x29 + x73 <= 1
C1759: + x42 + x177 <= 1
C1760: + x5 + x333 <= 1
C1761: + x185 + x311 <= 1
C1762: + x221 + x411 <= 1
C1763: + x13 + x189 <= 1
C1764: + x40 + x62 <= 1
C1765: + x18 + x107 <= 1
C1766: + x42 + x125 <= 1
C1767: + x7 + x149 <= 1
C1768: + x83 + x295 <= 1
C1769: + x105 + x200 <= 1
C1770: + x22 + x44 <= 1
C1771: + x169 + x221 <= 1
C1772: + x232 + x306 <= 1
C1773: + x8 + x9 <= 1
C1774: + x4 + x400 <= 1
C1775: + x24 + x38 <= 1
C1776: + x27 + x380 <= 1
C1777: + x23 + x27 <= 1
C1778: + x15 + x104 <= 1
C1779: + x54 + x388 <= 1
C1780: + x122 + x334 <= 1
C1781: + x221 + x483 <= 1
C1782: + x31 + x203 <= 1
C1783: + x161 + x363 <= 1
C1784: + x44 + x47 <= 1
C1785: + x18 + x56 <= 1
C1786: + x250 + x425 <= 1
C1787: + x30 + x80 <= 1
C1788: + x140 + x442 <= 1
C1789: + x22 + x270 <= 1
C1790: + x67 + x84 <= 1
C1791: + x114 + x362 <= 1
C1792: + x5 + x233 <= 1
C1793: + x163 + x182 <= 1
C1794: + x2 + x143 <= 1
C1795: + x113 + x195 <= 1
C1796: + x4 + x118 <= 1
C1797: + x116 + x336 <= 1
C1798: + x160 + x279 <= 1
C1799: + x142 + x381 <= 1
C1800: + x21 + x486 <= 1
C1801: + x4 + x360 <= 1
C1802: + x98 + x385 <= 1
C1803: + x85 + x206 <= 1
C1804: + x194 + x291 <= 1
C1805: + x40 + x111 <= 1
C1806: + x5 + x29 <= 1
C1807: + x4 + x131 <= 1
C1808: + x217 + x393 <= 1
C1809: + x27 + x34 <= 1
C1810: + x210 + x264 <= 1
C1811: + x84 + x433 <= 1
C1812: + x29 + x139 <= 1
C1813: + x105 + x108 <= 1
C1814: + x31 + x163 <= 1
C1815: + x250 + x358 <= 1
C1816: + x108 + x229 <= 1
C1817: + x3 + x329 <= 1
C1818: + x42 + x292 <= 1
C1819: + x44 + x151 <= 1
C1820: + x7 + x31 <= 1
C1821: + x38 + x85 <= 1
C1822: + x13 + x383 <= 1
C1823: + x27 + x81 <= 1
C1824: + x29 + x314 <= 1
C1825: + x43 + x160 <= 1
C1826: + x24 + x148 <= 1
C1827: + x147 + x388 <= 1
C1828: + x95 + x470 <= 1
C1829: + x31 + x292 <= 1
C1830: + x151 + x178 <= 1
C1831: + x330 + x458 <= 1
C1832: + x194 + x496 <= 1
C1833: + x3 + x107 <= 1
C1834: + x7 + x313 <= 1
C1835: + x1 + x32 <= 1
C1836: + x238 + x468 <= 1
C1837: + x184 + x188 <= 1
C1838: + x4 + x123 <= 1
C1839: + x50 + x398 <= 1
C1840: + x44 + x212 <= 1
C1841: + x3 + x11 + x15 <= 1
C1842: + x12 + x434 <= 1
C1843: + x4 + x365 <= 1
C1844: + x10 + x118 <= 1
C1845: + x84 + x219 <= 1
C1846: + x23 + x166 <= 1
C1847: + x88 + x405 <= 1
C1848: + x154 + x366 <= 1
C1849: + x73 + x287 <= 1
C1850: + x60 + x415 <= 1
C1851: + x24 + x60 <= 1
C1852: + x7 + x18 <= 1
C1853: + x55 + x64 <= 1
C1854: + x36 + x410 <= 1
C1855: + x28 + x92 <= 1
C1856: + x2 + x205 <= 1
C1857: + x21 + x150 <= 1
C1858: + x268 + x416 <= 1
C1859: + x34 + x369 <= 1
C1860: + x17 + x158 <= 1
C1861: + x59 + x361 <= 1
C1862: + x12 + x56 <= 1
C1863: + x30 + x66 <= 1
C1864: + x267 + x310 <= 1
C1865: + x66 + x203 <= 1
C1866: + x3 + x102 <= 1
C1867: + x21 + x261 <= 1
C1868: + x295 + x368 <= 1
C1869: + x5 + x223 <= 1
C1870: + x172 + x302 <= 1
C1871: + x299 + x448 <= 1
C1872: + x48 + x89 <= 1
C1873: + x295 + x457 <= 1
C1874: + x214 + x278 <= 1
C1875: + x25 + x157 <= 1
C1876: + x37 + x133 <= 1
C1877: + x29 + x106 <= 1
C1878: + x3 + x21 <= 1
C1879: + x155 + x287 <= 1
C1880: + x83 + x276 <= 1
C1881: + x2 + x10 <= 1
C1882: + x75 + x181 <= 1
C1883: + x430 + x436 <= 1
C1884: + x209 + x468 <= 1
C1885: + x153 + x321 <= 1
C1886: + x290 + x479 <= 1
C1887: + x38 + x71 <= 1
C1888: + x230 + x263 <= 1
C1889: + x86 + x189 <= 1
C1890: + x195 + x470 <= 1
C1891: + x61 + x298 <= 1
C1892: + x154 + x173 <= 1
C1893: + x27 + x490 <= 1
C1894: + x10 + x43 <= 1
C1895: + x86 + x288 <= 1
C1896: + x334 + x372 <= 1
C1897: + x18 + x27 <= 1
C1898: + x236 + x281 <= 1
C1899: + x54 + x306 <= 1
C1900: + x185 + x193 <= 1
C1901: + x84 + x395 <= 1
C1902: + x6 + x447 <= 1
C1903: + x11 + x12 <= 1
C1904: + x37 + x458 <= 1
C1905: + x12 + x351 <= 1
C1906: + x420 + x452 <= 1
C1907: + x126 + x298 <= 1
C1908: + x55 + x337 <= 1
C1909: + x61 + x451 <= 1
C1910: + x306 + x473 <= 1
C1911: + x99 + x439 <= 1
C1912: + x36 + x253 <= 1
C1913: + x313 + x397 <= 1
C1914: + x178 + x497 <= 1
C1915: + x53 + x306 <= 1
C1916: + x5 + x10 <= 1
C1917: + x6 + x134 <= 1
C1918: + x27 + x59 <= 1
C1919: + x8 + x109 <= 1
C1920: + x290 + x472 <= 1
C1921: + x72 + x301 <= 1
C1922: + x4 + x21 <= 1
C1923: + x96 + x443 <= 1
C1924: + x24 + x74 <= 1
C1925: + x46 + x93 <= 1
C1926: + x225 + x256 <= 1
C1927: + x5 + x153 <= 1
C1928: + x26 + x451 <= 1
C1929: + x160 + x213 <= 1
C1930: + x145 + x239 <= 1
C1931: + x18 + x302 <= 1
C1932: + x11 + x164 <= 1
C1933: + x203 + x445 <= 1
C1934: + x13 + x201 <= 1
C1935: + x188 + x321 <= 1
C1936: + x18 + x20 <= 1
C1937: + x9 + x57 <= 1
C1938: + x45 + x149 <= 1
C1939: + x20 + x135 <= 1
C1940: + x138 + x450 <= 1
C1941: + x24 + x30 <= 1
C1942: + x347 + x413 <= 1
C1943: + x2 + x80 <= 1
C1944: + x221 + x374 <= 1
C1945: + x14 + x40 <= 1
C1946: + x285 + x293 <= 1
C1947: + x86 + x464 <= 1
C1948: + x240 + x398 <= 1
C1949: + x6 + x108 <= 1
C1950: + x58 + x103 <= 1
C1951: + x225 + x264 <= 1
C1952: + x104 + x211 <= 1
C1953: + x79 + x461 <= 1
C1954: + x41 + x136 <= 1
C1955: + x225 + x485 <= 1
C1956: + x26 + x41 <= 1
C1957: + x37 + x127 <= 1
C1958: + x248 + x371 <= 1
C1959: + x411 + x499 <= 1

binary
x1 x2 x3 x4 x5 x6 x7 x8 x9 x10 x11 x12 x13 x14 x15 x16 x17 x18 x19 x20 x21 x22 x23 x24 x25 x26 x27 x28 x29 x30 x31 x32 x33 x34 x35 x36 x37 x38 x39 x40 x41 x42 x43 x44 x45 x46 x47 x48 x49 x50 x51 x52 x53 x54 x55 x56 x57 x58 x59 x60 x61 x62 x63 x64 x65 x66 x67 x68 x69 x70 x71 x72 x73 x74 x75 x76 x77 x78 x79 x80 x81 x82 x83 x84 x85 x86 x87 x88 x89 x90 x91 x92 x93 x94 x95 x96 x97 x98 x99 x100 x101 x102 x103 x104 x105 x106 x107 x108 x109 x110 x111 x112 x113 x114 x115 x116 x117 x118 x119 x120 x121 x122 x123 x124 x125 x126 x127 x128 x129 x130 x131 x132 x133 x134 x135 x136 x137 x138 x139 x140 x141 x142 x143 x144 x145 x146 x147 x148 x149 x150 x151 x152 x153 x154 x155 x156 x157 x158 x159 x160 x161 x162 x163 x164 x165 x166 x167 x168 x169 x170 x171 x172 x173 x174 x175 x176 x177 x178 x179 x180 x181 x182 x183 x184 x185 x186 x187 x188 x189 x190 x191 x192 x193 x194 x195 x196 x197 x198 x199 x200 x201 x202 x203 x204 x205 x206 x207 x208 x209 x210 x211 x212 x213 x214 x215 x216 x217 x218 x219 x220 x221 x222 x223 x224 x225 x226 x227 x228 x229 x230 x231 x232 x233 x234 x235 x236 x237 x238 x239 x240 x241 x242 x243 x244 x245 x246 x247 x248 x249 x250 x251 x252 x253 x254 x255 x256 x257 x258 x259 x260 x261 x262 x263 x264 x265 x266 x267 x268 x269 x270 x271 x272 x273 x274 x275 x276 x277 x278 x279 x280 x281 x282 x283 x284 x285 x286 x287 x288 x289 x290 x291 x292 x293 x294 x295 x296 x297 x298 x299 x300 x301 x302 x303 x304 x305 x306 x307 x308 x309 x310 x311 x312 x313 x314 x315 x316 x317 x318 x319 x320 x321 x322 x323 x324 x325 x326 x327 x328 x329 x330 x331 x332 x333 x334 x335 x336 x337 x338 x339 x340 x341 x342 x343 x344 x345 x346 x347 x348 x349 x350 x351 x352 x353 x354 x355 x356 x357 x358 x359 x360 x361 x362 x363 x364 x365 x366 x367 x368 x369 x370 x371 x372 x373 x374 x375 x376 x377 x378 x379 x380 x381 x382 x383 x384 x385 x386 x387 x388 x389 x390 x391 x392 x393 x394 x395 x396 x397 x398 x399 x400 x401 x402 x403 x404 x405 x406 x407 x408 x409 x410 x411 x412 x413 x414 x415 x416 x417 x418 x419 x420 x421 x422 x423 x424 x425 x426 x427 x428 x429 x430 x431 x432 x433 x434 x435 x436 x437 x438 x439 x440 x441 x442 x443 x444 x445 x446 x447 x448 x449 x450 x451 x452 x453 x454 x455 x456 x457 x458 x459 x460 x461 x462 x463 x464 x465 x466 x467 x468 x469 x470 x471 x472 x473 x474 x475 x476 x477 x478 x479 x480 x481 x482 x483 x484 x485 x486 x487 x488 x489 x490 x491 x492 x493 x494 x495 x496 x497 x498 x499 x500
