maximize
OBJ: + 1 x1 + 1 x2 + 1 x3 + 1 x4 + 1 x5 + 1 x6 + 1 x7 + 1 x8 + 1 x9 + 1 x10 + 1 x11 + 1 x12 + 1 x13 + 1 x14 + 1 x15 + 1 x16 + 1 x17 + 1 x18 + 1 x19 + 1 x20 + 1 x21 + 1 x22 + 1 x23 + 1 x24 + 1 x25 + 1 x26 + 1 x27 + 1 x28 + 1 x29 + 1 x30 + 1 x31 + 1 x32 + 1 x33 + 1 x34 + 1 x35 + 1 x36 + 1 x37 + 1 x38 + 1 x39 + 1 x40 + 1 x41 + 1 x42 + 1 x43 + 1 x44 + 1 x45 + 1 x46 + 1 x47 + 1 x48 + 1 x49 + 1 x50 + 1 x51 + 1 x52 + 1 x53 + 1 x54 + 1 x55 + 1 x56 + 1 x57 + 1 x58 + 1 x59 + 1 x60 + 1 x61 + 1 x62 + 1 x63 + 1 x64 + 1 x65 + 1 x66 + 1 x67 + 1 x68 + 1 x69 + 1 x70 + 1 x71 + 1 x72 + 1 x73 + 1 x74 + 1 x75 + 1 x76 + 1 x77 + 1 x78 + 1 x79 + 1 x80 + 1 x81 + 1 x82 + 1 x83 + 1 x84 + 1 x85 + 1 x86 + 1 x87 + 1 x88 + 1 x89 + 1 x90 + 1 x91 + 1 x92 + 1 x93 + 1 x94 + 1 x95 + 1 x96 + 1 x97 + 1 x98 + 1 x99 + 1 x100 + 1 x101 + 1 x102 + 1 x103 + 1 x104 + 1 x105 + 1 x106 + 1 x107 + 1 x108 + 1 x109 + 1 x110 + 1 x111 + 1 x112 + 1 x113 + 1 x114 + 1 x115 + 1 x116 + 1 x117 + 1 x118 + 1 x119 + 1 x120 + 1 x121 + 1 x122 + 1 x123 + 1 x124 + 1 x125 + 1 x126 + 1 x127 + 1 x128 + 1 x129 + 1 x130 + 1 x131 + 1 x132 + 1 x133 + 1 x134 + 1 x135 + 1 x136 + 1 x137 + 1 x138 + 1 x139 + 1 x140 + 1 x141 + 1 x142 + 1 x143 + 1 x144 + 1 x145 + 1 x146 + 1 x147 + 1 x148 + 1 x149 + 1 x150 + 1 x151 + 1 x152 + 1 x153 + 1 x154 + 1 x155 + 1 x156 + 1 x157 + 1 x158 + 1 x159 + 1 x160 + 1 x161 + 1 x162 + 1 x163 + 1 x164 + 1 x165 + 1 x166 + 1 x167 + 1 x168 + 1 x169 + 1 x170 + 1 x171 + 1 x172 + 1 x173 + 1 x174 + 1 x175 + 1 x176 + 1 x177 + 1 x178 + 1 x179 + 1 x180 + 1 x181 + 1 x182 + 1 x183 + 1 x184 + 1 x185 + 1 x186 + 1 x187 + 1 x188 + 1 x189 + 1 x190 + 1 x191 + 1 x192 + 1 x193 + 1 x194 + 1 x195 + 1 x196 + 1 x197 + 1 x198 + 1 x199 + 1 x200 + 1 x201 + 1 x202 + 1 x203 + 1 x204 + 1 x205 + 1 x206 + 1 x207 + 1 x208 + 1 x209 + 1 x210 + 1 x211 + 1 x212 + 1 x213 + 1 x214 + 1 x215 + 1 x216 + 1 x217 + 1 x218 + 1 x219 + 1 x220 + 1 x221 + 1 x222 + 1 x223 + 1 x224 + 1 x225 + 1 x226 + 1 x227 + 1 x228 + 1 x229 + 1 x230 + 1 x231 + 1 x232 + 1 x233 + 1 x234 + 1 x235 + 1 x236 + 1 x237 + 1 x238 + 1 x239 + 1 x240 + 1 x241 + 1 x242 + 1 x243 + 1 x244 + 1 x245 + 1 x246 + 1 x247 + 1 x248 + 1 x249 + 1 x250 + 1 x251 + 1 x252 + 1 x253 + 1 x254 + 1 x255 + 1 x256 + 1 x257 + 1 x258 + 1 x259 + 1 x260 + 1 x261 + 1 x262 + 1 x263 + 1 x264 + 1 x265 + 1 x266 + 1 x267 + 1 x268 + 1 x269 + 1 x270 + 1 x271 + 1 x272 + 1 x273 + 1 x274 + 1 x275 + 1 x276 + 1 x277 + 1 x278 + 1 x279 + 1 x280 + 1 x281 + 1 x282 + 1 x283 + 1 x284 + 1 x285 + 1 x286 + 1 x287 + 1 x288 + 1 x289 + 1 x290 + 1 x291 + 1 x292 + 1 x293 + 1 x294 + 1 x295 + 1 x296 + 1 x297 + 1 x298 + 1 x299 + 1 x300 + 1 x301 + 1 x302 + 1 x303 + 1 x304 + 1 x305 + 1 x306 + 1 x307 + 1 x308 + 1 x309 + 1 x310 + 1 x311 + 1 x312 + 1 x313 + 1 x314 + 1 x315 + 1 x316 + 1 x317 + 1 x318 + 1 x319 + 1 x320 + 1 x321 + 1 x322 + 1 x323 + 1 x324 + 1 x325 + 1 x326 + 1 x327 + 1 x328 + 1 x329 + 1 x330 + 1 x331 + 1 x332 + 1 x333 + 1 x334 + 1 x335 + 1 x336 + 1 x337 + 1 x338 + 1 x339 + 1 x340 + 1 x341 + 1 x342 + 1 x343 + 1 x344 + 1 x345 + 1 x346 + 1 x347 + 1 x348 + 1 x349 + 1 x350 + 1 x351 + 1 x352 + 1 x353 + 1 x354 + 1 x355 + 1 x356 + 1 x357 + 1 x358 + 1 x359 + 1 x360 + 1 x361 + 1 x362 + 1 x363 + 1 x364 + 1 x365 + 1 x366 + 1 x367 + 1 x368 + 1 x369 + 1 x370 + 1 x371 + 1 x372 + 1 x373 + 1 x374 + 1 x375 + 1 x376 + 1 x377 + 1 x378 + 1 x379 + 1 x380 + 1 x381 + 1 x382 + 1 x383 + 1 x384 + 1 x385 + 1 x386 + 1 x387 + 1 x388 + 1 x389 + 1 x390 + 1 x391 + 1 x392 + 1 x393 + 1 x394 + 1 x395 + 1 x396 + 1 x397 + 1 x398 + 1 x399 + 1 x400 + 1 x401 + 1 x402 + 1 x403 + 1 x404 + 1 x405 + 1 x406 + 1 x407 + 1 x408 + 1 x409 + 1 x410 + 1 x411 + 1 x412 + 1 x413 + 1 x414 + 1 x415 + 1 x416 + 1 x417 + 1 x418 + 1 x419 + 1 x420 + 1 x421 + 1 x422 + 1 x423 + 1 x424 + 1 x425 + 1 x426 + 1 x427 + 1 x428 + 1 x429 + 1 x430 + 1 x431 + 1 x432 + 1 x433 + 1 x434 + 1 x435 + 1 x436 + 1 x437 + 1 x438 + 1 x439 + 1 x440 + 1 x441 + 1 x442 + 1 x443 + 1 x444 + 1 x445 + 1 x446 + 1 x447 + 1 x448 + 1 x449 + 1 x450 + 1 x451 + 1 x452 + 1 x453 + 1 x454 + 1 x455 + 1 x456 + 1 x457 + 1 x458 + 1 x459 + 1 x460 + 1 x461 + 1 x462 + 1 x463 + 1 x464 + 1 x465 + 1 x466 + 1 x467 + 1 x468 + 1 x469 + 1 x470 + 1 x471 + 1 x472 + 1 x473 + 1 x474 + 1 x475 + 1 x476 + 1 x477 + 1 x478 + 1 x479 + 1 x480 + 1 x481 + 1 x482 + 1 x483 + 1 x484 + 1 x485 + 1 x486 + 1 x487 + 1 x488 + 1 x489 + 1 x490 + 1 x491 + 1 x492 + 1 x493 + 1 x494 + 1 x495 + 1 x496 + 1 x497 + 1 x498 + 1 x499 + 1 x500

subject to
C1: + x150 + x245 <= 1
C2: + x63 + x406 <= 1
C3: + x292 + x430 <= 1
C4: + x4 + x171 <= 1
C5: + x69 + x304 <= 1
C6: + x9 + x64 <= 1
C7: + x8 + x26 <= 1
C8: + x29 + x163 <= 1
C9: + x123 + x383 <= 1
C10: + x143 + x175 <= 1
C11: + x155 + x424 <= 1
C12: + x66 + x222 <= 1
C13: + x69 + x191 <= 1
C14: + x133 + x332 <= 1
C15: + x100 + x313 <= 1
C16: + x13 + x60 <= 1
C17: + x52 + x446 <= 1
C18: + x107 + x360 <= 1
C19: + x1 + x409 <= 1
C20: + x10 + x356 <= 1
C21: + x104 + x357 <= 1
C22: + x45 + x357 <= 1
C23: + x8 + x369 <= 1
C24: + x88 + x441 <= 1
C25: + x16 + x144 <= 1
C26: + x2 + x192 <= 1
C27: + x40 + x310 <= 1
C28: + x4 + x474 <= 1
C29: + x87 + x408 <= 1
C30: + x46 + x79 <= 1
C31: + x86 + x88 <= 1
C32: + x5 + x143 <= 1
C33: + x8 + x293 <= 1
C34: + x28 + x497 <= 1
C35: + x203 + x431 <= 1
C36: + x12 + x245 <= 1
C37: + x286 + x462 <= 1
C38: + x10 + x185 <= 1
C39: + x1 + x68 <= 1
C40: + x2 + x332 <= 1
C41: + x31 + x263 <= 1
C42: + x93 + x159 <= 1
C43: + x309 + x383 <= 1
C44: + x85 + x129 <= 1
C45: + x29 + x297 <= 1
C46: + x13 + x51 <= 1
C47: + x6 + x315 <= 1
C48: + x263 + x270 <= 1
C49: + x37 + x185 <= 1
C50: + x247 + x391 <= 1
C51: + x12 + x16 <= 1
C52: + x21 + x400 <= 1
C53: + x28 + x446 <= 1
C54: + x159 + x161 <= 1
C55: + x126 + x180 <= 1
C56: + x129 + x500 <= 1
C57: + x301 + x488 <= 1
C58: + x120 + x406 <= 1
C59: + x104 + x338 <= 1
C60: + x26 + x470 <= 1
C61: + x338 + x412 <= 1
C62: + x201 + x454 <= 1
C63: + x63 + x392 <= 1
C64: + x4 + x153 <= 1
C65: + x13 + x246 <= 1
C66: + x8 + x16 <= 1
C67: + x199 + x353 <= 1
C68: + x219 + x234 <= 1
C69: + x19 + x306 <= 1
C70: + x18 + x418 <= 1
C71: + x67 + x129 <= 1
C72: + x176 + x350 <= 1
C73: + x3 + x230 <= 1
C74: + x59 + x391 <= 1
C75: + x52 + x396 <= 1
C76: + x198 + x228 <= 1
C77: + x10 + x366 <= 1
C78: + x2 + x281 <= 1
C79: + x31 + x310 <= 1
C80: + x79 + x212 <= 1
C81: + x7 + x93 <= 1
C82: + x17 + x458 <= 1
C83: + x58 + x122 <= 1
C84: + x68 + x95 <= 1
C85: + x23 + x84 <= 1
C86: + x16 + x295 <= 1
C87: + x1 + x6 <= 1
C88: + x100 + x275 <= 1
C89: + x280 + x353 <= 1
C90: + x4 + x113 <= 1
C91: + x205 + x235 <= 1
C92: + x23 + x354 <= 1
C93: + x5 + x480 <= 1
C94: + x1 + x8 + x9 + x24 <= 1
C95: + x30 + x498 <= 1
C96: + x251 + x342 <= 1
C97: + x6 + x11 <= 1
C98: + x63 + x118 <= 1
C99: + x92 + x246 <= 1
C100: + x8 + x226 <= 1
C101: + x120 + x125 <= 1
C102: + x47 + x453 <= 1
C103: + x232 + x302 <= 1
C104: + x6 + x377 <= 1
C105: + x46 + x210 <= 1
C106: + x10 + x262 <= 1
C107: + x6 + x63 <= 1
C108: + x79 + x172 <= 1
C109: + x146 + x340 <= 1
C110: + x2 + x247 <= 1
C111: + x12 + x223 <= 1
C112: + x20 + x111 <= 1
C113: + x58 + x365 <= 1
C114: + x439 + x477 <= 1
C115: + x31 + x90 <= 1
C116: + x169 + x398 <= 1
C117: + x31 + x336 <= 1
C118: + x151 + x302 <= 1
C119: + x101 + x390 <= 1
C120: + x11 + x337 <= 1
C121: + x3 + x31 <= 1
C122: + x4 + x364 <= 1
C123: + x159 + x318 <= 1
C124: + x20 + x333 <= 1
C125: + x4 + x135 <= 1
C126: + x18 + x241 <= 1
C127: + x31 + x167 <= 1
C128: + x178 + x339 <= 1
C129: + x252 + x312 <= 1
C130: + x28 + x373 <= 1
C131: + x80 + x142 <= 1
C132: + x136 + x240 <= 1
C133: + x38 + x492 <= 1
C134: + x149 + x182 <= 1
C135: + x33 + x47 <= 1
C136: + x5 + x176 <= 1
C137: + x6 + x40 <= 1
C138: + x206 + x389 <= 1
C139: + x104 + x316 <= 1
C140: + x10 + x61 <= 1
C141: + x101 + x252 <= 1
C142: + x280 + x419 <= 1
C143: + x109 + x378 <= 1
C144: + x202 + x312 <= 1
C145: + x455 + x479 <= 1
C146: + x149 + x267 <= 1
C147: + x228 + x414 <= 1
C148: + x75 + x472 <= 1
C149: + x112 + x486 <= 1
C150: + x13 + x458 <= 1
C151: + x32 + x448 <= 1
C152: + x7 + x79 <= 1
C153: + x59 + x124 <= 1
C154: + x188 + x431 <= 1
C155: + x6 + x236 <= 1
C156: + x308 + x360 <= 1
C157: + x1 + x20 <= 1
C158: + x29 + x202 <= 1
C159: + x107 + x179 <= 1
C160: + x179 + x219 <= 1
C161: + x145 + x412 <= 1
C162: + x49 + x155 <= 1
C163: + x13 + x318 <= 1
C164: + x10 + x423 <= 1
C165: + x356 + x399 <= 1
C166: + x5 + x8 <= 1
C167: + x52 + x467 <= 1
C168: + x289 + x470 <= 1
C169: + x233 + x471 <= 1
C170: + x4 + x43 <= 1
C171: + x61 + x74 <= 1
C172: + x23 + x336 <= 1
C173: + x7 + x22 <= 1
C174: + x3 + x46 <= 1
C175: + x5 + x151 <= 1
C176: + x372 + x375 <= 1
C177: + x9 + x285 <= 1
C178: + x10 + x38 <= 1
C179: + x66 + x385 <= 1
C180: + x34 + x373 <= 1
C181: + x254 + x402 <= 1
C182: + x210 + x297 <= 1
C183: + x139 + x300 <= 1
C184: + x116 + x433 <= 1
C185: + x347 + x407 <= 1
C186: + x2 + x114 <= 1
C187: + x67 + x162 <= 1
C188: + x86 + x132 <= 1
C189: + x13 + x166 <= 1
C190: + x10 + x18 <= 1
C191: + x136 + x395 <= 1
C192: + x5 + x128 <= 1
C193: + x52 + x427 <= 1
C194: + x3 + x17 <= 1
C195: + x76 + x168 <= 1
C196: + x56 + x340 <= 1
C197: + x14 + x387 <= 1
C198: + x331 + x422 <= 1
C199: + x63 + x111 <= 1
C200: + x63 + x420 <= 1
C201: + x204 + x363 <= 1
C202: + x68 + x98 <= 1
C203: + x22 + x67 <= 1
C204: + x31 + x120 <= 1
C205: + x1 + x39 <= 1
C206: + x149 + x426 <= 1
C207: + x115 + x330 <= 1
C208: + x390 + x413 <= 1
C209: + x136 + x222 <= 1
C210: + x23 + x36 <= 1
C211: + x215 + x356 <= 1
C212: + x362 + x411 <= 1
C213: + x255 + x283 <= 1
C214: + x21 + x153 <= 1
C215: + x22 + x23 <= 1
C216: + x52 + x488 <= 1
C217: + x100 + x117 <= 1
C218: + x53 + x234 <= 1
C219: + x163 + x461 <= 1
C220: + x92 + x351 <= 1
C221: + x57 + x237 <= 1
C222: + x356 + x497 <= 1
C223: + x47 + x277 <= 1
C224: + x186 + x457 <= 1
C225: + x4 + x306 <= 1
C226: + x5 + x194 <= 1
C227: + x26 + x266 <= 1
C228: + x80 + x123 <= 1
C229: + x152 + x346 <= 1
C230: + x10 + x27 <= 1
C231: + x211 + x321 <= 1
C232: + x38 + x165 <= 1
C233: + x379 + x476 <= 1
C234: + x206 + x334 <= 1
C235: + x6 + x460 <= 1
C236: + x16 + x21 <= 1
C237: + x139 + x263 <= 1
C238: + x12 + x29 <= 1
C239: + x41 + x331 <= 1
C240: + x104 + x371 <= 1
C241: + x118 + x490 <= 1
C242: + x255 + x338 <= 1
C243: + x10 + x108 <= 1
C244: + x2 + x7 <= 1
C245: + x121 + x430 <= 1
C246: + x4 + x254 <= 1
C247: + x106 + x192 <= 1
C248: + x58 + x108 + x336 <= 1
C249: + x166 + x361 <= 1
C250: + x4 + x25 <= 1
C251: + x69 + x107 <= 1
C252: + x89 + x500 <= 1
C253: + x7 + x8 <= 1
C254: + x10 + x290 <= 1
C255: + x3 + x64 <= 1
C256: + x266 + x323 <= 1
C257: + x43 + x391 <= 1
C258: + x6 + x19 <= 1
C259: + x62 + x86 <= 1
C260: + x24 + x425 <= 1
C261: + x14 + x112 <= 1
C262: + x34 + x444 <= 1
C263: + x264 + x276 <= 1
C264: + x182 + x425 <= 1
C265: + x269 + x274 <= 1
C266: + x6 + x182 <= 1
C267: + x36 + x190 <= 1
C268: + x219 + x328 <= 1
C269: + x100 + x126 <= 1
C270: + x8 + x29 <= 1
C271: + x24 + x26 <= 1
C272: + x253 + x409 <= 1
C273: + x10 + x494 <= 1
C274: + x54 + x90 <= 1
C275: + x184 + x384 <= 1
C276: + x4 + x311 <= 1
C277: + x89 + x221 <= 1
C278: + x60 + x143 <= 1
C279: + x9 + x140 <= 1
C280: + x19 + x47 <= 1
C281: + x11 + x148 <= 1
C282: + x47 + x121 <= 1
C283: + x59 + x490 <= 1
C284: + x30 + x193 <= 1
C285: + x13 + x57 <= 1
C286: + x5 + x443 <= 1
C287: + x104 + x122 <= 1
C288: + x299 + x335 <= 1
C289: + x108 + x379 <= 1
C290: + x46 + x158 <= 1
C291: + x29 + x124 <= 1
C292: + x12 + x22 <= 1
C293: + x21 + x73 <= 1
C294: + x59 + x331 <= 1
C295: + x34 + x97 <= 1
C296: + x54 + x110 <= 1
C297: + x219 + x410 <= 1
C298: + x11 + x99 <= 1
C299: + x138 + x168 <= 1
C300: + x211 + x459 <= 1
C301: + x13 + x144 <= 1
C302: + x6 + x139 <= 1
C303: + x24 + x305 <= 1
C304: + x6 + x326 <= 1
C305: + x461 + x495 <= 1
C306: + x1 + x53 <= 1
C307: + x377 + x455 <= 1
C308: + x25 + x187 <= 1
C309: + x88 + x259 <= 1
C310: + x183 + x389 <= 1
C311: + x20 + x35 <= 1
C312: + x284 + x306 <= 1
C313: + x23 + x62 <= 1
C314: + x8 + x300 <= 1
C315: + x22 + x25 <= 1
C316: + x23 + x159 <= 1
C317: + x4 + x175 <= 1
C318: + x6 + x191 <= 1
C319: + x123 + x194 <= 1
C320: + x259 + x352 <= 1
C321: + x48 + x413 <= 1
C322: + x69 + x187 <= 1
C323: + x259 + x481 <= 1
C324: + x90 + x220 <= 1
C325: + x100 + x317 <= 1
C326: + x8 + x171 <= 1
C327: + x76 + x89 <= 1
C328: + x5 + x85 <= 1
C329: + x18 + x21 + x196 <= 1
C330: + x101 + x417 <= 1
C331: + x80 + x250 <= 1
C332: + x45 + x353 <= 1
C333: + x10 + x451 <= 1
C334: + x338 + x491 <= 1
C335: + x14 + x17 <= 1
C336: + x52 + x303 <= 1
C337: + x142 + x487 <= 1
C338: + x305 + x347 <= 1
C339: + x110 + x448 <= 1
C340: + x2 + x479 <= 1
C341: + x56 + x136 <= 1
C342: + x63 + x147 <= 1
C343: + x8 + x289 <= 1
C344: + x1 + x187 <= 1
C345: + x11 + x82 <= 1
C346: + x84 + x199 <= 1
C347: + x148 + x281 <= 1
C348: + x59 + x265 <= 1
C349: + x68 + x320 <= 1
C350: + x4 + x394 <= 1
C351: + x26 + x66 <= 1
C352: + x100 + x455 <= 1
C353: + x10 + x288 <= 1
C354: + x220 + x233 <= 1
C355: + x196 + x485 <= 1
C356: + x4 + x293 <= 1
C357: + x22 + x403 <= 1
C358: + x279 + x438 <= 1
C359: + x7 + x207 <= 1
C360: + x25 + x491 <= 1
C361: + x46 + x365 <= 1
C362: + x41 + x78 <= 1
C363: + x13 + x47 <= 1
C364: + x107 + x146 <= 1
C365: + x52 + x126 <= 1
C366: + x38 + x51 <= 1
C367: + x86 + x478 <= 1
C368: + x6 + x90 <= 1
C369: + x7 + x90 <= 1
C370: + x129 + x230 <= 1
C371: + x46 + x51 <= 1
C372: + x3 + x154 <= 1
C373: + x138 + x210 <= 1
C374: + x104 + x253 <= 1
C375: + x24 + x327 <= 1
C376: + x100 + x274 <= 1
C377: + x45 + x74 <= 1
C378: + x181 + x210 <= 1
C379: + x11 + x202 <= 1
C380: + x257 + x399 <= 1
C381: + x187 + x407 <= 1
C382: + x5 + x370 <= 1
C383: + x14 + x411 <= 1
C384: + x10 + x75 <= 1
C385: + x2 + x38 <= 1
C386: + x34 + x298 <= 1
C387: + x68 + x293 <= 1
C388: + x40 + x216 <= 1
C389: + x13 + x87 <= 1
C390: + x170 + x456 <= 1
C391: + x13 + x484 <= 1
C392: + x265 + x267 <= 1
C393: + x13 + x38 <= 1
C394: + x5 + x91 <= 1
C395: + x52 + x400 <= 1
C396: + x52 + x67 <= 1
C397: + x10 + x146 <= 1
C398: + x29 + x65 <= 1
C399: + x76 + x310 <= 1
C400: + x4 + x443 <= 1
C401: + x109 + x407 <= 1
C402: + x262 + x286 <= 1
C403: + x60 + x354 <= 1
C404: + x99 + x427 <= 1
C405: + x10 + x350 <= 1
C406: + x8 + x500 <= 1
C407: + x13 + x268 <= 1
C408: + x25 + x45 <= 1
C409: + x5 + x377 <= 1
C410: + x333 + x401 <= 1
C411: + x23 + x455 <= 1
C412: + x10 + x116 <= 1
C413: + x11 + x68 <= 1
C414: + x92 + x202 <= 1
C415: + x3 + x165 <= 1
C416: + x59 + x442 <= 1
C417: + x35 + x94 <= 1
C418: + x46 + x206 <= 1
C419: + x4 + x33 <= 1
C420: + x97 + x399 <= 1
C421: + x13 + x78 <= 1
C422: + x84 + x271 <= 1
C423: + x350 + x397 <= 1
C424: + x6 + x59 <= 1
C425: + x208 + x424 <= 1
C426: + x9 + x168 <= 1
C427: + x1 + x197 <= 1
C428: + x10 + x64 <= 1
C429: + x102 + x247 <= 1
C430: + x42 + x436 <= 1
C431: + x5 + x66 <= 1
C432: + x14 + x374 <= 1
C433: + x18 + x48 <= 1
C434: + x8 + x53 <= 1
C435: + x210 + x307 <= 1
C436: + x120 + x340 <= 1
C437: + x322 + x409 <= 1
C438: + x93 + x467 <= 1
C439: + x293 + x360 <= 1
C440: + x252 + x271 <= 1
C441: + x6 + x76 <= 1
C442: + x134 + x135 <= 1
C443: + x110 + x282 <= 1
C444: + x209 + x261 <= 1
C445: + x5 + x209 <= 1
C446: + x35 + x472 <= 1
C447: + x154 + x238 <= 1
C448: + x135 + x259 <= 1
C449: + x1 + x17 <= 1
C450: + x165 + x186 <= 1
C451: + x242 + x333 <= 1
C452: + x25 + x151 <= 1
C453: + x6 + x477 <= 1
C454: + x8 + x489 <= 1
C455: + x29 + x473 <= 1
C456: + x12 + x433 <= 1
C457: + x413 + x499 <= 1
C458: + x154 + x159 <= 1
C459: + x346 + x479 <= 1
C460: + x59 + x65 <= 1
C461: + x4 + x139 <= 1
C462: + x67 + x385 <= 1
C463: + x79 + x123 <= 1
C464: + x337 + x405 <= 1
C465: + x75 + x321 <= 1
C466: + x67 + x239 <= 1
C467: + x7 + x180 <= 1
C468: + x10 + x33 <= 1
C469: + x11 + x191 <= 1
C470: + x224 + x394 <= 1
C471: + x9 + x12 <= 1
C472: + x137 + x449 <= 1
C473: + x193 + x238 <= 1
C474: + x17 + x60 <= 1
C475: + x37 + x55 <= 1
C476: + x56 + x290 <= 1
C477: + x100 + x261 <= 1
C478: + x145 + x174 <= 1
C479: + x5 + x125 <= 1
C480: + x70 + x75 <= 1
C481: + x235 + x325 <= 1
C482: + x23 + x195 <= 1
C483: + x27 + x130 <= 1
C484: + x57 + x82 <= 1
C485: + x173 + x417 <= 1
C486: + x7 + x127 <= 1
C487: + x336 + x349 <= 1
C488: + x16 + x418 <= 1
C489: + x11 + x118 <= 1
C490: + x64 + x311 <= 1
C491: + x434 + x493 <= 1
C492: + x47 + x56 <= 1
C493: + x10 + x316 <= 1
C494: + x336 + x462 <= 1
C495: + x14 + x122 <= 1
C496: + x164 + x341 <= 1
C497: + x275 + x411 <= 1
C498: + x169 + x255 <= 1
C499: + x13 + x211 <= 1
C500: + x43 + x143 <= 1
C501: + x98 + x372 <= 1
C502: + x36 + x180 <= 1
C503: + x12 + x48 <= 1
C504: + x5 + x290 <= 1
C505: + x23 + x416 <= 1
C506: + x36 + x367 <= 1
C507: + x37 + x62 <= 1
C508: + x57 + x234 <= 1
C509: + x319 + x380 <= 1
C510: + x14 + x145 <= 1
C511: + x107 + x186 <= 1
C512: + x5 + x124 <= 1
C513: + x326 + x474 <= 1
C514: + x116 + x294 <= 1
C515: + x25 + x304 <= 1
C516: + x6 + x463 <= 1
C517: + x61 + x238 <= 1
C518: + x210 + x463 <= 1
C519: + x67 + x114 <= 1
C520: + x86 + x212 <= 1
C521: + x3 + x178 <= 1
C522: + x188 + x376 <= 1
C523: + x371 + x481 <= 1
C524: + x157 + x273 <= 1
C525: + x341 + x352 <= 1
C526: + x9 + x427 <= 1
C527: + x119 + x262 <= 1
C528: + x28 + x327 <= 1
C529: + x72 + x211 <= 1
C530: + x257 + x423 <= 1
C531: + x195 + x302 <= 1
C532: + x362 + x415 <= 1
C533: + x6 + x22 <= 1
C534: + x145 + x240 <= 1
C535: + x19 + x128 <= 1
C536: + x37 + x355 <= 1
C537: + x5 + x63 <= 1
C538: + x269 + x279 <= 1
C539: + x162 + x384 <= 1
C540: + x68 + x132 <= 1
C541: + x5 + x297 <= 1
C542: + x316 + x409 <= 1
C543: + x218 + x230 <= 1
C544: + x45 + x315 <= 1
C545: + x263 + x386 <= 1
C546: + x202 + x439 <= 1
C547: + x419 + x492 <= 1
C548: + x11 + x487 <= 1
C549: + x4 + x310 <= 1
C550: + x260 + x393 <= 1
C551: + x24 + x356 <= 1
C552: + x86 + x137 <= 1
C553: + x175 + x334 <= 1
C554: + x28 + x101 <= 1
C555: + x11 + x149 <= 1
C556: + x104 + x125 <= 1
C557: + x17 + x185 <= 1
C558: + x18 + x79 <= 1
C559: + x86 + x122 <= 1
C560: + x142 + x195 <= 1
C561: + x410 + x421 <= 1
C562: + x10 + x112 <= 1
C563: + x101 + x169 <= 1
C564: + x136 + x269 <= 1
C565: + x2 + x27 <= 1
C566: + x93 + x222 <= 1
C567: + x80 + x450 <= 1
C568: + x8 + x101 <= 1
C569: + x55 + x357 <= 1
C570: + x16 + x37 <= 1
C571: + x23 + x63 <= 1
C572: + x49 + x491 <= 1
C573: + x177 + x192 <= 1
C574: + x23 + x156 <= 1
C575: + x70 + x423 <= 1
C576: + x237 + x410 <= 1
C577: + x11 + x269 <= 1
C578: + x55 + x177 <= 1
C579: + x38 + x217 <= 1
C580: + x4 + x416 <= 1
C581: + x2 + x72 <= 1
C582: + x3 + x80 <= 1
C583: + x4 + x315 <= 1
C584: + x215 + x331 <= 1
C585: + x18 + x338 <= 1
C586: + x199 + x401 <= 1
C587: + x92 + x190 <= 1
C588: + x122 + x190 <= 1
C589: + x5 + x106 <= 1
C590: + x88 + x459 <= 1
C591: + x389 + x457 <= 1
C592: + x16 + x445 <= 1
C593: + x111 + x123 <= 1
C594: + x29 + x322 <= 1
C595: + x108 + x272 <= 1
C596: + x163 + x166 <= 1
C597: + x292 + x453 <= 1
C598: + x24 + x252 <= 1
C599: + x9 + x252 <= 1
C600: + x4 + x6 <= 1
C601: + x10 + x244 <= 1
C602: + x23 + x341 <= 1
C603: + x102 + x131 <= 1
C604: + x9 + x89 <= 1
C605: + x161 + x279 <= 1
C606: + x72 + x193 <= 1
C607: + x86 + x87 <= 1
C608: + x33 + x79 <= 1
C609: + x6 + x8 <= 1
C610: + x54 + x62 <= 1
C611: + x10 + x93 <= 1
C612: + x202 + x472 <= 1
C613: + x3 + x216 <= 1
C614: + x11 + x83 <= 1
C615: + x8 + x243 <= 1
C616: + x23 + x147 <= 1
C617: + x153 + x174 <= 1
C618: + x71 + x334 <= 1
C619: + x11 + x312 <= 1
C620: + x205 + x285 <= 1
C621: + x88 + x339 <= 1
C622: + x1 + x482 <= 1
C623: + x356 + x483 <= 1
C624: + x149 + x154 <= 1
C625: + x50 + x71 <= 1
C626: + x7 + x285 <= 1
C627: + x29 + x298 <= 1
C628: + x77 + x295 <= 1
C629: + x104 + x115 <= 1
C630: + x141 + x436 <= 1
C631: + x5 + x81 <= 1
C632: + x23 + x239 <= 1
C633: + x254 + x397 <= 1
C634: + x200 + x326 <= 1
C635: + x206 + x380 <= 1
C636: + x20 + x100 <= 1
C637: + x12 + x15 <= 1
C638: + x33 + x138 <= 1
C639: + x31 + x308 <= 1
C640: + x165 + x415 <= 1
C641: + x261 + x317 <= 1
C642: + x16 + x152 <= 1
C643: + x47 + x84 <= 1
C644: + x86 + x322 <= 1
C645: + x4 + x11 <= 1
C646: + x26 + x58 <= 1
C647: + x1 + x429 <= 1
C648: + x212 + x240 <= 1
C649: + x139 + x377 <= 1
C650: + x13 + x274 <= 1
C651: + x22 + x459 <= 1
C652: + x10 + x435 <= 1
C653: + x72 + x428 <= 1
C654: + x10 + x70 <= 1
C655: + x5 + x44 <= 1
C656: + x15 + x247 <= 1
C657: + x45 + x131 <= 1
C658: + x227 + x305 <= 1
C659: + x1 + x92 <= 1
C660: + x4 + x55 <= 1
C661: + x34 + x59 <= 1
C662: + x118 + x445 <= 1
C663: + x10 + x260 <= 1
C664: + x84 + x261 <= 1
C665: + x11 + x45 <= 1
C666: + x49 + x376 <= 1
C667: + x8 + x430 <= 1
C668: + x288 + x375 <= 1
C669: + x16 + x286 <= 1
C670: + x27 + x76 <= 1
C671: + x10 + x50 <= 1
C672: + x28 + x76 <= 1
C673: + x19 + x29 <= 1
C674: + x165 + x196 <= 1
C675: + x76 + x86 <= 1
C676: + x4 + x72 <= 1
C677: + x89 + x385 <= 1
C678: + x5 + x405 <= 1
C679: + x8 + x451 <= 1
C680: + x13 + x469 <= 1
C681: + x170 + x399 <= 1
C682: + x34 + x119 <= 1
C683: + x319 + x324 <= 1
C684: + x77 + x173 <= 1
C685: + x23 + x81 <= 1
C686: + x171 + x186 <= 1
C687: + x6 + x249 <= 1
C688: + x61 + x343 <= 1
C689: + x112 + x137 <= 1
C690: + x73 + x391 <= 1
C691: + x3 + x5 <= 1
C692: + x86 + x89 <= 1
C693: + x182 + x400 <= 1
C694: + x72 + x417 <= 1
C695: + x408 + x422 <= 1
C696: + x361 + x386 <= 1
C697: + x85 + x289 <= 1
C698: + x31 + x189 <= 1
C699: + x51 + x337 <= 1
C700: + x35 + x164 <= 1
C701: + x110 + x489 <= 1
C702: + x129 + x165 <= 1
C703: + x83 + x106 <= 1
C704: + x29 + x46 <= 1
C705: + x77 + x248 <= 1
C706: + x23 + x32 <= 1
C707: + x10 + x59 <= 1
C708: + x49 + x460 <= 1
C709: + x21 + x141 <= 1
C710: + x22 + x251 <= 1
C711: + x23 + x249 <= 1
C712: + x77 + x341 <= 1
C713: + x1 + x111 <= 1
C714: + x72 + x380 <= 1
C715: + x8 + x60 <= 1
C716: + x59 + x157 <= 1
C717: + x65 + x204 <= 1
C718: + x11 + x28 <= 1
C719: + x95 + x198 <= 1
C720: + x23 + x108 <= 1
C721: + x126 + x282 <= 1
C722: + x16 + x303 <= 1
C723: + x24 + x348 <= 1
C724: + x1 + x30 <= 1
C725: + x25 + x386 <= 1
C726: + x13 + x22 <= 1
C727: + x40 + x292 <= 1
C728: + x87 + x442 <= 1
C729: + x256 + x467 <= 1
C730: + x41 + x343 <= 1
C731: + x180 + x485 <= 1
C732: + x72 + x83 <= 1
C733: + x219 + x387 <= 1
C734: + x8 + x275 <= 1
C735: + x56 + x484 <= 1
C736: + x184 + x303 <= 1
C737: + x39 + x410 <= 1
C738: + x14 + x243 <= 1
C739: + x18 + x248 <= 1
C740: + x259 + x293 <= 1
C741: + x52 + x223 <= 1
C742: + x10 + x270 <= 1
C743: + x22 + x417 <= 1
C744: + x5 + x169 <= 1
C745: + x36 + x43 <= 1
C746: + x10 + x36 <= 1
C747: + x229 + x434 <= 1
C748: + x150 + x490 <= 1
C749: + x59 + x121 <= 1
C750: + x77 + x163 <= 1
C751: + x5 + x221 <= 1
C752: + x6 + x235 <= 1
C753: + x409 + x435 <= 1
C754: + x254 + x265 <= 1
C755: + x72 + x258 <= 1
C756: + x9 + x117 <= 1
C757: + x2 + x294 <= 1
C758: + x29 + x112 <= 1
C759: + x76 + x162 <= 1
C760: + x19 + x393 <= 1
C761: + x8 + x215 <= 1
C762: + x301 + x349 <= 1
C763: + x298 + x494 <= 1
C764: + x138 + x495 <= 1
C765: + x139 + x485 <= 1
C766: + x25 + x167 <= 1
C767: + x26 + x89 <= 1
C768: + x7 + x11 <= 1
C769: + x1 + x462 <= 1
C770: + x206 + x218 <= 1
C771: + x483 + x492 <= 1
C772: + x86 + x191 <= 1
C773: + x6 + x48 <= 1
C774: + x7 + x184 <= 1
C775: + x24 + x406 <= 1
C776: + x10 + x37 <= 1
C777: + x1 + x363 <= 1
C778: + x304 + x335 <= 1
C779: + x21 + x120 <= 1
C780: + x12 + x43 <= 1
C781: + x13 + x450 <= 1
C782: + x129 + x207 <= 1
C783: + x57 + x284 <= 1
C784: + x203 + x263 <= 1
C785: + x95 + x184 <= 1
C786: + x104 + x232 <= 1
C787: + x52 + x271 <= 1
C788: + x168 + x243 <= 1
C789: + x6 + x212 <= 1
C790: + x22 + x209 <= 1
C791: + x69 + x484 <= 1
C792: + x125 + x206 <= 1
C793: + x161 + x287 <= 1
C794: + x23 + x469 <= 1
C795: + x143 + x235 <= 1
C796: + x62 + x136 <= 1
C797: + x80 + x238 <= 1
C798: + x5 + x16 <= 1
C799: + x6 + x136 <= 1
C800: + x52 + x475 <= 1
C801: + x9 + x203 <= 1
C802: + x8 + x115 <= 1
C803: + x10 + x221 <= 1
C804: + x7 + x14 <= 1
C805: + x139 + x321 <= 1
C806: + x4 + x261 <= 1
C807: + x6 + x41 <= 1
C808: + x83 + x321 <= 1
C809: + x136 + x463 <= 1
C810: + x13 + x207 <= 1
C811: + x5 + x52 <= 1
C812: + x9 + x55 <= 1
C813: + x8 + x39 <= 1
C814: + x39 + x374 <= 1
C815: + x71 + x250 <= 1
C816: + x129 + x198 <= 1
C817: + x84 + x164 <= 1
C818: + x4 + x305 <= 1
C819: + x14 + x42 <= 1
C820: + x24 + x359 <= 1
C821: + x8 + x184 <= 1
C822: + x113 + x237 <= 1
C823: + x124 + x152 <= 1
C824: + x34 + x132 <= 1
C825: + x242 + x478 <= 1
C826: + x23 + x496 <= 1
C827: + x237 + x249 <= 1
C828: + x128 + x402 <= 1
C829: + x228 + x361 <= 1
C830: + x38 + x309 <= 1
C831: + x47 + x482 <= 1
C832: + x97 + x134 <= 1
C833: + x23 + x73 <= 1
C834: + x31 + x153 <= 1
C835: + x22 + x345 <= 1
C836: + x119 + x282 <= 1
C837: + x136 + x214 <= 1
C838: + x120 + x390 <= 1
C839: + x20 + x468 <= 1
C840: + x204 + x351 <= 1
C841: + x5 + x134 <= 1
C842: + x54 + x483 <= 1
C843: + x231 + x447 <= 1
C844: + x31 + x44 <= 1
C845: + x52 + x496 <= 1
C846: + x4 + x169 <= 1
C847: + x36 + x189 <= 1
C848: + x24 + x25 <= 1
C849: + x155 + x346 <= 1
C850: + x138 + x296 <= 1
C851: + x139 + x201 <= 1
C852: + x40 + x470 <= 1
C853: + x1 + x250 <= 1
C854: + x229 + x403 <= 1
C855: + x276 + x434 <= 1
C856: + x12 + x170 <= 1
C857: + x104 + x121 <= 1
C858: + x5 + x444 <= 1
C859: + x53 + x97 <= 1
C860: + x108 + x382 <= 1
C861: + x12 + x21 <= 1
C862: + x30 + x99 <= 1
C863: + x12 + x476 <= 1
C864: + x7 + x109 <= 1
C865: + x16 + x142 <= 1
C866: + x119 + x248 <= 1
C867: + x1 + x54 <= 1
C868: + x47 + x70 <= 1
C869: + x181 + x205 <= 1
C870: + x93 + x260 <= 1
C871: + x76 + x382 <= 1
C872: + x131 + x225 <= 1
C873: + x415 + x416 <= 1
C874: + x74 + x288 <= 1
C875: + x5 + x34 <= 1
C876: + x100 + x102 <= 1
C877: + x113 + x140 <= 1
C878: + x34 + x45 <= 1
C879: + x6 + x428 <= 1
C880: + x7 + x44 <= 1
C881: + x69 + x188 <= 1
C882: + x5 + x177 <= 1
C883: + x17 + x322 <= 1
C884: + x18 + x342 <= 1
C885: + x22 + x236 <= 1
C886: + x6 + x317 <= 1
C887: + x65 + x94 <= 1
C888: + x121 + x171 <= 1
C889: + x29 + x116 <= 1
C890: + x12 + x14 <= 1
C891: + x138 + x442 <= 1
C892: + x12 + x465 <= 1
C893: + x21 + x81 <= 1
C894: + x6 + x96 <= 1
C895: + x66 + x237 <= 1
C896: + x129 + x341 <= 1
C897: + x3 + x160 <= 1
C898: + x60 + x339 <= 1
C899: + x205 + x456 <= 1
C900: + x90 + x346 <= 1
C901: + x102 + x143 <= 1
C902: + x47 + x77 <= 1
C903: + x11 + x208 <= 1
C904: + x103 + x277 <= 1
C905: + x136 + x421 <= 1
C906: + x4 + x10 <= 1
C907: + x4 + x477 <= 1
C908: + x57 + x183 <= 1
C909: + x3 + x15 <= 1
C910: + x21 + x466 <= 1
C911: + x22 + x462 <= 1
C912: + x23 + x54 <= 1
C913: + x82 + x211 <= 1
C914: + x9 + x314 <= 1
C915: + x27 + x464 <= 1
C916: + x29 + x274 <= 1
C917: + x22 + x33 <= 1
C918: + x162 + x219 <= 1
C919: + x3 + x52 + x87 <= 1
C920: + x40 + x218 <= 1
C921: + x342 + x426 <= 1
C922: + x18 + x420 <= 1
C923: + x92 + x421 <= 1
C924: + x67 + x131 <= 1
C925: + x40 + x175 <= 1
C926: + x23 + x227 <= 1
C927: + x23 + x280 <= 1
C928: + x141 + x432 <= 1
C929: + x30 + x210 <= 1
C930: + x318 + x500 <= 1
C931: + x29 + x75 <= 1
C932: + x50 + x257 <= 1
C933: + x56 + x204 <= 1
C934: + x276 + x283 <= 1
C935: + x52 + x156 <= 1
C936: + x138 + x286 <= 1
C937: + x68 + x93 <= 1
C938: + x409 + x418 <= 1
C939: + x254 + x378 <= 1
C940: + x12 + x148 <= 1
C941: + x54 + x240 <= 1
C942: + x10 + x348 <= 1
C943: + x5 + x371 <= 1
C944: + x172 + x330 <= 1
C945: + x107 + x433 <= 1
C946: + x309 + x319 <= 1
C947: + x14 + x253 <= 1
C948: + x26 + x380 <= 1
C949: + x26 + x175 <= 1
C950: + x73 + x275 <= 1
C951: + x196 + x251 <= 1
C952: + x23 + x448 <= 1
C953: + x80 + x187 <= 1
C954: + x10 + x264 <= 1
C955: + x104 + x257 <= 1
C956: + x87 + x217 <= 1
C957: + x415 + x438 <= 1
C958: + x172 + x201 <= 1
C959: + x10 + x54 <= 1
C960: + x39 + x96 <= 1
C961: + x105 + x246 <= 1
C962: + x296 + x499 <= 1
C963: + x124 + x180 <= 1
C964: + x34 + x176 <= 1
C965: + x40 + x242 <= 1
C966: + x86 + x486 <= 1
C967: + x133 + x182 <= 1
C968: + x3 + x146 <= 1
C969: + x95 + x199 <= 1
C970: + x40 + x53 <= 1
C971: + x21 + x369 <= 1
C972: + x6 + x229 <= 1
C973: + x41 + x453 <= 1
C974: + x10 + x226 <= 1
C975: + x13 + x424 <= 1
C976: + x21 + x488 <= 1
C977: + x133 + x250 <= 1
C978: + x6 + x118 <= 1
C979: + x52 + x173 <= 1
C980: + x16 + x339 <= 1
C981: + x11 + x65 <= 1
C982: + x161 + x227 <= 1
C983: + x32 + x160 <= 1
C984: + x133 + x415 <= 1
C985: + x381 + x390 <= 1
C986: + x172 + x177 <= 1
C987: + x29 + x133 <= 1
C988: + x22 + x150 <= 1
C989: + x5 + x265 <= 1
C990: + x23 + x439 <= 1
C991: + x7 + x29 <= 1
C992: + x34 + x56 <= 1
C993: + x126 + x127 <= 1
C994: + x36 + x42 <= 1
C995: + x92 + x133 <= 1
C996: + x16 + x222 <= 1
C997: + x59 + x395 <= 1
C998: + x233 + x381 <= 1
C999: + x206 + x362 <= 1
C1000: + x104 + x157 <= 1
C1001: + x139 + x291 <= 1
C1002: + x12 + x49 <= 1
C1003: + x340 + x416 <= 1
C1004: + x5 + x317 <= 1
C1005: + x419 + x480 <= 1
C1006: + x13 + x173 <= 1
C1007: + x100 + x287 <= 1
C1008: + x62 + x460 <= 1
C1009: + x38 + x181 <= 1
C1010: + x3 + x270 <= 1
C1011: + x13 + x18 <= 1
C1012: + x40 + x145 <= 1
C1013: + x95 + x363 <= 1
C1014: + x119 + x381 <= 1
C1015: + x241 + x473 <= 1
C1016: + x104 + x323 <= 1
C1017: + x155 + x278 <= 1
C1018: + x283 + x316 <= 1
C1019: + x4 + x142 <= 1
C1020: + x1 + x46 <= 1
C1021: + x75 + x493 <= 1
C1022: + x12 + x126 <= 1
C1023: + x22 + x159 <= 1
C1024: + x22 + x330 <= 1
C1025: + x86 + x420 <= 1
C1026: + x46 + x105 <= 1
C1027: + x29 + x33 <= 1
C1028: + x49 + x213 <= 1
C1029: + x55 + x57 + x328 <= 1
C1030: + x7 + x262 <= 1
C1031: + x10 + x40 <= 1
C1032: + x40 + x86 <= 1
C1033: + x13 + x213 <= 1
C1034: + x107 + x140 <= 1
C1035: + x298 + x405 <= 1
C1036: + x32 + x201 <= 1
C1037: + x12 + x42 <= 1
C1038: + x22 + x286 <= 1
C1039: + x12 + x348 <= 1
C1040: + x23 + x103 <= 1
C1041: + x363 + x472 <= 1
C1042: + x16 + x308 <= 1
C1043: + x9 + x156 <= 1
C1044: + x10 + x20 <= 1
C1045: + x71 + x498 <= 1
C1046: + x49 + x51 <= 1
C1047: + x48 + x91 <= 1
C1048: + x14 + x151 <= 1
C1049: + x18 + x84 <= 1
C1050: + x326 + x480 <= 1
C1051: + x47 + x198 <= 1
C1052: + x255 + x297 <= 1
C1053: + x157 + x246 <= 1
C1054: + x106 + x177 <= 1
C1055: + x107 + x207 <= 1
C1056: + x22 + x69 <= 1
C1057: + x39 + x242 <= 1
C1058: + x12 + x115 <= 1
C1059: + x159 + x441 <= 1
C1060: + x100 + x486 <= 1
C1061: + x23 + x46 <= 1
C1062: + x53 + x377 <= 1
C1063: + x10 + x41 <= 1
C1064: + x120 + x158 <= 1
C1065: + x174 + x208 <= 1
C1066: + x68 + x428 <= 1
C1067: + x179 + x296 <= 1
C1068: + x8 + x38 <= 1
C1069: + x241 + x283 <= 1
C1070: + x9 + x401 <= 1
C1071: + x4 + x208 <= 1
C1072: + x343 + x355 <= 1
C1073: + x10 + x21 <= 1
C1074: + x22 + x221 <= 1
C1075: + x23 + x272 <= 1
C1076: + x18 + x85 <= 1
C1077: + x71 + x278 <= 1
C1078: + x9 + x128 <= 1
C1079: + x20 + x80 <= 1
C1080: + x241 + x471 <= 1
C1081: + x39 + x291 <= 1
C1082: + x263 + x287 <= 1
C1083: + x5 + x343 <= 1
C1084: + x8 + x474 <= 1
C1085: + x29 + x99 <= 1
C1086: + x48 + x382 <= 1
C1087: + x12 + x418 <= 1
C1088: + x12 + x269 <= 1
C1089: + x15 + x215 <= 1
C1090: + x24 + x314 <= 1
C1091: + x246 + x437 <= 1
C1092: + x104 + x450 <= 1
C1093: + x139 + x333 <= 1
C1094: + x122 + x397 <= 1
C1095: + x313 + x475 <= 1
C1096: + x4 + x265 <= 1
C1097: + x34 + x257 <= 1
C1098: + x26 + x215 <= 1
C1099: + x16 + x80 <= 1
C1100: + x8 + x35 <= 1
C1101: + x12 + x40 <= 1
C1102: + x386 + x388 <= 1
C1103: + x17 + x43 <= 1
C1104: + x6 + x422 <= 1
C1105: + x55 + x92 <= 1
C1106: + x11 + x488 <= 1
C1107: + x4 + x309 <= 1
C1108: + x172 + x225 <= 1
C1109: + x101 + x219 <= 1
C1110: + x18 + x163 <= 1
C1111: + x1 + x231 <= 1
C1112: + x82 + x398 <= 1
C1113: + x57 + x97 <= 1
C1114: + x5 + x350 <= 1
C1115: + x160 + x172 <= 1
C1116: + x16 + x439 <= 1
C1117: + x128 + x414 <= 1
C1118: + x8 + x193 <= 1
C1119: + x30 + x372 <= 1
C1120: + x104 + x205 <= 1
C1121: + x14 + x26 <= 1
C1122: + x16 + x129 <= 1
C1123: + x47 + x71 <= 1
C1124: + x4 + x32 <= 1
C1125: + x69 + x88 <= 1
C1126: + x5 + x493 <= 1
C1127: + x5 + x6 + x10 + x12 + x13 <= 1
C1128: + x128 + x355 <= 1
C1129: + x194 + x446 <= 1
C1130: + x68 + x251 <= 1
C1131: + x124 + x394 <= 1
C1132: + x177 + x468 <= 1
C1133: + x59 + x206 <= 1
C1134: + x60 + x202 <= 1
C1135: + x40 + x414 <= 1
C1136: + x192 + x295 <= 1
C1137: + x31 + x48 <= 1
C1138: + x199 + x204 <= 1
C1139: + x48 + x129 <= 1
C1140: + x214 + x233 <= 1
C1141: + x124 + x454 <= 1
C1142: + x6 + x194 <= 1
C1143: + x172 + x218 <= 1
C1144: + x137 + x326 <= 1
C1145: + x211 + x309 <= 1
C1146: + x31 + x220 <= 1
C1147: + x111 + x358 <= 1
C1148: + x95 + x484 <= 1
C1149: + x167 + x354 <= 1
C1150: + x115 + x209 + x214 <= 1
C1151: + x19 + x498 <= 1
C1152: + x84 + x326 <= 1
C1153: + x358 + x437 <= 1
C1154: + x1 + x10 <= 1
C1155: + x378 + x452 <= 1
C1156: + x4 + x5 <= 1
C1157: + x13 + x439 <= 1
C1158: + x73 + x410 <= 1
C1159: + x174 + x461 <= 1
C1160: + x37 + x104 <= 1
C1161: + x13 + x284 <= 1
C1162: + x53 + x342 <= 1
C1163: + x16 + x324 <= 1
C1164: + x10 + x68 <= 1
C1165: + x6 + x373 <= 1
C1166: + x35 + x78 <= 1
C1167: + x466 + x474 <= 1
C1168: + x86 + x396 <= 1
C1169: + x226 + x300 <= 1
C1170: + x57 + x309 <= 1
C1171: + x5 + x189 <= 1
C1172: + x55 + x316 <= 1
C1173: + x383 + x452 <= 1
C1174: + x114 + x225 <= 1
C1175: + x89 + x443 <= 1
C1176: + x17 + x184 <= 1
C1177: + x6 + x313 <= 1
C1178: + x31 + x305 <= 1
C1179: + x17 + x469 <= 1
C1180: + x7 + x92 <= 1
C1181: + x138 + x212 <= 1
C1182: + x56 + x473 <= 1
C1183: + x12 + x308 <= 1
C1184: + x112 + x304 <= 1
C1185: + x269 + x457 <= 1
C1186: + x309 + x397 <= 1
C1187: + x383 + x400 <= 1
C1188: + x272 + x313 <= 1
C1189: + x29 + x255 <= 1
C1190: + x4 + x449 <= 1
C1191: + x14 + x314 <= 1
C1192: + x20 + x47 <= 1
C1193: + x67 + x203 <= 1
C1194: + x40 + x404 <= 1
C1195: + x99 + x119 <= 1
C1196: + x163 + x356 <= 1
C1197: + x28 + x63 <= 1
C1198: + x2 + x40 <= 1
C1199: + x11 + x91 <= 1
C1200: + x68 + x392 <= 1
C1201: + x1 + x93 <= 1
C1202: + x196 + x333 <= 1
C1203: + x17 + x32 <= 1
C1204: + x82 + x104 <= 1
C1205: + x183 + x429 <= 1
C1206: + x428 + x451 <= 1
C1207: + x51 + x69 <= 1
C1208: + x5 + x188 <= 1
C1209: + x196 + x492 <= 1
C1210: + x15 + x103 <= 1
C1211: + x18 + x150 <= 1
C1212: + x10 + x49 <= 1
C1213: + x174 + x232 <= 1
C1214: + x86 + x262 <= 1
C1215: + x107 + x344 <= 1
C1216: + x23 + x300 <= 1
C1217: + x91 + x430 <= 1
C1218: + x281 + x364 <= 1
C1219: + x65 + x425 <= 1
C1220: + x285 + x308 <= 1
C1221: + x11 + x18 <= 1
C1222: + x29 + x337 <= 1
C1223: + x356 + x471 <= 1
C1224: + x59 + x120 <= 1
C1225: + x22 + x98 <= 1
C1226: + x17 + x361 <= 1
C1227: + x21 + x203 <= 1
C1228: + x31 + x242 <= 1
C1229: + x22 + x384 <= 1
C1230: + x76 + x368 <= 1
C1231: + x3 + x6 <= 1
C1232: + x56 + x327 <= 1
C1233: + x104 + x329 <= 1
C1234: + x5 + x383 <= 1
C1235: + x18 + x272 <= 1
C1236: + x10 + x78 <= 1
C1237: + x13 + x239 <= 1
C1238: + x5 + x20 <= 1
C1239: + x26 + x179 <= 1
C1240: + x38 + x243 <= 1
C1241: + x14 + x487 <= 1
C1242: + x11 + x412 <= 1
C1243: + x13 + x382 <= 1
C1244: + x159 + x229 <= 1
C1245: + x6 + x61 <= 1
C1246: + x91 + x167 <= 1
C1247: + x10 + x58 <= 1
C1248: + x120 + x179 <= 1
C1249: + x122 + x344 <= 1
C1250: + x86 + x271 <= 1
C1251: + x92 + x132 <= 1
C1252: + x1 + x195 <= 1
C1253: + x125 + x229 <= 1
C1254: + x201 + x443 <= 1
C1255: + x4 + x7 + x23 <= 1
C1256: + x47 + x244 <= 1
C1257: + x12 + x64 <= 1
C1258: + x5 + x306 <= 1
C1259: + x212 + x323 <= 1
C1260: + x87 + x169 <= 1
C1261: + x1 + x31 <= 1
C1262: + x248 + x398 <= 1
C1263: + x12 + x141 <= 1
C1264: + x13 + x420 <= 1
C1265: + x168 + x490 <= 1
C1266: + x6 + x479 <= 1
C1267: + x55 + x227 <= 1
C1268: + x113 + x491 <= 1
C1269: + x97 + x277 <= 1
C1270: + x25 + x50 <= 1
C1271: + x5 + x358 <= 1
C1272: + x4 + x366 <= 1
C1273: + x355 + x438 <= 1
C1274: + x65 + x334 <= 1
C1275: + x2 + x50 <= 1
C1276: + x57 + x347 <= 1
C1277: + x59 + x67 <= 1
C1278: + x53 + x61 <= 1
C1279: + x228 + x468 <= 1
C1280: + x11 + x290 <= 1
C1281: + x379 + x401 <= 1
C1282: + x22 + x146 <= 1
C1283: + x97 + x388 <= 1
C1284: + x25 + x161 <= 1
C1285: + x13 + x373 <= 1
C1286: + x68 + x104 + x444 <= 1
C1287: + x10 + x35 <= 1
C1288: + x272 + x324 <= 1
C1289: + x13 + x218 <= 1
C1290: + x6 + x276 <= 1
C1291: + x8 + x52 <= 1
C1292: + x55 + x170 <= 1
C1293: + x183 + x298 <= 1
C1294: + x50 + x311 <= 1
C1295: + x37 + x53 <= 1
C1296: + x247 + x256 <= 1
C1297: + x2 + x127 <= 1
C1298: + x58 + x138 <= 1
C1299: + x23 + x100 <= 1
C1300: + x17 + x359 <= 1
C1301: + x99 + x145 <= 1
C1302: + x145 + x369 <= 1
C1303: + x144 + x473 <= 1
C1304: + x80 + x119 <= 1
C1305: + x8 + x65 <= 1
C1306: + x29 + x204 <= 1
C1307: + x13 + x14 <= 1
C1308: + x70 + x77 <= 1
C1309: + x342 + x381 <= 1
C1310: + x12 + x440 <= 1
C1311: + x13 + x320 <= 1
C1312: + x5 + x365 <= 1
C1313: + x91 + x101 <= 1
C1314: + x246 + x268 <= 1
C1315: + x11 + x120 <= 1
C1316: + x6 + x158 <= 1
C1317: + x8 + x117 <= 1
C1318: + x49 + x108 <= 1
C1319: + x103 + x362 <= 1
C1320: + x104 + x464 <= 1
C1321: + x143 + x148 <= 1
C1322: + x3 + x44 <= 1
C1323: + x4 + x287 <= 1
C1324: + x43 + x403 <= 1
C1325: + x406 + x415 <= 1
C1326: + x13 + x372 <= 1
C1327: + x8 + x319 <= 1
C1328: + x65 + x273 <= 1
C1329: + x145 + x247 <= 1
C1330: + x33 + x389 <= 1
C1331: + x371 + x480 <= 1
C1332: + x15 + x330 <= 1
C1333: + x227 + x303 <= 1
C1334: + x137 + x454 <= 1
C1335: + x306 + x329 <= 1
C1336: + x36 + x365 <= 1
C1337: + x109 + x295 <= 1
C1338: + x10 + x24 <= 1
C1339: + x47 + x109 <= 1
C1340: + x83 + x379 <= 1
C1341: + x3 + x422 <= 1
C1342: + x150 + x281 <= 1
C1343: + x6 + x100 <= 1
C1344: + x5 + x364 <= 1
C1345: + x155 + x214 <= 1
C1346: + x56 + x497 <= 1
C1347: + x5 + x9 <= 1
C1348: + x73 + x268 <= 1
C1349: + x1 + x57 <= 1
C1350: + x187 + x288 <= 1
C1351: + x142 + x349 <= 1
C1352: + x66 + x138 <= 1
C1353: + x20 + x23 <= 1
C1354: + x29 + x60 <= 1
C1355: + x47 + x150 <= 1
C1356: + x23 + x34 <= 1
C1357: + x25 + x460 <= 1
C1358: + x52 + x331 <= 1
C1359: + x83 + x322 <= 1
C1360: + x12 + x200 <= 1
C1361: + x13 + x208 <= 1
C1362: + x93 + x446 <= 1
C1363: + x64 + x69 <= 1
C1364: + x21 + x128 <= 1
C1365: + x12 + x35 <= 1
C1366: + x22 + x291 <= 1
C1367: + x158 + x469 <= 1
C1368: + x178 + x319 <= 1
C1369: + x54 + x95 <= 1
C1370: + x129 + x199 <= 1
C1371: + x86 + x139 <= 1
C1372: + x5 + x196 <= 1
C1373: + x19 + x54 <= 1
C1374: + x2 + x236 <= 1
C1375: + x54 + x429 <= 1
C1376: + x12 + x31 <= 1
C1377: + x32 + x468 <= 1
C1378: + x7 + x107 <= 1
C1379: + x137 + x150 <= 1
C1380: + x2 + x5 <= 1
C1381: + x356 + x447 <= 1
C1382: + x367 + x476 <= 1
C1383: + x5 + x248 <= 1
C1384: + x6 + x144 <= 1
C1385: + x33 + x292 <= 1
C1386: + x13 + x445 <= 1
C1387: + x4 + x27 <= 1
C1388: + x20 + x32 <= 1
C1389: + x94 + x434 <= 1
C1390: + x35 + x298 <= 1
C1391: + x129 + x404 <= 1
C1392: + x14 + x209 <= 1
C1393: + x61 + x388 <= 1
C1394: + x55 + x179 <= 1
C1395: + x183 + x307 <= 1
C1396: + x123 + x197 <= 1
C1397: + x23 + x428 <= 1
C1398: + x215 + x236 <= 1
C1399: + x337 + x436 <= 1
C1400: + x55 + x96 <= 1
C1401: + x48 + x402 <= 1
C1402: + x425 + x463 <= 1
C1403: + x56 + x82 <= 1
C1404: + x23 + x283 <= 1
C1405: + x138 + x440 <= 1
C1406: + x167 + x355 <= 1
C1407: + x34 + x103 <= 1
C1408: + x52 + x141 <= 1
C1409: + x9 + x456 <= 1
C1410: + x2 + x30 <= 1
C1411: + x29 + x328 <= 1
C1412: + x210 + x358 <= 1
C1413: + x11 + x198 <= 1
C1414: + x120 + x255 <= 1
C1415: + x229 + x456 <= 1
C1416: + x27 + x161 <= 1
C1417: + x47 + x168 <= 1
C1418: + x97 + x269 <= 1
C1419: + x187 + x387 <= 1
C1420: + x251 + x323 <= 1
C1421: + x246 + x256 <= 1
C1422: + x10 + x396 <= 1
C1423: + x49 + x496 <= 1
C1424: + x213 + x489 <= 1
C1425: + x13 + x254 <= 1
C1426: + x11 + x266 <= 1
C1427: + x56 + x58 <= 1
C1428: + x3 + x379 <= 1
C1429: + x1 + x496 <= 1
C1430: + x5 + x178 <= 1
C1431: + x61 + x266 <= 1
C1432: + x26 + x282 <= 1
C1433: + x27 + x67 <= 1
C1434: + x10 + x11 <= 1
C1435: + x8 + x165 <= 1
C1436: + x64 + x476 <= 1
C1437: + x68 + x458 <= 1
C1438: + x13 + x50 <= 1
C1439: + x32 + x291 <= 1
C1440: + x108 + x374 <= 1
C1441: + x18 + x59 <= 1
C1442: + x202 + x249 <= 1
C1443: + x222 + x315 <= 1
C1444: + x351 + x455 <= 1
C1445: + x17 + x466 <= 1
C1446: + x19 + x494 <= 1
C1447: + x10 + x449 <= 1
C1448: + x14 + x15 <= 1
C1449: + x152 + x318 <= 1
C1450: + x11 + x205 <= 1
C1451: + x241 + x344 <= 1
C1452: + x77 + x281 <= 1
C1453: + x234 + x459 <= 1
C1454: + x69 + x91 <= 1
C1455: + x4 + x9 <= 1
C1456: + x1 + x427 <= 1
C1457: + x320 + x442 <= 1
C1458: + x365 + x438 <= 1
C1459: + x47 + x445 <= 1
C1460: + x61 + x402 <= 1
C1461: + x17 + x299 <= 1
C1462: + x6 + x166 <= 1
C1463: + x101 + x102 <= 1
C1464: + x55 + x141 <= 1
C1465: + x191 + x228 <= 1
C1466: + x4 + x396 <= 1
C1467: + x18 + x419 <= 1
C1468: + x29 + x386 <= 1
C1469: + x3 + x68 <= 1
C1470: + x104 + x267 <= 1
C1471: + x341 + x404 <= 1
C1472: + x169 + x360 <= 1
C1473: + x19 + x31 <= 1
C1474: + x10 + x52 <= 1
C1475: + x23 + x228 <= 1
C1476: + x25 + x255 <= 1
C1477: + x17 + x172 <= 1
C1478: + x91 + x431 <= 1
C1479: + x55 + x217 <= 1
C1480: + x65 + x126 + x301 <= 1
C1481: + x6 + x72 <= 1
C1482: + x401 + x483 <= 1
C1483: + x37 + x465 <= 1
C1484: + x3 + x152 <= 1
C1485: + x5 + x237 <= 1
C1486: + x353 + x465 <= 1
C1487: + x80 + x104 <= 1
C1488: + x1 + x5 <= 1
C1489: + x107 + x285 <= 1
C1490: + x62 + x284 <= 1
C1491: + x72 + x181 <= 1
C1492: + x3 + x7 <= 1
C1493: + x76 + x178 <= 1
C1494: + x185 + x425 <= 1
C1495: + x43 + x114 <= 1
C1496: + x293 + x296 <= 1
C1497: + x5 + x372 <= 1
C1498: + x282 + x441 <= 1
C1499: + x38 + x275 <= 1
C1500: + x13 + x244 <= 1
C1501: + x5 + x17 <= 1
C1502: + x170 + x216 <= 1
C1503: + x119 + x147 <= 1
C1504: + x295 + x407 <= 1
C1505: + x379 + x395 <= 1
C1506: + x5 + x259 <= 1
C1507: + x63 + x200 <= 1
C1508: + x321 + x483 <= 1
C1509: + x11 + x42 <= 1
C1510: + x139 + x227 <= 1
C1511: + x274 + x389 <= 1
C1512: + x95 + x156 <= 1
C1513: + x14 + x77 <= 1
C1514: + x3 + x256 <= 1
C1515: + x21 + x131 <= 1
C1516: + x22 + x253 <= 1
C1517: + x12 + x224 <= 1
C1518: + x23 + x304 <= 1
C1519: + x227 + x258 <= 1
C1520: + x10 + x152 <= 1
C1521: + x66 + x83 <= 1
C1522: + x154 + x429 <= 1
C1523: + x13 + x466 <= 1
C1524: + x179 + x413 <= 1
C1525: + x17 + x464 <= 1
C1526: + x25 + x99 <= 1
C1527: + x10 + x499 <= 1
C1528: + x23 + x86 <= 1
C1529: + x32 + x107 <= 1
C1530: + x16 + x301 <= 1
C1531: + x57 + x489 <= 1
C1532: + x148 + x349 <= 1
C1533: + x441 + x467 <= 1
C1534: + x299 + x366 <= 1
C1535: + x65 + x121 <= 1
C1536: + x184 + x394 <= 1
C1537: + x34 + x70 <= 1
C1538: + x10 + x447 <= 1
C1539: + x10 + x114 <= 1
C1540: + x8 + x224 <= 1
C1541: + x292 + x327 <= 1
C1542: + x14 + x245 <= 1
C1543: + x10 + x173 <= 1
C1544: + x76 + x497 <= 1
C1545: + x77 + x451 <= 1
C1546: + x13 + x80 <= 1
C1547: + x72 + x226 <= 1
C1548: + x56 + x279 <= 1
C1549: + x15 + x110 <= 1
C1550: + x7 + x260 <= 1
C1551: + x371 + x426 <= 1
C1552: + x188 + x230 <= 1
C1553: + x300 + x435 <= 1
C1554: + x11 + x279 <= 1
C1555: + x55 + x171 <= 1
C1556: + x2 + x364 <= 1
C1557: + x5 + x318 <= 1
C1558: + x6 + x74 <= 1
C1559: + x22 + x119 <= 1
C1560: + x13 + x174 <= 1
C1561: + x45 + x58 <= 1
C1562: + x1 + x19 <= 1
C1563: + x13 + x19 <= 1
C1564: + x253 + x482 <= 1
C1565: + x36 + x244 <= 1
C1566: + x327 + x494 <= 1
C1567: + x9 + x115 <= 1
C1568: + x10 + x325 <= 1
C1569: + x175 + x426 <= 1
C1570: + x169 + x273 <= 1
C1571: + x5 + x354 <= 1
C1572: + x33 + x105 <= 1
C1573: + x11 + x73 <= 1
C1574: + x136 + x292 <= 1
C1575: + x5 + x7 <= 1
C1576: + x13 + x71 <= 1
C1577: + x244 + x345 <= 1
C1578: + x83 + x94 <= 1
C1579: + x139 + x149 <= 1
C1580: + x12 + x367 <= 1
C1581: + x110 + x384 <= 1
C1582: + x10 + x39 <= 1
C1583: + x121 + x363 <= 1
C1584: + x21 + x145 <= 1
C1585: + x40 + x85 <= 1
C1586: + x34 + x374 <= 1
C1587: + x10 + x130 <= 1
C1588: + x477 + x478 <= 1
C1589: + x146 + x149 <= 1
C1590: + x37 + x49 <= 1
C1591: + x102 + x436 <= 1
C1592: + x11 + x16 <= 1
C1593: + x194 + x486 <= 1
C1594: + x287 + x288 <= 1
C1595: + x102 + x162 <= 1
C1596: + x22 + x211 <= 1
C1597: + x206 + x342 <= 1
C1598: + x14 + x289 <= 1
C1599: + x61 + x116 <= 1
C1600: + x6 + x452 <= 1
C1601: + x72 + x164 <= 1
C1602: + x57 + x84 <= 1
C1603: + x182 + x378 <= 1
C1604: + x50 + x170 <= 1
C1605: + x34 + x88 <= 1
C1606: + x62 + x138 <= 1
C1607: + x63 + x106 <= 1
C1608: + x8 + x263 <= 1
C1609: + x55 + x464 <= 1
C1610: + x2 + x170 <= 1
C1611: + x113 + x176 <= 1
C1612: + x11 + x213 <= 1
C1613: + x157 + x284 <= 1
C1614: + x204 + x424 <= 1
C1615: + x10 + x405 <= 1
C1616: + x8 + x130 <= 1
C1617: + x185 + x359 <= 1
C1618: + x14 + x358 <= 1
C1619: + x36 + x182 <= 1
C1620: + x10 + x139 <= 1
C1621: + x28 + x241 <= 1
C1622: + x12 + x34 <= 1
C1623: + x21 + x125 <= 1
C1624: + x131 + x343 <= 1
C1625: + x173 + x267 <= 1
C1626: + x3 + x124 <= 1
C1627: + x86 + x142 <= 1
C1628: + x233 + x251 <= 1
C1629: + x7 + x229 <= 1
C1630: + x10 + x28 <= 1
C1631: + x19 + x55 <= 1
C1632: + x47 + x113 <= 1
C1633: + x177 + x256 <= 1
C1634: + x31 + x239 <= 1
C1635: + x5 + x102 <= 1
C1636: + x5 + x435 <= 1
C1637: + x10 + x375 <= 1
C1638: + x47 + x206 <= 1
C1639: + x12 + x30 <= 1
C1640: + x39 + x292 <= 1
C1641: + x4 + x352 <= 1
C1642: + x33 + x103 <= 1
C1643: + x32 + x471 <= 1
C1644: + x100 + x413 <= 1
C1645: + x228 + x359 <= 1
C1646: + x11 + x123 <= 1
C1647: + x135 + x398 <= 1
C1648: + x110 + x137 <= 1
C1649: + x129 + x325 <= 1
C1650: + x23 + x75 <= 1
C1651: + x29 + x147 <= 1
C1652: + x186 + x241 <= 1
C1653: + x12 + x107 <= 1
C1654: + x4 + x493 <= 1
C1655: + x5 + x487 <= 1
C1656: + x104 + x449 <= 1
C1657: + x45 + x257 <= 1
C1658: + x136 + x220 <= 1
C1659: + x38 + x77 <= 1
C1660: + x56 + x183 <= 1
C1661: + x141 + x231 <= 1
C1662: + x71 + x100 <= 1
C1663: + x10 + x414 <= 1
C1664: + x10 + x81 <= 1
C1665: + x221 + x450 <= 1
C1666: + x5 + x57 <= 1
C1667: + x153 + x162 <= 1
C1668: + x6 + x258 <= 1
C1669: + x368 + x403 <= 1
C1670: + x46 + x235 <= 1
C1671: + x68 + x335 <= 1
C1672: + x186 + x376 <= 1
C1673: + x5 + x299 <= 1
C1674: + x62 + x200 <= 1
C1675: + x200 + x385 <= 1
C1676: + x102 + x113 <= 1
C1677: + x21 + x278 <= 1
C1678: + x97 + x335 <= 1
C1679: + x14 + x37 <= 1
C1680: + x7 + x289 <= 1
C1681: + x1 + x232 <= 1
C1682: + x139 + x432 <= 1
C1683: + x5 + x109 <= 1
C1684: + x25 + x313 <= 1
C1685: + x24 + x144 <= 1
C1686: + x20 + x88 <= 1
C1687: + x12 + x19 <= 1
C1688: + x68 + x178 <= 1
C1689: + x22 + x499 <= 1
C1690: + x5 + x351 <= 1
C1691: + x74 + x155 <= 1
C1692: + x11 + x102 <= 1
C1693: + x14 + x25 <= 1
C1694: + x354 + x440 <= 1
C1695: + x307 + x432 <= 1
C1696: + x294 + x302 <= 1
C1697: + x25 + x186 <= 1
C1698: + x170 + x299 <= 1
C1699: + x23 + x340 <= 1
C1700: + x138 + x383 <= 1
C1701: + x212 + x228 <= 1
C1702: + x183 + x392 <= 1
C1703: + x3 + x461 <= 1
C1704: + x59 + x203 <= 1
C1705: + x52 + x344 <= 1
C1706: + x4 + x369 <= 1
C1707: + x21 + x457 <= 1
C1708: + x350 + x495 <= 1
C1709: + x28 + x36 <= 1
C1710: + x228 + x348 <= 1
C1711: + x31 + x45 <= 1
C1712: + x8 + x27 <= 1
C1713: + x10 + x280 <= 1
C1714: + x2 + x70 <= 1
C1715: + x167 + x280 <= 1
C1716: + x118 + x332 <= 1
C1717: + x9 + x381 <= 1
C1718: + x299 + x408 <= 1
C1719: + x11 + x158 <= 1
C1720: + x4 + x92 <= 1
C1721: + x215 + x406 <= 1
C1722: + x25 + x320 <= 1
C1723: + x6 + x319 <= 1
C1724: + x186 + x325 <= 1
C1725: + x21 + x388 <= 1
C1726: + x8 + x366 <= 1
C1727: + x49 + x440 <= 1
C1728: + x4 + x233 <= 1
C1729: + x108 + x258 <= 1
C1730: + x170 + x276 <= 1
C1731: + x17 + x110 <= 1
C1732: + x80 + x368 <= 1
C1733: + x46 + x76 <= 1
C1734: + x165 + x481 <= 1
C1735: + x76 + x136 <= 1
C1736: + x95 + x98 <= 1
C1737: + x23 + x56 <= 1
C1738: + x276 + x498 <= 1
C1739: + x2 + x14 + x345 <= 1
C1740: + x6 + x185 <= 1
C1741: + x245 + x478 <= 1
C1742: + x8 + x20 <= 1
C1743: + x10 + x190 <= 1
C1744: + x29 + x181 <= 1
C1745: + x210 + x278 <= 1
C1746: + x13 + x95 <= 1
C1747: + x2 + x329 <= 1
C1748: + x31 + x72 + x134 <= 1
C1749: + x220 + x234 <= 1
C1750: + x11 + x36 <= 1
C1751: + x3 + x69 <= 1
C1752: + x284 + x324 <= 1
C1753: + x13 + x329 <= 1
C1754: + x413 + x441 <= 1
C1755: + x10 + x15 <= 1
C1756: + x12 + x166 <= 1
C1757: + x104 + x109 <= 1
C1758: + x52 + x392 <= 1
C1759: + x25 + x252 <= 1
C1760: + x174 + x273 <= 1
C1761: + x64 + x154 <= 1
C1762: + x59 + x110 <= 1
C1763: + x13 + x189 <= 1
C1764: + x104 + x254 <= 1
C1765: + x5 + x226 <= 1
C1766: + x17 + x200 <= 1
C1767: + x77 + x277 <= 1
C1768: + x178 + x362 <= 1
C1769: + x227 + x352 <= 1
C1770: + x85 + x437 <= 1
C1771: + x13 + x276 <= 1
C1772: + x88 + x245 <= 1
C1773: + x145 + x215 <= 1
C1774: + x74 + x268 <= 1
C1775: + x135 + x419 <= 1
C1776: + x103 + x153 <= 1
C1777: + x10 + x167 <= 1
C1778: + x139 + x458 <= 1
C1779: + x178 + x294 <= 1
C1780: + x87 + x378 <= 1
C1781: + x5 + x264 <= 1
C1782: + x46 + x452 <= 1
C1783: + x67 + x160 <= 1
C1784: + x215 + x347 <= 1
C1785: + x9 + x192 <= 1
C1786: + x91 + x266 <= 1
C1787: + x13 + x37 <= 1
C1788: + x32 + x280 <= 1
C1789: + x89 + x387 <= 1
C1790: + x29 + x338 <= 1
C1791: + x140 + x172 <= 1
C1792: + x3 + x148 <= 1
C1793: + x21 + x375 <= 1
C1794: + x5 + x233 <= 1
C1795: + x6 + x231 <= 1
C1796: + x246 + x408 <= 1
C1797: + x40 + x154 <= 1
C1798: + x23 + x357 <= 1
C1799: + x10 + x351 <= 1
C1800: + x76 + x367 <= 1
C1801: + x142 + x224 <= 1
C1802: + x83 + x213 <= 1
C1803: + x110 + x161 <= 1
C1804: + x156 + x254 <= 1
C1805: + x109 + x188 <= 1
C1806: + x10 + x176 <= 1
C1807: + x1 + x85 <= 1
C1808: + x4 + x34 <= 1
C1809: + x52 + x220 <= 1
C1810: + x241 + x412 <= 1
C1811: + x259 + x461 <= 1
C1812: + x14 + x73 <= 1
C1813: + x108 + x118 <= 1
C1814: + x215 + x350 <= 1
C1815: + x86 + x270 <= 1
C1816: + x34 + x163 <= 1
C1817: + x150 + x495 <= 1
C1818: + x5 + x307 <= 1
C1819: + x52 + x232 <= 1
C1820: + x74 + x183 <= 1
C1821: + x2 + x434 <= 1
C1822: + x64 + x347 <= 1
C1823: + x2 + x101 <= 1
C1824: + x14 + x61 <= 1
C1825: + x5 + x216 <= 1
C1826: + x163 + x260 <= 1
C1827: + x163 + x205 <= 1
C1828: + x280 + x379 <= 1
C1829: + x120 + x194 <= 1
C1830: + x184 + x188 <= 1
C1831: + x40 + x151 <= 1
C1832: + x5 + x117 <= 1
C1833: + x141 + x408 <= 1
C1834: + x14 + x160 <= 1
C1835: + x63 + x135 <= 1
C1836: + x17 + x83 <= 1
C1837: + x71 + x294 <= 1
C1838: + x47 + x370 <= 1
C1839: + x202 + x219 <= 1
C1840: + x184 + x390 <= 1
C1841: + x42 + x111 <= 1
C1842: + x274 + x481 <= 1
C1843: + x49 + x393 <= 1
C1844: + x86 + x195 <= 1
C1845: + x370 + x482 <= 1
C1846: + x5 + x28 <= 1
C1847: + x13 + x231 <= 1
C1848: + x360 + x371 <= 1
C1849: + x137 + x404 <= 1
C1850: + x29 + x130 <= 1
C1851: + x149 + x423 <= 1
C1852: + x7 + x18 <= 1
C1853: + x182 + x264 <= 1
C1854: + x83 + x95 <= 1
C1855: + x103 + x465 <= 1
C1856: + x50 + x112 <= 1
C1857: + x177 + x301 <= 1
C1858: + x14 + x66 <= 1
C1859: + x53 + x376 <= 1
C1860: + x7 + x264 <= 1
C1861: + x18 + x135 <= 1
C1862: + x136 + x475 <= 1
C1863: + x103 + x199 <= 1
C1864: + x448 + x453 <= 1
C1865: + x52 + x82 <= 1
C1866: + x53 + x66 <= 1
C1867: + x36 + x140 <= 1
C1868: + x39 + x181 <= 1
C1869: + x136 + x157 <= 1
C1870: + x32 + x96 <= 1
C1871: + x4 + x197 <= 1
C1872: + x40 + x41 <= 1
C1873: + x23 + x97 <= 1
C1874: + x37 + x296 <= 1
C1875: + x149 + x346 <= 1
C1876: + x12 + x133 <= 1
C1877: + x5 + x116 <= 1
C1878: + x17 + x74 <= 1
C1879: + x28 + x307 <= 1
C1880: + x29 + x106 <= 1
C1881: + x85 + x127 <= 1
C1882: + x86 + x105 <= 1
C1883: + x259 + x395 <= 1
C1884: + x187 + x419 <= 1
C1885: + x109 + x448 <= 1
C1886: + x1 + x337 <= 1
C1887: + x4 + x241 <= 1
C1888: + x7 + x368 <= 1
C1889: + x46 + x193 <= 1
C1890: + x71 + x201 <= 1
C1891: + x8 + x411 <= 1
C1892: + x313 + x466 <= 1
C1893: + x3 + x41 <= 1
C1894: + x257 + x431 <= 1
C1895: + x29 + x62 <= 1
C1896: + x69 + x314 <= 1
C1897: + x116 + x164 <= 1
C1898: + x131 + x133 <= 1
C1899: + x186 + x362 <= 1
C1900: + x215 + x223 <= 1
C1901: + x189 + x299 <= 1
C1902: + x9 + x332 <= 1
C1903: + x163 + x223 <= 1
C1904: + x48 + x98 <= 1
C1905: + x177 + x253 <= 1
C1906: + x32 + x311 <= 1
C1907: + x10 + x370 <= 1
C1908: + x49 + x149 <= 1
C1909: + x13 + x312 <= 1
C1910: + x167 + x370 <= 1
C1911: + x1 + x157 <= 1
C1912: + x29 + x371 <= 1
C1913: + x267 + x454 <= 1
C1914: + x52 + x477 <= 1
C1915: + x2 + x174 <= 1
C1916: + x20 + x26 <= 1
C1917: + x47 + x155 <= 1
C1918: + x23 + x39 <= 1
C1919: + x271 + x437 <= 1
C1920: + x205 + x393 <= 1
C1921: + x43 + x137 <= 1
C1922: + x24 + x30 <= 1
C1923: + x142 + x272 <= 1
C1924: + x66 + x197 <= 1
C1925: + x51 + x94 <= 1
C1926: + x89 + x217 <= 1
C1927: + x24 + x353 <= 1
C1928: + x145 + x155 <= 1
C1929: + x149 + x368 <= 1
C1930: + x33 + x361 <= 1
C1931: + x23 + x224 <= 1
C1932: + x5 + x447 <= 1
C1933: + x32 + x225 <= 1
C1934: + x25 + x183 <= 1
C1935: + x169 + x259 <= 1
C1936: + x161 + x432 <= 1
C1937: + x17 + x485 <= 1
C1938: + x10 + x470 <= 1
C1939: + x10 + x105 <= 1
C1940: + x2 + x28 <= 1
C1941: + x84 + x242 <= 1
C1942: + x297 + x320 <= 1
C1943: + x25 + x421 <= 1
C1944: + x236 + x475 <= 1
C1945: + x1 + x49 <= 1
C1946: + x136 + x433 <= 1
C1947: + x157 + x367 <= 1
C1948: + x13 + x113 <= 1
C1949: + x52 + x56 <= 1
C1950: + x24 + x71 <= 1

binary
x1 x2 x3 x4 x5 x6 x7 x8 x9 x10 x11 x12 x13 x14 x15 x16 x17 x18 x19 x20 x21 x22 x23 x24 x25 x26 x27 x28 x29 x30 x31 x32 x33 x34 x35 x36 x37 x38 x39 x40 x41 x42 x43 x44 x45 x46 x47 x48 x49 x50 x51 x52 x53 x54 x55 x56 x57 x58 x59 x60 x61 x62 x63 x64 x65 x66 x67 x68 x69 x70 x71 x72 x73 x74 x75 x76 x77 x78 x79 x80 x81 x82 x83 x84 x85 x86 x87 x88 x89 x90 x91 x92 x93 x94 x95 x96 x97 x98 x99 x100 x101 x102 x103 x104 x105 x106 x107 x108 x109 x110 x111 x112 x113 x114 x115 x116 x117 x118 x119 x120 x121 x122 x123 x124 x125 x126 x127 x128 x129 x130 x131 x132 x133 x134 x135 x136 x137 x138 x139 x140 x141 x142 x143 x144 x145 x146 x147 x148 x149 x150 x151 x152 x153 x154 x155 x156 x157 x158 x159 x160 x161 x162 x163 x164 x165 x166 x167 x168 x169 x170 x171 x172 x173 x174 x175 x176 x177 x178 x179 x180 x181 x182 x183 x184 x185 x186 x187 x188 x189 x190 x191 x192 x193 x194 x195 x196 x197 x198 x199 x200 x201 x202 x203 x204 x205 x206 x207 x208 x209 x210 x211 x212 x213 x214 x215 x216 x217 x218 x219 x220 x221 x222 x223 x224 x225 x226 x227 x228 x229 x230 x231 x232 x233 x234 x235 x236 x237 x238 x239 x240 x241 x242 x243 x244 x245 x246 x247 x248 x249 x250 x251 x252 x253 x254 x255 x256 x257 x258 x259 x260 x261 x262 x263 x264 x265 x266 x267 x268 x269 x270 x271 x272 x273 x274 x275 x276 x277 x278 x279 x280 x281 x282 x283 x284 x285 x286 x287 x288 x289 x290 x291 x292 x293 x294 x295 x296 x297 x298 x299 x300 x301 x302 x303 x304 x305 x306 x307 x308 x309 x310 x311 x312 x313 x314 x315 x316 x317 x318 x319 x320 x321 x322 x323 x324 x325 x326 x327 x328 x329 x330 x331 x332 x333 x334 x335 x336 x337 x338 x339 x340 x341 x342 x343 x344 x345 x346 x347 x348 x349 x350 x351 x352 x353 x354 x355 x356 x357 x358 x359 x360 x361 x362 x363 x364 x365 x366 x367 x368 x369 x370 x371 x372 x373 x374 x375 x376 x377 x378 x379 x380 x381 x382 x383 x384 x385 x386 x387 x388 x389 x390 x391 x392 x393 x394 x395 x396 x397 x398 x399 x400 x401 x402 x403 x404 x405 x406 x407 x408 x409 x410 x411 x412 x413 x414 x415 x416 x417 x418 x419 x420 x421 x422 x423 x424 x425 x426 x427 x428 x429 x430 x431 x432 x433 x434 x435 x436 x437 x438 x439 x440 x441 x442 x443 x444 x445 x446 x447 x448 x449 x450 x451 x452 x453 x454 x455 x456 x457 x458 x459 x460 x461 x462 x463 x464 x465 x466 x467 x468 x469 x470 x471 x472 x473 x474 x475 x476 x477 x478 x479 x480 x481 x482 x483 x484 x485 x486 x487 x488 x489 x490 x491 x492 x493 x494 x495 x496 x497 x498 x499 x500
