maximize
OBJ: + 1 x1 + 1 x2 + 1 x3 + 1 x4 + 1 x5 + 1 x6 + 1 x7 + 1 x8 + 1 x9 + 1 x10 + 1 x11 + 1 x12 + 1 x13 + 1 x14 + 1 x15 + 1 x16 + 1 x17 + 1 x18 + 1 x19 + 1 x20 + 1 x21 + 1 x22 + 1 x23 + 1 x24 + 1 x25 + 1 x26 + 1 x27 + 1 x28 + 1 x29 + 1 x30 + 1 x31 + 1 x32 + 1 x33 + 1 x34 + 1 x35 + 1 x36 + 1 x37 + 1 x38 + 1 x39 + 1 x40 + 1 x41 + 1 x42 + 1 x43 + 1 x44 + 1 x45 + 1 x46 + 1 x47 + 1 x48 + 1 x49 + 1 x50 + 1 x51 + 1 x52 + 1 x53 + 1 x54 + 1 x55 + 1 x56 + 1 x57 + 1 x58 + 1 x59 + 1 x60 + 1 x61 + 1 x62 + 1 x63 + 1 x64 + 1 x65 + 1 x66 + 1 x67 + 1 x68 + 1 x69 + 1 x70 + 1 x71 + 1 x72 + 1 x73 + 1 x74 + 1 x75 + 1 x76 + 1 x77 + 1 x78 + 1 x79 + 1 x80 + 1 x81 + 1 x82 + 1 x83 + 1 x84 + 1 x85 + 1 x86 + 1 x87 + 1 x88 + 1 x89 + 1 x90 + 1 x91 + 1 x92 + 1 x93 + 1 x94 + 1 x95 + 1 x96 + 1 x97 + 1 x98 + 1 x99 + 1 x100 + 1 x101 + 1 x102 + 1 x103 + 1 x104 + 1 x105 + 1 x106 + 1 x107 + 1 x108 + 1 x109 + 1 x110 + 1 x111 + 1 x112 + 1 x113 + 1 x114 + 1 x115 + 1 x116 + 1 x117 + 1 x118 + 1 x119 + 1 x120 + 1 x121 + 1 x122 + 1 x123 + 1 x124 + 1 x125 + 1 x126 + 1 x127 + 1 x128 + 1 x129 + 1 x130 + 1 x131 + 1 x132 + 1 x133 + 1 x134 + 1 x135 + 1 x136 + 1 x137 + 1 x138 + 1 x139 + 1 x140 + 1 x141 + 1 x142 + 1 x143 + 1 x144 + 1 x145 + 1 x146 + 1 x147 + 1 x148 + 1 x149 + 1 x150 + 1 x151 + 1 x152 + 1 x153 + 1 x154 + 1 x155 + 1 x156 + 1 x157 + 1 x158 + 1 x159 + 1 x160 + 1 x161 + 1 x162 + 1 x163 + 1 x164 + 1 x165 + 1 x166 + 1 x167 + 1 x168 + 1 x169 + 1 x170 + 1 x171 + 1 x172 + 1 x173 + 1 x174 + 1 x175 + 1 x176 + 1 x177 + 1 x178 + 1 x179 + 1 x180 + 1 x181 + 1 x182 + 1 x183 + 1 x184 + 1 x185 + 1 x186 + 1 x187 + 1 x188 + 1 x189 + 1 x190 + 1 x191 + 1 x192 + 1 x193 + 1 x194 + 1 x195 + 1 x196 + 1 x197 + 1 x198 + 1 x199 + 1 x200 + 1 x201 + 1 x202 + 1 x203 + 1 x204 + 1 x205 + 1 x206 + 1 x207 + 1 x208 + 1 x209 + 1 x210 + 1 x211 + 1 x212 + 1 x213 + 1 x214 + 1 x215 + 1 x216 + 1 x217 + 1 x218 + 1 x219 + 1 x220 + 1 x221 + 1 x222 + 1 x223 + 1 x224 + 1 x225 + 1 x226 + 1 x227 + 1 x228 + 1 x229 + 1 x230 + 1 x231 + 1 x232 + 1 x233 + 1 x234 + 1 x235 + 1 x236 + 1 x237 + 1 x238 + 1 x239 + 1 x240 + 1 x241 + 1 x242 + 1 x243 + 1 x244 + 1 x245 + 1 x246 + 1 x247 + 1 x248 + 1 x249 + 1 x250 + 1 x251 + 1 x252 + 1 x253 + 1 x254 + 1 x255 + 1 x256 + 1 x257 + 1 x258 + 1 x259 + 1 x260 + 1 x261 + 1 x262 + 1 x263 + 1 x264 + 1 x265 + 1 x266 + 1 x267 + 1 x268 + 1 x269 + 1 x270 + 1 x271 + 1 x272 + 1 x273 + 1 x274 + 1 x275 + 1 x276 + 1 x277 + 1 x278 + 1 x279 + 1 x280 + 1 x281 + 1 x282 + 1 x283 + 1 x284 + 1 x285 + 1 x286 + 1 x287 + 1 x288 + 1 x289 + 1 x290 + 1 x291 + 1 x292 + 1 x293 + 1 x294 + 1 x295 + 1 x296 + 1 x297 + 1 x298 + 1 x299 + 1 x300 + 1 x301 + 1 x302 + 1 x303 + 1 x304 + 1 x305 + 1 x306 + 1 x307 + 1 x308 + 1 x309 + 1 x310 + 1 x311 + 1 x312 + 1 x313 + 1 x314 + 1 x315 + 1 x316 + 1 x317 + 1 x318 + 1 x319 + 1 x320 + 1 x321 + 1 x322 + 1 x323 + 1 x324 + 1 x325 + 1 x326 + 1 x327 + 1 x328 + 1 x329 + 1 x330 + 1 x331 + 1 x332 + 1 x333 + 1 x334 + 1 x335 + 1 x336 + 1 x337 + 1 x338 + 1 x339 + 1 x340 + 1 x341 + 1 x342 + 1 x343 + 1 x344 + 1 x345 + 1 x346 + 1 x347 + 1 x348 + 1 x349 + 1 x350 + 1 x351 + 1 x352 + 1 x353 + 1 x354 + 1 x355 + 1 x356 + 1 x357 + 1 x358 + 1 x359 + 1 x360 + 1 x361 + 1 x362 + 1 x363 + 1 x364 + 1 x365 + 1 x366 + 1 x367 + 1 x368 + 1 x369 + 1 x370 + 1 x371 + 1 x372 + 1 x373 + 1 x374 + 1 x375 + 1 x376 + 1 x377 + 1 x378 + 1 x379 + 1 x380 + 1 x381 + 1 x382 + 1 x383 + 1 x384 + 1 x385 + 1 x386 + 1 x387 + 1 x388 + 1 x389 + 1 x390 + 1 x391 + 1 x392 + 1 x393 + 1 x394 + 1 x395 + 1 x396 + 1 x397 + 1 x398 + 1 x399 + 1 x400 + 1 x401 + 1 x402 + 1 x403 + 1 x404 + 1 x405 + 1 x406 + 1 x407 + 1 x408 + 1 x409 + 1 x410 + 1 x411 + 1 x412 + 1 x413 + 1 x414 + 1 x415 + 1 x416 + 1 x417 + 1 x418 + 1 x419 + 1 x420 + 1 x421 + 1 x422 + 1 x423 + 1 x424 + 1 x425 + 1 x426 + 1 x427 + 1 x428 + 1 x429 + 1 x430 + 1 x431 + 1 x432 + 1 x433 + 1 x434 + 1 x435 + 1 x436 + 1 x437 + 1 x438 + 1 x439 + 1 x440 + 1 x441 + 1 x442 + 1 x443 + 1 x444 + 1 x445 + 1 x446 + 1 x447 + 1 x448 + 1 x449 + 1 x450 + 1 x451 + 1 x452 + 1 x453 + 1 x454 + 1 x455 + 1 x456 + 1 x457 + 1 x458 + 1 x459 + 1 x460 + 1 x461 + 1 x462 + 1 x463 + 1 x464 + 1 x465 + 1 x466 + 1 x467 + 1 x468 + 1 x469 + 1 x470 + 1 x471 + 1 x472 + 1 x473 + 1 x474 + 1 x475 + 1 x476 + 1 x477 + 1 x478 + 1 x479 + 1 x480 + 1 x481 + 1 x482 + 1 x483 + 1 x484 + 1 x485 + 1 x486 + 1 x487 + 1 x488 + 1 x489 + 1 x490 + 1 x491 + 1 x492 + 1 x493 + 1 x494 + 1 x495 + 1 x496 + 1 x497 + 1 x498 + 1 x499 + 1 x500

subject to
C1: + x5 + x136 <= 1
C2: + x157 + x158 <= 1
C3: + x112 + x228 <= 1
C4: + x5 + x37 <= 1
C5: + x24 + x265 <= 1
C6: + x189 + x247 <= 1
C7: + x1 + x77 <= 1
C8: + x237 + x409 <= 1
C9: + x41 + x180 <= 1
C10: + x22 + x299 <= 1
C11: + x5 + x279 <= 1
C12: + x17 + x48 <= 1
C13: + x24 + x27 <= 1
C14: + x351 + x401 <= 1
C15: + x2 + x414 <= 1
C16: + x2 + x65 <= 1
C17: + x47 + x291 <= 1
C18: + x39 + x464 <= 1
C19: + x4 + x316 <= 1
C20: + x70 + x329 <= 1
C21: + x362 + x461 <= 1
C22: + x18 + x339 <= 1
C23: + x13 + x60 <= 1
C24: + x36 + x235 <= 1
C25: + x29 + x119 <= 1
C26: + x14 + x434 <= 1
C27: + x6 + x85 <= 1
C28: + x91 + x127 <= 1
C29: + x147 + x317 <= 1
C30: + x2 + x29 <= 1
C31: + x140 + x185 <= 1
C32: + x31 + x101 <= 1
C33: + x30 + x335 <= 1
C34: + x5 + x256 <= 1
C35: + x58 + x459 <= 1
C36: + x39 + x229 <= 1
C37: + x22 + x181 <= 1
C38: + x205 + x245 <= 1
C39: + x158 + x402 <= 1
C40: + x15 + x78 <= 1
C41: + x62 + x108 <= 1
C42: + x173 + x179 <= 1
C43: + x275 + x391 <= 1
C44: + x78 + x382 <= 1
C45: + x5 + x36 <= 1
C46: + x98 + x221 <= 1
C47: + x44 + x121 <= 1
C48: + x188 + x351 <= 1
C49: + x16 + x84 <= 1
C50: + x11 + x311 <= 1
C51: + x332 + x494 <= 1
C52: + x2 + x407 <= 1
C53: + x39 + x455 <= 1
C54: + x106 + x355 <= 1
C55: + x24 + x375 <= 1
C56: + x16 + x278 <= 1
C57: + x9 + x182 <= 1
C58: + x28 + x116 <= 1
C59: + x359 + x460 <= 1
C60: + x238 + x433 <= 1
C61: + x13 + x51 <= 1
C62: + x116 + x195 <= 1
C63: + x260 + x275 <= 1
C64: + x289 + x390 <= 1
C65: + x5 + x429 <= 1
C66: + x11 + x105 <= 1
C67: + x94 + x221 <= 1
C68: + x4 + x12 <= 1
C69: + x243 + x443 <= 1
C70: + x24 + x85 <= 1
C71: + x33 + x69 <= 1
C72: + x161 + x394 <= 1
C73: + x98 + x395 <= 1
C74: + x20 + x319 <= 1
C75: + x140 + x366 <= 1
C76: + x13 + x246 <= 1
C77: + x43 + x297 <= 1
C78: + x24 + x198 <= 1
C79: + x8 + x16 <= 1
C80: + x11 + x306 <= 1
C81: + x37 + x244 <= 1
C82: + x115 + x153 <= 1
C83: + x414 + x416 <= 1
C84: + x54 + x169 <= 1
C85: + x423 + x472 <= 1
C86: + x108 + x124 <= 1
C87: + x219 + x456 <= 1
C88: + x20 + x267 <= 1
C89: + x21 + x133 <= 1
C90: + x124 + x189 <= 1
C91: + x44 + x46 <= 1
C92: + x189 + x217 <= 1
C93: + x27 + x240 <= 1
C94: + x10 + x366 <= 1
C95: + x203 + x255 <= 1
C96: + x5 + x329 <= 1
C97: + x15 + x20 <= 1
C98: + x54 + x125 <= 1
C99: + x164 + x267 <= 1
C100: + x23 + x84 <= 1
C101: + x1 + x6 <= 1
C102: + x20 + x215 <= 1
C103: + x12 + x150 <= 1
C104: + x17 + x89 <= 1
C105: + x9 + x70 <= 1
C106: + x134 + x291 <= 1
C107: + x20 + x54 <= 1
C108: + x56 + x154 <= 1
C109: + x196 + x419 <= 1
C110: + x97 + x284 <= 1
C111: + x329 + x440 <= 1
C112: + x156 + x249 <= 1
C113: + x118 + x228 <= 1
C114: + x16 + x162 <= 1
C115: + x158 + x440 <= 1
C116: + x17 + x21 <= 1
C117: + x244 + x334 <= 1
C118: + x165 + x202 <= 1
C119: + x45 + x173 <= 1
C120: + x57 + x123 <= 1
C121: + x67 + x322 <= 1
C122: + x6 + x80 <= 1
C123: + x134 + x155 <= 1
C124: + x10 + x498 <= 1
C125: + x15 + x27 <= 1
C126: + x5 + x213 <= 1
C127: + x278 + x296 <= 1
C128: + x7 + x241 <= 1
C129: + x25 + x385 <= 1
C130: + x115 + x215 <= 1
C131: + x394 + x439 <= 1
C132: + x39 + x320 <= 1
C133: + x10 + x446 <= 1
C134: + x10 + x113 <= 1
C135: + x94 + x227 <= 1
C136: + x87 + x103 <= 1
C137: + x17 + x239 <= 1
C138: + x195 + x242 <= 1
C139: + x205 + x214 <= 1
C140: + x61 + x179 <= 1
C141: + x96 + x332 <= 1
C142: + x6 + x389 <= 1
C143: + x230 + x273 <= 1
C144: + x239 + x255 <= 1
C145: + x78 + x250 <= 1
C146: + x51 + x121 <= 1
C147: + x79 + x179 <= 1
C148: + x62 + x75 <= 1
C149: + x118 + x158 <= 1
C150: + x281 + x475 <= 1
C151: + x193 + x333 <= 1
C152: + x229 + x433 <= 1
C153: + x54 + x393 <= 1
C154: + x368 + x391 <= 1
C155: + x5 + x77 <= 1
C156: + x260 + x266 <= 1
C157: + x5 + x319 <= 1
C158: + x393 + x463 <= 1
C159: + x31 + x65 <= 1
C160: + x197 + x404 <= 1
C161: + x99 + x147 <= 1
C162: + x181 + x374 <= 1
C163: + x1 + x20 <= 1
C164: + x54 + x349 <= 1
C165: + x11 + x231 <= 1
C166: + x77 + x263 <= 1
C167: + x12 + x132 <= 1
C168: + x5 + x113 <= 1
C169: + x43 + x208 <= 1
C170: + x23 + x372 <= 1
C171: + x107 + x272 <= 1
C172: + x63 + x139 <= 1
C173: + x255 + x459 <= 1
C174: + x4 + x337 <= 1
C175: + x243 + x265 <= 1
C176: + x134 + x184 <= 1
C177: + x63 + x104 <= 1
C178: + x156 + x247 <= 1
C179: + x94 + x252 <= 1
C180: + x5 + x8 <= 1
C181: + x171 + x223 <= 1
C182: + x185 + x242 <= 1
C183: + x12 + x128 <= 1
C184: + x4 + x43 <= 1
C185: + x51 + x143 <= 1
C186: + x84 + x281 <= 1
C187: + x51 + x116 <= 1
C188: + x6 + x33 <= 1
C189: + x45 + x63 + x223 <= 1
C190: + x169 + x251 <= 1
C191: + x5 + x76 <= 1
C192: + x5 + x385 <= 1
C193: + x53 + x78 <= 1
C194: + x189 + x230 <= 1
C195: + x54 + x309 <= 1
C196: + x10 + x129 <= 1
C197: + x31 + x303 <= 1
C198: + x124 + x342 <= 1
C199: + x6 + x434 <= 1
C200: + x15 + x485 <= 1
C201: + x36 + x363 <= 1
C202: + x106 + x496 <= 1
C203: + x136 + x360 <= 1
C204: + x47 + x270 <= 1
C205: + x37 + x50 <= 1
C206: + x106 + x139 <= 1
C207: + x130 + x165 <= 1
C208: + x17 + x348 <= 1
C209: + x114 + x288 <= 1
C210: + x11 + x226 <= 1
C211: + x46 + x265 <= 1
C212: + x4 + x104 <= 1
C213: + x263 + x294 <= 1
C214: + x10 + x333 <= 1
C215: + x241 + x466 <= 1
C216: + x38 + x426 <= 1
C217: + x6 + x102 <= 1
C218: + x46 + x410 <= 1
C219: + x257 + x308 <= 1
C220: + x5 + x15 <= 1
C221: + x17 + x280 <= 1
C222: + x76 + x482 <= 1
C223: + x4 + x20 <= 1
C224: + x1 + x452 <= 1
C225: + x11 + x439 <= 1
C226: + x29 + x58 <= 1
C227: + x33 + x61 <= 1
C228: + x371 + x376 <= 1
C229: + x10 + x412 <= 1
C230: + x22 + x23 <= 1
C231: + x133 + x435 <= 1
C232: + x9 + x54 <= 1
C233: + x48 + x253 <= 1
C234: + x4 + x403 <= 1
C235: + x1 + x288 <= 1
C236: + x264 + x428 <= 1
C237: + x153 + x203 <= 1
C238: + x44 + x468 <= 1
C239: + x5 + x103 <= 1
C240: + x14 + x142 <= 1
C241: + x269 + x335 <= 1
C242: + x17 + x69 <= 1
C243: + x18 + x75 <= 1
C244: + x72 + x156 <= 1
C245: + x6 + x111 <= 1
C246: + x2 + x7 <= 1
C247: + x22 + x76 <= 1
C248: + x36 + x114 <= 1
C249: + x72 + x297 <= 1
C250: + x49 + x104 <= 1
C251: + x58 + x445 <= 1
C252: + x13 + x118 <= 1
C253: + x51 + x129 <= 1
C254: + x21 + x49 <= 1
C255: + x5 + x488 <= 1
C256: + x37 + x116 <= 1
C257: + x64 + x243 <= 1
C258: + x6 + x19 <= 1
C259: + x79 + x136 <= 1
C260: + x7 + x161 <= 1
C261: + x28 + x46 <= 1
C262: + x173 + x185 <= 1
C263: + x44 + x285 <= 1
C264: + x28 + x487 <= 1
C265: + x220 + x465 <= 1
C266: + x22 + x32 <= 1
C267: + x79 + x406 <= 1
C268: + x44 + x58 + x157 <= 1
C269: + x8 + x29 <= 1
C270: + x65 + x394 <= 1
C271: + x12 + x90 <= 1
C272: + x39 + x368 <= 1
C273: + x33 + x163 <= 1
C274: + x168 + x259 <= 1
C275: + x214 + x238 <= 1
C276: + x51 + x245 <= 1
C277: + x224 + x266 <= 1
C278: + x288 + x389 <= 1
C279: + x6 + x199 <= 1
C280: + x189 + x318 <= 1
C281: + x165 + x210 <= 1
C282: + x38 + x174 <= 1
C283: + x239 + x441 <= 1
C284: + x4 + x86 <= 1
C285: + x5 + x110 <= 1
C286: + x478 + x482 <= 1
C287: + x17 + x188 <= 1
C288: + x5 + x352 <= 1
C289: + x54 + x110 <= 1
C290: + x19 + x66 <= 1
C291: + x10 + x109 <= 1
C292: + x24 + x305 <= 1
C293: + x229 + x454 <= 1
C294: + x222 + x341 <= 1
C295: + x125 + x151 <= 1
C296: + x17 + x120 <= 1
C297: + x5 + x495 <= 1
C298: + x219 + x224 <= 1
C299: + x164 + x489 <= 1
C300: + x389 + x497 <= 1
C301: + x63 + x236 <= 1
C302: + x28 + x337 <= 1
C303: + x4 + x5 + x6 + x7 <= 1
C304: + x271 + x388 <= 1
C305: + x46 + x448 <= 1
C306: + x107 + x227 <= 1
C307: + x48 + x131 <= 1
C308: + x213 + x249 <= 1
C309: + x22 + x311 <= 1
C310: + x168 + x316 <= 1
C311: + x6 + x429 <= 1
C312: + x172 + x490 <= 1
C313: + x11 + x58 <= 1
C314: + x30 + x311 <= 1
C315: + x25 + x484 <= 1
C316: + x17 + x321 <= 1
C317: + x173 + x236 <= 1
C318: + x4 + x91 <= 1
C319: + x80 + x347 <= 1
C320: + x36 + x239 <= 1
C321: + x204 + x274 <= 1
C322: + x4 + x333 <= 1
C323: + x151 + x174 <= 1
C324: + x18 + x488 <= 1
C325: + x146 + x171 <= 1
C326: + x2 + x17 <= 1
C327: + x13 + x135 <= 1
C328: + x63 + x306 <= 1
C329: + x1 + x12 <= 1
C330: + x144 + x455 <= 1
C331: + x149 + x327 <= 1
C332: + x248 + x417 <= 1
C333: + x2 + x479 <= 1
C334: + x150 + x250 <= 1
C335: + x119 + x121 <= 1
C336: + x26 + x167 <= 1
C337: + x245 + x479 <= 1
C338: + x210 + x277 <= 1
C339: + x16 + x499 <= 1
C340: + x11 + x408 <= 1
C341: + x182 + x300 <= 1
C342: + x2 + x491 <= 1
C343: + x112 + x358 <= 1
C344: + x31 + x424 <= 1
C345: + x279 + x438 <= 1
C346: + x10 + x14 <= 1
C347: + x4 + x68 <= 1
C348: + x5 + x84 <= 1
C349: + x178 + x234 <= 1
C350: + x79 + x436 <= 1
C351: + x8 + x455 <= 1
C352: + x121 + x177 <= 1
C353: + x58 + x359 <= 1
C354: + x256 + x345 <= 1
C355: + x77 + x177 <= 1
C356: + x32 + x100 <= 1
C357: + x63 + x313 <= 1
C358: + x15 + x31 + x205 <= 1
C359: + x207 + x256 <= 1
C360: + x9 + x67 <= 1
C361: + x120 + x402 <= 1
C362: + x20 + x49 <= 1
C363: + x5 + x370 <= 1
C364: + x6 + x14 <= 1
C365: + x45 + x404 <= 1
C366: + x405 + x450 <= 1
C367: + x32 + x497 <= 1
C368: + x88 + x248 <= 1
C369: + x91 + x138 <= 1
C370: + x219 + x448 <= 1
C371: + x2 + x38 <= 1
C372: + x148 + x195 <= 1
C373: + x201 + x295 <= 1
C374: + x30 + x59 <= 1
C375: + x34 + x64 <= 1
C376: + x53 + x206 <= 1
C377: + x7 + x37 <= 1
C378: + x10 + x257 <= 1
C379: + x136 + x246 <= 1
C380: + x37 + x93 <= 1
C381: + x5 + x166 <= 1
C382: + x163 + x255 <= 1
C383: + x10 + x55 <= 1
C384: + x220 + x500 <= 1
C385: + x9 + x30 <= 1
C386: + x10 + x146 <= 1
C387: + x50 + x315 <= 1
C388: + x4 + x443 <= 1
C389: + x255 + x334 <= 1
C390: + x103 + x165 <= 1
C391: + x43 + x492 <= 1
C392: + x9 + x237 <= 1
C393: + x91 + x347 <= 1
C394: + x13 + x423 <= 1
C395: + x125 + x164 <= 1
C396: + x23 + x358 <= 1
C397: + x18 + x99 <= 1
C398: + x61 + x193 <= 1
C399: + x160 + x181 <= 1
C400: + x101 + x384 <= 1
C401: + x2 + x63 <= 1
C402: + x223 + x455 <= 1
C403: + x5 + x30 <= 1
C404: + x24 + x276 <= 1
C405: + x153 + x372 <= 1
C406: + x2 + x346 <= 1
C407: + x3 + x330 <= 1
C408: + x41 + x173 <= 1
C409: + x51 + x336 <= 1
C410: + x178 + x350 <= 1
C411: + x24 + x62 <= 1
C412: + x316 + x442 <= 1
C413: + x83 + x101 <= 1
C414: + x37 + x92 <= 1
C415: + x85 + x385 <= 1
C416: + x12 + x376 <= 1
C417: + x130 + x304 <= 1
C418: + x60 + x171 <= 1
C419: + x5 + x173 <= 1
C420: + x6 + x59 <= 1
C421: + x237 + x273 <= 1
C422: + x225 + x329 <= 1
C423: + x32 + x193 <= 1
C424: + x98 + x354 <= 1
C425: + x125 + x314 <= 1
C426: + x18 + x48 <= 1
C427: + x36 + x134 <= 1
C428: + x19 + x184 <= 1
C429: + x49 + x172 <= 1
C430: + x256 + x492 <= 1
C431: + x124 + x348 <= 1
C432: + x16 + x405 <= 1
C433: + x180 + x478 <= 1
C434: + x261 + x393 <= 1
C435: + x65 + x207 <= 1
C436: + x76 + x221 <= 1
C437: + x156 + x186 <= 1
C438: + x97 + x168 <= 1
C439: + x5 + x209 <= 1
C440: + x440 + x451 <= 1
C441: + x353 + x493 <= 1
C442: + x20 + x228 <= 1
C443: + x11 + x349 <= 1
C444: + x131 + x200 <= 1
C445: + x204 + x369 <= 1
C446: + x9 + x302 <= 1
C447: + x100 + x365 <= 1
C448: + x300 + x351 <= 1
C449: + x255 + x289 <= 1
C450: + x70 + x392 <= 1
C451: + x180 + x261 <= 1
C452: + x21 + x40 <= 1
C453: + x53 + x212 <= 1
C454: + x7 + x23 <= 1
C455: + x16 + x458 <= 1
C456: + x221 + x232 <= 1
C457: + x50 + x111 <= 1
C458: + x424 + x458 <= 1
C459: + x27 + x89 <= 1
C460: + x1 + x220 <= 1
C461: + x9 + x12 <= 1
C462: + x36 + x139 <= 1
C463: + x11 + x276 <= 1
C464: + x49 + x163 <= 1
C465: + x19 + x175 <= 1
C466: + x267 + x307 <= 1
C467: + x214 + x223 <= 1
C468: + x52 + x240 <= 1
C469: + x90 + x417 <= 1
C470: + x95 + x478 <= 1
C471: + x243 + x337 <= 1
C472: + x147 + x285 <= 1
C473: + x156 + x191 <= 1
C474: + x106 + x134 <= 1
C475: + x5 + x224 <= 1
C476: + x11 + x227 <= 1
C477: + x166 + x319 <= 1
C478: + x61 + x453 <= 1
C479: + x61 + x114 <= 1
C480: + x298 + x322 <= 1
C481: + x195 + x287 <= 1
C482: + x4 + x244 <= 1
C483: + x24 + x290 <= 1
C484: + x7 + x365 <= 1
C485: + x120 + x238 <= 1
C486: + x29 + x154 <= 1
C487: + x39 + x241 <= 1
C488: + x4 + x47 <= 1
C489: + x304 + x475 <= 1
C490: + x7 + x10 <= 1
C491: + x10 + x316 <= 1
C492: + x36 + x291 <= 1
C493: + x37 + x74 <= 1
C494: + x51 + x112 <= 1
C495: + x89 + x135 <= 1
C496: + x4 + x257 <= 1
C497: + x36 + x386 <= 1
C498: + x133 + x275 <= 1
C499: + x92 + x148 <= 1
C500: + x23 + x45 <= 1
C501: + x10 + x42 <= 1
C502: + x39 + x68 <= 1
C503: + x31 + x61 <= 1
C504: + x268 + x408 <= 1
C505: + x18 + x26 <= 1
C506: + x8 + x43 <= 1
C507: + x30 + x90 <= 1
C508: + x104 + x446 <= 1
C509: + x90 + x426 <= 1
C510: + x2 + x118 <= 1
C511: + x39 + x467 <= 1
C512: + x18 + x171 <= 1
C513: + x10 + x22 <= 1
C514: + x178 + x194 <= 1
C515: + x32 + x306 <= 1
C516: + x125 + x201 <= 1
C517: + x188 + x206 <= 1
C518: + x45 + x211 <= 1
C519: + x2 + x308 <= 1
C520: + x328 + x486 <= 1
C521: + x49 + x150 <= 1
C522: + x123 + x133 <= 1
C523: + x40 + x434 <= 1
C524: + x115 + x499 <= 1
C525: + x48 + x371 <= 1
C526: + x52 + x129 <= 1
C527: + x16 + x431 <= 1
C528: + x273 + x462 <= 1
C529: + x5 + x11 <= 1
C530: + x99 + x254 <= 1
C531: + x6 + x133 <= 1
C532: + x45 + x98 <= 1
C533: + x4 + x249 <= 1
C534: + x11 + x210 <= 1
C535: + x103 + x359 <= 1
C536: + x4 + x24 <= 1
C537: + x98 + x284 <= 1
C538: + x327 + x406 <= 1
C539: + x1 + x456 <= 1
C540: + x320 + x397 <= 1
C541: + x221 + x246 <= 1
C542: + x130 + x307 <= 1
C543: + x51 + x103 <= 1
C544: + x2 + x464 <= 1
C545: + x113 + x471 <= 1
C546: + x353 + x422 <= 1
C547: + x200 + x498 <= 1
C548: + x28 + x41 <= 1
C549: + x10 + x83 <= 1
C550: + x128 + x204 <= 1
C551: + x30 + x83 <= 1
C552: + x204 + x229 <= 1
C553: + x32 + x426 <= 1
C554: + x17 + x42 <= 1
C555: + x16 + x484 <= 1
C556: + x173 + x264 <= 1
C557: + x155 + x350 <= 1
C558: + x147 + x220 <= 1
C559: + x72 + x497 <= 1
C560: + x51 + x320 <= 1
C561: + x380 + x480 <= 1
C562: + x243 + x470 <= 1
C563: + x202 + x205 <= 1
C564: + x49 + x141 <= 1
C565: + x12 + x17 <= 1
C566: + x12 + x424 <= 1
C567: + x150 + x304 <= 1
C568: + x98 + x420 <= 1
C569: + x300 + x326 <= 1
C570: + x22 + x88 <= 1
C571: + x15 + x217 <= 1
C572: + x63 + x268 <= 1
C573: + x2 + x166 <= 1
C574: + x121 + x271 <= 1
C575: + x377 + x452 <= 1
C576: + x259 + x269 <= 1
C577: + x26 + x48 <= 1
C578: + x12 + x22 + x36 <= 1
C579: + x157 + x397 <= 1
C580: + x115 + x418 <= 1
C581: + x6 + x31 <= 1
C582: + x177 + x192 <= 1
C583: + x73 + x481 <= 1
C584: + x19 + x156 <= 1
C585: + x115 + x305 <= 1
C586: + x243 + x382 <= 1
C587: + x7 + x56 <= 1
C588: + x63 + x209 <= 1
C589: + x27 + x364 <= 1
C590: + x2 + x72 <= 1
C591: + x50 + x78 <= 1
C592: + x30 + x314 <= 1
C593: + x44 + x461 <= 1
C594: + x7 + x209 <= 1
C595: + x50 + x425 <= 1
C596: + x5 + x106 <= 1
C597: + x53 + x100 <= 1
C598: + x17 + x192 <= 1
C599: + x36 + x238 <= 1
C600: + x20 + x91 <= 1
C601: + x21 + x85 <= 1
C602: + x41 + x225 <= 1
C603: + x4 + x332 <= 1
C604: + x31 + x457 <= 1
C605: + x208 + x381 <= 1
C606: + x247 + x298 <= 1
C607: + x94 + x195 <= 1
C608: + x22 + x81 <= 1
C609: + x99 + x144 <= 1
C610: + x6 + x247 <= 1
C611: + x2 + x191 <= 1
C612: + x239 + x393 <= 1
C613: + x112 + x123 <= 1
C614: + x22 + x180 <= 1
C615: + x22 + x367 <= 1
C616: + x106 + x411 <= 1
C617: + x239 + x358 <= 1
C618: + x6 + x8 <= 1
C619: + x9 + x310 <= 1
C620: + x54 + x62 <= 1
C621: + x146 + x309 <= 1
C622: + x45 + x410 <= 1
C623: + x156 + x238 <= 1
C624: + x116 + x186 <= 1
C625: + x296 + x390 <= 1
C626: + x256 + x437 <= 1
C627: + x33 + x190 <= 1
C628: + x17 + x40 <= 1
C629: + x90 + x445 <= 1
C630: + x10 + x283 <= 1
C631: + x11 + x38 <= 1
C632: + x49 + x369 <= 1
C633: + x39 + x456 <= 1
C634: + x53 + x409 <= 1
C635: + x7 + x285 <= 1
C636: + x143 + x389 <= 1
C637: + x136 + x494 <= 1
C638: + x305 + x355 <= 1
C639: + x4 + x95 <= 1
C640: + x22 + x233 <= 1
C641: + x25 + x250 <= 1
C642: + x171 + x377 <= 1
C643: + x9 + x20 <= 1
C644: + x12 + x15 <= 1
C645: + x33 + x138 <= 1
C646: + x17 + x468 <= 1
C647: + x122 + x312 <= 1
C648: + x237 + x476 <= 1
C649: + x192 + x197 <= 1
C650: + x86 + x322 <= 1
C651: + x116 + x325 <= 1
C652: + x91 + x490 <= 1
C653: + x20 + x483 <= 1
C654: + x10 + x435 <= 1
C655: + x92 + x256 <= 1
C656: + x156 + x227 <= 1
C657: + x58 + x68 <= 1
C658: + x2 + x324 <= 1
C659: + x76 + x453 <= 1
C660: + x4 + x398 <= 1
C661: + x160 + x340 <= 1
C662: + x6 + x402 <= 1
C663: + x80 + x191 <= 1
C664: + x220 + x237 <= 1
C665: + x30 + x268 <= 1
C666: + x5 + x187 <= 1
C667: + x52 + x368 <= 1
C668: + x18 + x324 <= 1
C669: + x36 + x61 <= 1
C670: + x174 + x233 <= 1
C671: + x108 + x365 <= 1
C672: + x44 + x45 <= 1
C673: + x182 + x345 <= 1
C674: + x321 + x442 <= 1
C675: + x31 + x88 <= 1
C676: + x116 + x124 <= 1
C677: + x353 + x467 <= 1
C678: + x146 + x406 <= 1
C679: + x2 + x137 <= 1
C680: + x259 + x282 <= 1
C681: + x10 + x345 <= 1
C682: + x3 + x5 <= 1
C683: + x22 + x468 <= 1
C684: + x5 + x19 <= 1
C685: + x73 + x278 <= 1
C686: + x58 + x424 <= 1
C687: + x106 + x126 <= 1
C688: + x4 + x64 <= 1
C689: + x295 + x405 <= 1
C690: + x73 + x115 <= 1
C691: + x81 + x342 <= 1
C692: + x7 + x25 <= 1
C693: + x76 + x240 <= 1
C694: + x77 + x248 <= 1
C695: + x132 + x146 <= 1
C696: + x177 + x308 <= 1
C697: + x9 + x368 <= 1
C698: + x10 + x59 <= 1
C699: + x173 + x214 <= 1
C700: + x141 + x418 <= 1
C701: + x4 + x77 <= 1
C702: + x43 + x146 <= 1
C703: + x82 + x491 <= 1
C704: + x222 + x267 <= 1
C705: + x30 + x438 <= 1
C706: + x31 + x318 <= 1
C707: + x15 + x28 <= 1
C708: + x36 + x384 <= 1
C709: + x130 + x170 <= 1
C710: + x113 + x411 <= 1
C711: + x214 + x428 <= 1
C712: + x34 + x249 <= 1
C713: + x325 + x477 <= 1
C714: + x145 + x422 <= 1
C715: + x11 + x338 <= 1
C716: + x202 + x213 <= 1
C717: + x49 + x298 <= 1
C718: + x148 + x446 <= 1
C719: + x3 + x32 <= 1
C720: + x6 + x115 <= 1
C721: + x8 + x218 <= 1
C722: + x2 + x51 <= 1
C723: + x63 + x439 <= 1
C724: + x430 + x445 <= 1
C725: + x88 + x112 <= 1
C726: + x180 + x260 <= 1
C727: + x13 + x407 <= 1
C728: + x216 + x250 <= 1
C729: + x26 + x88 <= 1
C730: + x190 + x359 <= 1
C731: + x43 + x427 <= 1
C732: + x6 + x39 <= 1
C733: + x254 + x309 <= 1
C734: + x101 + x229 <= 1
C735: + x120 + x137 <= 1
C736: + x74 + x356 <= 1
C737: + x2 + x207 <= 1
C738: + x40 + x90 <= 1
C739: + x107 + x144 <= 1
C740: + x32 + x284 <= 1
C741: + x5 + x78 <= 1
C742: + x117 + x136 <= 1
C743: + x6 + x440 <= 1
C744: + x16 + x401 <= 1
C745: + x144 + x208 <= 1
C746: + x31 + x66 <= 1
C747: + x70 + x352 <= 1
C748: + x108 + x165 <= 1
C749: + x15 + x192 <= 1
C750: + x4 + x195 <= 1
C751: + x154 + x293 <= 1
C752: + x83 + x387 <= 1
C753: + x103 + x317 <= 1
C754: + x41 + x108 <= 1
C755: + x98 + x143 <= 1
C756: + x5 + x463 <= 1
C757: + x24 + x99 <= 1
C758: + x9 + x117 <= 1
C759: + x160 + x283 <= 1
C760: + x57 + x79 <= 1
C761: + x123 + x397 <= 1
C762: + x87 + x127 <= 1
C763: + x244 + x448 <= 1
C764: + x7 + x362 <= 1
C765: + x289 + x471 <= 1
C766: + x193 + x214 <= 1
C767: + x36 + x67 <= 1
C768: + x51 + x323 <= 1
C769: + x13 + x398 <= 1
C770: + x259 + x320 <= 1
C771: + x15 + x474 <= 1
C772: + x143 + x147 <= 1
C773: + x92 + x397 <= 1
C774: + x17 + x417 <= 1
C775: + x9 + x286 <= 1
C776: + x16 + x361 <= 1
C777: + x273 + x400 <= 1
C778: + x8 + x42 <= 1
C779: + x89 + x230 + x276 <= 1
C780: + x223 + x240 <= 1
C781: + x5 + x295 <= 1
C782: + x16 + x410 <= 1
C783: + x2 + x113 <= 1
C784: + x86 + x131 <= 1
C785: + x141 + x295 <= 1
C786: + x87 + x166 <= 1
C787: + x153 + x197 <= 1
C788: + x127 + x396 <= 1
C789: + x10 + x17 <= 1
C790: + x84 + x122 <= 1
C791: + x234 + x421 <= 1
C792: + x61 + x449 <= 1
C793: + x107 + x187 <= 1
C794: + x197 + x246 <= 1
C795: + x67 + x210 <= 1
C796: + x39 + x303 <= 1
C797: + x18 + x500 <= 1
C798: + x445 + x447 <= 1
C799: + x49 + x389 <= 1
C800: + x5 + x16 <= 1
C801: + x23 + x178 <= 1
C802: + x17 + x222 <= 1
C803: + x2 + x176 <= 1
C804: + x41 + x159 <= 1
C805: + x395 + x399 <= 1
C806: + x207 + x225 <= 1
C807: + x2 + x459 <= 1
C808: + x239 + x341 <= 1
C809: + x112 + x390 <= 1
C810: + x40 + x489 <= 1
C811: + x5 + x159 <= 1
C812: + x104 + x297 <= 1
C813: + x9 + x261 <= 1
C814: + x15 + x126 <= 1
C815: + x2 + x217 <= 1
C816: + x29 + x261 <= 1
C817: + x35 + x64 <= 1
C818: + x7 + x413 <= 1
C819: + x63 + x330 <= 1
C820: + x113 + x158 <= 1
C821: + x133 + x141 <= 1
C822: + x386 + x400 <= 1
C823: + x221 + x380 <= 1
C824: + x51 + x96 <= 1
C825: + x141 + x222 <= 1
C826: + x35 + x486 <= 1
C827: + x145 + x153 <= 1
C828: + x43 + x449 <= 1
C829: + x10 + x26 <= 1
C830: + x30 + x199 <= 1
C831: + x107 + x166 <= 1
C832: + x5 + x445 <= 1
C833: + x39 + x290 <= 1
C834: + x10 + x107 <= 1
C835: + x2 + x6 <= 1
C836: + x122 + x289 <= 1
C837: + x264 + x351 <= 1
C838: + x24 + x315 <= 1
C839: + x226 + x488 <= 1
C840: + x90 + x336 <= 1
C841: + x72 + x300 <= 1
C842: + x2 + x161 <= 1
C843: + x58 + x452 <= 1
C844: + x21 + x50 <= 1
C845: + x69 + x108 <= 1
C846: + x70 + x100 <= 1
C847: + x38 + x75 <= 1
C848: + x52 + x337 <= 1
C849: + x6 + x18 <= 1
C850: + x53 + x323 <= 1
C851: + x71 + x98 <= 1
C852: + x63 + x408 <= 1
C853: + x18 + x289 <= 1
C854: + x362 + x387 <= 1
C855: + x2 + x210 <= 1
C856: + x127 + x458 <= 1
C857: + x4 + x169 <= 1
C858: + x198 + x373 <= 1
C859: + x6 + x272 <= 1
C860: + x30 + x47 <= 1
C861: + x142 + x267 <= 1
C862: + x173 + x260 <= 1
C863: + x19 + x450 <= 1
C864: + x93 + x134 <= 1
C865: + x41 + x420 <= 1
C866: + x5 + x202 <= 1
C867: + x278 + x315 <= 1
C868: + x185 + x188 <= 1
C869: + x124 + x173 <= 1
C870: + x34 + x338 <= 1
C871: + x98 + x325 <= 1
C872: + x18 + x67 <= 1
C873: + x203 + x207 <= 1
C874: + x83 + x106 + x493 <= 1
C875: + x11 + x471 <= 1
C876: + x149 + x220 <= 1
C877: + x15 + x221 <= 1
C878: + x7 + x339 <= 1
C879: + x55 + x377 <= 1
C880: + x85 + x324 <= 1
C881: + x44 + x234 <= 1
C882: + x16 + x33 <= 1
C883: + x39 + x277 <= 1
C884: + x105 + x447 <= 1
C885: + x10 + x96 <= 1
C886: + x2 + x43 <= 1
C887: + x39 + x114 <= 1
C888: + x5 + x34 <= 1
C889: + x207 + x425 <= 1
C890: + x16 + x82 <= 1
C891: + x54 + x271 <= 1
C892: + x245 + x465 <= 1
C893: + x94 + x317 <= 1
C894: + x12 + x82 <= 1
C895: + x235 + x299 <= 1
C896: + x143 + x180 <= 1
C897: + x219 + x225 <= 1
C898: + x2 + x92 <= 1
C899: + x67 + x140 <= 1
C900: + x220 + x346 <= 1
C901: + x43 + x435 <= 1
C902: + x172 + x280 <= 1
C903: + x18 + x153 <= 1
C904: + x10 + x12 <= 1
C905: + x29 + x303 <= 1
C906: + x39 + x46 <= 1
C907: + x22 + x236 <= 1
C908: + x5 + x419 <= 1
C909: + x236 + x314 <= 1
C910: + x250 + x413 <= 1
C911: + x4 + x336 <= 1
C912: + x343 + x483 <= 1
C913: + x6 + x96 <= 1
C914: + x7 + x104 <= 1
C915: + x10 + x450 <= 1
C916: + x319 + x342 <= 1
C917: + x166 + x167 <= 1
C918: + x87 + x155 <= 1
C919: + x36 + x127 <= 1
C920: + x4 + x10 <= 1
C921: + x395 + x444 <= 1
C922: + x97 + x113 <= 1
C923: + x26 + x53 <= 1
C924: + x148 + x427 <= 1
C925: + x67 + x262 <= 1
C926: + x331 + x388 <= 1
C927: + x42 + x122 <= 1
C928: + x28 + x59 <= 1
C929: + x121 + x393 <= 1
C930: + x210 + x489 <= 1
C931: + x1 + x188 <= 1
C932: + x2 + x36 <= 1
C933: + x15 + x293 <= 1
C934: + x245 + x480 <= 1
C935: + x10 + x164 <= 1
C936: + x2 + x335 <= 1
C937: + x28 + x218 <= 1
C938: + x34 + x38 <= 1
C939: + x262 + x368 <= 1
C940: + x11 + x34 <= 1
C941: + x49 + x373 <= 1
C942: + x2 + x93 <= 1
C943: + x112 + x357 <= 1
C944: + x362 + x441 <= 1
C945: + x425 + x444 <= 1
C946: + x9 + x358 <= 1
C947: + x10 + x13 <= 1
C948: + x292 + x390 <= 1
C949: + x83 + x354 <= 1
C950: + x5 + x93 <= 1
C951: + x61 + x485 <= 1
C952: + x36 + x151 <= 1
C953: + x88 + x163 <= 1
C954: + x109 + x409 <= 1
C955: + x189 + x420 <= 1
C956: + x2 + x422 <= 1
C957: + x2 + x105 <= 1
C958: + x11 + x22 <= 1
C959: + x31 + x81 <= 1
C960: + x35 + x451 <= 1
C961: + x342 + x367 <= 1
C962: + x43 + x224 <= 1
C963: + x236 + x363 <= 1
C964: + x10 + x348 <= 1
C965: + x275 + x346 <= 1
C966: + x131 + x243 <= 1
C967: + x6 + x13 <= 1
C968: + x145 + x201 <= 1
C969: + x141 + x371 <= 1
C970: + x5 + x24 <= 1
C971: + x44 + x117 <= 1
C972: + x24 + x193 <= 1
C973: + x82 + x314 <= 1
C974: + x462 + x478 <= 1
C975: + x4 + x498 <= 1
C976: + x26 + x74 <= 1
C977: + x208 + x315 <= 1
C978: + x37 + x94 <= 1
C979: + x2 + x86 <= 1
C980: + x130 + x153 <= 1
C981: + x18 + x328 <= 1
C982: + x82 + x331 <= 1
C983: + x28 + x80 <= 1
C984: + x121 + x348 <= 1
C985: + x264 + x302 <= 1
C986: + x4 + x76 <= 1
C987: + x40 + x168 <= 1
C988: + x9 + x31 <= 1
C989: + x10 + x145 <= 1
C990: + x36 + x160 <= 1
C991: + x19 + x190 <= 1
C992: + x97 + x453 <= 1
C993: + x133 + x182 <= 1
C994: + x332 + x470 <= 1
C995: + x54 + x72 <= 1
C996: + x5 + x235 <= 1
C997: + x153 + x244 <= 1
C998: + x26 + x305 <= 1
C999: + x287 + x301 <= 1
C1000: + x109 + x130 <= 1
C1001: + x229 + x500 <= 1
C1002: + x18 + x199 <= 1
C1003: + x31 + x245 <= 1
C1004: + x161 + x313 <= 1
C1005: + x406 + x454 <= 1
C1006: + x9 + x296 <= 1
C1007: + x24 + x464 <= 1
C1008: + x129 + x383 <= 1
C1009: + x67 + x102 <= 1
C1010: + x12 + x282 <= 1
C1011: + x13 + x234 <= 1
C1012: + x52 + x460 <= 1
C1013: + x56 + x487 <= 1
C1014: + x9 + x218 <= 1
C1015: + x19 + x294 <= 1
C1016: + x47 + x313 <= 1
C1017: + x33 + x45 <= 1
C1018: + x43 + x432 <= 1
C1019: + x18 + x313 <= 1
C1020: + x1 + x198 <= 1
C1021: + x265 + x307 <= 1
C1022: + x76 + x79 <= 1
C1023: + x40 + x93 <= 1
C1024: + x5 + x416 <= 1
C1025: + x235 + x407 <= 1
C1026: + x10 + x154 <= 1
C1027: + x54 + x302 <= 1
C1028: + x33 + x156 <= 1
C1029: + x17 + x454 <= 1
C1030: + x36 + x356 <= 1
C1031: + x321 + x437 <= 1
C1032: + x86 + x253 <= 1
C1033: + x17 + x355 <= 1
C1034: + x145 + x184 <= 1
C1035: + x143 + x423 <= 1
C1036: + x10 + x235 <= 1
C1037: + x48 + x94 <= 1
C1038: + x5 + x119 <= 1
C1039: + x25 + x291 <= 1
C1040: + x244 + x270 <= 1
C1041: + x97 + x280 <= 1
C1042: + x145 + x199 <= 1
C1043: + x255 + x290 <= 1
C1044: + x1 + x129 <= 1
C1045: + x123 + x386 <= 1
C1046: + x304 + x378 <= 1
C1047: + x81 + x95 <= 1
C1048: + x99 + x278 <= 1
C1049: + x10 + x215 <= 1
C1050: + x51 + x145 <= 1
C1051: + x29 + x33 <= 1
C1052: + x166 + x476 <= 1
C1053: + x20 + x449 <= 1
C1054: + x150 + x232 <= 1
C1055: + x62 + x70 <= 1
C1056: + x36 + x47 <= 1
C1057: + x40 + x86 <= 1
C1058: + x5 + x74 <= 1
C1059: + x10 + x131 <= 1
C1060: + x204 + x234 <= 1
C1061: + x68 + x149 <= 1
C1062: + x59 + x375 <= 1
C1063: + x172 + x385 <= 1
C1064: + x9 + x490 <= 1
C1065: + x15 + x132 <= 1
C1066: + x7 + x237 <= 1
C1067: + x27 + x433 <= 1
C1068: + x427 + x481 <= 1
C1069: + x166 + x318 <= 1
C1070: + x380 + x449 <= 1
C1071: + x98 + x131 <= 1
C1072: + x15 + x402 <= 1
C1073: + x71 + x275 <= 1
C1074: + x63 + x144 <= 1
C1075: + x71 + x192 <= 1
C1076: + x63 + x105 <= 1
C1077: + x2 + x16 <= 1
C1078: + x22 + x69 <= 1
C1079: + x5 + x13 <= 1
C1080: + x108 + x213 <= 1
C1081: + x35 + x109 <= 1
C1082: + x4 + x243 <= 1
C1083: + x220 + x425 <= 1
C1084: + x38 + x226 <= 1
C1085: + x23 + x321 <= 1
C1086: + x172 + x462 <= 1
C1087: + x4 + x260 <= 1
C1088: + x15 + x127 <= 1
C1089: + x262 + x487 <= 1
C1090: + x5 + x49 <= 1
C1091: + x161 + x205 <= 1
C1092: + x24 + x164 <= 1
C1093: + x16 + x71 <= 1
C1094: + x377 + x387 <= 1
C1095: + x58 + x386 <= 1
C1096: + x214 + x231 <= 1
C1097: + x51 + x256 <= 1
C1098: + x17 + x52 <= 1
C1099: + x40 + x381 <= 1
C1100: + x4 + x401 <= 1
C1101: + x208 + x294 <= 1
C1102: + x61 + x384 <= 1
C1103: + x10 + x21 <= 1
C1104: + x157 + x350 <= 1
C1105: + x41 + x87 <= 1
C1106: + x4 + x107 <= 1
C1107: + x54 + x196 <= 1
C1108: + x256 + x461 <= 1
C1109: + x20 + x80 <= 1
C1110: + x222 + x301 <= 1
C1111: + x123 + x319 <= 1
C1112: + x4 + x349 <= 1
C1113: + x5 + x343 <= 1
C1114: + x315 + x357 <= 1
C1115: + x51 + x52 <= 1
C1116: + x1 + x159 <= 1
C1117: + x16 + x188 <= 1
C1118: + x1 + x60 <= 1
C1119: + x10 + x193 <= 1
C1120: + x6 + x498 <= 1
C1121: + x10 + x292 <= 1
C1122: + x23 + x37 <= 1
C1123: + x18 + x292 <= 1
C1124: + x36 + x394 <= 1
C1125: + x357 + x377 <= 1
C1126: + x5 + x64 <= 1
C1127: + x153 + x161 <= 1
C1128: + x2 + x384 <= 1
C1129: + x39 + x362 <= 1
C1130: + x90 + x434 <= 1
C1131: + x134 + x241 <= 1
C1132: + x66 + x270 <= 1
C1133: + x117 + x332 <= 1
C1134: + x10 + x30 <= 1
C1135: + x116 + x247 <= 1
C1136: + x34 + x136 <= 1
C1137: + x208 + x212 <= 1
C1138: + x37 + x181 <= 1
C1139: + x76 + x269 <= 1
C1140: + x114 + x485 <= 1
C1141: + x33 + x125 <= 1
C1142: + x406 + x474 <= 1
C1143: + x10 + x476 <= 1
C1144: + x10 + x111 <= 1
C1145: + x54 + x112 <= 1
C1146: + x1 + x150 <= 1
C1147: + x37 + x423 <= 1
C1148: + x14 + x26 <= 1
C1149: + x52 + x296 <= 1
C1150: + x360 + x412 <= 1
C1151: + x125 + x149 <= 1
C1152: + x17 + x118 <= 1
C1153: + x317 + x463 <= 1
C1154: + x73 + x403 <= 1
C1155: + x15 + x432 <= 1
C1156: + x20 + x33 <= 1
C1157: + x47 + x341 <= 1
C1158: + x340 + x459 <= 1
C1159: + x131 + x230 <= 1
C1160: + x97 + x265 <= 1
C1161: + x10 + x392 <= 1
C1162: + x83 + x312 <= 1
C1163: + x39 + x224 <= 1
C1164: + x214 + x233 <= 1
C1165: + x35 + x152 <= 1
C1166: + x73 + x95 <= 1
C1167: + x10 + x273 <= 1
C1168: + x158 + x185 <= 1
C1169: + x180 + x344 <= 1
C1170: + x111 + x137 <= 1
C1171: + x157 + x340 <= 1
C1172: + x2 + x226 <= 1
C1173: + x18 + x71 <= 1
C1174: + x127 + x176 <= 1
C1175: + x4 + x331 <= 1
C1176: + x187 + x446 <= 1
C1177: + x6 + x83 <= 1
C1178: + x354 + x367 <= 1
C1179: + x275 + x465 <= 1
C1180: + x106 + x172 <= 1
C1181: + x97 + x145 <= 1
C1182: + x36 + x126 <= 1
C1183: + x18 + x216 <= 1
C1184: + x22 + x179 <= 1
C1185: + x10 + x302 <= 1
C1186: + x46 + x77 <= 1
C1187: + x28 + x344 <= 1
C1188: + x221 + x306 <= 1
C1189: + x4 + x375 <= 1
C1190: + x23 + x55 <= 1
C1191: + x115 + x474 <= 1
C1192: + x96 + x109 <= 1
C1193: + x197 + x366 <= 1
C1194: + x44 + x123 <= 1
C1195: + x36 + x170 <= 1
C1196: + x12 + x86 <= 1
C1197: + x13 + x94 <= 1
C1198: + x231 + x279 <= 1
C1199: + x215 + x226 <= 1
C1200: + x26 + x68 <= 1
C1201: + x18 + x431 <= 1
C1202: + x39 + x453 <= 1
C1203: + x287 + x379 <= 1
C1204: + x237 + x289 <= 1
C1205: + x121 + x338 <= 1
C1206: + x46 + x367 <= 1
C1207: + x4 + x66 <= 1
C1208: + x161 + x174 <= 1
C1209: + x15 + x366 <= 1
C1210: + x153 + x304 <= 1
C1211: + x9 + x21 <= 1
C1212: + x250 + x417 <= 1
C1213: + x68 + x362 <= 1
C1214: + x10 + x454 <= 1
C1215: + x31 + x110 <= 1
C1216: + x5 + x225 <= 1
C1217: + x118 + x213 <= 1
C1218: + x11 + x204 <= 1
C1219: + x47 + x81 <= 1
C1220: + x85 + x428 <= 1
C1221: + x97 + x263 <= 1
C1222: + x2 + x40 <= 1
C1223: + x38 + x279 <= 1
C1224: + x56 + x493 <= 1
C1225: + x167 + x178 <= 1
C1226: + x26 + x170 <= 1
C1227: + x32 + x392 <= 1
C1228: + x16 + x39 + x73 <= 1
C1229: + x4 + x300 <= 1
C1230: + x31 + x425 <= 1
C1231: + x109 + x262 <= 1
C1232: + x57 + x409 <= 1
C1233: + x29 + x290 <= 1
C1234: + x4 + x71 <= 1
C1235: + x133 + x473 <= 1
C1236: + x98 + x363 <= 1
C1237: + x190 + x197 <= 1
C1238: + x256 + x481 <= 1
C1239: + x222 + x305 <= 1
C1240: + x78 + x87 <= 1
C1241: + x5 + x331 <= 1
C1242: + x138 + x258 <= 1
C1243: + x11 + x18 <= 1
C1244: + x20 + x382 <= 1
C1245: + x439 + x476 <= 1
C1246: + x34 + x465 <= 1
C1247: + x180 + x370 <= 1
C1248: + x45 + x71 <= 1
C1249: + x128 + x187 <= 1
C1250: + x8 + x83 <= 1
C1251: + x62 + x438 <= 1
C1252: + x70 + x91 <= 1
C1253: + x173 + x433 <= 1
C1254: + x4 + x357 <= 1
C1255: + x43 + x125 <= 1
C1256: + x6 + x9 <= 1
C1257: + x11 + x70 <= 1
C1258: + x91 + x353 <= 1
C1259: + x19 + x134 <= 1
C1260: + x121 + x241 <= 1
C1261: + x122 + x231 <= 1
C1262: + x11 + x295 <= 1
C1263: + x213 + x351 <= 1
C1264: + x147 + x372 <= 1
C1265: + x17 + x29 + x286 <= 1
C1266: + x95 + x159 <= 1
C1267: + x180 + x427 <= 1
C1268: + x172 + x378 <= 1
C1269: + x4 + x80 <= 1
C1270: + x32 + x286 <= 1
C1271: + x180 + x189 <= 1
C1272: + x236 + x300 <= 1
C1273: + x5 + x72 <= 1
C1274: + x190 + x222 <= 1
C1275: + x33 + x97 + x130 <= 1
C1276: + x88 + x184 <= 1
C1277: + x80 + x203 <= 1
C1278: + x11 + x25 <= 1
C1279: + x39 + x419 <= 1
C1280: + x87 + x169 <= 1
C1281: + x360 + x448 <= 1
C1282: + x76 + x442 <= 1
C1283: + x386 + x469 <= 1
C1284: + x10 + x321 <= 1
C1285: + x185 + x435 <= 1
C1286: + x30 + x457 <= 1
C1287: + x133 + x230 <= 1
C1288: + x181 + x288 <= 1
C1289: + x128 + x486 <= 1
C1290: + x10 + x420 <= 1
C1291: + x177 + x349 <= 1
C1292: + x5 + x27 <= 1
C1293: + x215 + x485 <= 1
C1294: + x180 + x259 <= 1
C1295: + x118 + x235 <= 1
C1296: + x302 + x404 <= 1
C1297: + x4 + x40 <= 1
C1298: + x223 + x357 <= 1
C1299: + x322 + x483 <= 1
C1300: + x38 + x490 <= 1
C1301: + x105 + x324 <= 1
C1302: + x4 + x282 <= 1
C1303: + x32 + x41 <= 1
C1304: + x10 + x35 <= 1
C1305: + x11 + x177 <= 1
C1306: + x2 + x206 <= 1
C1307: + x21 + x149 <= 1
C1308: + x5 + x79 <= 1
C1309: + x36 + x137 <= 1
C1310: + x2 + x361 <= 1
C1311: + x58 + x380 <= 1
C1312: + x12 + x53 <= 1
C1313: + x20 + x396 <= 1
C1314: + x4 + x198 <= 1
C1315: + x423 + x436 <= 1
C1316: + x1 + x22 <= 1
C1317: + x57 + x499 <= 1
C1318: + x3 + x266 <= 1
C1319: + x177 + x197 <= 1
C1320: + x40 + x141 <= 1
C1321: + x14 + x293 <= 1
C1322: + x6 + x456 <= 1
C1323: + x2 + x293 <= 1
C1324: + x185 + x442 <= 1
C1325: + x25 + x57 <= 1
C1326: + x36 + x340 <= 1
C1327: + x63 + x102 <= 1
C1328: + x10 + x128 <= 1
C1329: + x136 + x285 <= 1
C1330: + x11 + x297 <= 1
C1331: + x285 + x325 <= 1
C1332: + x39 + x243 <= 1
C1333: + x9 + x418 <= 1
C1334: + x52 + x326 <= 1
C1335: + x269 + x441 <= 1
C1336: + x154 + x174 <= 1
C1337: + x427 + x441 <= 1
C1338: + x10 + x44 <= 1
C1339: + x265 + x318 <= 1
C1340: + x255 + x274 <= 1
C1341: + x5 + x54 <= 1
C1342: + x334 + x373 <= 1
C1343: + x18 + x28 <= 1
C1344: + x16 + x70 <= 1
C1345: + x39 + x175 <= 1
C1346: + x30 + x391 <= 1
C1347: + x44 + x178 <= 1
C1348: + x121 + x477 <= 1
C1349: + x58 + x147 <= 1
C1350: + x132 + x331 <= 1
C1351: + x99 + x172 <= 1
C1352: + x16 + x320 <= 1
C1353: + x9 + x160 <= 1
C1354: + x10 + x24 <= 1
C1355: + x7 + x310 <= 1
C1356: + x239 + x429 <= 1
C1357: + x5 + x122 <= 1
C1358: + x18 + x88 <= 1
C1359: + x8 + x477 <= 1
C1360: + x36 + x254 <= 1
C1361: + x30 + x475 <= 1
C1362: + x33 + x99 <= 1
C1363: + x15 + x55 <= 1
C1364: + x65 + x151 <= 1
C1365: + x101 + x168 <= 1
C1366: + x5 + x9 <= 1
C1367: + x111 + x200 <= 1
C1368: + x274 + x383 <= 1
C1369: + x131 + x258 <= 1
C1370: + x214 + x356 <= 1
C1371: + x22 + x164 <= 1
C1372: + x4 + x264 <= 1
C1373: + x6 + x24 <= 1
C1374: + x111 + x183 <= 1
C1375: + x41 + x47 <= 1
C1376: + x39 + x69 <= 1
C1377: + x149 + x283 <= 1
C1378: + x7 + x414 <= 1
C1379: + x11 + x264 <= 1
C1380: + x94 + x298 <= 1
C1381: + x12 + x35 <= 1
C1382: + x31 + x280 <= 1
C1383: + x5 + x303 <= 1
C1384: + x150 + x350 <= 1
C1385: + x11 + x54 <= 1
C1386: + x106 + x370 <= 1
C1387: + x5 + x196 <= 1
C1388: + x154 + x310 <= 1
C1389: + x10 + x25 <= 1
C1390: + x21 + x239 <= 1
C1391: + x98 + x323 <= 1
C1392: + x168 + x405 <= 1
C1393: + x145 + x396 <= 1
C1394: + x63 + x187 <= 1
C1395: + x211 + x228 <= 1
C1396: + x47 + x209 <= 1
C1397: + x305 + x480 <= 1
C1398: + x37 + x138 <= 1
C1399: + x178 + x491 <= 1
C1400: + x15 + x58 <= 1
C1401: + x2 + x5 <= 1
C1402: + x97 + x135 <= 1
C1403: + x15 + x219 <= 1
C1404: + x35 + x439 <= 1
C1405: + x2 + x9 + x10 + x11 <= 1
C1406: + x28 + x191 <= 1
C1407: + x11 + x219 <= 1
C1408: + x93 + x97 <= 1
C1409: + x383 + x415 <= 1
C1410: + x196 + x274 <= 1
C1411: + x54 + x148 <= 1
C1412: + x173 + x457 <= 1
C1413: + x20 + x32 <= 1
C1414: + x24 + x427 <= 1
C1415: + x155 + x312 <= 1
C1416: + x211 + x262 <= 1
C1417: + x8 + x31 <= 1
C1418: + x137 + x500 <= 1
C1419: + x12 + x495 <= 1
C1420: + x169 + x477 <= 1
C1421: + x351 + x404 <= 1
C1422: + x215 + x236 <= 1
C1423: + x28 + x362 <= 1
C1424: + x29 + x436 <= 1
C1425: + x12 + x334 <= 1
C1426: + x106 + x379 <= 1
C1427: + x5 + x203 <= 1
C1428: + x18 + x340 <= 1
C1429: + x27 + x399 <= 1
C1430: + x117 + x162 <= 1
C1431: + x43 + x92 <= 1
C1432: + x202 + x486 <= 1
C1433: + x223 + x424 <= 1
C1434: + x61 + x327 <= 1
C1435: + x35 + x123 <= 1
C1436: + x218 + x395 <= 1
C1437: + x128 + x140 <= 1
C1438: + x38 + x160 <= 1
C1439: + x297 + x451 <= 1
C1440: + x316 + x473 <= 1
C1441: + x37 + x101 <= 1
C1442: + x38 + x115 <= 1
C1443: + x12 + x407 <= 1
C1444: + x189 + x328 <= 1
C1445: + x99 + x271 <= 1
C1446: + x7 + x400 <= 1
C1447: + x28 + x196 <= 1
C1448: + x78 + x109 <= 1
C1449: + x61 + x165 <= 1
C1450: + x52 + x202 <= 1
C1451: + x7 + x41 <= 1
C1452: + x1 + x496 <= 1
C1453: + x2 + x408 <= 1
C1454: + x50 + x65 <= 1
C1455: + x31 + x419 <= 1
C1456: + x7 + x214 <= 1
C1457: + x7 + x287 <= 1
C1458: + x220 + x488 <= 1
C1459: + x381 + x489 <= 1
C1460: + x5 + x87 <= 1
C1461: + x43 + x162 <= 1
C1462: + x206 + x382 <= 1
C1463: + x9 + x18 <= 1
C1464: + x32 + x216 <= 1
C1465: + x127 + x212 <= 1
C1466: + x38 + x56 <= 1
C1467: + x39 + x144 <= 1
C1468: + x12 + x468 <= 1
C1469: + x130 + x332 <= 1
C1470: + x169 + x272 <= 1
C1471: + x58 + x114 <= 1
C1472: + x269 + x462 <= 1
C1473: + x6 + x242 <= 1
C1474: + x35 + x118 <= 1
C1475: + x36 + x98 <= 1
C1476: + x143 + x467 <= 1
C1477: + x102 + x142 <= 1
C1478: + x5 + x472 <= 1
C1479: + x16 + x41 <= 1
C1480: + x329 + x339 <= 1
C1481: + x19 + x381 <= 1
C1482: + x62 + x102 <= 1
C1483: + x7 + x145 <= 1
C1484: + x260 + x365 <= 1
C1485: + x35 + x413 <= 1
C1486: + x8 + x13 <= 1
C1487: + x2 + x334 <= 1
C1488: + x113 + x132 <= 1
C1489: + x41 + x161 <= 1
C1490: + x44 + x158 <= 1
C1491: + x45 + x294 <= 1
C1492: + x84 + x259 <= 1
C1493: + x163 + x472 <= 1
C1494: + x150 + x204 <= 1
C1495: + x270 + x287 <= 1
C1496: + x7 + x274 <= 1
C1497: + x101 + x245 <= 1
C1498: + x2 + x255 <= 1
C1499: + x5 + x94 <= 1
C1500: + x9 + x25 <= 1
C1501: + x12 + x457 <= 1
C1502: + x112 + x469 <= 1
C1503: + x414 + x469 <= 1
C1504: + x7 + x96 <= 1
C1505: + x57 + x261 <= 1
C1506: + x11 + x19 <= 1
C1507: + x4 + x211 <= 1
C1508: + x116 + x122 <= 1
C1509: + x43 + x495 <= 1
C1510: + x73 + x296 <= 1
C1511: + x1 + x5 <= 1
C1512: + x46 + x287 <= 1
C1513: + x56 + x124 <= 1
C1514: + x26 + x61 <= 1
C1515: + x91 + x499 <= 1
C1516: + x19 + x376 <= 1
C1517: + x207 + x254 <= 1
C1518: + x20 + x51 <= 1
C1519: + x56 + x326 <= 1
C1520: + x134 + x292 <= 1
C1521: + x150 + x257 <= 1
C1522: + x217 + x232 <= 1
C1523: + x7 + x140 <= 1
C1524: + x15 + x95 <= 1
C1525: + x2 + x60 <= 1
C1526: + x123 + x125 <= 1
C1527: + x6 + x175 <= 1
C1528: + x244 + x432 <= 1
C1529: + x72 + x326 <= 1
C1530: + x46 + x211 <= 1
C1531: + x166 + x374 <= 1
C1532: + x39 + x206 <= 1
C1533: + x106 + x128 <= 1
C1534: + x115 + x352 <= 1
C1535: + x318 + x411 <= 1
C1536: + x2 + x482 <= 1
C1537: + x64 + x363 <= 1
C1538: + x97 + x343 <= 1
C1539: + x415 + x443 <= 1
C1540: + x7 + x200 <= 1
C1541: + x10 + x53 <= 1
C1542: + x11 + x139 <= 1
C1543: + x34 + x175 <= 1
C1544: + x17 + x163 <= 1
C1545: + x10 + x152 <= 1
C1546: + x43 + x53 <= 1
C1547: + x71 + x151 <= 1
C1548: + x7 + x87 <= 1
C1549: + x2 + x97 <= 1
C1550: + x194 + x492 <= 1
C1551: + x36 + x112 <= 1
C1552: + x149 + x343 <= 1
C1553: + x97 + x437 <= 1
C1554: + x4 + x361 <= 1
C1555: + x88 + x143 <= 1
C1556: + x18 + x260 <= 1
C1557: + x5 + x32 <= 1
C1558: + x54 + x281 <= 1
C1559: + x2 + x352 <= 1
C1560: + x128 + x330 <= 1
C1561: + x129 + x186 <= 1
C1562: + x21 + x309 <= 1
C1563: + x204 + x426 <= 1
C1564: + x81 + x248 <= 1
C1565: + x9 + x170 <= 1
C1566: + x10 + x62 <= 1
C1567: + x38 + x336 <= 1
C1568: + x149 + x266 <= 1
C1569: + x297 + x371 <= 1
C1570: + x159 + x479 <= 1
C1571: + x45 + x171 <= 1
C1572: + x74 + x473 <= 1
C1573: + x41 + x219 <= 1
C1574: + x258 + x373 <= 1
C1575: + x345 + x415 <= 1
C1576: + x147 + x237 <= 1
C1577: + x211 + x429 <= 1
C1578: + x172 + x298 <= 1
C1579: + x9 + x321 <= 1
C1580: + x141 + x403 <= 1
C1581: + x5 + x120 <= 1
C1582: + x10 + x325 <= 1
C1583: + x4 + x338 <= 1
C1584: + x154 + x157 <= 1
C1585: + x101 + x353 <= 1
C1586: + x30 + x360 <= 1
C1587: + x161 + x251 <= 1
C1588: + x17 + x229 <= 1
C1589: + x91 + x376 <= 1
C1590: + x128 + x148 <= 1
C1591: + x189 + x364 <= 1
C1592: + x4 + x44 <= 1
C1593: + x40 + x200 <= 1
C1594: + x61 + x73 <= 1
C1595: + x332 + x374 <= 1
C1596: + x6 + x34 <= 1
C1597: + x97 + x194 <= 1
C1598: + x116 + x275 <= 1
C1599: + x35 + x39 <= 1
C1600: + x9 + x14 <= 1
C1601: + x237 + x431 <= 1
C1602: + x87 + x347 <= 1
C1603: + x16 + x416 <= 1
C1604: + x11 + x16 <= 1
C1605: + x234 + x268 <= 1
C1606: + x118 + x369 <= 1
C1607: + x245 + x361 <= 1
C1608: + x155 + x168 <= 1
C1609: + x91 + x299 <= 1
C1610: + x30 + x208 <= 1
C1611: + x234 + x423 <= 1
C1612: + x5 + x460 <= 1
C1613: + x164 + x400 <= 1
C1614: + x318 + x466 <= 1
C1615: + x4 + x343 <= 1
C1616: + x168 + x322 <= 1
C1617: + x28 + x467 <= 1
C1618: + x11 + x116 <= 1
C1619: + x29 + x375 <= 1
C1620: + x5 + x14 <= 1
C1621: + x17 + x220 <= 1
C1622: + x93 + x111 <= 1
C1623: + x20 + x183 <= 1
C1624: + x4 + x17 <= 1
C1625: + x97 + x106 <= 1
C1626: + x43 + x254 <= 1
C1627: + x98 + x257 <= 1
C1628: + x350 + x378 <= 1
C1629: + x113 + x466 <= 1
C1630: + x22 + x437 <= 1
C1631: + x5 + x157 <= 1
C1632: + x188 + x482 <= 1
C1633: + x91 + x181 <= 1
C1634: + x41 + x44 <= 1
C1635: + x5 + x50 <= 1
C1636: + x6 + x281 <= 1
C1637: + x25 + x120 <= 1
C1638: + x6 + x444 <= 1
C1639: + x140 + x212 <= 1
C1640: + x22 + x121 <= 1
C1641: + x32 + x66 <= 1
C1642: + x19 + x55 <= 1
C1643: + x293 + x487 <= 1
C1644: + x95 + x342 <= 1
C1645: + x40 + x130 <= 1
C1646: + x98 + x155 <= 1
C1647: + x18 + x76 <= 1
C1648: + x29 + x100 <= 1
C1649: + x50 + x288 <= 1
C1650: + x33 + x103 <= 1
C1651: + x7 + x120 <= 1
C1652: + x10 + x466 <= 1
C1653: + x8 + x203 <= 1
C1654: + x2 + x8 <= 1
C1655: + x106 + x185 <= 1
C1656: + x360 + x414 <= 1
C1657: + x1 + x35 + x119 <= 1
C1658: + x24 + x232 <= 1
C1659: + x9 + x208 <= 1
C1660: + x23 + x345 <= 1
C1661: + x76 + x138 <= 1
C1662: + x186 + x263 <= 1
C1663: + x4 + x268 <= 1
C1664: + x5 + x156 <= 1
C1665: + x72 + x447 <= 1
C1666: + x276 + x484 <= 1
C1667: + x12 + x252 <= 1
C1668: + x37 + x194 <= 1
C1669: + x12 + x39 <= 1
C1670: + x222 + x273 <= 1
C1671: + x109 + x282 <= 1
C1672: + x10 + x29 <= 1
C1673: + x300 + x311 <= 1
C1674: + x89 + x430 <= 1
C1675: + x99 + x333 <= 1
C1676: + x16 + x19 <= 1
C1677: + x111 + x356 <= 1
C1678: + x239 + x277 <= 1
C1679: + x6 + x105 <= 1
C1680: + x15 + x62 <= 1
C1681: + x127 + x263 <= 1
C1682: + x74 + x155 <= 1
C1683: + x31 + x97 <= 1
C1684: + x159 + x182 <= 1
C1685: + x70 + x369 <= 1
C1686: + x24 + x253 <= 1
C1687: + x92 + x115 <= 1
C1688: + x10 + x201 <= 1
C1689: + x150 + x415 <= 1
C1690: + x5 + x494 <= 1
C1691: + x290 + x329 <= 1
C1692: + x39 + x279 <= 1
C1693: + x115 + x480 <= 1
C1694: + x71 + x91 <= 1
C1695: + x30 + x135 <= 1
C1696: + x22 + x26 <= 1
C1697: + x31 + x45 <= 1
C1698: + x26 + x364 <= 1
C1699: + x214 + x474 <= 1
C1700: + x9 + x35 <= 1
C1701: + x281 + x339 <= 1
C1702: + x51 + x239 <= 1
C1703: + x243 + x380 <= 1
C1704: + x23 + x432 <= 1
C1705: + x182 + x292 <= 1
C1706: + x5 + x183 <= 1
C1707: + x15 + x150 <= 1
C1708: + x73 + x189 <= 1
C1709: + x9 + x178 <= 1
C1710: + x109 + x222 <= 1
C1711: + x166 + x216 <= 1
C1712: + x4 + x92 <= 1
C1713: + x16 + x28 <= 1
C1714: + x63 + x162 <= 1
C1715: + x211 + x215 <= 1
C1716: + x6 + x82 <= 1
C1717: + x7 + x98 <= 1
C1718: + x2 + x18 <= 1
C1719: + x140 + x190 <= 1
C1720: + x4 + x8 <= 1
C1721: + x69 + x387 <= 1
C1722: + x306 + x444 <= 1
C1723: + x136 + x202 <= 1
C1724: + x187 + x399 <= 1
C1725: + x96 + x201 <= 1
C1726: + x304 + x353 <= 1
C1727: + x244 + x422 <= 1
C1728: + x9 + x42 <= 1
C1729: + x7 + x388 <= 1
C1730: + x326 + x399 <= 1
C1731: + x12 + x85 <= 1
C1732: + x4 + x52 <= 1
C1733: + x13 + x492 <= 1
C1734: + x19 + x37 + x301 <= 1
C1735: + x63 + x218 <= 1
C1736: + x46 + x128 <= 1
C1737: + x51 + x75 <= 1
C1738: + x5 + x190 <= 1
C1739: + x96 + x253 <= 1
C1740: + x372 + x416 <= 1
C1741: + x27 + x79 <= 1
C1742: + x10 + x15 <= 1
C1743: + x157 + x172 <= 1
C1744: + x167 + x410 <= 1
C1745: + x7 + x89 <= 1
C1746: + x2 + x107 <= 1
C1747: + x53 + x431 <= 1
C1748: + x24 + x328 <= 1
C1749: + x120 + x244 <= 1
C1750: + x285 + x421 <= 1
C1751: + x40 + x304 <= 1
C1752: + x99 + x403 <= 1
C1753: + x18 + x107 <= 1
C1754: + x135 + x189 <= 1
C1755: + x127 + x132 <= 1
C1756: + x58 + x308 <= 1
C1757: + x130 + x207 <= 1
C1758: + x4 + x383 <= 1
C1759: + x6 + x15 <= 1
C1760: + x208 + x396 <= 1
C1761: + x185 + x259 <= 1
C1762: + x39 + x110 <= 1
C1763: + x22 + x44 <= 1
C1764: + x61 + x430 <= 1
C1765: + x217 + x386 <= 1
C1766: + x8 + x9 <= 1
C1767: + x4 + x57 <= 1
C1768: + x44 + x317 <= 1
C1769: + x27 + x413 <= 1
C1770: + x135 + x479 <= 1
C1771: + x19 + x27 <= 1
C1772: + x240 + x327 <= 1
C1773: + x4 + x74 <= 1
C1774: + x217 + x462 <= 1
C1775: + x98 + x167 <= 1
C1776: + x115 + x231 <= 1
C1777: + x256 + x484 <= 1
C1778: + x340 + x405 <= 1
C1779: + x30 + x443 <= 1
C1780: + x7 + x84 <= 1
C1781: + x19 + x481 <= 1
C1782: + x156 + x379 <= 1
C1783: + x279 + x412 <= 1
C1784: + x45 + x72 <= 1
C1785: + x182 + x216 <= 1
C1786: + x38 + x142 <= 1
C1787: + x166 + x270 <= 1
C1788: + x22 + x196 <= 1
C1789: + x44 + x219 <= 1
C1790: + x9 + x73 <= 1
C1791: + x236 + x354 <= 1
C1792: + x66 + x106 <= 1
C1793: + x57 + x67 <= 1
C1794: + x76 + x182 <= 1
C1795: + x231 + x252 <= 1
C1796: + x20 + x494 <= 1
C1797: + x4 + x360 <= 1
C1798: + x63 + x398 <= 1
C1799: + x174 + x335 <= 1
C1800: + x2 + x347 <= 1
C1801: + x305 + x388 <= 1
C1802: + x4 + x34 <= 1
C1803: + x89 + x283 <= 1
C1804: + x81 + x344 <= 1
C1805: + x190 + x364 <= 1
C1806: + x23 + x30 <= 1
C1807: + x44 + x310 <= 1
C1808: + x180 + x430 <= 1
C1809: + x131 + x421 <= 1
C1810: + x5 + x65 <= 1
C1811: + x5 + x414 <= 1
C1812: + x17 + x167 <= 1
C1813: + x24 + x148 <= 1
C1814: + x72 + x374 <= 1
C1815: + x137 + x473 <= 1
C1816: + x95 + x470 <= 1
C1817: + x12 + x63 <= 1
C1818: + x33 + x154 <= 1
C1819: + x66 + x242 <= 1
C1820: + x60 + x360 <= 1
C1821: + x133 + x344 <= 1
C1822: + x199 + x440 <= 1
C1823: + x214 + x269 <= 1
C1824: + x5 + x117 <= 1
C1825: + x170 + x180 <= 1
C1826: + x362 + x372 <= 1
C1827: + x208 + x251 <= 1
C1828: + x10 + x328 <= 1
C1829: + x46 + x183 <= 1
C1830: + x14 + x299 <= 1
C1831: + x130 + x278 <= 1
C1832: + x22 + x475 <= 1
C1833: + x34 + x90 <= 1
C1834: + x15 + x38 <= 1
C1835: + x35 + x330 <= 1
C1836: + x36 + x430 <= 1
C1837: + x19 + x89 <= 1
C1838: + x1 + x143 <= 1
C1839: + x26 + x421 <= 1
C1840: + x149 + x194 <= 1
C1841: + x4 + x140 <= 1
C1842: + x5 + x28 <= 1
C1843: + x239 + x496 <= 1
C1844: + x95 + x401 <= 1
C1845: + x232 + x395 <= 1
C1846: + x24 + x60 <= 1
C1847: + x127 + x378 <= 1
C1848: + x331 + x355 <= 1
C1849: + x97 + x354 <= 1
C1850: + x415 + x418 <= 1
C1851: + x272 + x323 <= 1
C1852: + x369 + x458 <= 1
C1853: + x132 + x312 <= 1
C1854: + x197 + x272 <= 1
C1855: + x58 + x379 <= 1
C1856: + x47 + x252 <= 1
C1857: + x403 + x478 <= 1
C1858: + x12 + x56 <= 1
C1859: + x2 + x126 <= 1
C1860: + x51 + x428 <= 1
C1861: + x25 + x395 <= 1
C1862: + x99 + x146 <= 1
C1863: + x145 + x370 <= 1
C1864: + x46 + x176 <= 1
C1865: + x57 + x81 <= 1
C1866: + x239 + x264 <= 1
C1867: + x2 + x316 <= 1
C1868: + x24 + x452 <= 1
C1869: + x190 + x269 <= 1
C1870: + x117 + x491 <= 1
C1871: + x116 + x152 <= 1
C1872: + x2 + x341 <= 1
C1873: + x4 + x48 <= 1
C1874: + x4 + x483 <= 1
C1875: + x80 + x152 <= 1
C1876: + x421 + x496 <= 1
C1877: + x4 + x258 <= 1
C1878: + x33 + x57 <= 1
C1879: + x36 + x415 <= 1
C1880: + x83 + x251 <= 1
C1881: + x10 + x43 <= 1
C1882: + x94 + x141 <= 1
C1883: + x81 + x469 <= 1
C1884: + x36 + x177 <= 1
C1885: + x91 + x392 <= 1
C1886: + x2 + x353 <= 1
C1887: + x148 + x258 <= 1
C1888: + x39 + x176 <= 1
C1889: + x7 + x412 <= 1
C1890: + x17 + x50 <= 1
C1891: + x83 + x142 <= 1
C1892: + x130 + x186 <= 1
C1893: + x158 + x169 <= 1
C1894: + x295 + x359 <= 1
C1895: + x5 + x198 <= 1
C1896: + x127 + x394 <= 1
C1897: + x10 + x23 <= 1
C1898: + x84 + x124 <= 1
C1899: + x78 + x391 <= 1
C1900: + x15 + x411 <= 1
C1901: + x7 + x472 <= 1
C1902: + x72 + x160 <= 1
C1903: + x164 + x436 <= 1
C1904: + x239 + x271 <= 1
C1905: + x177 + x495 <= 1
C1906: + x131 + x217 <= 1
C1907: + x34 + x108 <= 1
C1908: + x15 + x56 <= 1
C1909: + x143 + x233 <= 1
C1910: + x414 + x464 <= 1
C1911: + x28 + x471 <= 1
C1912: + x68 + x99 <= 1
C1913: + x13 + x149 <= 1
C1914: + x30 + x381 <= 1
C1915: + x4 + x21 <= 1
C1916: + x51 + x133 <= 1
C1917: + x320 + x398 <= 1
C1918: + x103 + x451 <= 1
C1919: + x176 + x371 <= 1
C1920: + x224 + x346 <= 1
C1921: + x6 + x23 <= 1
C1922: + x27 + x497 <= 1
C1923: + x140 + x327 <= 1
C1924: + x260 + x377 <= 1
C1925: + x81 + x460 <= 1
C1926: + x199 + x211 <= 1
C1927: + x74 + x463 <= 1
C1928: + x9 + x57 <= 1
C1929: + x303 + x447 <= 1
C1930: + x106 + x470 <= 1
C1931: + x43 + x46 <= 1
C1932: + x9 + x406 <= 1
C1933: + x36 + x277 <= 1
C1934: + x11 + x51 <= 1
C1935: + x138 + x248 <= 1
C1936: + x29 + x438 <= 1
C1937: + x46 + x383 <= 1
C1938: + x47 + x117 <= 1
C1939: + x4 + x82 <= 1
C1940: + x9 + x101 <= 1
C1941: + x27 + x147 <= 1
C1942: + x15 + x63 <= 1
C1943: + x9 + x450 <= 1
C1944: + x8 + x380 <= 1
C1945: + x83 + x262 <= 1
C1946: + x180 + x281 <= 1
C1947: + x145 + x284 <= 1
C1948: + x10 + x204 <= 1
C1949: + x46 + x307 <= 1
C1950: + x1 + x49 <= 1
C1951: + x21 + x52 <= 1
C1952: + x113 + x461 <= 1

binary
x1 x2 x3 x4 x5 x6 x7 x8 x9 x10 x11 x12 x13 x14 x15 x16 x17 x18 x19 x20 x21 x22 x23 x24 x25 x26 x27 x28 x29 x30 x31 x32 x33 x34 x35 x36 x37 x38 x39 x40 x41 x42 x43 x44 x45 x46 x47 x48 x49 x50 x51 x52 x53 x54 x55 x56 x57 x58 x59 x60 x61 x62 x63 x64 x65 x66 x67 x68 x69 x70 x71 x72 x73 x74 x75 x76 x77 x78 x79 x80 x81 x82 x83 x84 x85 x86 x87 x88 x89 x90 x91 x92 x93 x94 x95 x96 x97 x98 x99 x100 x101 x102 x103 x104 x105 x106 x107 x108 x109 x110 x111 x112 x113 x114 x115 x116 x117 x118 x119 x120 x121 x122 x123 x124 x125 x126 x127 x128 x129 x130 x131 x132 x133 x134 x135 x136 x137 x138 x139 x140 x141 x142 x143 x144 x145 x146 x147 x148 x149 x150 x151 x152 x153 x154 x155 x156 x157 x158 x159 x160 x161 x162 x163 x164 x165 x166 x167 x168 x169 x170 x171 x172 x173 x174 x175 x176 x177 x178 x179 x180 x181 x182 x183 x184 x185 x186 x187 x188 x189 x190 x191 x192 x193 x194 x195 x196 x197 x198 x199 x200 x201 x202 x203 x204 x205 x206 x207 x208 x209 x210 x211 x212 x213 x214 x215 x216 x217 x218 x219 x220 x221 x222 x223 x224 x225 x226 x227 x228 x229 x230 x231 x232 x233 x234 x235 x236 x237 x238 x239 x240 x241 x242 x243 x244 x245 x246 x247 x248 x249 x250 x251 x252 x253 x254 x255 x256 x257 x258 x259 x260 x261 x262 x263 x264 x265 x266 x267 x268 x269 x270 x271 x272 x273 x274 x275 x276 x277 x278 x279 x280 x281 x282 x283 x284 x285 x286 x287 x288 x289 x290 x291 x292 x293 x294 x295 x296 x297 x298 x299 x300 x301 x302 x303 x304 x305 x306 x307 x308 x309 x310 x311 x312 x313 x314 x315 x316 x317 x318 x319 x320 x321 x322 x323 x324 x325 x326 x327 x328 x329 x330 x331 x332 x333 x334 x335 x336 x337 x338 x339 x340 x341 x342 x343 x344 x345 x346 x347 x348 x349 x350 x351 x352 x353 x354 x355 x356 x357 x358 x359 x360 x361 x362 x363 x364 x365 x366 x367 x368 x369 x370 x371 x372 x373 x374 x375 x376 x377 x378 x379 x380 x381 x382 x383 x384 x385 x386 x387 x388 x389 x390 x391 x392 x393 x394 x395 x396 x397 x398 x399 x400 x401 x402 x403 x404 x405 x406 x407 x408 x409 x410 x411 x412 x413 x414 x415 x416 x417 x418 x419 x420 x421 x422 x423 x424 x425 x426 x427 x428 x429 x430 x431 x432 x433 x434 x435 x436 x437 x438 x439 x440 x441 x442 x443 x444 x445 x446 x447 x448 x449 x450 x451 x452 x453 x454 x455 x456 x457 x458 x459 x460 x461 x462 x463 x464 x465 x466 x467 x468 x469 x470 x471 x472 x473 x474 x475 x476 x477 x478 x479 x480 x481 x482 x483 x484 x485 x486 x487 x488 x489 x490 x491 x492 x493 x494 x495 x496 x497 x498 x499 x500
