maximize
OBJ: + 1 x1 + 1 x2 + 1 x3 + 1 x4 + 1 x5 + 1 x6 + 1 x7 + 1 x8 + 1 x9 + 1 x10 + 1 x11 + 1 x12 + 1 x13 + 1 x14 + 1 x15 + 1 x16 + 1 x17 + 1 x18 + 1 x19 + 1 x20 + 1 x21 + 1 x22 + 1 x23 + 1 x24 + 1 x25 + 1 x26 + 1 x27 + 1 x28 + 1 x29 + 1 x30 + 1 x31 + 1 x32 + 1 x33 + 1 x34 + 1 x35 + 1 x36 + 1 x37 + 1 x38 + 1 x39 + 1 x40 + 1 x41 + 1 x42 + 1 x43 + 1 x44 + 1 x45 + 1 x46 + 1 x47 + 1 x48 + 1 x49 + 1 x50 + 1 x51 + 1 x52 + 1 x53 + 1 x54 + 1 x55 + 1 x56 + 1 x57 + 1 x58 + 1 x59 + 1 x60 + 1 x61 + 1 x62 + 1 x63 + 1 x64 + 1 x65 + 1 x66 + 1 x67 + 1 x68 + 1 x69 + 1 x70 + 1 x71 + 1 x72 + 1 x73 + 1 x74 + 1 x75 + 1 x76 + 1 x77 + 1 x78 + 1 x79 + 1 x80 + 1 x81 + 1 x82 + 1 x83 + 1 x84 + 1 x85 + 1 x86 + 1 x87 + 1 x88 + 1 x89 + 1 x90 + 1 x91 + 1 x92 + 1 x93 + 1 x94 + 1 x95 + 1 x96 + 1 x97 + 1 x98 + 1 x99 + 1 x100 + 1 x101 + 1 x102 + 1 x103 + 1 x104 + 1 x105 + 1 x106 + 1 x107 + 1 x108 + 1 x109 + 1 x110 + 1 x111 + 1 x112 + 1 x113 + 1 x114 + 1 x115 + 1 x116 + 1 x117 + 1 x118 + 1 x119 + 1 x120 + 1 x121 + 1 x122 + 1 x123 + 1 x124 + 1 x125 + 1 x126 + 1 x127 + 1 x128 + 1 x129 + 1 x130 + 1 x131 + 1 x132 + 1 x133 + 1 x134 + 1 x135 + 1 x136 + 1 x137 + 1 x138 + 1 x139 + 1 x140 + 1 x141 + 1 x142 + 1 x143 + 1 x144 + 1 x145 + 1 x146 + 1 x147 + 1 x148 + 1 x149 + 1 x150 + 1 x151 + 1 x152 + 1 x153 + 1 x154 + 1 x155 + 1 x156 + 1 x157 + 1 x158 + 1 x159 + 1 x160 + 1 x161 + 1 x162 + 1 x163 + 1 x164 + 1 x165 + 1 x166 + 1 x167 + 1 x168 + 1 x169 + 1 x170 + 1 x171 + 1 x172 + 1 x173 + 1 x174 + 1 x175 + 1 x176 + 1 x177 + 1 x178 + 1 x179 + 1 x180 + 1 x181 + 1 x182 + 1 x183 + 1 x184 + 1 x185 + 1 x186 + 1 x187 + 1 x188 + 1 x189 + 1 x190 + 1 x191 + 1 x192 + 1 x193 + 1 x194 + 1 x195 + 1 x196 + 1 x197 + 1 x198 + 1 x199 + 1 x200 + 1 x201 + 1 x202 + 1 x203 + 1 x204 + 1 x205 + 1 x206 + 1 x207 + 1 x208 + 1 x209 + 1 x210 + 1 x211 + 1 x212 + 1 x213 + 1 x214 + 1 x215 + 1 x216 + 1 x217 + 1 x218 + 1 x219 + 1 x220 + 1 x221 + 1 x222 + 1 x223 + 1 x224 + 1 x225 + 1 x226 + 1 x227 + 1 x228 + 1 x229 + 1 x230 + 1 x231 + 1 x232 + 1 x233 + 1 x234 + 1 x235 + 1 x236 + 1 x237 + 1 x238 + 1 x239 + 1 x240 + 1 x241 + 1 x242 + 1 x243 + 1 x244 + 1 x245 + 1 x246 + 1 x247 + 1 x248 + 1 x249 + 1 x250 + 1 x251 + 1 x252 + 1 x253 + 1 x254 + 1 x255 + 1 x256 + 1 x257 + 1 x258 + 1 x259 + 1 x260 + 1 x261 + 1 x262 + 1 x263 + 1 x264 + 1 x265 + 1 x266 + 1 x267 + 1 x268 + 1 x269 + 1 x270 + 1 x271 + 1 x272 + 1 x273 + 1 x274 + 1 x275 + 1 x276 + 1 x277 + 1 x278 + 1 x279 + 1 x280 + 1 x281 + 1 x282 + 1 x283 + 1 x284 + 1 x285 + 1 x286 + 1 x287 + 1 x288 + 1 x289 + 1 x290 + 1 x291 + 1 x292 + 1 x293 + 1 x294 + 1 x295 + 1 x296 + 1 x297 + 1 x298 + 1 x299 + 1 x300 + 1 x301 + 1 x302 + 1 x303 + 1 x304 + 1 x305 + 1 x306 + 1 x307 + 1 x308 + 1 x309 + 1 x310 + 1 x311 + 1 x312 + 1 x313 + 1 x314 + 1 x315 + 1 x316 + 1 x317 + 1 x318 + 1 x319 + 1 x320 + 1 x321 + 1 x322 + 1 x323 + 1 x324 + 1 x325 + 1 x326 + 1 x327 + 1 x328 + 1 x329 + 1 x330 + 1 x331 + 1 x332 + 1 x333 + 1 x334 + 1 x335 + 1 x336 + 1 x337 + 1 x338 + 1 x339 + 1 x340 + 1 x341 + 1 x342 + 1 x343 + 1 x344 + 1 x345 + 1 x346 + 1 x347 + 1 x348 + 1 x349 + 1 x350 + 1 x351 + 1 x352 + 1 x353 + 1 x354 + 1 x355 + 1 x356 + 1 x357 + 1 x358 + 1 x359 + 1 x360 + 1 x361 + 1 x362 + 1 x363 + 1 x364 + 1 x365 + 1 x366 + 1 x367 + 1 x368 + 1 x369 + 1 x370 + 1 x371 + 1 x372 + 1 x373 + 1 x374 + 1 x375 + 1 x376 + 1 x377 + 1 x378 + 1 x379 + 1 x380 + 1 x381 + 1 x382 + 1 x383 + 1 x384 + 1 x385 + 1 x386 + 1 x387 + 1 x388 + 1 x389 + 1 x390 + 1 x391 + 1 x392 + 1 x393 + 1 x394 + 1 x395 + 1 x396 + 1 x397 + 1 x398 + 1 x399 + 1 x400 + 1 x401 + 1 x402 + 1 x403 + 1 x404 + 1 x405 + 1 x406 + 1 x407 + 1 x408 + 1 x409 + 1 x410 + 1 x411 + 1 x412 + 1 x413 + 1 x414 + 1 x415 + 1 x416 + 1 x417 + 1 x418 + 1 x419 + 1 x420 + 1 x421 + 1 x422 + 1 x423 + 1 x424 + 1 x425 + 1 x426 + 1 x427 + 1 x428 + 1 x429 + 1 x430 + 1 x431 + 1 x432 + 1 x433 + 1 x434 + 1 x435 + 1 x436 + 1 x437 + 1 x438 + 1 x439 + 1 x440 + 1 x441 + 1 x442 + 1 x443 + 1 x444 + 1 x445 + 1 x446 + 1 x447 + 1 x448 + 1 x449 + 1 x450 + 1 x451 + 1 x452 + 1 x453 + 1 x454 + 1 x455 + 1 x456 + 1 x457 + 1 x458 + 1 x459 + 1 x460 + 1 x461 + 1 x462 + 1 x463 + 1 x464 + 1 x465 + 1 x466 + 1 x467 + 1 x468 + 1 x469 + 1 x470 + 1 x471 + 1 x472 + 1 x473 + 1 x474 + 1 x475 + 1 x476 + 1 x477 + 1 x478 + 1 x479 + 1 x480 + 1 x481 + 1 x482 + 1 x483 + 1 x484 + 1 x485 + 1 x486 + 1 x487 + 1 x488 + 1 x489 + 1 x490 + 1 x491 + 1 x492 + 1 x493 + 1 x494 + 1 x495 + 1 x496 + 1 x497 + 1 x498 + 1 x499 + 1 x500

subject to
C1: + x78 + x226 <= 1
C2: + x5 + x136 <= 1
C3: + x155 + x309 <= 1
C4: + x136 + x450 <= 1
C5: + x15 + x345 <= 1
C6: + x9 + x64 <= 1
C7: + x12 + x91 <= 1
C8: + x41 + x265 <= 1
C9: + x31 + x288 <= 1
C10: + x7 + x55 <= 1
C11: + x57 + x300 <= 1
C12: + x5 + x204 <= 1
C13: + x6 + x196 <= 1
C14: + x63 + x450 <= 1
C15: + x72 + x495 <= 1
C16: + x111 + x139 <= 1
C17: + x165 + x221 <= 1
C18: + x21 + x76 <= 1
C19: + x77 + x89 <= 1
C20: + x12 + x23 <= 1
C21: + x18 + x484 <= 1
C22: + x156 + x364 <= 1
C23: + x29 + x321 <= 1
C24: + x30 + x335 <= 1
C25: + x5 + x256 <= 1
C26: + x25 + x428 <= 1
C27: + x1 + x56 <= 1
C28: + x22 + x181 <= 1
C29: + x14 + x259 <= 1
C30: + x90 + x498 <= 1
C31: + x16 + x35 <= 1
C32: + x2 + x475 <= 1
C33: + x40 + x409 <= 1
C34: + x1 + x167 <= 1
C35: + x2 + x41 <= 1
C36: + x192 + x302 <= 1
C37: + x49 + x481 <= 1
C38: + x98 + x221 <= 1
C39: + x13 + x446 <= 1
C40: + x9 + x39 <= 1
C41: + x83 + x470 <= 1
C42: + x162 + x267 <= 1
C43: + x12 + x487 <= 1
C44: + x25 + x74 <= 1
C45: + x83 + x119 <= 1
C46: + x2 + x90 <= 1
C47: + x103 + x126 <= 1
C48: + x184 + x370 <= 1
C49: + x25 + x487 <= 1
C50: + x197 + x499 <= 1
C51: + x27 + x68 <= 1
C52: + x149 + x382 <= 1
C53: + x32 + x215 <= 1
C54: + x151 + x456 <= 1
C55: + x113 + x122 <= 1
C56: + x49 + x186 <= 1
C57: + x204 + x275 <= 1
C58: + x12 + x16 <= 1
C59: + x168 + x361 <= 1
C60: + x122 + x305 <= 1
C61: + x106 + x175 <= 1
C62: + x16 + x149 <= 1
C63: + x326 + x327 <= 1
C64: + x246 + x386 <= 1
C65: + x83 + x409 <= 1
C66: + x233 + x310 <= 1
C67: + x125 + x169 <= 1
C68: + x3 + x13 <= 1
C69: + x12 + x399 <= 1
C70: + x41 + x360 <= 1
C71: + x19 + x415 <= 1
C72: + x57 + x331 <= 1
C73: + x77 + x361 <= 1
C74: + x209 + x492 <= 1
C75: + x35 + x414 <= 1
C76: + x256 + x435 <= 1
C77: + x13 + x91 <= 1
C78: + x132 + x440 <= 1
C79: + x52 + x210 <= 1
C80: + x5 + x261 <= 1
C81: + x26 + x71 <= 1
C82: + x140 + x251 <= 1
C83: + x7 + x206 <= 1
C84: + x27 + x75 <= 1
C85: + x86 + x264 <= 1
C86: + x17 + x173 <= 1
C87: + x65 + x87 <= 1
C88: + x42 + x181 <= 1
C89: + x25 + x29 <= 1
C90: + x32 + x458 <= 1
C91: + x321 + x441 <= 1
C92: + x278 + x287 <= 1
C93: + x145 + x188 <= 1
C94: + x1 + x6 <= 1
C95: + x112 + x138 <= 1
C96: + x16 + x49 <= 1
C97: + x3 + x8 <= 1
C98: + x43 + x127 <= 1
C99: + x6 + x11 <= 1
C100: + x243 + x279 <= 1
C101: + x182 + x385 <= 1
C102: + x5 + x381 <= 1
C103: + x105 + x204 <= 1
C104: + x158 + x277 <= 1
C105: + x5 + x18 <= 1
C106: + x23 + x176 <= 1
C107: + x90 + x186 <= 1
C108: + x126 + x129 <= 1
C109: + x28 + x209 <= 1
C110: + x15 + x302 <= 1
C111: + x13 + x82 <= 1
C112: + x25 + x88 <= 1
C113: + x53 + x201 <= 1
C114: + x73 + x114 <= 1
C115: + x128 + x324 <= 1
C116: + x58 + x183 <= 1
C117: + x67 + x156 <= 1
C118: + x137 + x377 <= 1
C119: + x9 + x36 + x184 <= 1
C120: + x112 + x195 <= 1
C121: + x4 + x78 <= 1
C122: + x23 + x252 <= 1
C123: + x43 + x328 <= 1
C124: + x126 + x213 <= 1
C125: + x78 + x420 <= 1
C126: + x54 + x291 <= 1
C127: + x103 + x438 <= 1
C128: + x77 + x441 <= 1
C129: + x59 + x160 <= 1
C130: + x15 + x27 <= 1
C131: + x27 + x268 <= 1
C132: + x138 + x261 <= 1
C133: + x13 + x184 <= 1
C134: + x141 + x312 <= 1
C135: + x154 + x234 <= 1
C136: + x326 + x329 <= 1
C137: + x3 + x305 <= 1
C138: + x13 + x21 <= 1
C139: + x5 + x455 <= 1
C140: + x80 + x378 <= 1
C141: + x63 + x132 <= 1
C142: + x256 + x468 <= 1
C143: + x56 + x350 <= 1
C144: + x40 + x392 <= 1
C145: + x159 + x318 <= 1
C146: + x180 + x486 <= 1
C147: + x109 + x326 <= 1
C148: + x1 + x327 <= 1
C149: + x262 + x463 <= 1
C150: + x246 + x261 <= 1
C151: + x3 + x164 <= 1
C152: + x59 + x69 <= 1
C153: + x148 + x205 <= 1
C154: + x5 + x25 <= 1
C155: + x21 + x327 <= 1
C156: + x48 + x456 <= 1
C157: + x90 + x131 <= 1
C158: + x137 + x401 <= 1
C159: + x92 + x106 <= 1
C160: + x2 + x351 <= 1
C161: + x34 + x54 <= 1
C162: + x316 + x443 <= 1
C163: + x10 + x271 <= 1
C164: + x402 + x426 <= 1
C165: + x194 + x472 <= 1
C166: + x100 + x236 <= 1
C167: + x308 + x348 <= 1
C168: + x42 + x167 <= 1
C169: + x43 + x61 <= 1
C170: + x7 + x79 <= 1
C171: + x258 + x407 <= 1
C172: + x104 + x240 <= 1
C173: + x89 + x200 <= 1
C174: + x141 + x303 <= 1
C175: + x40 + x48 <= 1
C176: + x96 + x147 <= 1
C177: + x37 + x293 <= 1
C178: + x5 + x113 <= 1
C179: + x371 + x411 <= 1
C180: + x73 + x436 <= 1
C181: + x3 + x26 <= 1
C182: + x42 + x83 <= 1
C183: + x36 + x338 <= 1
C184: + x1 + x350 <= 1
C185: + x219 + x397 <= 1
C186: + x14 + x16 + x99 <= 1
C187: + x5 + x8 <= 1
C188: + x7 + x361 <= 1
C189: + x8 + x123 <= 1
C190: + x218 + x434 <= 1
C191: + x115 + x134 <= 1
C192: + x104 + x462 <= 1
C193: + x23 + x336 <= 1
C194: + x15 + x473 <= 1
C195: + x6 + x398 <= 1
C196: + x57 + x154 <= 1
C197: + x3 + x46 <= 1
C198: + x78 + x243 <= 1
C199: + x296 + x320 <= 1
C200: + x28 + x489 <= 1
C201: + x10 + x38 <= 1
C202: + x72 + x125 <= 1
C203: + x3 + x207 <= 1
C204: + x5 + x76 <= 1
C205: + x34 + x192 <= 1
C206: + x18 + x38 <= 1
C207: + x9 + x15 <= 1
C208: + x75 + x479 <= 1
C209: + x338 + x460 <= 1
C210: + x37 + x50 <= 1
C211: + x236 + x437 <= 1
C212: + x136 + x395 <= 1
C213: + x333 + x349 <= 1
C214: + x44 + x205 <= 1
C215: + x210 + x229 <= 1
C216: + x128 + x267 <= 1
C217: + x29 + x102 <= 1
C218: + x139 + x169 <= 1
C219: + x49 + x295 <= 1
C220: + x314 + x364 <= 1
C221: + x5 + x362 <= 1
C222: + x79 + x241 <= 1
C223: + x146 + x267 <= 1
C224: + x155 + x216 <= 1
C225: + x26 + x136 <= 1
C226: + x18 + x227 <= 1
C227: + x283 + x422 <= 1
C228: + x59 + x300 <= 1
C229: + x196 + x212 <= 1
C230: + x17 + x122 <= 1
C231: + x7 + x13 <= 1
C232: + x47 + x152 <= 1
C233: + x60 + x190 <= 1
C234: + x10 + x47 <= 1
C235: + x95 + x303 <= 1
C236: + x132 + x289 <= 1
C237: + x324 + x395 <= 1
C238: + x16 + x65 <= 1
C239: + x119 + x177 <= 1
C240: + x312 + x405 <= 1
C241: + x111 + x495 <= 1
C242: + x274 + x411 <= 1
C243: + x234 + x244 <= 1
C244: + x19 + x56 <= 1
C245: + x274 + x326 <= 1
C246: + x219 + x496 <= 1
C247: + x5 + x337 <= 1
C248: + x90 + x123 <= 1
C249: + x236 + x248 <= 1
C250: + x35 + x344 <= 1
C251: + x10 + x465 <= 1
C252: + x86 + x209 <= 1
C253: + x234 + x320 <= 1
C254: + x19 + x236 <= 1
C255: + x55 + x353 <= 1
C256: + x146 + x431 <= 1
C257: + x69 + x107 <= 1
C258: + x13 + x387 <= 1
C259: + x22 + x346 <= 1
C260: + x49 + x266 <= 1
C261: + x194 + x443 <= 1
C262: + x5 + x133 <= 1
C263: + x61 + x317 <= 1
C264: + x7 + x161 <= 1
C265: + x43 + x391 <= 1
C266: + x28 + x46 <= 1
C267: + x89 + x145 <= 1
C268: + x111 + x188 <= 1
C269: + x285 + x464 <= 1
C270: + x94 + x130 <= 1
C271: + x44 + x444 <= 1
C272: + x254 + x420 <= 1
C273: + x27 + x203 <= 1
C274: + x38 + x221 <= 1
C275: + x86 + x392 <= 1
C276: + x48 + x305 <= 1
C277: + x22 + x302 <= 1
C278: + x17 + x45 <= 1
C279: + x203 + x268 <= 1
C280: + x140 + x204 <= 1
C281: + x14 + x36 <= 1
C282: + x5 + x201 <= 1
C283: + x79 + x84 <= 1
C284: + x207 + x468 <= 1
C285: + x273 + x425 <= 1
C286: + x8 + x174 <= 1
C287: + x276 + x431 <= 1
C288: + x25 + x239 <= 1
C289: + x80 + x350 <= 1
C290: + x46 + x158 <= 1
C291: + x156 + x460 <= 1
C292: + x303 + x399 <= 1
C293: + x232 + x236 <= 1
C294: + x324 + x347 <= 1
C295: + x180 + x450 <= 1
C296: + x168 + x375 <= 1
C297: + x1 + x291 <= 1
C298: + x7 + x112 <= 1
C299: + x2 + x32 <= 1
C300: + x8 + x195 <= 1
C301: + x42 + x481 <= 1
C302: + x12 + x264 <= 1
C303: + x13 + x144 <= 1
C304: + x14 + x24 <= 1
C305: + x53 + x474 <= 1
C306: + x52 + x60 <= 1
C307: + x9 + x85 <= 1
C308: + x8 + x389 <= 1
C309: + x120 + x388 <= 1
C310: + x20 + x35 <= 1
C311: + x393 + x447 <= 1
C312: + x264 + x486 <= 1
C313: + x4 + x372 <= 1
C314: + x40 + x416 <= 1
C315: + x6 + x28 <= 1
C316: + x83 + x233 <= 1
C317: + x8 + x247 <= 1
C318: + x19 + x118 <= 1
C319: + x176 + x219 <= 1
C320: + x4 + x175 <= 1
C321: + x30 + x41 <= 1
C322: + x7 + x43 <= 1
C323: + x14 + x93 <= 1
C324: + x343 + x371 <= 1
C325: + x261 + x269 <= 1
C326: + x16 + x200 <= 1
C327: + x1 + x256 <= 1
C328: + x9 + x179 <= 1
C329: + x257 + x362 <= 1
C330: + x30 + x218 <= 1
C331: + x177 + x239 <= 1
C332: + x36 + x239 <= 1
C333: + x37 + x190 <= 1
C334: + x30 + x125 <= 1
C335: + x41 + x313 <= 1
C336: + x6 + x81 <= 1
C337: + x129 + x239 <= 1
C338: + x37 + x432 <= 1
C339: + x33 + x467 <= 1
C340: + x162 + x307 <= 1
C341: + x374 + x384 <= 1
C342: + x93 + x117 <= 1
C343: + x4 + x7 <= 1
C344: + x3 + x50 <= 1
C345: + x279 + x378 <= 1
C346: + x137 + x206 <= 1
C347: + x3 + x211 <= 1
C348: + x12 + x233 <= 1
C349: + x222 + x479 <= 1
C350: + x5 + x48 <= 1
C351: + x99 + x223 <= 1
C352: + x8 + x19 <= 1
C353: + x183 + x271 <= 1
C354: + x191 + x254 <= 1
C355: + x59 + x265 <= 1
C356: + x4 + x51 <= 1
C357: + x115 + x384 <= 1
C358: + x93 + x155 <= 1
C359: + x7 + x276 <= 1
C360: + x19 + x33 <= 1
C361: + x2 + x249 <= 1
C362: + x3 + x231 <= 1
C363: + x68 + x461 <= 1
C364: + x5 + x84 <= 1
C365: + x5 + x425 <= 1
C366: + x161 + x176 <= 1
C367: + x63 + x170 <= 1
C368: + x1 + x404 <= 1
C369: + x20 + x101 <= 1
C370: + x328 + x369 <= 1
C371: + x84 + x333 <= 1
C372: + x41 + x477 <= 1
C373: + x358 + x444 <= 1
C374: + x5 + x227 <= 1
C375: + x163 + x188 <= 1
C376: + x18 + x207 <= 1
C377: + x213 + x398 <= 1
C378: + x3 + x9 <= 1
C379: + x6 + x14 <= 1
C380: + x26 + x474 <= 1
C381: + x182 + x388 <= 1
C382: + x77 + x357 <= 1
C383: + x5 + x23 <= 1
C384: + x345 + x376 <= 1
C385: + x100 + x145 <= 1
C386: + x120 + x263 <= 1
C387: + x113 + x185 <= 1
C388: + x30 + x59 <= 1
C389: + x31 + x270 <= 1
C390: + x104 + x419 <= 1
C391: + x106 + x461 <= 1
C392: + x91 + x222 <= 1
C393: + x28 + x77 <= 1
C394: + x210 + x415 <= 1
C395: + x3 + x226 <= 1
C396: + x41 + x53 <= 1
C397: + x153 + x313 <= 1
C398: + x88 + x470 <= 1
C399: + x123 + x168 <= 1
C400: + x35 + x380 <= 1
C401: + x262 + x286 <= 1
C402: + x8 + x355 <= 1
C403: + x42 + x476 <= 1
C404: + x54 + x343 <= 1
C405: + x102 + x178 <= 1
C406: + x171 + x403 <= 1
C407: + x18 + x99 <= 1
C408: + x86 + x102 <= 1
C409: + x207 + x356 <= 1
C410: + x2 + x63 <= 1
C411: + x6 + x357 <= 1
C412: + x218 + x428 <= 1
C413: + x119 + x152 <= 1
C414: + x59 + x283 <= 1
C415: + x86 + x412 <= 1
C416: + x161 + x500 <= 1
C417: + x45 + x282 <= 1
C418: + x9 + x438 <= 1
C419: + x16 + x449 <= 1
C420: + x18 + x141 <= 1
C421: + x144 + x266 <= 1
C422: + x290 + x445 <= 1
C423: + x382 + x484 <= 1
C424: + x40 + x94 <= 1
C425: + x215 + x448 <= 1
C426: + x14 + x374 <= 1
C427: + x45 + x169 <= 1
C428: + x36 + x134 <= 1
C429: + x12 + x50 <= 1
C430: + x4 + x420 <= 1
C431: + x27 + x280 <= 1
C432: + x147 + x294 <= 1
C433: + x77 + x167 <= 1
C434: + x40 + x51 <= 1
C435: + x22 + x105 <= 1
C436: + x14 + x60 <= 1
C437: + x7 + x245 <= 1
C438: + x34 + x496 <= 1
C439: + x145 + x183 <= 1
C440: + x32 + x245 <= 1
C441: + x37 + x159 <= 1
C442: + x1 + x23 + x58 <= 1
C443: + x40 + x388 <= 1
C444: + x5 + x360 <= 1
C445: + x8 + x219 <= 1
C446: + x157 + x254 <= 1
C447: + x140 + x160 <= 1
C448: + x77 + x155 <= 1
C449: + x149 + x195 <= 1
C450: + x224 + x454 <= 1
C451: + x16 + x171 <= 1
C452: + x19 + x251 <= 1
C453: + x27 + x42 <= 1
C454: + x8 + x122 <= 1
C455: + x22 + x331 <= 1
C456: + x15 + x470 <= 1
C457: + x54 + x135 <= 1
C458: + x55 + x61 <= 1
C459: + x339 + x425 <= 1
C460: + x7 + x180 <= 1
C461: + x36 + x48 <= 1
C462: + x274 + x276 <= 1
C463: + x29 + x306 <= 1
C464: + x5 + x73 <= 1
C465: + x52 + x81 <= 1
C466: + x17 + x159 <= 1
C467: + x16 + x127 <= 1
C468: + x127 + x202 <= 1
C469: + x230 + x366 <= 1
C470: + x12 + x55 <= 1
C471: + x48 + x235 <= 1
C472: + x20 + x124 <= 1
C473: + x21 + x108 <= 1
C474: + x256 + x376 <= 1
C475: + x67 + x163 <= 1
C476: + x60 + x384 <= 1
C477: + x296 + x375 <= 1
C478: + x234 + x262 <= 1
C479: + x32 + x95 <= 1
C480: + x15 + x131 <= 1
C481: + x114 + x198 <= 1
C482: + x22 + x213 <= 1
C483: + x487 + x488 <= 1
C484: + x218 + x261 <= 1
C485: + x121 + x146 <= 1
C486: + x8 + x212 <= 1
C487: + x19 + x81 <= 1
C488: + x2 + x9 <= 1
C489: + x382 + x418 <= 1
C490: + x15 + x207 <= 1
C491: + x15 + x260 <= 1
C492: + x17 + x277 <= 1
C493: + x7 + x10 <= 1
C494: + x63 + x251 <= 1
C495: + x200 + x342 <= 1
C496: + x103 + x457 <= 1
C497: + x3 + x42 <= 1
C498: + x95 + x143 <= 1
C499: + x21 + x313 <= 1
C500: + x130 + x427 <= 1
C501: + x39 + x173 <= 1
C502: + x5 + x290 <= 1
C503: + x18 + x453 <= 1
C504: + x416 + x459 <= 1
C505: + x284 + x379 <= 1
C506: + x30 + x296 <= 1
C507: + x5 + x199 <= 1
C508: + x14 + x46 <= 1
C509: + x108 + x159 <= 1
C510: + x45 + x46 <= 1
C511: + x12 + x189 <= 1
C512: + x34 + x144 <= 1
C513: + x14 + x348 <= 1
C514: + x81 + x258 <= 1
C515: + x21 + x71 <= 1
C516: + x41 + x243 <= 1
C517: + x15 + x19 + x452 <= 1
C518: + x161 + x426 <= 1
C519: + x110 + x320 <= 1
C520: + x83 + x268 <= 1
C521: + x51 + x408 <= 1
C522: + x2 + x173 <= 1
C523: + x111 + x198 <= 1
C524: + x123 + x248 <= 1
C525: + x92 + x391 <= 1
C526: + x19 + x128 <= 1
C527: + x165 + x227 <= 1
C528: + x13 + x202 <= 1
C529: + x170 + x333 <= 1
C530: + x34 + x181 <= 1
C531: + x9 + x58 <= 1
C532: + x30 + x83 <= 1
C533: + x12 + x492 <= 1
C534: + x23 + x407 <= 1
C535: + x278 + x319 <= 1
C536: + x111 + x129 <= 1
C537: + x13 + x62 <= 1
C538: + x32 + x228 <= 1
C539: + x5 + x448 <= 1
C540: + x182 + x334 <= 1
C541: + x392 + x490 <= 1
C542: + x33 + x124 <= 1
C543: + x104 + x367 <= 1
C544: + x81 + x166 <= 1
C545: + x342 + x496 <= 1
C546: + x3 + x137 <= 1
C547: + x30 + x373 <= 1
C548: + x123 + x414 <= 1
C549: + x148 + x232 <= 1
C550: + x22 + x88 <= 1
C551: + x43 + x500 <= 1
C552: + x26 + x141 <= 1
C553: + x28 + x177 <= 1
C554: + x22 + x358 <= 1
C555: + x150 + x401 <= 1
C556: + x159 + x422 <= 1
C557: + x156 + x259 <= 1
C558: + x33 + x56 <= 1
C559: + x6 + x31 <= 1
C560: + x74 + x193 <= 1
C561: + x63 + x66 <= 1
C562: + x174 + x195 <= 1
C563: + x20 + x308 <= 1
C564: + x21 + x164 <= 1
C565: + x25 + x370 <= 1
C566: + x27 + x215 <= 1
C567: + x30 + x44 <= 1
C568: + x340 + x441 <= 1
C569: + x4 + x416 <= 1
C570: + x89 + x260 <= 1
C571: + x5 + x280 <= 1
C572: + x26 + x124 <= 1
C573: + x2 + x413 <= 1
C574: + x265 + x445 <= 1
C575: + x15 + x152 <= 1
C576: + x145 + x147 <= 1
C577: + x18 + x165 <= 1
C578: + x17 + x334 <= 1
C579: + x53 + x402 <= 1
C580: + x54 + x436 <= 1
C581: + x78 + x440 <= 1
C582: + x296 + x449 <= 1
C583: + x182 + x343 <= 1
C584: + x57 + x103 <= 1
C585: + x39 + x352 <= 1
C586: + x33 + x115 <= 1
C587: + x89 + x336 <= 1
C588: + x77 + x191 <= 1
C589: + x258 + x394 <= 1
C590: + x14 + x20 <= 1
C591: + x15 + x164 <= 1
C592: + x133 + x377 <= 1
C593: + x12 + x103 <= 1
C594: + x4 + x6 <= 1
C595: + x132 + x390 <= 1
C596: + x5 + x491 <= 1
C597: + x214 + x372 <= 1
C598: + x176 + x429 <= 1
C599: + x191 + x368 <= 1
C600: + x129 + x155 <= 1
C601: + x215 + x370 <= 1
C602: + x56 + x405 <= 1
C603: + x13 + x256 <= 1
C604: + x5 + x45 <= 1
C605: + x26 + x162 <= 1
C606: + x145 + x464 <= 1
C607: + x8 + x18 <= 1
C608: + x83 + x467 <= 1
C609: + x2 + x331 <= 1
C610: + x42 + x135 <= 1
C611: + x88 + x339 <= 1
C612: + x2 + x10 + x70 <= 1
C613: + x86 + x155 <= 1
C614: + x215 + x334 <= 1
C615: + x7 + x204 <= 1
C616: + x65 + x308 <= 1
C617: + x214 + x297 <= 1
C618: + x268 + x375 <= 1
C619: + x5 + x430 <= 1
C620: + x9 + x20 <= 1
C621: + x19 + x327 <= 1
C622: + x8 + x454 <= 1
C623: + x175 + x463 <= 1
C624: + x78 + x95 <= 1
C625: + x43 + x65 <= 1
C626: + x70 + x194 <= 1
C627: + x66 + x341 <= 1
C628: + x15 + x288 <= 1
C629: + x36 + x100 <= 1
C630: + x7 + x329 <= 1
C631: + x317 + x383 <= 1
C632: + x56 + x125 <= 1
C633: + x4 + x11 <= 1
C634: + x125 + x170 <= 1
C635: + x334 + x390 <= 1
C636: + x123 + x287 <= 1
C637: + x13 + x274 <= 1
C638: + x394 + x396 <= 1
C639: + x53 + x340 <= 1
C640: + x7 + x151 <= 1
C641: + x200 + x477 <= 1
C642: + x138 + x153 <= 1
C643: + x49 + x409 <= 1
C644: + x78 + x374 <= 1
C645: + x281 + x351 <= 1
C646: + x145 + x455 <= 1
C647: + x256 + x446 <= 1
C648: + x148 + x285 <= 1
C649: + x30 + x62 <= 1
C650: + x22 + x129 <= 1
C651: + x167 + x423 <= 1
C652: + x17 + x31 <= 1
C653: + x7 + x34 <= 1
C654: + x184 + x330 <= 1
C655: + x30 + x175 <= 1
C656: + x178 + x238 <= 1
C657: + x162 + x351 <= 1
C658: + x55 + x223 <= 1
C659: + x66 + x96 <= 1
C660: + x123 + x153 <= 1
C661: + x351 + x464 <= 1
C662: + x15 + x17 <= 1
C663: + x103 + x162 <= 1
C664: + x34 + x466 <= 1
C665: + x108 + x183 <= 1
C666: + x55 + x330 <= 1
C667: + x3 + x311 <= 1
C668: + x4 + x116 <= 1
C669: + x106 + x389 <= 1
C670: + x1 + x420 <= 1
C671: + x58 + x311 <= 1
C672: + x25 + x42 <= 1
C673: + x6 + x10 <= 1
C674: + x7 + x138 <= 1
C675: + x5 + x382 <= 1
C676: + x291 + x340 <= 1
C677: + x266 + x469 <= 1
C678: + x5 + x19 <= 1
C679: + x26 + x180 <= 1
C680: + x17 + x22 <= 1
C681: + x127 + x369 <= 1
C682: + x72 + x235 <= 1
C683: + x128 + x323 <= 1
C684: + x24 + x33 <= 1
C685: + x7 + x25 <= 1
C686: + x481 + x486 <= 1
C687: + x115 + x447 <= 1
C688: + x24 + x392 <= 1
C689: + x7 + x271 <= 1
C690: + x41 + x57 <= 1
C691: + x52 + x404 <= 1
C692: + x179 + x314 <= 1
C693: + x5 + x71 <= 1
C694: + x37 + x176 <= 1
C695: + x183 + x338 <= 1
C696: + x111 + x378 <= 1
C697: + x186 + x346 <= 1
C698: + x48 + x225 <= 1
C699: + x6 + x79 <= 1
C700: + x216 + x309 <= 1
C701: + x3 + x109 <= 1
C702: + x77 + x172 <= 1
C703: + x215 + x300 <= 1
C704: + x352 + x356 <= 1
C705: + x1 + x30 <= 1
C706: + x12 + x142 <= 1
C707: + x42 + x206 <= 1
C708: + x28 + x316 <= 1
C709: + x49 + x229 <= 1
C710: + x7 + x129 <= 1
C711: + x144 + x322 <= 1
C712: + x147 + x168 <= 1
C713: + x37 + x398 <= 1
C714: + x67 + x97 <= 1
C715: + x22 + x64 <= 1
C716: + x5 + x26 <= 1
C717: + x162 + x285 <= 1
C718: + x15 + x310 <= 1
C719: + x65 + x490 <= 1
C720: + x74 + x403 <= 1
C721: + x21 + x37 <= 1
C722: + x14 + x481 <= 1
C723: + x307 + x363 <= 1
C724: + x71 + x212 <= 1
C725: + x25 + x96 <= 1
C726: + x28 + x376 <= 1
C727: + x3 + x84 <= 1
C728: + x41 + x387 <= 1
C729: + x26 + x499 <= 1
C730: + x154 + x166 <= 1
C731: + x10 + x36 <= 1
C732: + x110 + x208 <= 1
C733: + x89 + x90 <= 1
C734: + x333 + x371 <= 1
C735: + x45 + x165 <= 1
C736: + x110 + x115 <= 1
C737: + x120 + x304 <= 1
C738: + x30 + x68 <= 1
C739: + x5 + x320 <= 1
C740: + x52 + x235 <= 1
C741: + x142 + x288 <= 1
C742: + x8 + x344 <= 1
C743: + x74 + x186 <= 1
C744: + x111 + x478 <= 1
C745: + x194 + x483 <= 1
C746: + x86 + x250 <= 1
C747: + x3 + x104 <= 1
C748: + x32 + x94 <= 1
C749: + x40 + x47 <= 1
C750: + x5 + x221 <= 1
C751: + x171 + x172 <= 1
C752: + x83 + x387 <= 1
C753: + x292 + x481 <= 1
C754: + x248 + x396 <= 1
C755: + x4 + x98 <= 1
C756: + x53 + x140 <= 1
C757: + x230 + x341 <= 1
C758: + x49 + x289 <= 1
C759: + x3 + x23 <= 1
C760: + x141 + x191 <= 1
C761: + x341 + x487 <= 1
C762: + x9 + x466 <= 1
C763: + x64 + x310 <= 1
C764: + x42 + x397 <= 1
C765: + x23 + x191 <= 1
C766: + x17 + x231 <= 1
C767: + x27 + x54 <= 1
C768: + x230 + x422 <= 1
C769: + x42 + x304 <= 1
C770: + x14 + x282 <= 1
C771: + x36 + x290 <= 1
C772: + x72 + x217 <= 1
C773: + x95 + x140 <= 1
C774: + x25 + x452 <= 1
C775: + x189 + x469 <= 1
C776: + x8 + x139 <= 1
C777: + x37 + x377 <= 1
C778: + x98 + x383 <= 1
C779: + x9 + x16 <= 1
C780: + x45 + x164 <= 1
C781: + x65 + x445 <= 1
C782: + x123 + x182 <= 1
C783: + x31 + x304 <= 1
C784: + x22 + x126 <= 1
C785: + x353 + x488 <= 1
C786: + x26 + x264 <= 1
C787: + x101 + x216 <= 1
C788: + x5 + x121 <= 1
C789: + x43 + x184 <= 1
C790: + x81 + x271 <= 1
C791: + x7 + x466 <= 1
C792: + x65 + x73 <= 1
C793: + x36 + x251 <= 1
C794: + x130 + x354 <= 1
C795: + x415 + x482 <= 1
C796: + x19 + x77 <= 1
C797: + x282 + x402 <= 1
C798: + x5 + x16 <= 1
C799: + x117 + x194 <= 1
C800: + x16 + x192 <= 1
C801: + x19 + x242 <= 1
C802: + x40 + x255 <= 1
C803: + x7 + x14 <= 1
C804: + x1 + x453 <= 1
C805: + x390 + x412 <= 1
C806: + x5 + x159 <= 1
C807: + x197 + x479 <= 1
C808: + x83 + x248 <= 1
C809: + x8 + x132 <= 1
C810: + x5 + x52 <= 1
C811: + x52 + x94 <= 1
C812: + x35 + x64 <= 1
C813: + x1 + x116 <= 1
C814: + x306 + x488 <= 1
C815: + x387 + x403 <= 1
C816: + x222 + x278 <= 1
C817: + x7 + x413 <= 1
C818: + x4 + x406 <= 1
C819: + x224 + x237 <= 1
C820: + x302 + x443 <= 1
C821: + x31 + x279 <= 1
C822: + x91 + x308 <= 1
C823: + x19 + x53 <= 1
C824: + x145 + x366 <= 1
C825: + x166 + x292 <= 1
C826: + x10 + x26 <= 1
C827: + x19 + x346 <= 1
C828: + x123 + x318 <= 1
C829: + x34 + x111 <= 1
C830: + x9 + x480 <= 1
C831: + x1 + x146 <= 1
C832: + x10 + x107 <= 1
C833: + x58 + x97 <= 1
C834: + x77 + x133 <= 1
C835: + x35 + x442 <= 1
C836: + x73 + x306 <= 1
C837: + x55 + x354 <= 1
C838: + x103 + x283 <= 1
C839: + x341 + x348 <= 1
C840: + x104 + x451 <= 1
C841: + x24 + x69 <= 1
C842: + x74 + x97 <= 1
C843: + x150 + x247 <= 1
C844: + x261 + x467 <= 1
C845: + x37 + x367 <= 1
C846: + x212 + x495 <= 1
C847: + x30 + x140 <= 1
C848: + x21 + x161 <= 1
C849: + x5 + x59 <= 1
C850: + x117 + x296 <= 1
C851: + x334 + x360 <= 1
C852: + x193 + x256 <= 1
C853: + x39 + x220 <= 1
C854: + x285 + x366 <= 1
C855: + x50 + x238 <= 1
C856: + x5 + x277 <= 1
C857: + x2 + x67 <= 1
C858: + x52 + x285 <= 1
C859: + x28 + x121 <= 1
C860: + x112 + x182 <= 1
C861: + x12 + x170 <= 1
C862: + x25 + x315 <= 1
C863: + x27 + x160 <= 1
C864: + x71 + x260 <= 1
C865: + x59 + x133 <= 1
C866: + x5 + x345 <= 1
C867: + x173 + x312 <= 1
C868: + x64 + x150 <= 1
C869: + x59 + x90 <= 1
C870: + x35 + x126 <= 1
C871: + x154 + x332 <= 1
C872: + x10 + x207 <= 1
C873: + x7 + x339 <= 1
C874: + x39 + x231 <= 1
C875: + x159 + x426 <= 1
C876: + x9 + x86 <= 1
C877: + x263 + x321 <= 1
C878: + x23 + x51 <= 1
C879: + x83 + x234 <= 1
C880: + x94 + x154 <= 1
C881: + x1 + x66 <= 1
C882: + x49 + x76 <= 1
C883: + x67 + x446 <= 1
C884: + x12 + x485 <= 1
C885: + x51 + x237 <= 1
C886: + x10 + x278 <= 1
C887: + x3 + x76 <= 1
C888: + x49 + x475 <= 1
C889: + x52 + x120 <= 1
C890: + x108 + x371 <= 1
C891: + x317 + x397 <= 1
C892: + x18 + x60 <= 1
C893: + x89 + x439 <= 1
C894: + x85 + x476 <= 1
C895: + x307 + x470 <= 1
C896: + x323 + x337 <= 1
C897: + x21 + x355 <= 1
C898: + x169 + x172 <= 1
C899: + x7 + x342 <= 1
C900: + x213 + x392 <= 1
C901: + x5 + x471 <= 1
C902: + x20 + x43 <= 1
C903: + x203 + x375 <= 1
C904: + x25 + x480 <= 1
C905: + x63 + x77 <= 1
C906: + x39 + x105 <= 1
C907: + x104 + x187 <= 1
C908: + x59 + x437 <= 1
C909: + x6 + x167 <= 1
C910: + x8 + x14 <= 1
C911: + x84 + x421 <= 1
C912: + x49 + x67 <= 1
C913: + x3 + x67 <= 1
C914: + x12 + x377 <= 1
C915: + x18 + x335 <= 1
C916: + x91 + x269 <= 1
C917: + x40 + x175 <= 1
C918: + x22 + x245 <= 1
C919: + x132 + x451 <= 1
C920: + x202 + x227 <= 1
C921: + x12 + x458 <= 1
C922: + x175 + x467 <= 1
C923: + x98 + x434 <= 1
C924: + x180 + x463 <= 1
C925: + x110 + x295 <= 1
C926: + x256 + x348 <= 1
C927: + x49 + x417 <= 1
C928: + x23 + x94 <= 1
C929: + x36 + x104 <= 1
C930: + x33 + x253 <= 1
C931: + x34 + x78 <= 1
C932: + x15 + x90 <= 1
C933: + x36 + x418 <= 1
C934: + x199 + x459 <= 1
C935: + x360 + x383 <= 1
C936: + x5 + x24 <= 1
C937: + x6 + x379 <= 1
C938: + x10 + x165 <= 1
C939: + x59 + x273 <= 1
C940: + x5 + x258 <= 1
C941: + x81 + x339 <= 1
C942: + x23 + x448 <= 1
C943: + x18 + x421 <= 1
C944: + x19 + x299 <= 1
C945: + x23 + x25 <= 1
C946: + x6 + x49 <= 1
C947: + x145 + x330 <= 1
C948: + x24 + x149 <= 1
C949: + x9 + x31 <= 1
C950: + x81 + x482 <= 1
C951: + x180 + x185 <= 1
C952: + x103 + x440 <= 1
C953: + x12 + x60 <= 1
C954: + x347 + x391 <= 1
C955: + x40 + x53 <= 1
C956: + x337 + x369 <= 1
C957: + x135 + x265 <= 1
C958: + x12 + x137 <= 1
C959: + x141 + x411 <= 1
C960: + x395 + x430 <= 1
C961: + x1 + x424 <= 1
C962: + x39 + x314 <= 1
C963: + x167 + x323 <= 1
C964: + x104 + x326 <= 1
C965: + x90 + x98 <= 1
C966: + x7 + x142 <= 1
C967: + x175 + x259 <= 1
C968: + x104 + x169 <= 1
C969: + x33 + x446 <= 1
C970: + x5 + x31 <= 1
C971: + x36 + x89 <= 1
C972: + x28 + x216 <= 1
C973: + x223 + x353 <= 1
C974: + x25 + x93 <= 1
C975: + x79 + x276 <= 1
C976: + x8 + x423 <= 1
C977: + x130 + x303 <= 1
C978: + x19 + x20 <= 1
C979: + x152 + x473 <= 1
C980: + x36 + x133 <= 1
C981: + x143 + x312 <= 1
C982: + x50 + x307 <= 1
C983: + x70 + x192 <= 1
C984: + x5 + x317 <= 1
C985: + x127 + x289 <= 1
C986: + x110 + x281 <= 1
C987: + x19 + x474 <= 1
C988: + x6 + x75 <= 1
C989: + x58 + x134 <= 1
C990: + x1 + x18 <= 1
C991: + x9 + x114 <= 1
C992: + x245 + x390 <= 1
C993: + x120 + x359 <= 1
C994: + x3 + x28 <= 1
C995: + x39 + x305 <= 1
C996: + x5 + x353 <= 1
C997: + x34 + x96 <= 1
C998: + x87 + x287 <= 1
C999: + x126 + x391 <= 1
C1000: + x44 + x99 <= 1
C1001: + x145 + x297 <= 1
C1002: + x218 + x436 <= 1
C1003: + x75 + x493 <= 1
C1004: + x49 + x120 <= 1
C1005: + x41 + x149 <= 1
C1006: + x322 + x325 <= 1
C1007: + x31 + x381 <= 1
C1008: + x13 + x376 <= 1
C1009: + x23 + x43 <= 1
C1010: + x150 + x232 <= 1
C1011: + x352 + x417 <= 1
C1012: + x36 + x47 <= 1
C1013: + x228 + x294 <= 1
C1014: + x94 + x178 <= 1
C1015: + x39 + x74 <= 1
C1016: + x21 + x152 <= 1
C1017: + x23 + x248 <= 1
C1018: + x31 + x59 <= 1
C1019: + x226 + x429 <= 1
C1020: + x134 + x364 <= 1
C1021: + x317 + x401 <= 1
C1022: + x321 + x367 <= 1
C1023: + x29 + x88 <= 1
C1024: + x12 + x42 <= 1
C1025: + x7 + x423 <= 1
C1026: + x143 + x319 <= 1
C1027: + x17 + x61 <= 1
C1028: + x41 + x435 <= 1
C1029: + x5 + x217 <= 1
C1030: + x80 + x431 <= 1
C1031: + x86 + x345 <= 1
C1032: + x9 + x121 <= 1
C1033: + x57 + x83 <= 1
C1034: + x3 + x19 <= 1
C1035: + x86 + x119 <= 1
C1036: + x141 + x187 <= 1
C1037: + x4 + x243 <= 1
C1038: + x5 + x13 <= 1
C1039: + x28 + x166 <= 1
C1040: + x41 + x156 <= 1
C1041: + x259 + x316 <= 1
C1042: + x23 + x321 <= 1
C1043: + x104 + x457 <= 1
C1044: + x7 + x15 <= 1
C1045: + x87 + x385 <= 1
C1046: + x73 + x101 <= 1
C1047: + x19 + x280 <= 1
C1048: + x29 + x485 <= 1
C1049: + x195 + x468 <= 1
C1050: + x33 + x59 <= 1
C1051: + x399 + x460 <= 1
C1052: + x15 + x127 <= 1
C1053: + x311 + x378 <= 1
C1054: + x17 + x151 <= 1
C1055: + x127 + x242 <= 1
C1056: + x291 + x407 <= 1
C1057: + x250 + x322 <= 1
C1058: + x305 + x496 <= 1
C1059: + x17 + x52 <= 1
C1060: + x199 + x379 <= 1
C1061: + x2 + x386 <= 1
C1062: + x49 + x333 <= 1
C1063: + x258 + x483 <= 1
C1064: + x12 + x337 <= 1
C1065: + x278 + x309 <= 1
C1066: + x6 + x224 <= 1
C1067: + x32 + x71 <= 1
C1068: + x126 + x296 <= 1
C1069: + x300 + x319 <= 1
C1070: + x454 + x497 <= 1
C1071: + x85 + x374 <= 1
C1072: + x294 + x498 <= 1
C1073: + x73 + x448 <= 1
C1074: + x59 + x255 <= 1
C1075: + x90 + x117 <= 1
C1076: + x7 + x119 <= 1
C1077: + x28 + x32 <= 1
C1078: + x155 + x209 <= 1
C1079: + x5 + x12 <= 1
C1080: + x253 + x358 <= 1
C1081: + x120 + x230 <= 1
C1082: + x185 + x400 <= 1
C1083: + x12 + x414 <= 1
C1084: + x6 + x21 <= 1
C1085: + x173 + x191 <= 1
C1086: + x52 + x491 <= 1
C1087: + x108 + x333 <= 1
C1088: + x16 + x80 <= 1
C1089: + x20 + x137 <= 1
C1090: + x22 + x304 <= 1
C1091: + x52 + x253 <= 1
C1092: + x35 + x157 <= 1
C1093: + x2 + x78 <= 1
C1094: + x43 + x461 <= 1
C1095: + x70 + x334 <= 1
C1096: + x90 + x205 <= 1
C1097: + x10 + x30 <= 1
C1098: + x22 + x230 <= 1
C1099: + x143 + x341 <= 1
C1100: + x92 + x451 <= 1
C1101: + x28 + x259 <= 1
C1102: + x58 + x343 <= 1
C1103: + x336 + x399 <= 1
C1104: + x41 + x336 <= 1
C1105: + x43 + x96 <= 1
C1106: + x6 + x106 <= 1
C1107: + x45 + x368 <= 1
C1108: + x10 + x111 <= 1
C1109: + x261 + x336 <= 1
C1110: + x117 + x213 <= 1
C1111: + x36 + x117 <= 1
C1112: + x18 + x223 <= 1
C1113: + x24 + x254 <= 1
C1114: + x300 + x484 <= 1
C1115: + x449 + x493 <= 1
C1116: + x150 + x416 <= 1
C1117: + x10 + x293 <= 1
C1118: + x132 + x242 <= 1
C1119: + x15 + x73 <= 1
C1120: + x7 + x166 <= 1
C1121: + x3 + x222 <= 1
C1122: + x29 + x288 <= 1
C1123: + x22 + x27 <= 1
C1124: + x5 + x39 <= 1
C1125: + x43 + x293 <= 1
C1126: + x25 + x371 <= 1
C1127: + x68 + x410 <= 1
C1128: + x8 + x28 <= 1
C1129: + x35 + x130 + x218 <= 1
C1130: + x133 + x145 <= 1
C1131: + x271 + x301 <= 1
C1132: + x347 + x358 <= 1
C1133: + x103 + x121 <= 1
C1134: + x17 + x335 <= 1
C1135: + x7 + x210 <= 1
C1136: + x245 + x325 <= 1
C1137: + x5 + x107 <= 1
C1138: + x23 + x282 <= 1
C1139: + x1 + x411 <= 1
C1140: + x2 + x269 <= 1
C1141: + x30 + x127 <= 1
C1142: + x123 + x321 <= 1
C1143: + x33 + x116 <= 1
C1144: + x52 + x146 <= 1
C1145: + x45 + x359 <= 1
C1146: + x263 + x438 <= 1
C1147: + x122 + x302 <= 1
C1148: + x21 + x360 <= 1
C1149: + x5 + x250 <= 1
C1150: + x142 + x489 <= 1
C1151: + x7 + x343 <= 1
C1152: + x41 + x113 <= 1
C1153: + x4 + x5 <= 1
C1154: + x227 + x328 <= 1
C1155: + x260 + x462 <= 1
C1156: + x65 + x180 <= 1
C1157: + x94 + x150 <= 1
C1158: + x9 + x41 <= 1
C1159: + x12 + x86 <= 1
C1160: + x123 + x203 <= 1
C1161: + x86 + x396 <= 1
C1162: + x77 + x465 <= 1
C1163: + x17 + x25 <= 1
C1164: + x22 + x306 <= 1
C1165: + x1 + x483 <= 1
C1166: + x55 + x86 <= 1
C1167: + x224 + x382 <= 1
C1168: + x40 + x174 <= 1
C1169: + x315 + x413 <= 1
C1170: + x9 + x21 <= 1
C1171: + x54 + x223 <= 1
C1172: + x21 + x93 <= 1
C1173: + x95 + x491 <= 1
C1174: + x395 + x469 <= 1
C1175: + x24 + x482 <= 1
C1176: + x19 + x489 <= 1
C1177: + x59 + x109 <= 1
C1178: + x3 + x5 + x6 + x7 <= 1
C1179: + x37 + x67 + x72 <= 1
C1180: + x20 + x212 <= 1
C1181: + x41 + x120 <= 1
C1182: + x112 + x131 <= 1
C1183: + x40 + x301 <= 1
C1184: + x26 + x57 <= 1
C1185: + x24 + x87 <= 1
C1186: + x89 + x356 <= 1
C1187: + x145 + x214 <= 1
C1188: + x338 + x410 <= 1
C1189: + x19 + x106 <= 1
C1190: + x84 + x206 <= 1
C1191: + x5 + x21 <= 1
C1192: + x171 + x228 <= 1
C1193: + x1 + x93 <= 1
C1194: + x48 + x151 <= 1
C1195: + x132 + x442 <= 1
C1196: + x89 + x275 <= 1
C1197: + x133 + x135 <= 1
C1198: + x5 + x263 <= 1
C1199: + x130 + x156 <= 1
C1200: + x24 + x394 <= 1
C1201: + x7 + x196 <= 1
C1202: + x109 + x262 <= 1
C1203: + x18 + x150 <= 1
C1204: + x12 + x220 <= 1
C1205: + x178 + x237 <= 1
C1206: + x22 + x241 <= 1
C1207: + x23 + x231 <= 1
C1208: + x23 + x300 <= 1
C1209: + x278 + x428 <= 1
C1210: + x314 + x395 <= 1
C1211: + x332 + x465 <= 1
C1212: + x34 + x118 <= 1
C1213: + x401 + x486 <= 1
C1214: + x132 + x344 <= 1
C1215: + x1 + x8 <= 1
C1216: + x25 + x142 <= 1
C1217: + x16 + x51 <= 1
C1218: + x236 + x367 <= 1
C1219: + x1 + x421 <= 1
C1220: + x203 + x382 <= 1
C1221: + x132 + x229 <= 1
C1222: + x180 + x415 <= 1
C1223: + x91 + x147 <= 1
C1224: + x7 + x143 <= 1
C1225: + x28 + x449 <= 1
C1226: + x48 + x57 <= 1
C1227: + x60 + x316 <= 1
C1228: + x86 + x315 <= 1
C1229: + x14 + x249 <= 1
C1230: + x50 + x487 <= 1
C1231: + x45 + x123 <= 1
C1232: + x141 + x468 <= 1
C1233: + x323 + x491 <= 1
C1234: + x4 + x63 <= 1
C1235: + x90 + x398 <= 1
C1236: + x40 + x282 <= 1
C1237: + x19 + x295 <= 1
C1238: + x83 + x103 <= 1
C1239: + x139 + x341 <= 1
C1240: + x167 + x316 <= 1
C1241: + x14 + x74 <= 1
C1242: + x189 + x456 <= 1
C1243: + x145 + x249 <= 1
C1244: + x16 + x209 <= 1
C1245: + x265 + x272 <= 1
C1246: + x225 + x439 <= 1
C1247: + x269 + x368 <= 1
C1248: + x10 + x149 <= 1
C1249: + x67 + x352 <= 1
C1250: + x30 + x74 <= 1
C1251: + x7 + x86 <= 1
C1252: + x330 + x459 <= 1
C1253: + x3 + x110 <= 1
C1254: + x95 + x203 <= 1
C1255: + x90 + x245 <= 1
C1256: + x10 + x230 <= 1
C1257: + x140 + x269 <= 1
C1258: + x233 + x294 <= 1
C1259: + x115 + x354 <= 1
C1260: + x104 + x483 <= 1
C1261: + x17 + x82 <= 1
C1262: + x9 + x79 <= 1
C1263: + x18 + x102 <= 1
C1264: + x36 + x208 <= 1
C1265: + x3 + x29 <= 1
C1266: + x13 + x257 <= 1
C1267: + x15 + x37 <= 1
C1268: + x16 + x351 <= 1
C1269: + x155 + x279 <= 1
C1270: + x301 + x359 <= 1
C1271: + x192 + x347 <= 1
C1272: + x77 + x153 <= 1
C1273: + x12 + x286 <= 1
C1274: + x171 + x214 <= 1
C1275: + x88 + x111 <= 1
C1276: + x2 + x349 <= 1
C1277: + x21 + x38 <= 1
C1278: + x7 + x17 <= 1
C1279: + x264 + x388 <= 1
C1280: + x21 + x312 <= 1
C1281: + x258 + x473 <= 1
C1282: + x30 + x285 <= 1
C1283: + x13 + x373 <= 1
C1284: + x52 + x381 <= 1
C1285: + x172 + x198 <= 1
C1286: + x11 + x177 <= 1
C1287: + x57 + x423 <= 1
C1288: + x3 + x246 <= 1
C1289: + x34 + x370 <= 1
C1290: + x90 + x264 <= 1
C1291: + x40 + x331 <= 1
C1292: + x52 + x238 <= 1
C1293: + x244 + x353 <= 1
C1294: + x32 + x442 <= 1
C1295: + x57 + x278 <= 1
C1296: + x130 + x162 <= 1
C1297: + x12 + x295 <= 1
C1298: + x104 + x234 <= 1
C1299: + x39 + x422 <= 1
C1300: + x1 + x22 <= 1
C1301: + x81 + x265 <= 1
C1302: + x134 + x275 <= 1
C1303: + x17 + x73 <= 1
C1304: + x18 + x95 <= 1
C1305: + x322 + x432 <= 1
C1306: + x357 + x430 <= 1
C1307: + x30 + x450 <= 1
C1308: + x58 + x328 <= 1
C1309: + x5 + x365 <= 1
C1310: + x84 + x225 <= 1
C1311: + x94 + x250 <= 1
C1312: + x59 + x78 <= 1
C1313: + x35 + x82 <= 1
C1314: + x100 + x134 <= 1
C1315: + x137 + x410 <= 1
C1316: + x64 + x108 <= 1
C1317: + x36 + x70 <= 1
C1318: + x15 + x318 <= 1
C1319: + x93 + x403 <= 1
C1320: + x161 + x272 <= 1
C1321: + x5 + x500 <= 1
C1322: + x7 + x12 <= 1
C1323: + x155 + x385 <= 1
C1324: + x139 + x148 <= 1
C1325: + x86 + x190 <= 1
C1326: + x22 + x425 <= 1
C1327: + x25 + x453 <= 1
C1328: + x79 + x188 <= 1
C1329: + x100 + x352 <= 1
C1330: + x10 + x401 <= 1
C1331: + x104 + x307 <= 1
C1332: + x14 + x124 <= 1
C1333: + x284 + x460 <= 1
C1334: + x141 + x337 <= 1
C1335: + x32 + x260 <= 1
C1336: + x35 + x38 <= 1
C1337: + x227 + x303 <= 1
C1338: + x183 + x289 <= 1
C1339: + x75 + x477 <= 1
C1340: + x40 + x324 <= 1
C1341: + x110 + x270 <= 1
C1342: + x57 + x232 <= 1
C1343: + x14 + x48 <= 1
C1344: + x87 + x187 <= 1
C1345: + x5 + x197 <= 1
C1346: + x109 + x244 <= 1
C1347: + x7 + x310 <= 1
C1348: + x10 + x24 <= 1
C1349: + x4 + x106 <= 1
C1350: + x22 + x224 <= 1
C1351: + x442 + x476 <= 1
C1352: + x162 + x445 <= 1
C1353: + x72 + x157 <= 1
C1354: + x49 + x148 <= 1
C1355: + x231 + x347 <= 1
C1356: + x21 + x69 <= 1
C1357: + x315 + x346 <= 1
C1358: + x110 + x141 <= 1
C1359: + x93 + x197 <= 1
C1360: + x86 + x214 <= 1
C1361: + x4 + x247 <= 1
C1362: + x5 + x9 <= 1
C1363: + x105 + x291 <= 1
C1364: + x6 + x338 <= 1
C1365: + x100 + x139 <= 1
C1366: + x226 + x494 <= 1
C1367: + x39 + x246 <= 1
C1368: + x15 + x418 <= 1
C1369: + x39 + x284 <= 1
C1370: + x34 + x417 <= 1
C1371: + x53 + x325 <= 1
C1372: + x364 + x429 <= 1
C1373: + x10 + x45 <= 1
C1374: + x8 + x131 <= 1
C1375: + x3 + x200 <= 1
C1376: + x176 + x215 <= 1
C1377: + x91 + x386 <= 1
C1378: + x9 + x56 <= 1
C1379: + x8 + x34 <= 1
C1380: + x7 + x414 <= 1
C1381: + x106 + x471 <= 1
C1382: + x491 + x499 <= 1
C1383: + x83 + x136 <= 1
C1384: + x132 + x180 <= 1
C1385: + x23 + x126 <= 1
C1386: + x15 + x143 <= 1
C1387: + x163 + x217 <= 1
C1388: + x19 + x54 <= 1
C1389: + x103 + x393 <= 1
C1390: + x305 + x480 <= 1
C1391: + x21 + x68 <= 1
C1392: + x109 + x429 <= 1
C1393: + x2 + x5 <= 1
C1394: + x58 + x104 <= 1
C1395: + x106 + x190 <= 1
C1396: + x108 + x194 <= 1
C1397: + x35 + x439 <= 1
C1398: + x4 + x27 <= 1
C1399: + x125 + x154 <= 1
C1400: + x54 + x148 <= 1
C1401: + x256 + x317 <= 1
C1402: + x247 + x324 <= 1
C1403: + x132 + x141 <= 1
C1404: + x5 + x135 <= 1
C1405: + x6 + x17 <= 1
C1406: + x43 + x389 <= 1
C1407: + x24 + x427 <= 1
C1408: + x200 + x493 <= 1
C1409: + x55 + x274 <= 1
C1410: + x18 + x22 <= 1
C1411: + x38 + x219 <= 1
C1412: + x13 + x497 <= 1
C1413: + x25 + x66 <= 1
C1414: + x26 + x118 <= 1
C1415: + x7 + x50 <= 1
C1416: + x5 + x278 <= 1
C1417: + x71 + x242 <= 1
C1418: + x58 + x157 <= 1
C1419: + x76 + x199 <= 1
C1420: + x77 + x201 <= 1
C1421: + x185 + x189 <= 1
C1422: + x5 + x112 <= 1
C1423: + x23 + x210 <= 1
C1424: + x12 + x24 <= 1
C1425: + x213 + x267 <= 1
C1426: + x261 + x407 <= 1
C1427: + x136 + x189 <= 1
C1428: + x223 + x424 <= 1
C1429: + x23 + x65 <= 1
C1430: + x13 + x138 <= 1
C1431: + x18 + x211 <= 1
C1432: + x13 + x444 <= 1
C1433: + x43 + x235 <= 1
C1434: + x5 + x489 <= 1
C1435: + x110 + x453 <= 1
C1436: + x20 + x37 <= 1
C1437: + x5 + x142 <= 1
C1438: + x8 + x294 <= 1
C1439: + x28 + x37 <= 1
C1440: + x84 + x196 <= 1
C1441: + x10 + x396 <= 1
C1442: + x72 + x102 <= 1
C1443: + x19 + x116 <= 1
C1444: + x3 + x218 <= 1
C1445: + x4 + x145 <= 1
C1446: + x16 + x81 <= 1
C1447: + x91 + x404 <= 1
C1448: + x281 + x342 <= 1
C1449: + x7 + x400 <= 1
C1450: + x75 + x299 <= 1
C1451: + x2 + x91 <= 1
C1452: + x103 + x125 <= 1
C1453: + x2 + x408 <= 1
C1454: + x201 + x394 <= 1
C1455: + x202 + x286 <= 1
C1456: + x10 + x11 <= 1
C1457: + x155 + x192 <= 1
C1458: + x23 + x233 <= 1
C1459: + x43 + x162 <= 1
C1460: + x34 + x157 <= 1
C1461: + x126 + x196 <= 1
C1462: + x49 + x185 <= 1
C1463: + x345 + x394 <= 1
C1464: + x84 + x253 <= 1
C1465: + x284 + x412 <= 1
C1466: + x23 + x92 <= 1
C1467: + x25 + x434 <= 1
C1468: + x8 + x89 <= 1
C1469: + x1 + x14 <= 1
C1470: + x183 + x241 <= 1
C1471: + x4 + x9 <= 1
C1472: + x297 + x458 <= 1
C1473: + x342 + x357 <= 1
C1474: + x17 + x97 <= 1
C1475: + x350 + x485 <= 1
C1476: + x25 + x33 <= 1
C1477: + x5 + x373 <= 1
C1478: + x28 + x62 <= 1
C1479: + x193 + x418 <= 1
C1480: + x93 + x230 <= 1
C1481: + x325 + x372 <= 1
C1482: + x36 + x174 <= 1
C1483: + x8 + x13 <= 1
C1484: + x214 + x323 <= 1
C1485: + x88 + x362 <= 1
C1486: + x83 + x113 <= 1
C1487: + x72 + x244 <= 1
C1488: + x2 + x84 <= 1
C1489: + x103 + x120 <= 1
C1490: + x30 + x270 <= 1
C1491: + x12 + x380 <= 1
C1492: + x272 + x478 <= 1
C1493: + x15 + x100 <= 1
C1494: + x122 + x330 <= 1
C1495: + x7 + x435 <= 1
C1496: + x53 + x277 <= 1
C1497: + x136 + x179 <= 1
C1498: + x77 + x179 <= 1
C1499: + x40 + x63 <= 1
C1500: + x15 + x176 <= 1
C1501: + x80 + x104 <= 1
C1502: + x152 + x315 <= 1
C1503: + x1 + x5 <= 1
C1504: + x46 + x287 <= 1
C1505: + x47 + x85 <= 1
C1506: + x30 + x229 <= 1
C1507: + x13 + x29 <= 1
C1508: + x4 + x114 <= 1
C1509: + x42 + x199 <= 1
C1510: + x9 + x69 <= 1
C1511: + x3 + x478 <= 1
C1512: + x400 + x476 <= 1
C1513: + x49 + x236 <= 1
C1514: + x132 + x228 <= 1
C1515: + x315 + x322 <= 1
C1516: + x86 + x91 <= 1
C1517: + x51 + x498 <= 1
C1518: + x5 + x17 <= 1
C1519: + x180 + x240 <= 1
C1520: + x100 + x147 <= 1
C1521: + x63 + x363 <= 1
C1522: + x94 + x270 <= 1
C1523: + x31 + x372 <= 1
C1524: + x142 + x309 <= 1
C1525: + x20 + x438 <= 1
C1526: + x77 + x246 <= 1
C1527: + x257 + x477 <= 1
C1528: + x5 + x168 <= 1
C1529: + x65 + x272 <= 1
C1530: + x4 + x75 <= 1
C1531: + x17 + x163 <= 1
C1532: + x9 + x32 <= 1
C1533: + x156 + x465 <= 1
C1534: + x59 + x358 <= 1
C1535: + x39 + x323 <= 1
C1536: + x26 + x405 <= 1
C1537: + x19 + x480 <= 1
C1538: + x158 + x219 <= 1
C1539: + x97 + x163 <= 1
C1540: + x53 + x433 <= 1
C1541: + x7 + x244 <= 1
C1542: + x73 + x154 <= 1
C1543: + x63 + x290 <= 1
C1544: + x283 + x399 <= 1
C1545: + x23 + x380 <= 1
C1546: + x17 + x95 <= 1
C1547: + x127 + x138 <= 1
C1548: + x24 + x108 <= 1
C1549: + x130 + x197 <= 1
C1550: + x42 + x107 <= 1
C1551: + x4 + x361 <= 1
C1552: + x10 + x114 <= 1
C1553: + x58 + x80 <= 1
C1554: + x17 + x281 <= 1
C1555: + x171 + x292 <= 1
C1556: + x100 + x156 <= 1
C1557: + x123 + x217 <= 1
C1558: + x4 + x35 <= 1
C1559: + x34 + x55 <= 1
C1560: + x164 + x462 <= 1
C1561: + x260 + x492 <= 1
C1562: + x15 + x110 <= 1
C1563: + x91 + x163 <= 1
C1564: + x172 + x193 <= 1
C1565: + x5 + x409 <= 1
C1566: + x6 + x279 <= 1
C1567: + x151 + x492 <= 1
C1568: + x54 + x301 <= 1
C1569: + x146 + x497 <= 1
C1570: + x12 + x52 <= 1
C1571: + x51 + x203 <= 1
C1572: + x5 + x318 <= 1
C1573: + x199 + x266 <= 1
C1574: + x1 + x257 <= 1
C1575: + x67 + x170 <= 1
C1576: + x77 + x161 <= 1
C1577: + x40 + x45 <= 1
C1578: + x41 + x461 <= 1
C1579: + x189 + x280 <= 1
C1580: + x13 + x174 <= 1
C1581: + x25 + x292 <= 1
C1582: + x43 + x374 <= 1
C1583: + x320 + x469 <= 1
C1584: + x185 + x439 <= 1
C1585: + x110 + x332 <= 1
C1586: + x23 + x185 <= 1
C1587: + x92 + x112 <= 1
C1588: + x24 + x53 <= 1
C1589: + x129 + x177 <= 1
C1590: + x51 + x115 <= 1
C1591: + x6 + x34 <= 1
C1592: + x63 + x83 <= 1
C1593: + x10 + x39 <= 1
C1594: + x5 + x75 <= 1
C1595: + x161 + x380 <= 1
C1596: + x10 + x130 <= 1
C1597: + x2 + x365 <= 1
C1598: + x59 + x161 <= 1
C1599: + x6 + x435 <= 1
C1600: + x55 + x79 <= 1
C1601: + x348 + x424 <= 1
C1602: + x50 + x89 <= 1
C1603: + x4 + x202 <= 1
C1604: + x13 + x165 <= 1
C1605: + x26 + x258 <= 1
C1606: + x120 + x220 <= 1
C1607: + x296 + x472 <= 1
C1608: + x132 + x215 <= 1
C1609: + x124 + x431 <= 1
C1610: + x345 + x434 <= 1
C1611: + x9 + x471 <= 1
C1612: + x83 + x198 <= 1
C1613: + x2 + x15 <= 1
C1614: + x3 + x181 <= 1
C1615: + x77 + x148 <= 1
C1616: + x189 + x355 <= 1
C1617: + x92 + x101 <= 1
C1618: + x246 + x427 <= 1
C1619: + x26 + x36 <= 1
C1620: + x10 + x314 <= 1
C1621: + x93 + x308 <= 1
C1622: + x241 + x397 <= 1
C1623: + x47 + x332 <= 1
C1624: + x137 + x216 <= 1
C1625: + x55 + x284 <= 1
C1626: + x3 + x201 <= 1
C1627: + x225 + x345 <= 1
C1628: + x206 + x283 <= 1
C1629: + x52 + x485 <= 1
C1630: + x26 + x205 <= 1
C1631: + x76 + x475 <= 1
C1632: + x13 + x113 <= 1
C1633: + x115 + x317 <= 1
C1634: + x32 + x66 <= 1
C1635: + x109 + x291 <= 1
C1636: + x145 + x364 <= 1
C1637: + x8 + x182 <= 1
C1638: + x21 + x228 <= 1
C1639: + x40 + x130 <= 1
C1640: + x8 + x473 <= 1
C1641: + x29 + x100 <= 1
C1642: + x33 + x103 <= 1
C1643: + x5 + x344 <= 1
C1644: + x44 + x354 <= 1
C1645: + x32 + x471 <= 1
C1646: + x1 + x299 <= 1
C1647: + x46 + x404 <= 1
C1648: + x52 + x290 <= 1
C1649: + x35 + x101 <= 1
C1650: + x72 + x298 <= 1
C1651: + x45 + x257 <= 1
C1652: + x20 + x466 <= 1
C1653: + x28 + x43 <= 1
C1654: + x114 + x186 <= 1
C1655: + x5 + x57 <= 1
C1656: + x52 + x494 <= 1
C1657: + x100 + x123 <= 1
C1658: + x7 + x402 <= 1
C1659: + x72 + x350 <= 1
C1660: + x4 + x8 + x12 + x40 <= 1
C1661: + x68 + x335 <= 1
C1662: + x97 + x482 <= 1
C1663: + x333 + x451 <= 1
C1664: + x57 + x296 <= 1
C1665: + x5 + x208 <= 1
C1666: + x215 + x306 <= 1
C1667: + x145 + x158 <= 1
C1668: + x2 + x240 <= 1
C1669: + x177 + x247 <= 1
C1670: + x222 + x386 <= 1
C1671: + x14 + x136 <= 1
C1672: + x14 + x339 <= 1
C1673: + x34 + x340 <= 1
C1674: + x93 + x462 <= 1
C1675: + x6 + x105 <= 1
C1676: + x216 + x275 <= 1
C1677: + x214 + x406 <= 1
C1678: + x32 + x115 <= 1
C1679: + x60 + x110 <= 1
C1680: + x125 + x150 <= 1
C1681: + x34 + x211 <= 1
C1682: + x317 + x464 <= 1
C1683: + x159 + x428 <= 1
C1684: + x76 + x143 <= 1
C1685: + x13 + x286 <= 1
C1686: + x432 + x436 <= 1
C1687: + x224 + x324 <= 1
C1688: + x155 + x237 <= 1
C1689: + x135 + x433 <= 1
C1690: + x40 + x68 <= 1
C1691: + x209 + x497 <= 1
C1692: + x180 + x298 <= 1
C1693: + x7 + x393 <= 1
C1694: + x8 + x27 <= 1
C1695: + x30 + x405 <= 1
C1696: + x7 + x54 <= 1
C1697: + x129 + x263 <= 1
C1698: + x7 + x284 <= 1
C1699: + x19 + x41 <= 1
C1700: + x29 + x301 <= 1
C1701: + x34 + x160 <= 1
C1702: + x90 + x299 <= 1
C1703: + x161 + x349 <= 1
C1704: + x30 + x52 + x109 <= 1
C1705: + x68 + x183 <= 1
C1706: + x5 + x326 <= 1
C1707: + x6 + x82 <= 1
C1708: + x7 + x98 <= 1
C1709: + x39 + x447 <= 1
C1710: + x17 + x193 <= 1
C1711: + x1 + x11 <= 1
C1712: + x220 + x447 <= 1
C1713: + x40 + x311 <= 1
C1714: + x33 + x319 <= 1
C1715: + x161 + x297 <= 1
C1716: + x8 + x387 <= 1
C1717: + x50 + x137 <= 1
C1718: + x159 + x208 <= 1
C1719: + x19 + x112 <= 1
C1720: + x273 + x490 <= 1
C1721: + x131 + x415 <= 1
C1722: + x5 + x47 <= 1
C1723: + x171 + x250 <= 1
C1724: + x25 + x379 <= 1
C1725: + x17 + x253 <= 1
C1726: + x8 + x20 <= 1
C1727: + x300 + x408 <= 1
C1728: + x84 + x419 <= 1
C1729: + x12 + x85 <= 1
C1730: + x17 + x26 <= 1
C1731: + x92 + x419 <= 1
C1732: + x46 + x128 <= 1
C1733: + x13 + x329 <= 1
C1734: + x159 + x252 <= 1
C1735: + x6 + x202 <= 1
C1736: + x1 + x246 <= 1
C1737: + x213 + x441 <= 1
C1738: + x115 + x240 <= 1
C1739: + x226 + x412 <= 1
C1740: + x59 + x352 <= 1
C1741: + x23 + x499 <= 1
C1742: + x105 + x284 <= 1
C1743: + x269 + x458 <= 1
C1744: + x5 + x226 <= 1
C1745: + x57 + x479 <= 1
C1746: + x13 + x98 <= 1
C1747: + x26 + x64 <= 1
C1748: + x79 + x383 <= 1
C1749: + x65 + x111 <= 1
C1750: + x75 + x366 <= 1
C1751: + x39 + x257 <= 1
C1752: + x41 + x363 <= 1
C1753: + x5 + x369 <= 1
C1754: + x11 + x92 <= 1
C1755: + x3 + x173 <= 1
C1756: + x22 + x44 <= 1
C1757: + x225 + x357 <= 1
C1758: + x88 + x92 <= 1
C1759: + x6 + x381 <= 1
C1760: + x15 + x298 <= 1
C1761: + x307 + x406 <= 1
C1762: + x42 + x315 <= 1
C1763: + x10 + x258 <= 1
C1764: + x2 + x88 <= 1
C1765: + x9 + x363 <= 1
C1766: + x45 + x455 <= 1
C1767: + x292 + x393 <= 1
C1768: + x20 + x272 <= 1
C1769: + x175 + x194 <= 1
C1770: + x297 + x393 <= 1
C1771: + x225 + x433 <= 1
C1772: + x36 + x158 <= 1
C1773: + x9 + x29 <= 1
C1774: + x8 + x61 <= 1
C1775: + x80 + x298 <= 1
C1776: + x59 + x359 <= 1
C1777: + x29 + x72 <= 1
C1778: + x12 + x58 <= 1
C1779: + x217 + x224 <= 1
C1780: + x23 + x87 <= 1
C1781: + x18 + x193 <= 1
C1782: + x46 + x283 <= 1
C1783: + x41 + x128 <= 1
C1784: + x12 + x151 <= 1
C1785: + x106 + x395 <= 1
C1786: + x5 + x475 <= 1
C1787: + x120 + x368 <= 1
C1788: + x52 + x171 <= 1
C1789: + x36 + x421 <= 1
C1790: + x83 + x213 <= 1
C1791: + x84 + x214 <= 1
C1792: + x3 + x168 <= 1
C1793: + x32 + x158 <= 1
C1794: + x6 + x171 <= 1
C1795: + x21 + x32 <= 1
C1796: + x4 + x34 <= 1
C1797: + x60 + x77 <= 1
C1798: + x32 + x400 <= 1
C1799: + x3 + x494 <= 1
C1800: + x284 + x338 <= 1
C1801: + x4 + x276 <= 1
C1802: + x17 + x437 <= 1
C1803: + x83 + x342 <= 1
C1804: + x19 + x22 <= 1
C1805: + x95 + x313 <= 1
C1806: + x5 + x65 <= 1
C1807: + x23 + x255 <= 1
C1808: + x126 + x210 <= 1
C1809: + x16 + x119 <= 1
C1810: + x94 + x478 <= 1
C1811: + x322 + x410 <= 1
C1812: + x13 + x179 <= 1
C1813: + x32 + x87 <= 1
C1814: + x262 + x443 <= 1
C1815: + x119 + x222 <= 1
C1816: + x20 + x225 <= 1
C1817: + x12 + x144 <= 1
C1818: + x5 + x117 <= 1
C1819: + x235 + x349 <= 1
C1820: + x8 + x490 <= 1
C1821: + x111 + x332 <= 1
C1822: + x264 + x463 <= 1
C1823: + x3 + x30 <= 1
C1824: + x198 + x433 <= 1
C1825: + x63 + x437 <= 1
C1826: + x103 + x139 <= 1
C1827: + x161 + x232 <= 1
C1828: + x26 + x328 <= 1
C1829: + x35 + x427 <= 1
C1830: + x17 + x226 <= 1
C1831: + x290 + x454 <= 1
C1832: + x40 + x274 <= 1
C1833: + x1 + x457 <= 1
C1834: + x5 + x171 <= 1
C1835: + x32 + x44 <= 1
C1836: + x52 + x384 <= 1
C1837: + x129 + x400 <= 1
C1838: + x3 + x243 <= 1
C1839: + x257 + x373 <= 1
C1840: + x89 + x92 <= 1
C1841: + x32 + x262 <= 1
C1842: + x90 + x263 <= 1
C1843: + x5 + x80 <= 1
C1844: + x19 + x178 <= 1
C1845: + x5 + x389 <= 1
C1846: + x26 + x199 <= 1
C1847: + x7 + x417 <= 1
C1848: + x65 + x424 <= 1
C1849: + x83 + x498 <= 1
C1850: + x5 + x314 <= 1
C1851: + x104 + x390 <= 1
C1852: + x27 + x274 <= 1
C1853: + x163 + x442 <= 1
C1854: + x93 + x187 <= 1
C1855: + x31 + x72 <= 1
C1856: + x52 + x268 <= 1
C1857: + x268 + x493 <= 1
C1858: + x6 + x233 <= 1
C1859: + x40 + x144 <= 1
C1860: + x13 + x15 <= 1
C1861: + x5 + x457 <= 1
C1862: + x14 + x153 <= 1
C1863: + x14 + x292 <= 1
C1864: + x249 + x273 <= 1
C1865: + x30 + x449 <= 1
C1866: + x7 + x122 <= 1
C1867: + x200 + x454 <= 1
C1868: + x54 + x459 <= 1
C1869: + x157 + x252 <= 1
C1870: + x169 + x178 <= 1
C1871: + x24 + x238 <= 1
C1872: + x63 + x281 <= 1
C1873: + x1 + x35 <= 1
C1874: + x20 + x182 <= 1
C1875: + x106 + x110 <= 1
C1876: + x132 + x432 <= 1
C1877: + x24 + x49 <= 1
C1878: + x62 + x254 <= 1
C1879: + x38 + x402 <= 1
C1880: + x52 + x325 <= 1
C1881: + x228 + x297 <= 1
C1882: + x106 + x255 <= 1
C1883: + x4 + x189 <= 1
C1884: + x5 + x55 <= 1
C1885: + x8 + x44 <= 1
C1886: + x103 + x347 <= 1
C1887: + x48 + x241 <= 1
C1888: + x262 + x266 <= 1
C1889: + x139 + x197 <= 1
C1890: + x77 + x220 <= 1
C1891: + x417 + x495 <= 1
C1892: + x337 + x356 <= 1
C1893: + x18 + x172 <= 1
C1894: + x444 + x474 <= 1
C1895: + x41 + x85 <= 1
C1896: + x21 + x225 <= 1
C1897: + x361 + x362 <= 1
C1898: + x98 + x329 <= 1
C1899: + x5 + x440 <= 1
C1900: + x7 + x472 <= 1
C1901: + x145 + x406 <= 1
C1902: + x3 + x419 <= 1
C1903: + x92 + x222 <= 1
C1904: + x129 + x322 <= 1
C1905: + x257 + x311 <= 1
C1906: + x41 + x484 <= 1
C1907: + x5 + x10 <= 1
C1908: + x443 + x444 <= 1
C1909: + x90 + x146 <= 1
C1910: + x15 + x262 <= 1
C1911: + x290 + x472 <= 1
C1912: + x14 + x273 <= 1
C1913: + x90 + x488 <= 1
C1914: + x19 + x273 <= 1
C1915: + x1 + x455 <= 1
C1916: + x23 + x39 <= 1
C1917: + x79 + x132 <= 1
C1918: + x75 + x100 <= 1
C1919: + x86 + x281 <= 1
C1920: + x215 + x452 <= 1
C1921: + x5 + x62 <= 1
C1922: + x17 + x140 <= 1
C1923: + x23 + x132 <= 1
C1924: + x8 + x33 <= 1
C1925: + x4 + x408 <= 1
C1926: + x405 + x416 <= 1
C1927: + x24 + x30 <= 1
C1928: + x111 + x494 <= 1
C1929: + x2 + x80 <= 1
C1930: + x4 + x307 <= 1
C1931: + x14 + x40 <= 1
C1932: + x36 + x500 <= 1
C1933: + x190 + x430 <= 1
C1934: + x86 + x365 <= 1
C1935: + x31 + x211 <= 1
C1936: + x23 + x224 <= 1
C1937: + x89 + x118 <= 1
C1938: + x16 + x18 <= 1
C1939: + x41 + x249 <= 1
C1940: + x59 + x252 <= 1
C1941: + x5 + x340 <= 1
C1942: + x15 + x63 <= 1
C1943: + x90 + x128 <= 1
C1944: + x7 + x108 <= 1
C1945: + x19 + x70 <= 1
C1946: + x2 + x28 <= 1
C1947: + x28 + x432 <= 1
C1948: + x10 + x105 <= 1
C1949: + x33 + x456 <= 1
C1950: + x253 + x355 <= 1
C1951: + x1 + x49 <= 1
C1952: + x239 + x385 <= 1
C1953: + x50 + x365 <= 1
C1954: + x33 + x293 <= 1
C1955: + x33 + x234 <= 1
C1956: + x87 + x413 <= 1
C1957: + x15 + x426 <= 1
C1958: + x49 + x200 <= 1

binary
x1 x2 x3 x4 x5 x6 x7 x8 x9 x10 x11 x12 x13 x14 x15 x16 x17 x18 x19 x20 x21 x22 x23 x24 x25 x26 x27 x28 x29 x30 x31 x32 x33 x34 x35 x36 x37 x38 x39 x40 x41 x42 x43 x44 x45 x46 x47 x48 x49 x50 x51 x52 x53 x54 x55 x56 x57 x58 x59 x60 x61 x62 x63 x64 x65 x66 x67 x68 x69 x70 x71 x72 x73 x74 x75 x76 x77 x78 x79 x80 x81 x82 x83 x84 x85 x86 x87 x88 x89 x90 x91 x92 x93 x94 x95 x96 x97 x98 x99 x100 x101 x102 x103 x104 x105 x106 x107 x108 x109 x110 x111 x112 x113 x114 x115 x116 x117 x118 x119 x120 x121 x122 x123 x124 x125 x126 x127 x128 x129 x130 x131 x132 x133 x134 x135 x136 x137 x138 x139 x140 x141 x142 x143 x144 x145 x146 x147 x148 x149 x150 x151 x152 x153 x154 x155 x156 x157 x158 x159 x160 x161 x162 x163 x164 x165 x166 x167 x168 x169 x170 x171 x172 x173 x174 x175 x176 x177 x178 x179 x180 x181 x182 x183 x184 x185 x186 x187 x188 x189 x190 x191 x192 x193 x194 x195 x196 x197 x198 x199 x200 x201 x202 x203 x204 x205 x206 x207 x208 x209 x210 x211 x212 x213 x214 x215 x216 x217 x218 x219 x220 x221 x222 x223 x224 x225 x226 x227 x228 x229 x230 x231 x232 x233 x234 x235 x236 x237 x238 x239 x240 x241 x242 x243 x244 x245 x246 x247 x248 x249 x250 x251 x252 x253 x254 x255 x256 x257 x258 x259 x260 x261 x262 x263 x264 x265 x266 x267 x268 x269 x270 x271 x272 x273 x274 x275 x276 x277 x278 x279 x280 x281 x282 x283 x284 x285 x286 x287 x288 x289 x290 x291 x292 x293 x294 x295 x296 x297 x298 x299 x300 x301 x302 x303 x304 x305 x306 x307 x308 x309 x310 x311 x312 x313 x314 x315 x316 x317 x318 x319 x320 x321 x322 x323 x324 x325 x326 x327 x328 x329 x330 x331 x332 x333 x334 x335 x336 x337 x338 x339 x340 x341 x342 x343 x344 x345 x346 x347 x348 x349 x350 x351 x352 x353 x354 x355 x356 x357 x358 x359 x360 x361 x362 x363 x364 x365 x366 x367 x368 x369 x370 x371 x372 x373 x374 x375 x376 x377 x378 x379 x380 x381 x382 x383 x384 x385 x386 x387 x388 x389 x390 x391 x392 x393 x394 x395 x396 x397 x398 x399 x400 x401 x402 x403 x404 x405 x406 x407 x408 x409 x410 x411 x412 x413 x414 x415 x416 x417 x418 x419 x420 x421 x422 x423 x424 x425 x426 x427 x428 x429 x430 x431 x432 x433 x434 x435 x436 x437 x438 x439 x440 x441 x442 x443 x444 x445 x446 x447 x448 x449 x450 x451 x452 x453 x454 x455 x456 x457 x458 x459 x460 x461 x462 x463 x464 x465 x466 x467 x468 x469 x470 x471 x472 x473 x474 x475 x476 x477 x478 x479 x480 x481 x482 x483 x484 x485 x486 x487 x488 x489 x490 x491 x492 x493 x494 x495 x496 x497 x498 x499 x500
