maximize
OBJ: + 1 x1 + 1 x2 + 1 x3 + 1 x4 + 1 x5 + 1 x6 + 1 x7 + 1 x8 + 1 x9 + 1 x10 + 1 x11 + 1 x12 + 1 x13 + 1 x14 + 1 x15 + 1 x16 + 1 x17 + 1 x18 + 1 x19 + 1 x20 + 1 x21 + 1 x22 + 1 x23 + 1 x24 + 1 x25 + 1 x26 + 1 x27 + 1 x28 + 1 x29 + 1 x30 + 1 x31 + 1 x32 + 1 x33 + 1 x34 + 1 x35 + 1 x36 + 1 x37 + 1 x38 + 1 x39 + 1 x40 + 1 x41 + 1 x42 + 1 x43 + 1 x44 + 1 x45 + 1 x46 + 1 x47 + 1 x48 + 1 x49 + 1 x50 + 1 x51 + 1 x52 + 1 x53 + 1 x54 + 1 x55 + 1 x56 + 1 x57 + 1 x58 + 1 x59 + 1 x60 + 1 x61 + 1 x62 + 1 x63 + 1 x64 + 1 x65 + 1 x66 + 1 x67 + 1 x68 + 1 x69 + 1 x70 + 1 x71 + 1 x72 + 1 x73 + 1 x74 + 1 x75 + 1 x76 + 1 x77 + 1 x78 + 1 x79 + 1 x80 + 1 x81 + 1 x82 + 1 x83 + 1 x84 + 1 x85 + 1 x86 + 1 x87 + 1 x88 + 1 x89 + 1 x90 + 1 x91 + 1 x92 + 1 x93 + 1 x94 + 1 x95 + 1 x96 + 1 x97 + 1 x98 + 1 x99 + 1 x100 + 1 x101 + 1 x102 + 1 x103 + 1 x104 + 1 x105 + 1 x106 + 1 x107 + 1 x108 + 1 x109 + 1 x110 + 1 x111 + 1 x112 + 1 x113 + 1 x114 + 1 x115 + 1 x116 + 1 x117 + 1 x118 + 1 x119 + 1 x120 + 1 x121 + 1 x122 + 1 x123 + 1 x124 + 1 x125 + 1 x126 + 1 x127 + 1 x128 + 1 x129 + 1 x130 + 1 x131 + 1 x132 + 1 x133 + 1 x134 + 1 x135 + 1 x136 + 1 x137 + 1 x138 + 1 x139 + 1 x140 + 1 x141 + 1 x142 + 1 x143 + 1 x144 + 1 x145 + 1 x146 + 1 x147 + 1 x148 + 1 x149 + 1 x150 + 1 x151 + 1 x152 + 1 x153 + 1 x154 + 1 x155 + 1 x156 + 1 x157 + 1 x158 + 1 x159 + 1 x160 + 1 x161 + 1 x162 + 1 x163 + 1 x164 + 1 x165 + 1 x166 + 1 x167 + 1 x168 + 1 x169 + 1 x170 + 1 x171 + 1 x172 + 1 x173 + 1 x174 + 1 x175 + 1 x176 + 1 x177 + 1 x178 + 1 x179 + 1 x180 + 1 x181 + 1 x182 + 1 x183 + 1 x184 + 1 x185 + 1 x186 + 1 x187 + 1 x188 + 1 x189 + 1 x190 + 1 x191 + 1 x192 + 1 x193 + 1 x194 + 1 x195 + 1 x196 + 1 x197 + 1 x198 + 1 x199 + 1 x200 + 1 x201 + 1 x202 + 1 x203 + 1 x204 + 1 x205 + 1 x206 + 1 x207 + 1 x208 + 1 x209 + 1 x210 + 1 x211 + 1 x212 + 1 x213 + 1 x214 + 1 x215 + 1 x216 + 1 x217 + 1 x218 + 1 x219 + 1 x220 + 1 x221 + 1 x222 + 1 x223 + 1 x224 + 1 x225 + 1 x226 + 1 x227 + 1 x228 + 1 x229 + 1 x230 + 1 x231 + 1 x232 + 1 x233 + 1 x234 + 1 x235 + 1 x236 + 1 x237 + 1 x238 + 1 x239 + 1 x240 + 1 x241 + 1 x242 + 1 x243 + 1 x244 + 1 x245 + 1 x246 + 1 x247 + 1 x248 + 1 x249 + 1 x250 + 1 x251 + 1 x252 + 1 x253 + 1 x254 + 1 x255 + 1 x256 + 1 x257 + 1 x258 + 1 x259 + 1 x260 + 1 x261 + 1 x262 + 1 x263 + 1 x264 + 1 x265 + 1 x266 + 1 x267 + 1 x268 + 1 x269 + 1 x270 + 1 x271 + 1 x272 + 1 x273 + 1 x274 + 1 x275 + 1 x276 + 1 x277 + 1 x278 + 1 x279 + 1 x280 + 1 x281 + 1 x282 + 1 x283 + 1 x284 + 1 x285 + 1 x286 + 1 x287 + 1 x288 + 1 x289 + 1 x290 + 1 x291 + 1 x292 + 1 x293 + 1 x294 + 1 x295 + 1 x296 + 1 x297 + 1 x298 + 1 x299 + 1 x300 + 1 x301 + 1 x302 + 1 x303 + 1 x304 + 1 x305 + 1 x306 + 1 x307 + 1 x308 + 1 x309 + 1 x310 + 1 x311 + 1 x312 + 1 x313 + 1 x314 + 1 x315 + 1 x316 + 1 x317 + 1 x318 + 1 x319 + 1 x320 + 1 x321 + 1 x322 + 1 x323 + 1 x324 + 1 x325 + 1 x326 + 1 x327 + 1 x328 + 1 x329 + 1 x330 + 1 x331 + 1 x332 + 1 x333 + 1 x334 + 1 x335 + 1 x336 + 1 x337 + 1 x338 + 1 x339 + 1 x340 + 1 x341 + 1 x342 + 1 x343 + 1 x344 + 1 x345 + 1 x346 + 1 x347 + 1 x348 + 1 x349 + 1 x350 + 1 x351 + 1 x352 + 1 x353 + 1 x354 + 1 x355 + 1 x356 + 1 x357 + 1 x358 + 1 x359 + 1 x360 + 1 x361 + 1 x362 + 1 x363 + 1 x364 + 1 x365 + 1 x366 + 1 x367 + 1 x368 + 1 x369 + 1 x370 + 1 x371 + 1 x372 + 1 x373 + 1 x374 + 1 x375 + 1 x376 + 1 x377 + 1 x378 + 1 x379 + 1 x380 + 1 x381 + 1 x382 + 1 x383 + 1 x384 + 1 x385 + 1 x386 + 1 x387 + 1 x388 + 1 x389 + 1 x390 + 1 x391 + 1 x392 + 1 x393 + 1 x394 + 1 x395 + 1 x396 + 1 x397 + 1 x398 + 1 x399 + 1 x400 + 1 x401 + 1 x402 + 1 x403 + 1 x404 + 1 x405 + 1 x406 + 1 x407 + 1 x408 + 1 x409 + 1 x410 + 1 x411 + 1 x412 + 1 x413 + 1 x414 + 1 x415 + 1 x416 + 1 x417 + 1 x418 + 1 x419 + 1 x420 + 1 x421 + 1 x422 + 1 x423 + 1 x424 + 1 x425 + 1 x426 + 1 x427 + 1 x428 + 1 x429 + 1 x430 + 1 x431 + 1 x432 + 1 x433 + 1 x434 + 1 x435 + 1 x436 + 1 x437 + 1 x438 + 1 x439 + 1 x440 + 1 x441 + 1 x442 + 1 x443 + 1 x444 + 1 x445 + 1 x446 + 1 x447 + 1 x448 + 1 x449 + 1 x450 + 1 x451 + 1 x452 + 1 x453 + 1 x454 + 1 x455 + 1 x456 + 1 x457 + 1 x458 + 1 x459 + 1 x460 + 1 x461 + 1 x462 + 1 x463 + 1 x464 + 1 x465 + 1 x466 + 1 x467 + 1 x468 + 1 x469 + 1 x470 + 1 x471 + 1 x472 + 1 x473 + 1 x474 + 1 x475 + 1 x476 + 1 x477 + 1 x478 + 1 x479 + 1 x480 + 1 x481 + 1 x482 + 1 x483 + 1 x484 + 1 x485 + 1 x486 + 1 x487 + 1 x488 + 1 x489 + 1 x490 + 1 x491 + 1 x492 + 1 x493 + 1 x494 + 1 x495 + 1 x496 + 1 x497 + 1 x498 + 1 x499 + 1 x500

subject to
C1: + x57 + x445 <= 1
C2: + x301 + x385 <= 1
C3: + x29 + x286 <= 1
C4: + x6 + x179 <= 1
C5: + x134 + x345 <= 1
C6: + x8 + x26 <= 1
C7: + x34 + x42 <= 1
C8: + x6 + x417 <= 1
C9: + x204 + x397 <= 1
C10: + x5 + x204 <= 1
C11: + x24 + x378 <= 1
C12: + x25 + x416 <= 1
C13: + x418 + x483 <= 1
C14: + x75 + x95 <= 1
C15: + x29 + x210 <= 1
C16: + x303 + x305 <= 1
C17: + x13 + x60 <= 1
C18: + x18 + x65 <= 1
C19: + x12 + x23 <= 1
C20: + x24 + x495 <= 1
C21: + x2 + x426 <= 1
C22: + x122 + x304 <= 1
C23: + x68 + x81 <= 1
C24: + x90 + x343 <= 1
C25: + x80 + x464 <= 1
C26: + x1 + x56 <= 1
C27: + x207 + x241 <= 1
C28: + x17 + x107 <= 1
C29: + x263 + x327 <= 1
C30: + x8 + x386 <= 1
C31: + x174 + x463 <= 1
C32: + x221 + x312 <= 1
C33: + x6 + x25 <= 1
C34: + x74 + x203 <= 1
C35: + x291 + x321 <= 1
C36: + x2 + x41 <= 1
C37: + x177 + x182 <= 1
C38: + x9 + x39 <= 1
C39: + x145 + x463 <= 1
C40: + x1 + x68 <= 1
C41: + x77 + x100 <= 1
C42: + x4 + x390 <= 1
C43: + x84 + x381 <= 1
C44: + x4 + x289 <= 1
C45: + x16 + x193 <= 1
C46: + x210 + x418 <= 1
C47: + x5 + x88 <= 1
C48: + x6 + x315 <= 1
C49: + x200 + x267 <= 1
C50: + x56 + x205 <= 1
C51: + x394 + x473 <= 1
C52: + x33 + x137 <= 1
C53: + x395 + x471 <= 1
C54: + x6 + x94 <= 1
C55: + x129 + x343 <= 1
C56: + x51 + x388 <= 1
C57: + x25 + x435 <= 1
C58: + x352 + x371 <= 1
C59: + x235 + x459 <= 1
C60: + x128 + x180 <= 1
C61: + x29 + x253 <= 1
C62: + x4 + x12 <= 1
C63: + x13 + x103 <= 1
C64: + x87 + x431 <= 1
C65: + x56 + x336 <= 1
C66: + x12 + x399 <= 1
C67: + x251 + x331 <= 1
C68: + x98 + x395 <= 1
C69: + x91 + x142 <= 1
C70: + x74 + x244 <= 1
C71: + x82 + x209 <= 1
C72: + x29 + x276 <= 1
C73: + x12 + x238 <= 1
C74: + x4 + x153 <= 1
C75: + x25 + x383 <= 1
C76: + x433 + x498 <= 1
C77: + x288 + x487 <= 1
C78: + x101 + x103 <= 1
C79: + x64 + x115 <= 1
C80: + x121 + x232 <= 1
C81: + x12 + x73 <= 1
C82: + x1 + x91 <= 1
C83: + x33 + x180 <= 1
C84: + x31 + x266 <= 1
C85: + x259 + x342 <= 1
C86: + x23 + x443 <= 1
C87: + x200 + x371 <= 1
C88: + x102 + x194 <= 1
C89: + x149 + x261 <= 1
C90: + x161 + x344 <= 1
C91: + x253 + x281 <= 1
C92: + x25 + x256 <= 1
C93: + x26 + x248 <= 1
C94: + x9 + x26 <= 1
C95: + x190 + x199 <= 1
C96: + x131 + x189 <= 1
C97: + x12 + x460 <= 1
C98: + x62 + x170 <= 1
C99: + x22 + x100 <= 1
C100: + x15 + x173 <= 1
C101: + x73 + x148 <= 1
C102: + x1 + x6 <= 1
C103: + x47 + x86 <= 1
C104: + x5 + x480 <= 1
C105: + x9 + x70 <= 1
C106: + x67 + x283 <= 1
C107: + x20 + x54 <= 1
C108: + x6 + x11 <= 1
C109: + x282 + x448 <= 1
C110: + x57 + x338 <= 1
C111: + x301 + x366 <= 1
C112: + x59 + x446 <= 1
C113: + x179 + x188 <= 1
C114: + x153 + x187 <= 1
C115: + x6 + x377 <= 1
C116: + x466 + x470 <= 1
C117: + x21 + x29 <= 1
C118: + x41 + x169 <= 1
C119: + x178 + x346 <= 1
C120: + x215 + x254 <= 1
C121: + x25 + x88 <= 1
C122: + x221 + x346 <= 1
C123: + x29 + x410 <= 1
C124: + x42 + x45 <= 1
C125: + x32 + x34 <= 1
C126: + x108 + x113 <= 1
C127: + x159 + x231 <= 1
C128: + x7 + x266 <= 1
C129: + x4 + x78 <= 1
C130: + x70 + x455 <= 1
C131: + x53 + x128 <= 1
C132: + x135 + x384 <= 1
C133: + x29 + x68 <= 1
C134: + x91 + x237 <= 1
C135: + x381 + x436 <= 1
C136: + x299 + x458 <= 1
C137: + x12 + x139 <= 1
C138: + x4 + x122 <= 1
C139: + x9 + x77 <= 1
C140: + x85 + x117 <= 1
C141: + x29 + x477 <= 1
C142: + x403 + x412 <= 1
C143: + x18 + x259 <= 1
C144: + x7 + x132 <= 1
C145: + x1 + x140 <= 1
C146: + x10 + x113 <= 1
C147: + x121 + x409 <= 1
C148: + x132 + x263 <= 1
C149: + x214 + x497 <= 1
C150: + x29 + x135 <= 1
C151: + x12 + x71 <= 1
C152: + x302 + x406 <= 1
C153: + x60 + x414 <= 1
C154: + x216 + x255 <= 1
C155: + x7 + x19 <= 1
C156: + x72 + x225 <= 1
C157: + x9 + x441 <= 1
C158: + x3 + x490 <= 1
C159: + x136 + x241 + x348 <= 1
C160: + x61 + x280 <= 1
C161: + x228 + x319 <= 1
C162: + x161 + x177 <= 1
C163: + x34 + x167 <= 1
C164: + x32 + x281 <= 1
C165: + x161 + x358 <= 1
C166: + x168 + x433 <= 1
C167: + x24 + x176 <= 1
C168: + x152 + x475 <= 1
C169: + x149 + x496 <= 1
C170: + x6 + x73 <= 1
C171: + x137 + x186 <= 1
C172: + x56 + x294 <= 1
C173: + x141 + x303 <= 1
C174: + x87 + x174 <= 1
C175: + x5 + x212 <= 1
C176: + x383 + x419 <= 1
C177: + x95 + x361 <= 1
C178: + x4 + x127 <= 1
C179: + x5 + x113 <= 1
C180: + x206 + x348 <= 1
C181: + x89 + x101 <= 1
C182: + x62 + x301 <= 1
C183: + x19 + x359 <= 1
C184: + x49 + x155 <= 1
C185: + x411 + x466 <= 1
C186: + x410 + x471 <= 1
C187: + x63 + x441 <= 1
C188: + x29 + x377 <= 1
C189: + x5 + x8 <= 1
C190: + x90 + x140 <= 1
C191: + x17 + x230 <= 1
C192: + x7 + x361 <= 1
C193: + x16 + x184 <= 1
C194: + x1 + x48 <= 1
C195: + x157 + x286 <= 1
C196: + x25 + x166 <= 1
C197: + x7 + x22 <= 1
C198: + x57 + x154 <= 1
C199: + x38 + x405 <= 1
C200: + x51 + x116 <= 1
C201: + x98 + x106 <= 1
C202: + x6 + x33 <= 1
C203: + x17 + x432 <= 1
C204: + x83 + x256 <= 1
C205: + x4 + x188 <= 1
C206: + x18 + x38 <= 1
C207: + x36 + x144 <= 1
C208: + x8 + x47 <= 1
C209: + x240 + x440 <= 1
C210: + x30 + x94 <= 1
C211: + x115 + x259 <= 1
C212: + x144 + x214 <= 1
C213: + x147 + x229 <= 1
C214: + x87 + x165 <= 1
C215: + x127 + x395 <= 1
C216: + x1 + x235 <= 1
C217: + x54 + x422 <= 1
C218: + x105 + x146 <= 1
C219: + x124 + x160 <= 1
C220: + x177 + x250 <= 1
C221: + x24 + x121 <= 1
C222: + x7 + x465 <= 1
C223: + x63 + x142 <= 1
C224: + x22 + x496 <= 1
C225: + x143 + x230 <= 1
C226: + x155 + x216 <= 1
C227: + x29 + x376 <= 1
C228: + x13 + x154 <= 1
C229: + x108 + x215 <= 1
C230: + x26 + x136 <= 1
C231: + x121 + x260 <= 1
C232: + x4 + x20 <= 1
C233: + x4 + x262 <= 1
C234: + x353 + x418 <= 1
C235: + x6 + x42 <= 1
C236: + x69 + x129 <= 1
C237: + x375 + x398 <= 1
C238: + x8 + x40 <= 1
C239: + x28 + x244 <= 1
C240: + x122 + x200 <= 1
C241: + x82 + x122 <= 1
C242: + x164 + x295 <= 1
C243: + x57 + x237 <= 1
C244: + x115 + x415 <= 1
C245: + x18 + x176 <= 1
C246: + x63 + x476 <= 1
C247: + x124 + x149 <= 1
C248: + x5 + x103 <= 1
C249: + x26 + x443 <= 1
C250: + x1 + x145 <= 1
C251: + x47 + x481 <= 1
C252: + x78 + x276 <= 1
C253: + x15 + x213 <= 1
C254: + x19 + x236 <= 1
C255: + x20 + x191 <= 1
C256: + x7 + x8 <= 1
C257: + x59 + x193 <= 1
C258: + x124 + x499 <= 1
C259: + x5 + x133 <= 1
C260: + x6 + x19 <= 1
C261: + x287 + x323 <= 1
C262: + x364 + x420 <= 1
C263: + x35 + x58 <= 1
C264: + x6 + x257 <= 1
C265: + x9 + x61 <= 1
C266: + x67 + x422 <= 1
C267: + x124 + x356 <= 1
C268: + x359 + x369 <= 1
C269: + x15 + x148 <= 1
C270: + x7 + x290 <= 1
C271: + x38 + x174 <= 1
C272: + x333 + x339 <= 1
C273: + x14 + x338 <= 1
C274: + x9 + x105 <= 1
C275: + x135 + x152 <= 1
C276: + x8 + x465 <= 1
C277: + x100 + x389 <= 1
C278: + x63 + x430 <= 1
C279: + x2 + x32 <= 1
C280: + x75 + x163 <= 1
C281: + x21 + x347 <= 1
C282: + x22 + x85 <= 1
C283: + x14 + x24 <= 1
C284: + x44 + x76 <= 1
C285: + x158 + x242 <= 1
C286: + x28 + x182 <= 1
C287: + x137 + x397 <= 1
C288: + x99 + x386 <= 1
C289: + x219 + x224 <= 1
C290: + x10 + x299 <= 1
C291: + x58 + x289 <= 1
C292: + x4 + x372 <= 1
C293: + x4 + x5 + x6 + x7 <= 1
C294: + x6 + x28 <= 1
C295: + x28 + x35 <= 1
C296: + x1 + x164 <= 1
C297: + x213 + x495 <= 1
C298: + x31 + x46 <= 1
C299: + x4 + x175 <= 1
C300: + x23 + x159 <= 1
C301: + x35 + x49 <= 1
C302: + x6 + x266 <= 1
C303: + x8 + x22 <= 1
C304: + x59 + x258 <= 1
C305: + x41 + x269 <= 1
C306: + x184 + x466 <= 1
C307: + x61 + x171 <= 1
C308: + x177 + x421 <= 1
C309: + x62 + x224 <= 1
C310: + x106 + x451 <= 1
C311: + x71 + x235 <= 1
C312: + x46 + x465 <= 1
C313: + x218 + x244 <= 1
C314: + x37 + x47 <= 1
C315: + x2 + x69 <= 1
C316: + x36 + x258 <= 1
C317: + x114 + x259 <= 1
C318: + x271 + x307 <= 1
C319: + x61 + x493 <= 1
C320: + x52 + x117 <= 1
C321: + x9 + x112 <= 1
C322: + x7 + x454 <= 1
C323: + x12 + x466 <= 1
C324: + x134 + x172 <= 1
C325: + x419 + x438 <= 1
C326: + x112 + x289 <= 1
C327: + x159 + x190 <= 1
C328: + x15 + x167 <= 1
C329: + x29 + x226 <= 1
C330: + x114 + x218 <= 1
C331: + x63 + x92 <= 1
C332: + x135 + x187 <= 1
C333: + x129 + x158 <= 1
C334: + x58 + x221 <= 1
C335: + x41 + x357 <= 1
C336: + x21 + x465 <= 1
C337: + x25 + x479 <= 1
C338: + x406 + x437 <= 1
C339: + x10 + x66 <= 1
C340: + x155 + x245 <= 1
C341: + x103 + x231 <= 1
C342: + x378 + x435 <= 1
C343: + x117 + x309 <= 1
C344: + x6 + x371 <= 1
C345: + x218 + x346 <= 1
C346: + x4 + x51 <= 1
C347: + x416 + x419 <= 1
C348: + x138 + x339 <= 1
C349: + x359 + x464 <= 1
C350: + x4 + x293 <= 1
C351: + x6 + x201 <= 1
C352: + x118 + x143 <= 1
C353: + x1 + x247 <= 1
C354: + x100 + x249 <= 1
C355: + x85 + x141 <= 1
C356: + x231 + x488 <= 1
C357: + x328 + x462 <= 1
C358: + x25 + x26 <= 1
C359: + x23 + x500 <= 1
C360: + x7 + x90 <= 1
C361: + x100 + x435 <= 1
C362: + x11 + x21 <= 1
C363: + x212 + x439 <= 1
C364: + x12 + x310 <= 1
C365: + x61 + x347 <= 1
C366: + x117 + x368 <= 1
C367: + x87 + x157 <= 1
C368: + x157 + x377 <= 1
C369: + x105 + x186 <= 1
C370: + x377 + x469 <= 1
C371: + x4 + x16 <= 1
C372: + x17 + x102 <= 1
C373: + x7 + x489 <= 1
C374: + x72 + x187 <= 1
C375: + x10 + x341 <= 1
C376: + x148 + x433 <= 1
C377: + x41 + x364 <= 1
C378: + x4 + x354 <= 1
C379: + x89 + x358 <= 1
C380: + x44 + x260 <= 1
C381: + x26 + x474 <= 1
C382: + x336 + x419 <= 1
C383: + x18 + x277 <= 1
C384: + x30 + x152 <= 1
C385: + x297 + x350 <= 1
C386: + x6 + x161 <= 1
C387: + x7 + x380 <= 1
C388: + x4 + x60 <= 1
C389: + x106 + x122 <= 1
C390: + x17 + x18 <= 1
C391: + x185 + x499 <= 1
C392: + x4 + x302 <= 1
C393: + x32 + x37 <= 1
C394: + x14 + x79 <= 1
C395: + x15 + x101 <= 1
C396: + x52 + x369 <= 1
C397: + x144 + x257 <= 1
C398: + x111 + x153 <= 1
C399: + x6 + x50 <= 1
C400: + x44 + x320 <= 1
C401: + x80 + x406 <= 1
C402: + x188 + x296 <= 1
C403: + x14 + x178 <= 1
C404: + x108 + x354 <= 1
C405: + x137 + x467 <= 1
C406: + x66 + x93 <= 1
C407: + x302 + x340 <= 1
C408: + x12 + x57 <= 1
C409: + x173 + x292 <= 1
C410: + x2 + x99 <= 1
C411: + x203 + x489 <= 1
C412: + x6 + x230 <= 1
C413: + x24 + x352 <= 1
C414: + x134 + x396 <= 1
C415: + x108 + x172 <= 1
C416: + x70 + x89 <= 1
C417: + x6 + x468 <= 1
C418: + x25 + x33 + x62 <= 1
C419: + x1 + x423 <= 1
C420: + x203 + x380 <= 1
C421: + x31 + x486 <= 1
C422: + x7 + x141 <= 1
C423: + x95 + x270 <= 1
C424: + x14 + x247 <= 1
C425: + x149 + x316 <= 1
C426: + x40 + x106 <= 1
C427: + x73 + x281 <= 1
C428: + x171 + x294 <= 1
C429: + x107 + x462 <= 1
C430: + x35 + x191 <= 1
C431: + x7 + x32 <= 1
C432: + x108 + x458 <= 1
C433: + x38 + x84 <= 1
C434: + x86 + x170 <= 1
C435: + x33 + x44 <= 1
C436: + x4 + x275 <= 1
C437: + x207 + x304 <= 1
C438: + x7 + x270 <= 1
C439: + x33 + x393 <= 1
C440: + x5 + x66 <= 1
C441: + x43 + x157 <= 1
C442: + x260 + x261 <= 1
C443: + x8 + x53 <= 1
C444: + x22 + x278 <= 1
C445: + x143 + x212 <= 1
C446: + x6 + x239 <= 1
C447: + x8 + x70 <= 1
C448: + x240 + x275 <= 1
C449: + x13 + x17 <= 1
C450: + x287 + x436 <= 1
C451: + x61 + x123 <= 1
C452: + x24 + x103 <= 1
C453: + x23 + x381 <= 1
C454: + x11 + x349 <= 1
C455: + x67 + x219 <= 1
C456: + x49 + x301 <= 1
C457: + x7 + x136 <= 1
C458: + x63 + x438 <= 1
C459: + x1 + x144 <= 1
C460: + x29 + x382 <= 1
C461: + x6 + x147 <= 1
C462: + x19 + x251 <= 1
C463: + x63 + x279 <= 1
C464: + x21 + x40 <= 1
C465: + x34 + x202 <= 1
C466: + x7 + x23 <= 1
C467: + x8 + x413 <= 1
C468: + x138 + x326 <= 1
C469: + x128 + x373 <= 1
C470: + x130 + x289 <= 1
C471: + x6 + x36 <= 1
C472: + x207 + x311 <= 1
C473: + x36 + x48 <= 1
C474: + x172 + x200 <= 1
C475: + x80 + x412 <= 1
C476: + x203 + x396 <= 1
C477: + x33 + x400 <= 1
C478: + x14 + x164 <= 1
C479: + x17 + x159 <= 1
C480: + x9 + x12 <= 1
C481: + x8 + x46 <= 1
C482: + x5 + x315 <= 1
C483: + x18 + x367 <= 1
C484: + x127 + x392 <= 1
C485: + x144 + x475 <= 1
C486: + x169 + x179 <= 1
C487: + x6 + x156 <= 1
C488: + x44 + x89 <= 1
C489: + x1 + x36 <= 1
C490: + x41 + x155 <= 1
C491: + x304 + x475 <= 1
C492: + x34 + x195 <= 1
C493: + x89 + x490 <= 1
C494: + x9 + x420 <= 1
C495: + x182 + x272 <= 1
C496: + x51 + x112 <= 1
C497: + x5 + x147 <= 1
C498: + x127 + x451 <= 1
C499: + x7 + x171 <= 1
C500: + x237 + x263 <= 1
C501: + x118 + x312 <= 1
C502: + x66 + x389 <= 1
C503: + x4 + x192 <= 1
C504: + x206 + x285 <= 1
C505: + x25 + x356 <= 1
C506: + x3 + x368 <= 1
C507: + x31 + x275 <= 1
C508: + x25 + x118 <= 1
C509: + x162 + x450 <= 1
C510: + x1 + x285 <= 1
C511: + x55 + x437 <= 1
C512: + x78 + x291 <= 1
C513: + x126 + x297 <= 1
C514: + x9 + x130 <= 1
C515: + x121 + x316 <= 1
C516: + x12 + x189 <= 1
C517: + x3 + x287 <= 1
C518: + x12 + x28 <= 1
C519: + x87 + x300 <= 1
C520: + x7 + x114 <= 1
C521: + x155 + x359 <= 1
C522: + x28 + x29 <= 1
C523: + x63 + x424 <= 1
C524: + x71 + x178 <= 1
C525: + x370 + x403 <= 1
C526: + x25 + x351 <= 1
C527: + x97 + x111 <= 1
C528: + x10 + x317 <= 1
C529: + x49 + x194 <= 1
C530: + x20 + x25 <= 1
C531: + x114 + x473 <= 1
C532: + x23 + x40 <= 1
C533: + x6 + x22 <= 1
C534: + x237 + x382 <= 1
C535: + x2 + x222 <= 1
C536: + x56 + x391 <= 1
C537: + x30 + x144 <= 1
C538: + x12 + x250 <= 1
C539: + x96 + x128 <= 1
C540: + x315 + x442 <= 1
C541: + x35 + x59 <= 1
C542: + x62 + x359 <= 1
C543: + x10 + x142 <= 1
C544: + x126 + x252 <= 1
C545: + x29 + x165 <= 1
C546: + x51 + x250 <= 1
C547: + x7 + x61 <= 1
C548: + x45 + x315 <= 1
C549: + x31 + x439 <= 1
C550: + x14 + x39 <= 1
C551: + x9 + x372 <= 1
C552: + x299 + x431 <= 1
C553: + x292 + x404 <= 1
C554: + x94 + x345 <= 1
C555: + x305 + x373 <= 1
C556: + x268 + x377 <= 1
C557: + x101 + x447 <= 1
C558: + x42 + x65 <= 1
C559: + x61 + x229 <= 1
C560: + x15 + x64 <= 1
C561: + x18 + x490 <= 1
C562: + x61 + x92 <= 1
C563: + x76 + x141 <= 1
C564: + x5 + x129 <= 1
C565: + x6 + x31 <= 1
C566: + x154 + x190 <= 1
C567: + x64 + x489 <= 1
C568: + x107 + x232 <= 1
C569: + x8 + x25 <= 1
C570: + x282 + x327 <= 1
C571: + x63 + x376 <= 1
C572: + x30 + x44 <= 1
C573: + x123 + x195 <= 1
C574: + x490 + x492 <= 1
C575: + x84 + x375 <= 1
C576: + x64 + x378 <= 1
C577: + x339 + x458 <= 1
C578: + x61 + x269 <= 1
C579: + x6 + x195 <= 1
C580: + x7 + x209 <= 1
C581: + x237 + x297 <= 1
C582: + x211 + x312 <= 1
C583: + x32 + x233 <= 1
C584: + x189 + x204 <= 1
C585: + x58 + x345 <= 1
C586: + x359 + x417 <= 1
C587: + x9 + x458 <= 1
C588: + x10 + x478 <= 1
C589: + x229 + x365 <= 1
C590: + x26 + x150 <= 1
C591: + x239 + x393 <= 1
C592: + x40 + x309 <= 1
C593: + x243 + x385 <= 1
C594: + x5 + x491 <= 1
C595: + x13 + x438 <= 1
C596: + x147 + x333 <= 1
C597: + x311 + x334 <= 1
C598: + x85 + x89 <= 1
C599: + x33 + x79 <= 1
C600: + x259 + x425 <= 1
C601: + x6 + x8 <= 1
C602: + x146 + x226 <= 1
C603: + x291 + x322 <= 1
C604: + x37 + x401 <= 1
C605: + x153 + x355 <= 1
C606: + x16 + x83 <= 1
C607: + x108 + x487 <= 1
C608: + x143 + x183 <= 1
C609: + x209 + x232 <= 1
C610: + x169 + x355 <= 1
C611: + x141 + x207 <= 1
C612: + x32 + x51 <= 1
C613: + x27 + x65 <= 1
C614: + x8 + x167 <= 1
C615: + x287 + x374 <= 1
C616: + x29 + x298 <= 1
C617: + x16 + x196 <= 1
C618: + x78 + x206 <= 1
C619: + x1 + x244 <= 1
C620: + x272 + x374 <= 1
C621: + x25 + x250 <= 1
C622: + x9 + x20 <= 1
C623: + x65 + x81 <= 1
C624: + x93 + x450 <= 1
C625: + x6 + x93 <= 1
C626: + x8 + x361 <= 1
C627: + x136 + x184 <= 1
C628: + x103 + x175 <= 1
C629: + x50 + x51 <= 1
C630: + x13 + x131 <= 1
C631: + x38 + x292 <= 1
C632: + x376 + x453 <= 1
C633: + x206 + x461 <= 1
C634: + x79 + x107 <= 1
C635: + x44 + x69 <= 1
C636: + x8 + x91 <= 1
C637: + x4 + x11 <= 1
C638: + x32 + x337 <= 1
C639: + x412 + x498 <= 1
C640: + x217 + x227 <= 1
C641: + x146 + x219 <= 1
C642: + x63 + x116 <= 1
C643: + x2 + x33 <= 1
C644: + x10 + x70 <= 1
C645: + x114 + x175 <= 1
C646: + x428 + x435 <= 1
C647: + x62 + x370 <= 1
C648: + x137 + x484 <= 1
C649: + x94 + x307 <= 1
C650: + x42 + x144 <= 1
C651: + x168 + x301 <= 1
C652: + x6 + x402 <= 1
C653: + x18 + x417 <= 1
C654: + x192 + x443 <= 1
C655: + x132 + x169 <= 1
C656: + x37 + x324 <= 1
C657: + x33 + x383 <= 1
C658: + x5 + x96 <= 1
C659: + x31 + x67 + x479 <= 1
C660: + x90 + x311 <= 1
C661: + x36 + x156 <= 1
C662: + x26 + x247 <= 1
C663: + x62 + x326 <= 1
C664: + x126 + x446 <= 1
C665: + x51 + x444 <= 1
C666: + x4 + x213 <= 1
C667: + x27 + x32 <= 1
C668: + x1 + x7 <= 1
C669: + x7 + x324 <= 1
C670: + x41 + x126 <= 1
C671: + x42 + x370 <= 1
C672: + x13 + x31 <= 1
C673: + x33 + x331 <= 1
C674: + x44 + x217 <= 1
C675: + x9 + x71 <= 1
C676: + x151 + x300 <= 1
C677: + x160 + x277 <= 1
C678: + x49 + x238 <= 1
C679: + x322 + x479 <= 1
C680: + x12 + x391 <= 1
C681: + x323 + x379 <= 1
C682: + x127 + x133 <= 1
C683: + x142 + x383 <= 1
C684: + x2 + x300 <= 1
C685: + x72 + x86 <= 1
C686: + x3 + x5 <= 1
C687: + x6 + x10 <= 1
C688: + x24 + x436 <= 1
C689: + x8 + x225 <= 1
C690: + x5 + x19 <= 1
C691: + x153 + x188 <= 1
C692: + x157 + x265 <= 1
C693: + x116 + x410 <= 1
C694: + x17 + x22 <= 1
C695: + x108 + x469 <= 1
C696: + x6 + x411 <= 1
C697: + x11 + x411 <= 1
C698: + x106 + x340 <= 1
C699: + x150 + x211 <= 1
C700: + x6 + x62 <= 1
C701: + x52 + x373 <= 1
C702: + x109 + x201 <= 1
C703: + x10 + x59 <= 1
C704: + x213 + x461 <= 1
C705: + x114 + x148 <= 1
C706: + x5 + x71 <= 1
C707: + x23 + x302 <= 1
C708: + x17 + x165 <= 1
C709: + x190 + x223 <= 1
C710: + x249 + x316 <= 1
C711: + x157 + x477 <= 1
C712: + x294 + x371 <= 1
C713: + x7 + x85 <= 1
C714: + x172 + x408 <= 1
C715: + x10 + x497 <= 1
C716: + x104 + x242 <= 1
C717: + x22 + x108 <= 1
C718: + x119 + x224 <= 1
C719: + x342 + x373 <= 1
C720: + x9 + x78 <= 1
C721: + x36 + x205 <= 1
C722: + x128 + x264 <= 1
C723: + x12 + x448 <= 1
C724: + x33 + x84 <= 1
C725: + x13 + x264 <= 1
C726: + x21 + x483 <= 1
C727: + x25 + x49 <= 1
C728: + x72 + x83 <= 1
C729: + x209 + x318 <= 1
C730: + x12 + x283 <= 1
C731: + x27 + x43 <= 1
C732: + x9 + x221 <= 1
C733: + x122 + x233 <= 1
C734: + x51 + x332 <= 1
C735: + x70 + x137 <= 1
C736: + x40 + x201 <= 1
C737: + x259 + x293 <= 1
C738: + x63 + x205 <= 1
C739: + x38 + x491 <= 1
C740: + x142 + x143 <= 1
C741: + x152 + x204 <= 1
C742: + x116 + x217 <= 1
C743: + x5 + x411 <= 1
C744: + x24 + x175 <= 1
C745: + x37 + x215 <= 1
C746: + x183 + x297 <= 1
C747: + x17 + x57 <= 1
C748: + x7 + x80 <= 1
C749: + x57 + x224 <= 1
C750: + x64 + x322 <= 1
C751: + x49 + x338 <= 1
C752: + x21 + x379 <= 1
C753: + x22 + x117 <= 1
C754: + x223 + x386 <= 1
C755: + x145 + x171 <= 1
C756: + x4 + x98 <= 1
C757: + x5 + x114 <= 1
C758: + x442 + x468 <= 1
C759: + x125 + x183 <= 1
C760: + x75 + x409 <= 1
C761: + x49 + x156 <= 1
C762: + x85 + x456 <= 1
C763: + x6 + x124 <= 1
C764: + x7 + x124 <= 1
C765: + x10 + x422 <= 1
C766: + x144 + x335 <= 1
C767: + x407 + x460 <= 1
C768: + x86 + x206 <= 1
C769: + x45 + x112 <= 1
C770: + x16 + x183 <= 1
C771: + x285 + x332 <= 1
C772: + x98 + x270 <= 1
C773: + x44 + x131 <= 1
C774: + x63 + x248 <= 1
C775: + x494 + x497 <= 1
C776: + x168 + x191 <= 1
C777: + x283 + x459 <= 1
C778: + x75 + x123 <= 1
C779: + x68 + x424 <= 1
C780: + x5 + x53 <= 1
C781: + x237 + x425 <= 1
C782: + x8 + x42 <= 1
C783: + x49 + x167 <= 1
C784: + x12 + x43 <= 1
C785: + x25 + x115 <= 1
C786: + x7 + x71 <= 1
C787: + x10 + x483 <= 1
C788: + x193 + x500 <= 1
C789: + x16 + x317 <= 1
C790: + x183 + x211 <= 1
C791: + x5 + x121 <= 1
C792: + x61 + x449 <= 1
C793: + x44 + x208 <= 1
C794: + x89 + x383 <= 1
C795: + x88 + x159 <= 1
C796: + x91 + x111 <= 1
C797: + x63 + x112 <= 1
C798: + x273 + x459 <= 1
C799: + x6 + x136 <= 1
C800: + x100 + x140 <= 1
C801: + x26 + x34 <= 1
C802: + x73 + x104 <= 1
C803: + x7 + x14 <= 1
C804: + x12 + x410 <= 1
C805: + x169 + x326 <= 1
C806: + x44 + x295 <= 1
C807: + x6 + x41 <= 1
C808: + x28 + x88 <= 1
C809: + x11 + x166 <= 1
C810: + x174 + x205 <= 1
C811: + x30 + x179 <= 1
C812: + x137 + x218 <= 1
C813: + x70 + x286 <= 1
C814: + x36 + x390 <= 1
C815: + x23 + x311 <= 1
C816: + x18 + x30 <= 1
C817: + x91 + x385 <= 1
C818: + x9 + x55 <= 1
C819: + x8 + x39 <= 1
C820: + x21 + x127 <= 1
C821: + x114 + x437 <= 1
C822: + x234 + x243 <= 1
C823: + x251 + x264 <= 1
C824: + x124 + x457 <= 1
C825: + x9 + x134 <= 1
C826: + x219 + x493 <= 1
C827: + x7 + x304 <= 1
C828: + x63 + x473 <= 1
C829: + x192 + x226 <= 1
C830: + x297 + x431 <= 1
C831: + x5 + x104 <= 1
C832: + x86 + x367 <= 1
C833: + x34 + x132 <= 1
C834: + x66 + x120 <= 1
C835: + x6 + x110 <= 1
C836: + x208 + x363 <= 1
C837: + x1 + x146 <= 1
C838: + x2 + x6 <= 1
C839: + x20 + x355 <= 1
C840: + x8 + x197 <= 1
C841: + x47 + x482 <= 1
C842: + x253 + x353 <= 1
C843: + x91 + x328 <= 1
C844: + x1 + x63 <= 1
C845: + x12 + x109 <= 1
C846: + x13 + x119 <= 1
C847: + x323 + x498 <= 1
C848: + x52 + x54 <= 1
C849: + x4 + x28 <= 1
C850: + x19 + x270 <= 1
C851: + x28 + x347 <= 1
C852: + x29 + x50 <= 1
C853: + x103 + x456 <= 1
C854: + x33 + x53 <= 1
C855: + x98 + x123 <= 1
C856: + x6 + x18 <= 1
C857: + x87 + x252 <= 1
C858: + x54 + x56 <= 1
C859: + x174 + x198 <= 1
C860: + x56 + x387 <= 1
C861: + x354 + x393 <= 1
C862: + x100 + x125 <= 1
C863: + x10 + x178 <= 1
C864: + x282 + x322 <= 1
C865: + x48 + x133 <= 1
C866: + x42 + x153 <= 1
C867: + x33 + x164 <= 1
C868: + x211 + x408 <= 1
C869: + x2 + x67 <= 1
C870: + x12 + x331 <= 1
C871: + x359 + x467 <= 1
C872: + x150 + x187 <= 1
C873: + x6 + x198 <= 1
C874: + x7 + x222 <= 1
C875: + x274 + x318 <= 1
C876: + x302 + x453 <= 1
C877: + x13 + x58 <= 1
C878: + x98 + x146 <= 1
C879: + x61 + x471 <= 1
C880: + x153 + x293 <= 1
C881: + x7 + x452 <= 1
C882: + x1 + x391 <= 1
C883: + x2 + x265 <= 1
C884: + x241 + x449 <= 1
C885: + x34 + x104 <= 1
C886: + x10 + x473 <= 1
C887: + x52 + x297 <= 1
C888: + x6 + x138 <= 1
C889: + x8 + x97 <= 1
C890: + x38 + x145 <= 1
C891: + x86 + x444 <= 1
C892: + x26 + x52 <= 1
C893: + x323 + x366 <= 1
C894: + x98 + x116 <= 1
C895: + x206 + x424 <= 1
C896: + x89 + x153 <= 1
C897: + x18 + x282 <= 1
C898: + x271 + x385 <= 1
C899: + x19 + x115 <= 1
C900: + x182 + x433 <= 1
C901: + x223 + x467 <= 1
C902: + x14 + x203 <= 1
C903: + x215 + x480 <= 1
C904: + x117 + x303 <= 1
C905: + x127 + x231 <= 1
C906: + x6 + x190 <= 1
C907: + x20 + x147 <= 1
C908: + x12 + x485 <= 1
C909: + x25 + x72 <= 1
C910: + x6 + x428 <= 1
C911: + x9 + x386 <= 1
C912: + x1 + x241 <= 1
C913: + x10 + x12 <= 1
C914: + x76 + x92 <= 1
C915: + x32 + x213 <= 1
C916: + x252 + x416 <= 1
C917: + x26 + x75 + x129 <= 1
C918: + x9 + x17 <= 1
C919: + x310 + x398 <= 1
C920: + x68 + x358 <= 1
C921: + x62 + x147 <= 1
C922: + x2 + x24 <= 1
C923: + x162 + x306 <= 1
C924: + x113 + x215 <= 1
C925: + x22 + x192 <= 1
C926: + x60 + x101 <= 1
C927: + x206 + x254 <= 1
C928: + x127 + x159 <= 1
C929: + x135 + x188 <= 1
C930: + x67 + x207 <= 1
C931: + x133 + x268 <= 1
C932: + x26 + x472 <= 1
C933: + x193 + x417 <= 1
C934: + x233 + x323 <= 1
C935: + x4 + x151 <= 1
C936: + x34 + x280 <= 1
C937: + x96 + x106 <= 1
C938: + x24 + x285 <= 1
C939: + x8 + x14 <= 1
C940: + x28 + x218 <= 1
C941: + x222 + x353 <= 1
C942: + x142 + x317 <= 1
C943: + x74 + x95 <= 1
C944: + x2 + x93 <= 1
C945: + x20 + x430 <= 1
C946: + x21 + x294 <= 1
C947: + x237 + x292 <= 1
C948: + x10 + x13 <= 1
C949: + x157 + x166 <= 1
C950: + x9 + x24 <= 1
C951: + x249 + x306 <= 1
C952: + x3 + x393 <= 1
C953: + x59 + x151 <= 1
C954: + x74 + x139 <= 1
C955: + x37 + x472 <= 1
C956: + x58 + x124 <= 1
C957: + x64 + x343 <= 1
C958: + x70 + x353 <= 1
C959: + x111 + x227 <= 1
C960: + x33 + x312 <= 1
C961: + x4 + x15 <= 1
C962: + x4 + x454 <= 1
C963: + x107 + x433 <= 1
C964: + x18 + x268 <= 1
C965: + x3 + x171 <= 1
C966: + x48 + x61 <= 1
C967: + x56 + x490 <= 1
C968: + x22 + x42 <= 1
C969: + x4 + x160 <= 1
C970: + x108 + x309 <= 1
C971: + x169 + x223 <= 1
C972: + x74 + x485 <= 1
C973: + x188 + x363 <= 1
C974: + x20 + x161 <= 1
C975: + x458 + x499 <= 1
C976: + x122 + x227 <= 1
C977: + x68 + x296 <= 1
C978: + x306 + x367 <= 1
C979: + x17 + x19 <= 1
C980: + x37 + x94 <= 1
C981: + x49 + x364 <= 1
C982: + x50 + x116 <= 1
C983: + x357 + x488 <= 1
C984: + x422 + x459 <= 1
C985: + x61 + x287 <= 1
C986: + x27 + x411 <= 1
C987: + x134 + x455 <= 1
C988: + x165 + x208 <= 1
C989: + x41 + x54 <= 1
C990: + x277 + x319 <= 1
C991: + x25 + x272 <= 1
C992: + x371 + x434 <= 1
C993: + x168 + x442 <= 1
C994: + x8 + x63 <= 1
C995: + x20 + x109 <= 1
C996: + x12 + x60 <= 1
C997: + x59 + x146 <= 1
C998: + x22 + x268 <= 1
C999: + x5 + x310 <= 1
C1000: + x7 + x82 <= 1
C1001: + x1 + x265 <= 1
C1002: + x92 + x330 <= 1
C1003: + x225 + x290 <= 1
C1004: + x8 + x80 <= 1
C1005: + x28 + x156 <= 1
C1006: + x1 + x27 <= 1
C1007: + x59 + x472 <= 1
C1008: + x33 + x335 <= 1
C1009: + x4 + x120 <= 1
C1010: + x20 + x57 <= 1
C1011: + x322 + x467 <= 1
C1012: + x33 + x81 <= 1
C1013: + x252 + x325 <= 1
C1014: + x13 + x52 + x74 <= 1
C1015: + x329 + x445 <= 1
C1016: + x283 + x305 <= 1
C1017: + x116 + x140 <= 1
C1018: + x1 + x87 <= 1
C1019: + x119 + x149 <= 1
C1020: + x10 + x174 <= 1
C1021: + x21 + x26 <= 1
C1022: + x26 + x83 <= 1
C1023: + x38 + x83 <= 1
C1024: + x33 + x45 <= 1
C1025: + x9 + x169 <= 1
C1026: + x1 + x198 <= 1
C1027: + x277 + x454 <= 1
C1028: + x1 + x99 <= 1
C1029: + x319 + x494 <= 1
C1030: + x22 + x277 <= 1
C1031: + x25 + x105 <= 1
C1032: + x6 + x75 <= 1
C1033: + x24 + x497 <= 1
C1034: + x77 + x168 <= 1
C1035: + x12 + x291 <= 1
C1036: + x34 + x495 <= 1
C1037: + x91 + x234 <= 1
C1038: + x10 + x235 <= 1
C1039: + x41 + x105 <= 1
C1040: + x4 + x125 <= 1
C1041: + x5 + x452 <= 1
C1042: + x9 + x114 <= 1
C1043: + x135 + x173 <= 1
C1044: + x37 + x160 <= 1
C1045: + x76 + x173 <= 1
C1046: + x42 + x109 <= 1
C1047: + x25 + x53 <= 1
C1048: + x19 + x87 <= 1
C1049: + x20 + x340 <= 1
C1050: + x358 + x401 <= 1
C1051: + x87 + x124 <= 1
C1052: + x88 + x407 <= 1
C1053: + x1 + x46 <= 1
C1054: + x8 + x121 <= 1
C1055: + x38 + x249 <= 1
C1056: + x10 + x215 <= 1
C1057: + x13 + x70 <= 1
C1058: + x122 + x387 <= 1
C1059: + x60 + x76 + x177 <= 1
C1060: + x125 + x493 <= 1
C1061: + x166 + x202 <= 1
C1062: + x60 + x258 <= 1
C1063: + x106 + x252 <= 1
C1064: + x52 + x84 <= 1
C1065: + x6 + x273 <= 1
C1066: + x79 + x390 <= 1
C1067: + x19 + x176 <= 1
C1068: + x130 + x337 <= 1
C1069: + x21 + x418 <= 1
C1070: + x348 + x421 <= 1
C1071: + x102 + x163 <= 1
C1072: + x85 + x367 <= 1
C1073: + x20 + x236 <= 1
C1074: + x276 + x415 <= 1
C1075: + x299 + x351 <= 1
C1076: + x8 + x481 <= 1
C1077: + x107 + x430 <= 1
C1078: + x92 + x199 <= 1
C1079: + x192 + x333 <= 1
C1080: + x5 + x13 <= 1
C1081: + x108 + x213 <= 1
C1082: + x18 + x237 <= 1
C1083: + x1 + x37 <= 1
C1084: + x21 + x48 <= 1
C1085: + x68 + x283 <= 1
C1086: + x31 + x360 <= 1
C1087: + x14 + x278 <= 1
C1088: + x316 + x439 <= 1
C1089: + x7 + x15 <= 1
C1090: + x53 + x220 <= 1
C1091: + x253 + x436 <= 1
C1092: + x104 + x457 <= 1
C1093: + x114 + x295 <= 1
C1094: + x169 + x323 <= 1
C1095: + x125 + x492 <= 1
C1096: + x350 + x414 <= 1
C1097: + x279 + x343 <= 1
C1098: + x7 + x172 <= 1
C1099: + x24 + x402 <= 1
C1100: + x8 + x135 <= 1
C1101: + x120 + x158 <= 1
C1102: + x12 + x196 <= 1
C1103: + x33 + x392 <= 1
C1104: + x5 + x49 <= 1
C1105: + x245 + x456 <= 1
C1106: + x8 + x38 <= 1
C1107: + x145 + x476 <= 1
C1108: + x75 + x476 <= 1
C1109: + x6 + x445 <= 1
C1110: + x2 + x117 <= 1
C1111: + x264 + x426 <= 1
C1112: + x125 + x448 <= 1
C1113: + x9 + x131 <= 1
C1114: + x82 + x362 <= 1
C1115: + x64 + x426 <= 1
C1116: + x302 + x463 <= 1
C1117: + x4 + x107 <= 1
C1118: + x5 + x434 <= 1
C1119: + x150 + x451 <= 1
C1120: + x9 + x128 <= 1
C1121: + x240 + x391 <= 1
C1122: + x12 + x27 <= 1
C1123: + x60 + x229 <= 1
C1124: + x22 + x491 <= 1
C1125: + x6 + x97 <= 1
C1126: + x7 + x119 <= 1
C1127: + x155 + x360 <= 1
C1128: + x9 + x477 <= 1
C1129: + x323 + x324 <= 1
C1130: + x19 + x73 <= 1
C1131: + x340 + x341 <= 1
C1132: + x59 + x84 <= 1
C1133: + x370 + x402 <= 1
C1134: + x44 + x81 <= 1
C1135: + x8 + x111 <= 1
C1136: + x21 + x55 <= 1
C1137: + x4 + x23 <= 1
C1138: + x234 + x469 <= 1
C1139: + x79 + x357 <= 1
C1140: + x160 + x308 <= 1
C1141: + x22 + x447 <= 1
C1142: + x17 + x412 <= 1
C1143: + x131 + x400 <= 1
C1144: + x5 + x64 <= 1
C1145: + x153 + x161 <= 1
C1146: + x6 + x184 <= 1
C1147: + x215 + x450 <= 1
C1148: + x8 + x35 <= 1
C1149: + x35 + x60 <= 1
C1150: + x1 + x120 <= 1
C1151: + x36 + x279 <= 1
C1152: + x28 + x406 <= 1
C1153: + x238 + x282 <= 1
C1154: + x6 + x217 <= 1
C1155: + x8 + x180 <= 1
C1156: + x12 + x181 <= 1
C1157: + x334 + x351 <= 1
C1158: + x16 + x20 <= 1
C1159: + x236 + x336 <= 1
C1160: + x230 + x323 <= 1
C1161: + x131 + x357 <= 1
C1162: + x12 + x20 <= 1
C1163: + x86 + x121 <= 1
C1164: + x498 + x499 <= 1
C1165: + x250 + x407 <= 1
C1166: + x95 + x239 <= 1
C1167: + x7 + x352 <= 1
C1168: + x220 + x423 <= 1
C1169: + x22 + x357 <= 1
C1170: + x33 + x236 <= 1
C1171: + x24 + x65 <= 1
C1172: + x8 + x395 <= 1
C1173: + x6 + x30 <= 1
C1174: + x16 + x379 <= 1
C1175: + x1 + x162 <= 1
C1176: + x275 + x398 <= 1
C1177: + x13 + x194 <= 1
C1178: + x380 + x412 <= 1
C1179: + x153 + x168 <= 1
C1180: + x24 + x178 <= 1
C1181: + x169 + x480 <= 1
C1182: + x52 + x198 <= 1
C1183: + x168 + x314 <= 1
C1184: + x127 + x349 <= 1
C1185: + x26 + x123 <= 1
C1186: + x165 + x429 <= 1
C1187: + x220 + x325 <= 1
C1188: + x119 + x298 <= 1
C1189: + x150 + x199 <= 1
C1190: + x63 + x456 <= 1
C1191: + x1 + x254 <= 1
C1192: + x24 + x134 <= 1
C1193: + x80 + x345 <= 1
C1194: + x54 + x214 <= 1
C1195: + x21 + x86 <= 1
C1196: + x279 + x304 <= 1
C1197: + x7 + x97 <= 1
C1198: + x62 + x150 <= 1
C1199: + x416 + x496 <= 1
C1200: + x84 + x249 <= 1
C1201: + x327 + x374 <= 1
C1202: + x202 + x491 <= 1
C1203: + x23 + x72 <= 1
C1204: + x24 + x251 <= 1
C1205: + x52 + x63 <= 1
C1206: + x8 + x388 <= 1
C1207: + x119 + x434 <= 1
C1208: + x1 + x185 <= 1
C1209: + x108 + x248 <= 1
C1210: + x28 + x197 <= 1
C1211: + x120 + x272 <= 1
C1212: + x166 + x321 <= 1
C1213: + x4 + x392 <= 1
C1214: + x7 + x48 <= 1
C1215: + x14 + x88 <= 1
C1216: + x100 + x292 <= 1
C1217: + x10 + x16 <= 1
C1218: + x23 + x273 <= 1
C1219: + x150 + x478 <= 1
C1220: + x9 + x21 <= 1
C1221: + x128 + x301 <= 1
C1222: + x114 + x407 <= 1
C1223: + x12 + x308 <= 1
C1224: + x23 + x95 <= 1
C1225: + x325 + x331 <= 1
C1226: + x145 + x268 <= 1
C1227: + x6 + x330 <= 1
C1228: + x250 + x274 <= 1
C1229: + x240 + x259 <= 1
C1230: + x18 + x108 <= 1
C1231: + x135 + x192 <= 1
C1232: + x41 + x362 <= 1
C1233: + x87 + x266 <= 1
C1234: + x6 + x16 <= 1
C1235: + x57 + x333 <= 1
C1236: + x22 + x45 <= 1
C1237: + x24 + x281 <= 1
C1238: + x288 + x481 <= 1
C1239: + x143 + x286 <= 1
C1240: + x16 + x34 + x271 <= 1
C1241: + x147 + x472 <= 1
C1242: + x186 + x209 <= 1
C1243: + x34 + x58 <= 1
C1244: + x53 + x196 <= 1
C1245: + x15 + x454 <= 1
C1246: + x24 + x43 <= 1
C1247: + x51 + x69 <= 1
C1248: + x6 + x52 <= 1
C1249: + x44 + x318 <= 1
C1250: + x24 + x394 <= 1
C1251: + x49 + x470 <= 1
C1252: + x114 + x154 <= 1
C1253: + x16 + x111 <= 1
C1254: + x57 + x118 <= 1
C1255: + x166 + x446 <= 1
C1256: + x14 + x418 <= 1
C1257: + x151 + x186 <= 1
C1258: + x156 + x380 <= 1
C1259: + x29 + x337 <= 1
C1260: + x77 + x174 <= 1
C1261: + x78 + x314 <= 1
C1262: + x21 + x374 <= 1
C1263: + x7 + x256 <= 1
C1264: + x10 + x253 <= 1
C1265: + x78 + x413 <= 1
C1266: + x33 + x241 <= 1
C1267: + x28 + x294 <= 1
C1268: + x93 + x494 <= 1
C1269: + x25 + x43 <= 1
C1270: + x6 + x9 <= 1
C1271: + x8 + x228 <= 1
C1272: + x229 + x328 <= 1
C1273: + x4 + x132 <= 1
C1274: + x44 + x105 <= 1
C1275: + x7 + x381 <= 1
C1276: + x63 + x362 <= 1
C1277: + x4 + x63 <= 1
C1278: + x162 + x486 <= 1
C1279: + x135 + x227 <= 1
C1280: + x139 + x341 <= 1
C1281: + x44 + x307 <= 1
C1282: + x18 + x316 <= 1
C1283: + x9 + x166 <= 1
C1284: + x71 + x464 <= 1
C1285: + x225 + x439 <= 1
C1286: + x52 + x229 <= 1
C1287: + x15 + x25 <= 1
C1288: + x199 + x278 <= 1
C1289: + x138 + x222 <= 1
C1290: + x139 + x214 <= 1
C1291: + x29 + x432 <= 1
C1292: + x267 + x495 <= 1
C1293: + x2 + x102 <= 1
C1294: + x22 + x107 <= 1
C1295: + x154 + x291 <= 1
C1296: + x4 + x463 <= 1
C1297: + x253 + x486 <= 1
C1298: + x194 + x410 <= 1
C1299: + x130 + x218 <= 1
C1300: + x41 + x344 <= 1
C1301: + x22 + x476 <= 1
C1302: + x53 + x291 <= 1
C1303: + x8 + x217 <= 1
C1304: + x4 + x137 <= 1
C1305: + x106 + x203 <= 1
C1306: + x138 + x485 <= 1
C1307: + x303 + x484 <= 1
C1308: + x90 + x407 <= 1
C1309: + x29 + x38 <= 1
C1310: + x86 + x181 <= 1
C1311: + x251 + x303 <= 1
C1312: + x7 + x190 <= 1
C1313: + x169 + x246 <= 1
C1314: + x32 + x208 <= 1
C1315: + x65 + x423 <= 1
C1316: + x249 + x324 <= 1
C1317: + x29 + x85 <= 1
C1318: + x244 + x353 <= 1
C1319: + x192 + x416 <= 1
C1320: + x12 + x295 <= 1
C1321: + x258 + x405 <= 1
C1322: + x60 + x382 <= 1
C1323: + x126 + x274 <= 1
C1324: + x18 + x95 <= 1
C1325: + x182 + x382 <= 1
C1326: + x339 + x370 <= 1
C1327: + x243 + x263 <= 1
C1328: + x63 + x102 <= 1
C1329: + x38 + x258 <= 1
C1330: + x157 + x251 <= 1
C1331: + x34 + x319 <= 1
C1332: + x218 + x440 <= 1
C1333: + x25 + x168 <= 1
C1334: + x24 + x50 <= 1
C1335: + x7 + x12 <= 1
C1336: + x256 + x271 <= 1
C1337: + x38 + x72 <= 1
C1338: + x3 + x44 <= 1
C1339: + x7 + x181 <= 1
C1340: + x82 + x246 <= 1
C1341: + x28 + x82 <= 1
C1342: + x83 + x327 <= 1
C1343: + x184 + x251 <= 1
C1344: + x5 + x54 <= 1
C1345: + x52 + x243 <= 1
C1346: + x181 + x474 <= 1
C1347: + x10 + x482 <= 1
C1348: + x156 + x335 <= 1
C1349: + x93 + x332 <= 1
C1350: + x6 + x211 <= 1
C1351: + x91 + x298 <= 1
C1352: + x33 + x337 <= 1
C1353: + x17 + x80 <= 1
C1354: + x247 + x445 <= 1
C1355: + x323 + x325 <= 1
C1356: + x42 + x90 <= 1
C1357: + x187 + x429 <= 1
C1358: + x6 + x100 <= 1
C1359: + x207 + x375 <= 1
C1360: + x101 + x168 <= 1
C1361: + x95 + x225 <= 1
C1362: + x33 + x464 <= 1
C1363: + x83 + x219 + x284 <= 1
C1364: + x210 + x364 <= 1
C1365: + x136 + x441 <= 1
C1366: + x95 + x414 <= 1
C1367: + x90 + x481 <= 1
C1368: + x24 + x79 <= 1
C1369: + x6 + x24 <= 1
C1370: + x15 + x67 <= 1
C1371: + x83 + x245 <= 1
C1372: + x8 + x131 <= 1
C1373: + x242 + x262 <= 1
C1374: + x116 + x170 <= 1
C1375: + x25 + x222 <= 1
C1376: + x41 + x204 <= 1
C1377: + x77 + x424 <= 1
C1378: + x68 + x130 <= 1
C1379: + x151 + x326 <= 1
C1380: + x84 + x368 <= 1
C1381: + x22 + x390 <= 1
C1382: + x5 + x196 <= 1
C1383: + x312 + x427 <= 1
C1384: + x41 + x333 <= 1
C1385: + x96 + x276 <= 1
C1386: + x6 + x109 <= 1
C1387: + x54 + x99 <= 1
C1388: + x1 + x302 <= 1
C1389: + x2 + x5 <= 1
C1390: + x219 + x413 <= 1
C1391: + x67 + x75 <= 1
C1392: + x9 + x243 <= 1
C1393: + x38 + x151 <= 1
C1394: + x4 + x27 <= 1
C1395: + x31 + x339 <= 1
C1396: + x169 + x401 <= 1
C1397: + x80 + x155 <= 1
C1398: + x1 + x477 <= 1
C1399: + x250 + x478 <= 1
C1400: + x192 + x455 <= 1
C1401: + x6 + x17 <= 1
C1402: + x151 + x238 <= 1
C1403: + x10 + x387 <= 1
C1404: + x1 + x378 <= 1
C1405: + x201 + x471 <= 1
C1406: + x212 + x498 <= 1
C1407: + x213 + x482 <= 1
C1408: + x108 + x321 <= 1
C1409: + x1 + x76 <= 1
C1410: + x25 + x66 <= 1
C1411: + x168 + x228 <= 1
C1412: + x227 + x404 <= 1
C1413: + x72 + x496 <= 1
C1414: + x23 + x283 <= 1
C1415: + x293 + x334 <= 1
C1416: + x30 + x98 <= 1
C1417: + x6 + x86 <= 1
C1418: + x66 + x350 <= 1
C1419: + x29 + x328 <= 1
C1420: + x25 + x427 <= 1
C1421: + x63 + x269 <= 1
C1422: + x148 + x330 <= 1
C1423: + x76 + x402 <= 1
C1424: + x33 + x315 <= 1
C1425: + x33 + x240 <= 1
C1426: + x52 + x62 <= 1
C1427: + x132 + x388 <= 1
C1428: + x98 + x280 <= 1
C1429: + x1 + x468 <= 1
C1430: + x44 + x49 + x110 <= 1
C1431: + x33 + x77 <= 1
C1432: + x170 + x230 <= 1
C1433: + x25 + x375 <= 1
C1434: + x6 + x376 <= 1
C1435: + x127 + x232 <= 1
C1436: + x45 + x138 <= 1
C1437: + x34 + x36 <= 1
C1438: + x348 + x400 <= 1
C1439: + x123 + x478 <= 1
C1440: + x251 + x279 <= 1
C1441: + x34 + x399 <= 1
C1442: + x62 + x492 <= 1
C1443: + x1 + x242 <= 1
C1444: + x10 + x11 <= 1
C1445: + x33 + x358 <= 1
C1446: + x14 + x329 <= 1
C1447: + x306 + x461 <= 1
C1448: + x9 + x18 <= 1
C1449: + x133 + x193 <= 1
C1450: + x180 + x457 <= 1
C1451: + x121 + x446 <= 1
C1452: + x4 + x238 <= 1
C1453: + x78 + x260 <= 1
C1454: + x1 + x14 <= 1
C1455: + x4 + x9 <= 1
C1456: + x25 + x132 <= 1
C1457: + x1 + x427 <= 1
C1458: + x76 + x185 <= 1
C1459: + x168 + x350 <= 1
C1460: + x304 + x366 <= 1
C1461: + x60 + x290 <= 1
C1462: + x180 + x308 <= 1
C1463: + x44 + x127 <= 1
C1464: + x8 + x13 <= 1
C1465: + x10 + x163 <= 1
C1466: + x31 + x184 <= 1
C1467: + x381 + x488 <= 1
C1468: + x7 + x274 <= 1
C1469: + x281 + x460 <= 1
C1470: + x78 + x428 <= 1
C1471: + x34 + x150 <= 1
C1472: + x392 + x475 <= 1
C1473: + x148 + x487 <= 1
C1474: + x39 + x135 <= 1
C1475: + x6 + x72 <= 1
C1476: + x117 + x469 <= 1
C1477: + x138 + x216 <= 1
C1478: + x301 + x313 <= 1
C1479: + x25 + x441 <= 1
C1480: + x24 + x321 <= 1
C1481: + x409 + x419 <= 1
C1482: + x28 + x134 <= 1
C1483: + x1 + x5 <= 1
C1484: + x219 + x267 <= 1
C1485: + x22 + x200 <= 1
C1486: + x32 + x352 <= 1
C1487: + x108 + x423 <= 1
C1488: + x290 + x352 <= 1
C1489: + x27 + x179 <= 1
C1490: + x256 + x300 <= 1
C1491: + x299 + x355 <= 1
C1492: + x49 + x305 <= 1
C1493: + x47 + x363 <= 1
C1494: + x12 + x389 <= 1
C1495: + x168 + x347 <= 1
C1496: + x283 + x311 <= 1
C1497: + x114 + x162 <= 1
C1498: + x29 + x143 <= 1
C1499: + x12 + x79 <= 1
C1500: + x78 + x468 <= 1
C1501: + x25 + x87 <= 1
C1502: + x82 + x92 <= 1
C1503: + x63 + x200 <= 1
C1504: + x12 + x369 <= 1
C1505: + x27 + x234 <= 1
C1506: + x330 + x363 <= 1
C1507: + x69 + x351 <= 1
C1508: + x154 + x350 <= 1
C1509: + x1 + x28 <= 1
C1510: + x102 + x275 <= 1
C1511: + x38 + x110 <= 1
C1512: + x412 + x462 <= 1
C1513: + x25 + x47 <= 1
C1514: + x44 + x379 <= 1
C1515: + x90 + x97 <= 1
C1516: + x8 + x273 <= 1
C1517: + x142 + x221 <= 1
C1518: + x1 + x139 <= 1
C1519: + x23 + x162 <= 1
C1520: + x117 + x261 <= 1
C1521: + x91 + x365 <= 1
C1522: + x4 + x35 <= 1
C1523: + x60 + x66 <= 1
C1524: + x25 + x94 <= 1
C1525: + x52 + x221 <= 1
C1526: + x160 + x328 <= 1
C1527: + x18 + x320 <= 1
C1528: + x9 + x170 <= 1
C1529: + x228 + x320 <= 1
C1530: + x114 + x151 <= 1
C1531: + x4 + x180 <= 1
C1532: + x303 + x336 <= 1
C1533: + x8 + x55 <= 1
C1534: + x135 + x370 <= 1
C1535: + x322 + x415 <= 1
C1536: + x312 + x392 <= 1
C1537: + x240 + x432 <= 1
C1538: + x115 + x267 <= 1
C1539: + x4 + x422 <= 1
C1540: + x9 + x484 <= 1
C1541: + x1 + x257 <= 1
C1542: + x64 + x137 <= 1
C1543: + x138 + x271 <= 1
C1544: + x76 + x223 <= 1
C1545: + x125 + x427 <= 1
C1546: + x6 + x237 <= 1
C1547: + x189 + x280 <= 1
C1548: + x172 + x253 <= 1
C1549: + x246 + x414 <= 1
C1550: + x163 + x287 <= 1
C1551: + x241 + x381 <= 1
C1552: + x70 + x80 <= 1
C1553: + x32 + x334 <= 1
C1554: + x18 + x90 <= 1
C1555: + x57 + x77 <= 1
C1556: + x121 + x141 <= 1
C1557: + x13 + x317 <= 1
C1558: + x133 + x226 <= 1
C1559: + x6 + x126 <= 1
C1560: + x88 + x136 <= 1
C1561: + x29 + x384 <= 1
C1562: + x51 + x484 <= 1
C1563: + x22 + x59 <= 1
C1564: + x15 + x319 <= 1
C1565: + x24 + x299 <= 1
C1566: + x61 + x447 <= 1
C1567: + x7 + x364 <= 1
C1568: + x41 + x150 <= 1
C1569: + x4 + x44 <= 1
C1570: + x23 + x335 <= 1
C1571: + x7 + x21 <= 1
C1572: + x362 + x403 <= 1
C1573: + x9 + x284 <= 1
C1574: + x12 + x206 <= 1
C1575: + x13 + x214 <= 1
C1576: + x5 + x75 <= 1
C1577: + x89 + x404 <= 1
C1578: + x10 + x130 <= 1
C1579: + x74 + x450 <= 1
C1580: + x93 + x428 <= 1
C1581: + x204 + x233 <= 1
C1582: + x155 + x330 <= 1
C1583: + x20 + x400 <= 1
C1584: + x4 + x202 <= 1
C1585: + x163 + x282 <= 1
C1586: + x9 + x157 <= 1
C1587: + x19 + x64 <= 1
C1588: + x86 + x360 <= 1
C1589: + x4 + x101 <= 1
C1590: + x107 + x189 <= 1
C1591: + x34 + x245 <= 1
C1592: + x108 + x398 <= 1
C1593: + x168 + x483 <= 1
C1594: + x135 + x165 <= 1
C1595: + x336 + x444 <= 1
C1596: + x67 + x212 <= 1
C1597: + x8 + x206 <= 1
C1598: + x5 + x14 <= 1
C1599: + x88 + x431 <= 1
C1600: + x36 + x74 <= 1
C1601: + x4 + x17 <= 1
C1602: + x115 + x329 <= 1
C1603: + x24 + x78 <= 1
C1604: + x7 + x16 <= 1
C1605: + x8 + x408 <= 1
C1606: + x34 + x420 <= 1
C1607: + x5 + x157 <= 1
C1608: + x61 + x293 <= 1
C1609: + x1 + x368 <= 1
C1610: + x382 + x500 <= 1
C1611: + x7 + x169 <= 1
C1612: + x10 + x405 <= 1
C1613: + x5 + x399 <= 1
C1614: + x126 + x225 <= 1
C1615: + x18 + x32 <= 1
C1616: + x254 + x428 <= 1
C1617: + x241 + x284 <= 1
C1618: + x166 + x341 <= 1
C1619: + x44 + x182 <= 1
C1620: + x62 + x207 <= 1
C1621: + x153 + x429 <= 1
C1622: + x238 + x288 <= 1
C1623: + x96 + x130 <= 1
C1624: + x278 + x308 <= 1
C1625: + x25 + x405 <= 1
C1626: + x8 + x182 <= 1
C1627: + x228 + x282 <= 1
C1628: + x56 + x96 <= 1
C1629: + x22 + x220 <= 1
C1630: + x5 + x102 <= 1
C1631: + x43 + x177 <= 1
C1632: + x17 + x68 <= 1
C1633: + x108 + x387 <= 1
C1634: + x24 + x119 <= 1
C1635: + x12 + x30 <= 1
C1636: + x50 + x163 <= 1
C1637: + x146 + x269 <= 1
C1638: + x291 + x378 <= 1
C1639: + x5 + x245 <= 1
C1640: + x21 + x56 <= 1
C1641: + x9 + x429 <= 1
C1642: + x166 + x461 <= 1
C1643: + x1 + x359 <= 1
C1644: + x135 + x442 <= 1
C1645: + x37 + x365 <= 1
C1646: + x12 + x252 <= 1
C1647: + x54 + x264 <= 1
C1648: + x340 + x438 <= 1
C1649: + x33 + x162 <= 1
C1650: + x107 + x489 <= 1
C1651: + x41 + x261 <= 1
C1652: + x16 + x494 <= 1
C1653: + x54 + x91 <= 1
C1654: + x151 + x346 <= 1
C1655: + x21 + x278 <= 1
C1656: + x89 + x220 <= 1
C1657: + x100 + x309 <= 1
C1658: + x19 + x50 <= 1
C1659: + x185 + x186 <= 1
C1660: + x86 + x362 <= 1
C1661: + x114 + x246 <= 1
C1662: + x34 + x135 <= 1
C1663: + x6 + x310 <= 1
C1664: + x82 + x397 <= 1
C1665: + x10 + x384 <= 1
C1666: + x8 + x466 <= 1
C1667: + x222 + x240 <= 1
C1668: + x41 + x305 <= 1
C1669: + x33 + x126 <= 1
C1670: + x34 + x98 <= 1
C1671: + x4 + x228 <= 1
C1672: + x6 + x327 <= 1
C1673: + x36 + x120 <= 1
C1674: + x1 + x52 <= 1
C1675: + x222 + x342 <= 1
C1676: + x4 + x31 <= 1
C1677: + x22 + x356 <= 1
C1678: + x44 + x248 <= 1
C1679: + x108 + x440 <= 1
C1680: + x147 + x340 <= 1
C1681: + x203 + x322 <= 1
C1682: + x68 + x254 <= 1
C1683: + x4 + x369 <= 1
C1684: + x15 + x74 <= 1
C1685: + x6 + x29 <= 1
C1686: + x10 + x90 <= 1
C1687: + x169 + x239 <= 1
C1688: + x5 + x40 <= 1
C1689: + x24 + x262 <= 1
C1690: + x6 + x267 <= 1
C1691: + x9 + x35 <= 1
C1692: + x8 + x27 <= 1
C1693: + x20 + x145 <= 1
C1694: + x12 + x96 <= 1
C1695: + x89 + x262 <= 1
C1696: + x5 + x274 <= 1
C1697: + x244 + x380 <= 1
C1698: + x135 + x255 <= 1
C1699: + x37 + x46 <= 1
C1700: + x105 + x361 <= 1
C1701: + x8 + x172 <= 1
C1702: + x111 + x138 <= 1
C1703: + x5 + x108 <= 1
C1704: + x52 + x118 <= 1
C1705: + x24 + x133 <= 1
C1706: + x2 + x260 <= 1
C1707: + x21 + x87 <= 1
C1708: + x86 + x470 <= 1
C1709: + x104 + x354 <= 1
C1710: + x6 + x82 <= 1
C1711: + x91 + x126 <= 1
C1712: + x10 + x452 <= 1
C1713: + x84 + x325 <= 1
C1714: + x75 + x276 <= 1
C1715: + x38 + x313 <= 1
C1716: + x12 + x318 <= 1
C1717: + x1 + x8 + x9 + x10 <= 1
C1718: + x8 + x96 <= 1
C1719: + x45 + x247 <= 1
C1720: + x359 + x403 <= 1
C1721: + x14 + x99 <= 1
C1722: + x52 + x349 <= 1
C1723: + x7 + x158 <= 1
C1724: + x92 + x310 <= 1
C1725: + x92 + x249 <= 1
C1726: + x10 + x67 <= 1
C1727: + x46 + x442 <= 1
C1728: + x6 + x185 <= 1
C1729: + x53 + x56 + x474 <= 1
C1730: + x7 + x388 <= 1
C1731: + x16 + x93 <= 1
C1732: + x85 + x285 <= 1
C1733: + x12 + x85 <= 1
C1734: + x7 + x45 <= 1
C1735: + x75 + x228 <= 1
C1736: + x139 + x253 <= 1
C1737: + x13 + x329 <= 1
C1738: + x188 + x449 <= 1
C1739: + x9 + x356 <= 1
C1740: + x10 + x15 <= 1
C1741: + x34 + x145 <= 1
C1742: + x24 + x158 <= 1
C1743: + x1 + x403 <= 1
C1744: + x21 + x395 <= 1
C1745: + x13 + x480 <= 1
C1746: + x52 + x154 <= 1
C1747: + x6 + x91 <= 1
C1748: + x7 + x89 <= 1
C1749: + x10 + x453 <= 1
C1750: + x283 + x360 <= 1
C1751: + x368 + x486 <= 1
C1752: + x89 + x246 <= 1
C1753: + x90 + x234 <= 1
C1754: + x287 + x296 <= 1
C1755: + x6 + x329 <= 1
C1756: + x64 + x396 <= 1
C1757: + x4 + x13 <= 1
C1758: + x61 + x108 <= 1
C1759: + x10 + x342 <= 1
C1760: + x42 + x125 <= 1
C1761: + x6 + x15 <= 1
C1762: + x27 + x457 <= 1
C1763: + x155 + x255 <= 1
C1764: + x232 + x306 <= 1
C1765: + x270 + x394 <= 1
C1766: + x44 + x115 <= 1
C1767: + x243 + x366 <= 1
C1768: + x24 + x38 <= 1
C1769: + x45 + x290 <= 1
C1770: + x92 + x444 <= 1
C1771: + x95 + x149 <= 1
C1772: + x78 + x197 <= 1
C1773: + x6 + x51 <= 1
C1774: + x9 + x192 <= 1
C1775: + x2 + x243 <= 1
C1776: + x37 + x334 <= 1
C1777: + x12 + x219 <= 1
C1778: + x13 + x37 <= 1
C1779: + x287 + x416 <= 1
C1780: + x112 + x199 <= 1
C1781: + x22 + x256 <= 1
C1782: + x131 + x430 <= 1
C1783: + x273 + x314 <= 1
C1784: + x24 + x155 <= 1
C1785: + x241 + x500 <= 1
C1786: + x9 + x29 <= 1
C1787: + x8 + x61 <= 1
C1788: + x27 + x235 <= 1
C1789: + x98 + x437 <= 1
C1790: + x57 + x212 <= 1
C1791: + x99 + x160 <= 1
C1792: + x182 + x216 <= 1
C1793: + x131 + x482 <= 1
C1794: + x4 + x118 <= 1
C1795: + x97 + x434 <= 1
C1796: + x69 + x78 <= 1
C1797: + x18 + x100 <= 1
C1798: + x45 + x394 <= 1
C1799: + x19 + x98 <= 1
C1800: + x2 + x64 <= 1
C1801: + x24 + x273 <= 1
C1802: + x381 + x396 <= 1
C1803: + x10 + x176 <= 1
C1804: + x29 + x139 <= 1
C1805: + x22 + x152 <= 1
C1806: + x115 + x348 <= 1
C1807: + x253 + x420 <= 1
C1808: + x7 + x31 <= 1
C1809: + x313 + x452 <= 1
C1810: + x52 + x375 <= 1
C1811: + x41 + x59 <= 1
C1812: + x95 + x313 <= 1
C1813: + x52 + x406 <= 1
C1814: + x16 + x119 <= 1
C1815: + x127 + x194 <= 1
C1816: + x22 + x279 <= 1
C1817: + x6 + x77 <= 1
C1818: + x227 + x255 <= 1
C1819: + x279 + x306 <= 1
C1820: + x156 + x372 <= 1
C1821: + x28 + x397 <= 1
C1822: + x374 + x425 <= 1
C1823: + x29 + x425 <= 1
C1824: + x200 + x409 <= 1
C1825: + x6 + x240 <= 1
C1826: + x7 + x313 <= 1
C1827: + x74 + x421 <= 1
C1828: + x38 + x183 <= 1
C1829: + x177 + x207 <= 1
C1830: + x23 + x203 <= 1
C1831: + x102 + x287 <= 1
C1832: + x293 + x299 <= 1
C1833: + x107 + x421 <= 1
C1834: + x61 + x223 <= 1
C1835: + x8 + x220 <= 1
C1836: + x228 + x376 <= 1
C1837: + x86 + x195 <= 1
C1838: + x6 + x148 <= 1
C1839: + x122 + x239 <= 1
C1840: + x178 + x344 <= 1
C1841: + x79 + x277 <= 1
C1842: + x7 + x18 <= 1
C1843: + x221 + x231 <= 1
C1844: + x366 + x449 <= 1
C1845: + x85 + x399 <= 1
C1846: + x115 + x440 <= 1
C1847: + x33 + x34 <= 1
C1848: + x6 + x37 <= 1
C1849: + x44 + x299 <= 1
C1850: + x89 + x191 <= 1
C1851: + x70 + x298 <= 1
C1852: + x52 + x384 <= 1
C1853: + x213 + x470 <= 1
C1854: + x9 + x11 <= 1
C1855: + x1 + x104 <= 1
C1856: + x38 + x47 <= 1
C1857: + x115 + x263 <= 1
C1858: + x22 + x288 <= 1
C1859: + x88 + x336 <= 1
C1860: + x55 + x76 <= 1
C1861: + x40 + x41 <= 1
C1862: + x44 + x487 <= 1
C1863: + x145 + x173 <= 1
C1864: + x8 + x68 <= 1
C1865: + x20 + x234 <= 1
C1866: + x67 + x455 <= 1
C1867: + x61 + x113 <= 1
C1868: + x24 + x125 <= 1
C1869: + x6 + x122 <= 1
C1870: + x38 + x257 <= 1
C1871: + x36 + x69 <= 1
C1872: + x28 + x164 <= 1
C1873: + x51 + x142 <= 1
C1874: + x108 + x453 <= 1
C1875: + x390 + x401 <= 1
C1876: + x241 + x394 <= 1
C1877: + x49 + x202 <= 1
C1878: + x95 + x138 <= 1
C1879: + x103 + x460 <= 1
C1880: + x206 + x443 <= 1
C1881: + x24 + x408 <= 1
C1882: + x9 + x288 <= 1
C1883: + x8 + x314 <= 1
C1884: + x164 + x233 <= 1
C1885: + x174 + x210 <= 1
C1886: + x59 + x415 <= 1
C1887: + x4 + x189 <= 1
C1888: + x5 + x55 <= 1
C1889: + x90 + x272 <= 1
C1890: + x191 + x197 <= 1
C1891: + x50 + x242 <= 1
C1892: + x133 + x161 <= 1
C1893: + x156 + x181 <= 1
C1894: + x29 + x447 <= 1
C1895: + x177 + x288 <= 1
C1896: + x428 + x485 <= 1
C1897: + x6 + x210 <= 1
C1898: + x38 + x185 <= 1
C1899: + x215 + x389 <= 1
C1900: + x298 + x332 <= 1
C1901: + x170 + x404 <= 1
C1902: + x17 + x494 <= 1
C1903: + x44 + x365 <= 1
C1904: + x1 + x344 <= 1
C1905: + x137 + x240 <= 1
C1906: + x266 + x462 <= 1
C1907: + x149 + x216 <= 1
C1908: + x13 + x149 <= 1
C1909: + x6 + x134 <= 1
C1910: + x1 + x58 <= 1
C1911: + x120 + x236 <= 1
C1912: + x29 + x152 <= 1
C1913: + x12 + x106 <= 1
C1914: + x33 + x302 <= 1
C1915: + x85 + x320 <= 1
C1916: + x103 + x354 <= 1
C1917: + x4 + x21 <= 1
C1918: + x9 + x426 <= 1
C1919: + x3 + x36 <= 1
C1920: + x6 + x23 <= 1
C1921: + x228 + x338 <= 1
C1922: + x19 + x127 <= 1
C1923: + x212 + x492 <= 1
C1924: + x54 + x488 <= 1
C1925: + x31 + x39 <= 1
C1926: + x33 + x413 <= 1
C1927: + x9 + x57 <= 1
C1928: + x8 + x33 <= 1
C1929: + x10 + x143 <= 1
C1930: + x38 + x209 <= 1
C1931: + x79 + x307 <= 1
C1932: + x17 + x41 <= 1
C1933: + x120 + x451 <= 1
C1934: + x77 + x211 <= 1
C1935: + x169 + x372 <= 1
C1936: + x17 + x342 <= 1
C1937: + x213 + x432 <= 1
C1938: + x4 + x82 <= 1
C1939: + x208 + x210 <= 1
C1940: + x111 + x349 <= 1
C1941: + x175 + x448 <= 1
C1942: + x13 + x303 <= 1
C1943: + x39 + x296 <= 1
C1944: + x90 + x128 <= 1
C1945: + x115 + x493 <= 1
C1946: + x22 + x73 <= 1
C1947: + x232 + x339 <= 1
C1948: + x171 + x208 <= 1
C1949: + x32 + x114 <= 1
C1950: + x108 + x193 <= 1
C1951: + x64 + x409 <= 1
C1952: + x4 + x30 <= 1
C1953: + x72 + x201 <= 1
C1954: + x230 + x265 <= 1

binary
x1 x2 x3 x4 x5 x6 x7 x8 x9 x10 x11 x12 x13 x14 x15 x16 x17 x18 x19 x20 x21 x22 x23 x24 x25 x26 x27 x28 x29 x30 x31 x32 x33 x34 x35 x36 x37 x38 x39 x40 x41 x42 x43 x44 x45 x46 x47 x48 x49 x50 x51 x52 x53 x54 x55 x56 x57 x58 x59 x60 x61 x62 x63 x64 x65 x66 x67 x68 x69 x70 x71 x72 x73 x74 x75 x76 x77 x78 x79 x80 x81 x82 x83 x84 x85 x86 x87 x88 x89 x90 x91 x92 x93 x94 x95 x96 x97 x98 x99 x100 x101 x102 x103 x104 x105 x106 x107 x108 x109 x110 x111 x112 x113 x114 x115 x116 x117 x118 x119 x120 x121 x122 x123 x124 x125 x126 x127 x128 x129 x130 x131 x132 x133 x134 x135 x136 x137 x138 x139 x140 x141 x142 x143 x144 x145 x146 x147 x148 x149 x150 x151 x152 x153 x154 x155 x156 x157 x158 x159 x160 x161 x162 x163 x164 x165 x166 x167 x168 x169 x170 x171 x172 x173 x174 x175 x176 x177 x178 x179 x180 x181 x182 x183 x184 x185 x186 x187 x188 x189 x190 x191 x192 x193 x194 x195 x196 x197 x198 x199 x200 x201 x202 x203 x204 x205 x206 x207 x208 x209 x210 x211 x212 x213 x214 x215 x216 x217 x218 x219 x220 x221 x222 x223 x224 x225 x226 x227 x228 x229 x230 x231 x232 x233 x234 x235 x236 x237 x238 x239 x240 x241 x242 x243 x244 x245 x246 x247 x248 x249 x250 x251 x252 x253 x254 x255 x256 x257 x258 x259 x260 x261 x262 x263 x264 x265 x266 x267 x268 x269 x270 x271 x272 x273 x274 x275 x276 x277 x278 x279 x280 x281 x282 x283 x284 x285 x286 x287 x288 x289 x290 x291 x292 x293 x294 x295 x296 x297 x298 x299 x300 x301 x302 x303 x304 x305 x306 x307 x308 x309 x310 x311 x312 x313 x314 x315 x316 x317 x318 x319 x320 x321 x322 x323 x324 x325 x326 x327 x328 x329 x330 x331 x332 x333 x334 x335 x336 x337 x338 x339 x340 x341 x342 x343 x344 x345 x346 x347 x348 x349 x350 x351 x352 x353 x354 x355 x356 x357 x358 x359 x360 x361 x362 x363 x364 x365 x366 x367 x368 x369 x370 x371 x372 x373 x374 x375 x376 x377 x378 x379 x380 x381 x382 x383 x384 x385 x386 x387 x388 x389 x390 x391 x392 x393 x394 x395 x396 x397 x398 x399 x400 x401 x402 x403 x404 x405 x406 x407 x408 x409 x410 x411 x412 x413 x414 x415 x416 x417 x418 x419 x420 x421 x422 x423 x424 x425 x426 x427 x428 x429 x430 x431 x432 x433 x434 x435 x436 x437 x438 x439 x440 x441 x442 x443 x444 x445 x446 x447 x448 x449 x450 x451 x452 x453 x454 x455 x456 x457 x458 x459 x460 x461 x462 x463 x464 x465 x466 x467 x468 x469 x470 x471 x472 x473 x474 x475 x476 x477 x478 x479 x480 x481 x482 x483 x484 x485 x486 x487 x488 x489 x490 x491 x492 x493 x494 x495 x496 x497 x498 x499 x500
