maximize
OBJ: + 1 x1 + 1 x2 + 1 x3 + 1 x4 + 1 x5 + 1 x6 + 1 x7 + 1 x8 + 1 x9 + 1 x10 + 1 x11 + 1 x12 + 1 x13 + 1 x14 + 1 x15 + 1 x16 + 1 x17 + 1 x18 + 1 x19 + 1 x20 + 1 x21 + 1 x22 + 1 x23 + 1 x24 + 1 x25 + 1 x26 + 1 x27 + 1 x28 + 1 x29 + 1 x30 + 1 x31 + 1 x32 + 1 x33 + 1 x34 + 1 x35 + 1 x36 + 1 x37 + 1 x38 + 1 x39 + 1 x40 + 1 x41 + 1 x42 + 1 x43 + 1 x44 + 1 x45 + 1 x46 + 1 x47 + 1 x48 + 1 x49 + 1 x50 + 1 x51 + 1 x52 + 1 x53 + 1 x54 + 1 x55 + 1 x56 + 1 x57 + 1 x58 + 1 x59 + 1 x60 + 1 x61 + 1 x62 + 1 x63 + 1 x64 + 1 x65 + 1 x66 + 1 x67 + 1 x68 + 1 x69 + 1 x70 + 1 x71 + 1 x72 + 1 x73 + 1 x74 + 1 x75 + 1 x76 + 1 x77 + 1 x78 + 1 x79 + 1 x80 + 1 x81 + 1 x82 + 1 x83 + 1 x84 + 1 x85 + 1 x86 + 1 x87 + 1 x88 + 1 x89 + 1 x90 + 1 x91 + 1 x92 + 1 x93 + 1 x94 + 1 x95 + 1 x96 + 1 x97 + 1 x98 + 1 x99 + 1 x100 + 1 x101 + 1 x102 + 1 x103 + 1 x104 + 1 x105 + 1 x106 + 1 x107 + 1 x108 + 1 x109 + 1 x110 + 1 x111 + 1 x112 + 1 x113 + 1 x114 + 1 x115 + 1 x116 + 1 x117 + 1 x118 + 1 x119 + 1 x120 + 1 x121 + 1 x122 + 1 x123 + 1 x124 + 1 x125 + 1 x126 + 1 x127 + 1 x128 + 1 x129 + 1 x130 + 1 x131 + 1 x132 + 1 x133 + 1 x134 + 1 x135 + 1 x136 + 1 x137 + 1 x138 + 1 x139 + 1 x140 + 1 x141 + 1 x142 + 1 x143 + 1 x144 + 1 x145 + 1 x146 + 1 x147 + 1 x148 + 1 x149 + 1 x150 + 1 x151 + 1 x152 + 1 x153 + 1 x154 + 1 x155 + 1 x156 + 1 x157 + 1 x158 + 1 x159 + 1 x160 + 1 x161 + 1 x162 + 1 x163 + 1 x164 + 1 x165 + 1 x166 + 1 x167 + 1 x168 + 1 x169 + 1 x170 + 1 x171 + 1 x172 + 1 x173 + 1 x174 + 1 x175 + 1 x176 + 1 x177 + 1 x178 + 1 x179 + 1 x180 + 1 x181 + 1 x182 + 1 x183 + 1 x184 + 1 x185 + 1 x186 + 1 x187 + 1 x188 + 1 x189 + 1 x190 + 1 x191 + 1 x192 + 1 x193 + 1 x194 + 1 x195 + 1 x196 + 1 x197 + 1 x198 + 1 x199 + 1 x200 + 1 x201 + 1 x202 + 1 x203 + 1 x204 + 1 x205 + 1 x206 + 1 x207 + 1 x208 + 1 x209 + 1 x210 + 1 x211 + 1 x212 + 1 x213 + 1 x214 + 1 x215 + 1 x216 + 1 x217 + 1 x218 + 1 x219 + 1 x220 + 1 x221 + 1 x222 + 1 x223 + 1 x224 + 1 x225 + 1 x226 + 1 x227 + 1 x228 + 1 x229 + 1 x230 + 1 x231 + 1 x232 + 1 x233 + 1 x234 + 1 x235 + 1 x236 + 1 x237 + 1 x238 + 1 x239 + 1 x240 + 1 x241 + 1 x242 + 1 x243 + 1 x244 + 1 x245 + 1 x246 + 1 x247 + 1 x248 + 1 x249 + 1 x250 + 1 x251 + 1 x252 + 1 x253 + 1 x254 + 1 x255 + 1 x256 + 1 x257 + 1 x258 + 1 x259 + 1 x260 + 1 x261 + 1 x262 + 1 x263 + 1 x264 + 1 x265 + 1 x266 + 1 x267 + 1 x268 + 1 x269 + 1 x270 + 1 x271 + 1 x272 + 1 x273 + 1 x274 + 1 x275 + 1 x276 + 1 x277 + 1 x278 + 1 x279 + 1 x280 + 1 x281 + 1 x282 + 1 x283 + 1 x284 + 1 x285 + 1 x286 + 1 x287 + 1 x288 + 1 x289 + 1 x290 + 1 x291 + 1 x292 + 1 x293 + 1 x294 + 1 x295 + 1 x296 + 1 x297 + 1 x298 + 1 x299 + 1 x300 + 1 x301 + 1 x302 + 1 x303 + 1 x304 + 1 x305 + 1 x306 + 1 x307 + 1 x308 + 1 x309 + 1 x310 + 1 x311 + 1 x312 + 1 x313 + 1 x314 + 1 x315 + 1 x316 + 1 x317 + 1 x318 + 1 x319 + 1 x320 + 1 x321 + 1 x322 + 1 x323 + 1 x324 + 1 x325 + 1 x326 + 1 x327 + 1 x328 + 1 x329 + 1 x330 + 1 x331 + 1 x332 + 1 x333 + 1 x334 + 1 x335 + 1 x336 + 1 x337 + 1 x338 + 1 x339 + 1 x340 + 1 x341 + 1 x342 + 1 x343 + 1 x344 + 1 x345 + 1 x346 + 1 x347 + 1 x348 + 1 x349 + 1 x350 + 1 x351 + 1 x352 + 1 x353 + 1 x354 + 1 x355 + 1 x356 + 1 x357 + 1 x358 + 1 x359 + 1 x360 + 1 x361 + 1 x362 + 1 x363 + 1 x364 + 1 x365 + 1 x366 + 1 x367 + 1 x368 + 1 x369 + 1 x370 + 1 x371 + 1 x372 + 1 x373 + 1 x374 + 1 x375 + 1 x376 + 1 x377 + 1 x378 + 1 x379 + 1 x380 + 1 x381 + 1 x382 + 1 x383 + 1 x384 + 1 x385 + 1 x386 + 1 x387 + 1 x388 + 1 x389 + 1 x390 + 1 x391 + 1 x392 + 1 x393 + 1 x394 + 1 x395 + 1 x396 + 1 x397 + 1 x398 + 1 x399 + 1 x400 + 1 x401 + 1 x402 + 1 x403 + 1 x404 + 1 x405 + 1 x406 + 1 x407 + 1 x408 + 1 x409 + 1 x410 + 1 x411 + 1 x412 + 1 x413 + 1 x414 + 1 x415 + 1 x416 + 1 x417 + 1 x418 + 1 x419 + 1 x420 + 1 x421 + 1 x422 + 1 x423 + 1 x424 + 1 x425 + 1 x426 + 1 x427 + 1 x428 + 1 x429 + 1 x430 + 1 x431 + 1 x432 + 1 x433 + 1 x434 + 1 x435 + 1 x436 + 1 x437 + 1 x438 + 1 x439 + 1 x440 + 1 x441 + 1 x442 + 1 x443 + 1 x444 + 1 x445 + 1 x446 + 1 x447 + 1 x448 + 1 x449 + 1 x450 + 1 x451 + 1 x452 + 1 x453 + 1 x454 + 1 x455 + 1 x456 + 1 x457 + 1 x458 + 1 x459 + 1 x460 + 1 x461 + 1 x462 + 1 x463 + 1 x464 + 1 x465 + 1 x466 + 1 x467 + 1 x468 + 1 x469 + 1 x470 + 1 x471 + 1 x472 + 1 x473 + 1 x474 + 1 x475 + 1 x476 + 1 x477 + 1 x478 + 1 x479 + 1 x480 + 1 x481 + 1 x482 + 1 x483 + 1 x484 + 1 x485 + 1 x486 + 1 x487 + 1 x488 + 1 x489 + 1 x490 + 1 x491 + 1 x492 + 1 x493 + 1 x494 + 1 x495 + 1 x496 + 1 x497 + 1 x498 + 1 x499 + 1 x500

subject to
C1: + x7 + x168 <= 1
C2: + x401 + x427 <= 1
C3: + x6 + x179 <= 1
C4: + x7 + x406 <= 1
C5: + x1 + x77 <= 1
C6: + x12 + x91 <= 1
C7: + x105 + x116 <= 1
C8: + x195 + x238 <= 1
C9: + x31 + x288 <= 1
C10: + x283 + x495 <= 1
C11: + x14 + x132 <= 1
C12: + x215 + x407 <= 1
C13: + x148 + x476 <= 1
C14: + x117 + x456 <= 1
C15: + x102 + x132 <= 1
C16: + x23 + x344 <= 1
C17: + x16 + x35 <= 1
C18: + x174 + x463 <= 1
C19: + x1 + x167 <= 1
C20: + x65 + x359 <= 1
C21: + x26 + x163 <= 1
C22: + x27 + x209 <= 1
C23: + x134 + x322 <= 1
C24: + x246 + x461 <= 1
C25: + x16 + x84 <= 1
C26: + x12 + x84 <= 1
C27: + x359 + x367 <= 1
C28: + x7 + x42 <= 1
C29: + x9 + x388 <= 1
C30: + x11 + x37 <= 1
C31: + x67 + x138 <= 1
C32: + x126 + x309 <= 1
C33: + x1 + x243 <= 1
C34: + x43 + x342 <= 1
C35: + x24 + x129 <= 1
C36: + x18 + x58 <= 1
C37: + x171 + x380 <= 1
C38: + x46 + x148 <= 1
C39: + x29 + x78 <= 1
C40: + x61 + x250 <= 1
C41: + x79 + x201 <= 1
C42: + x168 + x361 <= 1
C43: + x337 + x488 <= 1
C44: + x113 + x364 <= 1
C45: + x44 + x70 <= 1
C46: + x6 + x332 <= 1
C47: + x1 + x15 <= 1
C48: + x66 + x497 <= 1
C49: + x4 + x12 <= 1
C50: + x66 + x148 <= 1
C51: + x130 + x202 <= 1
C52: + x340 + x471 <= 1
C53: + x10 + x436 <= 1
C54: + x24 + x287 <= 1
C55: + x24 + x198 <= 1
C56: + x9 + x46 <= 1
C57: + x119 + x153 <= 1
C58: + x7 + x392 <= 1
C59: + x90 + x177 <= 1
C60: + x187 + x193 <= 1
C61: + x235 + x276 <= 1
C62: + x26 + x71 <= 1
C63: + x182 + x297 <= 1
C64: + x11 + x12 + x24 <= 1
C65: + x86 + x165 <= 1
C66: + x5 + x186 <= 1
C67: + x7 + x206 <= 1
C68: + x1 + x202 <= 1
C69: + x42 + x327 <= 1
C70: + x353 + x355 <= 1
C71: + x52 + x127 <= 1
C72: + x6 + x292 <= 1
C73: + x9 + x26 <= 1
C74: + x27 + x31 <= 1
C75: + x82 + x260 <= 1
C76: + x62 + x440 <= 1
C77: + x294 + x476 <= 1
C78: + x13 + x30 <= 1
C79: + x53 + x133 <= 1
C80: + x88 + x302 <= 1
C81: + x236 + x365 <= 1
C82: + x75 + x362 <= 1
C83: + x148 + x438 <= 1
C84: + x41 + x367 <= 1
C85: + x79 + x160 <= 1
C86: + x65 + x144 <= 1
C87: + x46 + x431 <= 1
C88: + x194 + x302 <= 1
C89: + x115 + x148 <= 1
C90: + x93 + x296 <= 1
C91: + x60 + x151 <= 1
C92: + x16 + x215 <= 1
C93: + x224 + x389 <= 1
C94: + x32 + x276 <= 1
C95: + x159 + x469 <= 1
C96: + x6 + x301 <= 1
C97: + x12 + x62 <= 1
C98: + x45 + x338 <= 1
C99: + x163 + x420 <= 1
C100: + x146 + x154 <= 1
C101: + x344 + x481 <= 1
C102: + x112 + x308 <= 1
C103: + x232 + x375 <= 1
C104: + x9 + x347 <= 1
C105: + x208 + x496 <= 1
C106: + x112 + x151 <= 1
C107: + x13 + x21 <= 1
C108: + x141 + x405 <= 1
C109: + x45 + x225 <= 1
C110: + x7 + x487 <= 1
C111: + x66 + x110 <= 1
C112: + x320 + x431 <= 1
C113: + x16 + x58 <= 1
C114: + x71 + x295 <= 1
C115: + x58 + x313 <= 1
C116: + x21 + x482 <= 1
C117: + x42 + x106 <= 1
C118: + x137 + x308 <= 1
C119: + x129 + x369 <= 1
C120: + x193 + x433 <= 1
C121: + x32 + x154 <= 1
C122: + x261 + x342 <= 1
C123: + x35 + x432 <= 1
C124: + x143 + x490 <= 1
C125: + x1 + x41 <= 1
C126: + x12 + x71 <= 1
C127: + x23 + x437 <= 1
C128: + x24 + x63 <= 1
C129: + x6 + x389 <= 1
C130: + x271 + x424 <= 1
C131: + x71 + x449 <= 1
C132: + x149 + x267 <= 1
C133: + x242 + x278 <= 1
C134: + x287 + x395 <= 1
C135: + x110 + x116 <= 1
C136: + x8 + x50 <= 1
C137: + x4 + x421 <= 1
C138: + x6 + x73 <= 1
C139: + x9 + x485 <= 1
C140: + x64 + x140 <= 1
C141: + x212 + x330 <= 1
C142: + x68 + x77 <= 1
C143: + x123 + x444 <= 1
C144: + x56 + x294 <= 1
C145: + x15 + x191 <= 1
C146: + x41 + x462 <= 1
C147: + x308 + x360 <= 1
C148: + x48 + x96 <= 1
C149: + x124 + x135 <= 1
C150: + x450 + x498 <= 1
C151: + x18 + x89 <= 1
C152: + x102 + x283 <= 1
C153: + x250 + x386 <= 1
C154: + x319 + x480 <= 1
C155: + x2 + x295 <= 1
C156: + x126 + x389 <= 1
C157: + x44 + x371 <= 1
C158: + x8 + x216 <= 1
C159: + x5 + x8 <= 1
C160: + x87 + x122 <= 1
C161: + x28 + x175 <= 1
C162: + x337 + x408 <= 1
C163: + x14 + x126 <= 1
C164: + x6 + x33 <= 1
C165: + x9 + x285 <= 1
C166: + x372 + x375 <= 1
C167: + x221 + x461 <= 1
C168: + x236 + x296 <= 1
C169: + x19 + x174 <= 1
C170: + x55 + x163 <= 1
C171: + x134 + x141 <= 1
C172: + x401 + x457 <= 1
C173: + x123 + x451 <= 1
C174: + x133 + x347 <= 1
C175: + x19 + x61 <= 1
C176: + x155 + x165 <= 1
C177: + x12 + x185 <= 1
C178: + x78 + x394 <= 1
C179: + x14 + x149 <= 1
C180: + x80 + x336 <= 1
C181: + x28 + x311 <= 1
C182: + x2 + x320 <= 1
C183: + x359 + x435 <= 1
C184: + x216 + x288 <= 1
C185: + x263 + x455 <= 1
C186: + x122 + x281 <= 1
C187: + x216 + x483 <= 1
C188: + x6 + x340 <= 1
C189: + x152 + x277 <= 1
C190: + x92 + x104 <= 1
C191: + x13 + x396 <= 1
C192: + x1 + x452 <= 1
C193: + x8 + x129 <= 1
C194: + x292 + x420 <= 1
C195: + x221 + x460 <= 1
C196: + x368 + x405 <= 1
C197: + x24 + x190 <= 1
C198: + x45 + x154 <= 1
C199: + x165 + x348 <= 1
C200: + x148 + x262 <= 1
C201: + x58 + x392 <= 1
C202: + x80 + x168 <= 1
C203: + x127 + x337 <= 1
C204: + x247 + x263 <= 1
C205: + x74 + x165 <= 1
C206: + x7 + x303 <= 1
C207: + x10 + x27 <= 1
C208: + x8 + x181 <= 1
C209: + x20 + x243 <= 1
C210: + x6 + x460 <= 1
C211: + x236 + x329 <= 1
C212: + x12 + x420 <= 1
C213: + x42 + x93 <= 1
C214: + x78 + x177 <= 1
C215: + x6 + x111 <= 1
C216: + x83 + x190 <= 1
C217: + x101 + x173 <= 1
C218: + x2 + x7 <= 1
C219: + x277 + x393 <= 1
C220: + x24 + x316 <= 1
C221: + x26 + x342 <= 1
C222: + x45 + x93 <= 1
C223: + x6 + x349 <= 1
C224: + x17 + x271 <= 1
C225: + x49 + x104 <= 1
C226: + x305 + x429 <= 1
C227: + x56 + x381 <= 1
C228: + x7 + x161 <= 1
C229: + x155 + x298 <= 1
C230: + x155 + x227 <= 1
C231: + x75 + x112 <= 1
C232: + x98 + x199 <= 1
C233: + x108 + x335 <= 1
C234: + x7 + x407 <= 1
C235: + x1 + x74 <= 1
C236: + x276 + x322 <= 1
C237: + x105 + x454 <= 1
C238: + x159 + x366 <= 1
C239: + x163 + x456 <= 1
C240: + x64 + x167 <= 1
C241: + x211 + x407 <= 1
C242: + x266 + x271 <= 1
C243: + x113 + x390 <= 1
C244: + x112 + x344 <= 1
C245: + x269 + x481 <= 1
C246: + x127 + x437 <= 1
C247: + x7 + x221 <= 1
C248: + x202 + x279 <= 1
C249: + x103 + x289 <= 1
C250: + x245 + x413 <= 1
C251: + x30 + x100 <= 1
C252: + x267 + x280 <= 1
C253: + x133 + x224 <= 1
C254: + x79 + x195 <= 1
C255: + x1 + x291 <= 1
C256: + x8 + x195 <= 1
C257: + x272 + x402 <= 1
C258: + x45 + x92 <= 1
C259: + x202 + x323 <= 1
C260: + x42 + x260 <= 1
C261: + x52 + x60 <= 1
C262: + x10 + x299 <= 1
C263: + x58 + x289 <= 1
C264: + x62 + x111 <= 1
C265: + x144 + x180 <= 1
C266: + x101 + x160 <= 1
C267: + x121 + x385 <= 1
C268: + x220 + x298 <= 1
C269: + x148 + x181 <= 1
C270: + x160 + x460 <= 1
C271: + x26 + x222 <= 1
C272: + x6 + x266 <= 1
C273: + x103 + x329 <= 1
C274: + x12 + x95 <= 1
C275: + x42 + x131 <= 1
C276: + x7 + x43 <= 1
C277: + x1 + x494 <= 1
C278: + x149 + x158 <= 1
C279: + x18 + x343 <= 1
C280: + x27 + x69 <= 1
C281: + x2 + x232 <= 1
C282: + x57 + x106 <= 1
C283: + x12 + x466 <= 1
C284: + x1 + x314 <= 1
C285: + x136 + x188 <= 1
C286: + x2 + x17 <= 1
C287: + x257 + x281 <= 1
C288: + x78 + x262 <= 1
C289: + x37 + x269 <= 1
C290: + x127 + x154 <= 1
C291: + x227 + x326 <= 1
C292: + x10 + x340 <= 1
C293: + x8 + x289 <= 1
C294: + x6 + x201 <= 1
C295: + x2 + x249 <= 1
C296: + x40 + x176 <= 1
C297: + x43 + x171 <= 1
C298: + x200 + x263 <= 1
C299: + x21 + x95 <= 1
C300: + x33 + x141 <= 1
C301: + x52 + x153 <= 1
C302: + x31 + x311 <= 1
C303: + x115 + x283 <= 1
C304: + x62 + x173 <= 1
C305: + x2 + x423 <= 1
C306: + x319 + x352 <= 1
C307: + x148 + x247 <= 1
C308: + x112 + x298 <= 1
C309: + x35 + x454 <= 1
C310: + x109 + x317 <= 1
C311: + x7 + x336 <= 1
C312: + x13 + x99 <= 1
C313: + x107 + x287 <= 1
C314: + x35 + x212 <= 1
C315: + x24 + x81 <= 1
C316: + x10 + x341 <= 1
C317: + x29 + x30 <= 1
C318: + x26 + x33 + x41 <= 1
C319: + x404 + x466 <= 1
C320: + x22 + x472 <= 1
C321: + x6 + x14 <= 1
C322: + x19 + x411 <= 1
C323: + x8 + x229 <= 1
C324: + x48 + x62 <= 1
C325: + x431 + x432 <= 1
C326: + x22 + x43 <= 1
C327: + x97 + x230 <= 1
C328: + x6 + x161 <= 1
C329: + x297 + x350 <= 1
C330: + x9 + x210 <= 1
C331: + x159 + x327 <= 1
C332: + x24 + x37 <= 1
C333: + x6 + x50 <= 1
C334: + x172 + x259 <= 1
C335: + x8 + x153 <= 1
C336: + x101 + x242 <= 1
C337: + x52 + x67 <= 1
C338: + x226 + x404 <= 1
C339: + x7 + x440 <= 1
C340: + x470 + x480 <= 1
C341: + x174 + x265 <= 1
C342: + x113 + x117 <= 1
C343: + x111 + x130 + x277 <= 1
C344: + x62 + x166 <= 1
C345: + x45 + x343 <= 1
C346: + x111 + x471 <= 1
C347: + x28 + x439 <= 1
C348: + x156 + x161 <= 1
C349: + x95 + x194 <= 1
C350: + x238 + x474 <= 1
C351: + x56 + x119 <= 1
C352: + x9 + x74 <= 1
C353: + x66 + x105 <= 1
C354: + x1 + x137 <= 1
C355: + x179 + x184 <= 1
C356: + x6 + x357 <= 1
C357: + x7 + x371 <= 1
C358: + x19 + x132 <= 1
C359: + x128 + x233 <= 1
C360: + x115 + x144 <= 1
C361: + x31 + x164 <= 1
C362: + x90 + x404 <= 1
C363: + x33 + x44 <= 1
C364: + x32 + x46 <= 1
C365: + x18 + x314 <= 1
C366: + x16 + x211 <= 1
C367: + x14 + x171 <= 1
C368: + x5 + x308 <= 1
C369: + x6 + x76 <= 1
C370: + x7 + x76 <= 1
C371: + x23 + x398 <= 1
C372: + x64 + x143 <= 1
C373: + x266 + x279 <= 1
C374: + x43 + x467 <= 1
C375: + x7 + x245 <= 1
C376: + x8 + x70 <= 1
C377: + x63 + x299 <= 1
C378: + x1 + x17 <= 1
C379: + x30 + x249 <= 1
C380: + x31 + x255 <= 1
C381: + x6 + x477 <= 1
C382: + x5 + x360 <= 1
C383: + x82 + x199 <= 1
C384: + x171 + x212 <= 1
C385: + x35 + x85 <= 1
C386: + x45 + x116 <= 1
C387: + x146 + x448 <= 1
C388: + x79 + x278 <= 1
C389: + x81 + x336 <= 1
C390: + x95 + x136 <= 1
C391: + x176 + x368 <= 1
C392: + x5 + x172 <= 1
C393: + x151 + x223 <= 1
C394: + x127 + x476 <= 1
C395: + x16 + x220 <= 1
C396: + x1 + x220 <= 1
C397: + x2 + x196 <= 1
C398: + x164 + x227 <= 1
C399: + x8 + x143 <= 1
C400: + x29 + x306 <= 1
C401: + x144 + x438 <= 1
C402: + x5 + x315 <= 1
C403: + x6 + x437 <= 1
C404: + x84 + x151 <= 1
C405: + x366 + x500 <= 1
C406: + x247 + x254 <= 1
C407: + x1 + x24 <= 1
C408: + x56 + x69 <= 1
C409: + x13 + x16 <= 1
C410: + x45 + x220 <= 1
C411: + x65 + x117 <= 1
C412: + x139 + x174 <= 1
C413: + x86 + x120 <= 1
C414: + x169 + x278 <= 1
C415: + x33 + x110 <= 1
C416: + x231 + x235 <= 1
C417: + x16 + x418 <= 1
C418: + x356 + x435 <= 1
C419: + x106 + x178 <= 1
C420: + x152 + x284 <= 1
C421: + x246 + x429 <= 1
C422: + x302 + x395 <= 1
C423: + x31 + x359 <= 1
C424: + x87 + x388 <= 1
C425: + x55 + x56 <= 1
C426: + x38 + x401 <= 1
C427: + x215 + x365 <= 1
C428: + x5 + x147 <= 1
C429: + x24 + x407 <= 1
C430: + x25 + x455 <= 1
C431: + x113 + x317 <= 1
C432: + x85 + x161 <= 1
C433: + x13 + x211 <= 1
C434: + x26 + x207 <= 1
C435: + x253 + x290 <= 1
C436: + x28 + x255 <= 1
C437: + x64 + x90 <= 1
C438: + x85 + x262 <= 1
C439: + x50 + x302 <= 1
C440: + x1 + x128 <= 1
C441: + x38 + x215 <= 1
C442: + x25 + x118 <= 1
C443: + x26 + x106 <= 1
C444: + x6 + x446 <= 1
C445: + x147 + x280 <= 1
C446: + x24 + x363 <= 1
C447: + x126 + x297 <= 1
C448: + x143 + x436 <= 1
C449: + x1 + x239 <= 1
C450: + x14 + x29 + x32 <= 1
C451: + x17 + x66 <= 1
C452: + x1 + x6 + x7 + x13 <= 1
C453: + x29 + x98 <= 1
C454: + x405 + x486 <= 1
C455: + x7 + x114 <= 1
C456: + x10 + x103 <= 1
C457: + x94 + x241 <= 1
C458: + x12 + x270 <= 1
C459: + x129 + x496 <= 1
C460: + x29 + x145 <= 1
C461: + x85 + x313 <= 1
C462: + x370 + x382 <= 1
C463: + x34 + x220 <= 1
C464: + x44 + x253 <= 1
C465: + x208 + x288 <= 1
C466: + x130 + x230 <= 1
C467: + x39 + x282 <= 1
C468: + x106 + x332 <= 1
C469: + x6 + x22 <= 1
C470: + x64 + x484 <= 1
C471: + x42 + x423 <= 1
C472: + x111 + x274 <= 1
C473: + x349 + x415 <= 1
C474: + x52 + x254 <= 1
C475: + x26 + x115 <= 1
C476: + x127 + x341 <= 1
C477: + x78 + x202 + x448 <= 1
C478: + x129 + x217 <= 1
C479: + x136 + x142 <= 1
C480: + x95 + x190 <= 1
C481: + x175 + x334 <= 1
C482: + x16 + x254 <= 1
C483: + x148 + x375 <= 1
C484: + x268 + x377 <= 1
C485: + x116 + x248 <= 1
C486: + x253 + x269 <= 1
C487: + x18 + x79 <= 1
C488: + x293 + x321 <= 1
C489: + x133 + x221 <= 1
C490: + x27 + x309 <= 1
C491: + x407 + x473 <= 1
C492: + x146 + x189 <= 1
C493: + x1 + x304 <= 1
C494: + x4 + x226 <= 1
C495: + x52 + x293 <= 1
C496: + x17 + x259 <= 1
C497: + x93 + x99 <= 1
C498: + x6 + x31 <= 1
C499: + x44 + x273 <= 1
C500: + x146 + x308 <= 1
C501: + x165 + x234 <= 1
C502: + x28 + x34 <= 1
C503: + x121 + x382 <= 1
C504: + x24 + x183 <= 1
C505: + x7 + x395 <= 1
C506: + x1 + x78 <= 1
C507: + x46 + x230 <= 1
C508: + x214 + x234 <= 1
C509: + x17 + x33 <= 1
C510: + x64 + x163 <= 1
C511: + x122 + x483 <= 1
C512: + x423 + x475 <= 1
C513: + x6 + x195 <= 1
C514: + x82 + x146 <= 1
C515: + x7 + x294 <= 1
C516: + x64 + x477 <= 1
C517: + x202 + x283 <= 1
C518: + x22 + x240 <= 1
C519: + x469 + x471 <= 1
C520: + x9 + x109 <= 1
C521: + x245 + x409 <= 1
C522: + x165 + x307 <= 1
C523: + x8 + x461 <= 1
C524: + x59 + x132 <= 1
C525: + x21 + x386 <= 1
C526: + x7 + x100 <= 1
C527: + x143 + x252 <= 1
C528: + x321 + x428 <= 1
C529: + x265 + x489 <= 1
C530: + x264 + x337 <= 1
C531: + x2 + x425 <= 1
C532: + x94 + x195 <= 1
C533: + x14 + x20 <= 1
C534: + x163 + x166 <= 1
C535: + x1 + x9 <= 1
C536: + x7 + x338 <= 1
C537: + x193 + x318 <= 1
C538: + x4 + x6 <= 1
C539: + x13 + x105 <= 1
C540: + x5 + x491 <= 1
C541: + x79 + x370 <= 1
C542: + x249 + x499 <= 1
C543: + x2 + x474 <= 1
C544: + x42 + x118 <= 1
C545: + x89 + x156 <= 1
C546: + x1 + x168 <= 1
C547: + x297 + x340 <= 1
C548: + x42 + x401 <= 1
C549: + x29 + x187 <= 1
C550: + x95 + x442 <= 1
C551: + x13 + x490 <= 1
C552: + x52 + x204 <= 1
C553: + x53 + x252 <= 1
C554: + x490 + x493 <= 1
C555: + x7 + x47 <= 1
C556: + x147 + x206 <= 1
C557: + x115 + x397 <= 1
C558: + x106 + x354 <= 1
C559: + x7 + x285 <= 1
C560: + x210 + x417 <= 1
C561: + x56 + x425 <= 1
C562: + x33 + x360 <= 1
C563: + x32 + x210 <= 1
C564: + x297 + x416 <= 1
C565: + x5 + x81 <= 1
C566: + x96 + x493 <= 1
C567: + x395 + x472 <= 1
C568: + x7 + x91 <= 1
C569: + x46 + x54 <= 1
C570: + x156 + x215 <= 1
C571: + x17 + x369 <= 1
C572: + x1 + x16 <= 1
C573: + x285 + x427 <= 1
C574: + x4 + x11 <= 1
C575: + x26 + x58 <= 1
C576: + x16 + x43 <= 1
C577: + x308 + x431 <= 1
C578: + x256 + x301 <= 1
C579: + x331 + x399 <= 1
C580: + x26 + x469 <= 1
C581: + x9 + x317 <= 1
C582: + x101 + x131 <= 1
C583: + x2 + x33 <= 1
C584: + x5 + x44 <= 1
C585: + x316 + x321 <= 1
C586: + x9 + x47 <= 1
C587: + x28 + x219 <= 1
C588: + x15 + x300 <= 1
C589: + x254 + x434 <= 1
C590: + x135 + x235 <= 1
C591: + x422 + x463 <= 1
C592: + x104 + x261 <= 1
C593: + x14 + x82 <= 1
C594: + x172 + x258 <= 1
C595: + x16 + x286 <= 1
C596: + x101 + x247 <= 1
C597: + x37 + x324 <= 1
C598: + x12 + x217 <= 1
C599: + x242 + x283 <= 1
C600: + x116 + x203 <= 1
C601: + x32 + x278 <= 1
C602: + x226 + x415 <= 1
C603: + x21 + x91 <= 1
C604: + x126 + x446 <= 1
C605: + x8 + x354 <= 1
C606: + x156 + x377 <= 1
C607: + x138 + x214 <= 1
C608: + x194 + x273 <= 1
C609: + x155 + x379 <= 1
C610: + x195 + x415 <= 1
C611: + x328 + x365 <= 1
C612: + x163 + x267 <= 1
C613: + x72 + x183 <= 1
C614: + x2 + x300 <= 1
C615: + x3 + x5 <= 1
C616: + x17 + x64 + x76 <= 1
C617: + x64 + x264 <= 1
C618: + x77 + x353 <= 1
C619: + x13 + x238 <= 1
C620: + x6 + x360 <= 1
C621: + x162 + x284 <= 1
C622: + x137 + x491 <= 1
C623: + x16 + x456 <= 1
C624: + x7 + x25 <= 1
C625: + x10 + x261 <= 1
C626: + x7 + x198 <= 1
C627: + x109 + x260 <= 1
C628: + x109 + x201 <= 1
C629: + x74 + x379 <= 1
C630: + x41 + x57 <= 1
C631: + x197 + x263 <= 1
C632: + x11 + x366 <= 1
C633: + x29 + x93 <= 1
C634: + x213 + x290 <= 1
C635: + x71 + x149 <= 1
C636: + x155 + x326 <= 1
C637: + x249 + x409 <= 1
C638: + x11 + x28 <= 1
C639: + x64 + x345 <= 1
C640: + x32 + x85 <= 1
C641: + x216 + x412 <= 1
C642: + x8 + x73 <= 1
C643: + x28 + x157 <= 1
C644: + x41 + x101 <= 1
C645: + x32 + x327 <= 1
C646: + x6 + x115 <= 1
C647: + x7 + x129 <= 1
C648: + x82 + x194 <= 1
C649: + x10 + x120 <= 1
C650: + x13 + x229 <= 1
C651: + x98 + x231 <= 1
C652: + x88 + x112 <= 1
C653: + x8 + x125 <= 1
C654: + x29 + x136 <= 1
C655: + x31 + x168 <= 1
C656: + x25 + x96 <= 1
C657: + x103 + x104 <= 1
C658: + x86 + x182 <= 1
C659: + x7 + x189 <= 1
C660: + x229 + x434 <= 1
C661: + x68 + x447 <= 1
C662: + x98 + x179 <= 1
C663: + x55 + x169 <= 1
C664: + x27 + x276 <= 1
C665: + x97 + x188 <= 1
C666: + x54 + x348 <= 1
C667: + x2 + x155 <= 1
C668: + x94 + x330 <= 1
C669: + x63 + x303 <= 1
C670: + x9 + x117 <= 1
C671: + x15 + x47 <= 1
C672: + x143 + x228 <= 1
C673: + x2 + x12 <= 1
C674: + x34 + x320 <= 1
C675: + x49 + x107 <= 1
C676: + x33 + x218 <= 1
C677: + x125 + x139 <= 1
C678: + x31 + x356 <= 1
C679: + x15 + x474 <= 1
C680: + x7 + x11 <= 1
C681: + x256 + x272 <= 1
C682: + x337 + x393 <= 1
C683: + x7 + x184 <= 1
C684: + x45 + x434 <= 1
C685: + x8 + x139 <= 1
C686: + x2 + x200 <= 1
C687: + x42 + x441 <= 1
C688: + x107 + x247 <= 1
C689: + x32 + x257 <= 1
C690: + x84 + x393 <= 1
C691: + x56 + x212 <= 1
C692: + x31 + x304 <= 1
C693: + x7 + x71 <= 1
C694: + x65 + x218 <= 1
C695: + x2 + x113 <= 1
C696: + x4 + x204 <= 1
C697: + x1 + x236 <= 1
C698: + x272 + x286 <= 1
C699: + x64 + x430 <= 1
C700: + x41 + x83 <= 1
C701: + x66 + x468 <= 1
C702: + x9 + x124 <= 1
C703: + x19 + x351 <= 1
C704: + x351 + x493 <= 1
C705: + x35 + x350 <= 1
C706: + x190 + x264 <= 1
C707: + x146 + x266 <= 1
C708: + x10 + x98 <= 1
C709: + x301 + x348 <= 1
C710: + x68 + x97 <= 1
C711: + x25 + x348 <= 1
C712: + x254 + x342 <= 1
C713: + x74 + x413 <= 1
C714: + x2 + x176 <= 1
C715: + x236 + x484 <= 1
C716: + x39 + x245 <= 1
C717: + x159 + x448 <= 1
C718: + x26 + x34 <= 1
C719: + x7 + x14 <= 1
C720: + x337 + x400 <= 1
C721: + x156 + x265 <= 1
C722: + x35 + x274 <= 1
C723: + x216 + x339 <= 1
C724: + x185 + x361 <= 1
C725: + x96 + x115 <= 1
C726: + x387 + x403 <= 1
C727: + x53 + x86 <= 1
C728: + x1 + x116 <= 1
C729: + x2 + x380 <= 1
C730: + x300 + x419 <= 1
C731: + x84 + x402 <= 1
C732: + x233 + x395 <= 1
C733: + x187 + x355 <= 1
C734: + x86 + x140 <= 1
C735: + x16 + x241 <= 1
C736: + x112 + x173 <= 1
C737: + x32 + x231 <= 1
C738: + x82 + x394 <= 1
C739: + x65 + x80 <= 1
C740: + x93 + x497 <= 1
C741: + x106 + x260 <= 1
C742: + x2 + x6 <= 1
C743: + x37 + x443 <= 1
C744: + x59 + x95 <= 1
C745: + x374 + x458 <= 1
C746: + x24 + x315 <= 1
C747: + x35 + x99 <= 1
C748: + x8 + x108 <= 1
C749: + x49 + x267 <= 1
C750: + x13 + x353 <= 1
C751: + x96 + x197 <= 1
C752: + x79 + x133 <= 1
C753: + x8 + x249 <= 1
C754: + x370 + x451 <= 1
C755: + x18 + x23 <= 1
C756: + x152 + x481 <= 1
C757: + x10 + x178 <= 1
C758: + x30 + x47 <= 1
C759: + x100 + x476 <= 1
C760: + x162 + x186 <= 1
C761: + x16 + x259 <= 1
C762: + x17 + x331 <= 1
C763: + x19 + x48 <= 1
C764: + x273 + x426 <= 1
C765: + x9 + x376 <= 1
C766: + x95 + x323 <= 1
C767: + x7 + x295 <= 1
C768: + x5 + x111 <= 1
C769: + x82 + x387 <= 1
C770: + x16 + x29 <= 1
C771: + x21 + x74 <= 1
C772: + x30 + x430 <= 1
C773: + x77 + x95 <= 1
C774: + x7 + x109 <= 1
C775: + x191 + x410 <= 1
C776: + x2 + x31 <= 1
C777: + x2 + x186 <= 1
C778: + x21 + x57 <= 1
C779: + x186 + x270 <= 1
C780: + x4 + x371 <= 1
C781: + x150 + x256 <= 1
C782: + x6 + x27 <= 1
C783: + x82 + x218 <= 1
C784: + x6 + x265 <= 1
C785: + x45 + x137 <= 1
C786: + x8 + x21 <= 1
C787: + x193 + x247 <= 1
C788: + x80 + x274 <= 1
C789: + x23 + x430 <= 1
C790: + x7 + x44 <= 1
C791: + x9 + x386 <= 1
C792: + x71 + x236 <= 1
C793: + x175 + x345 <= 1
C794: + x7 + x282 <= 1
C795: + x41 + x72 <= 1
C796: + x9 + x17 <= 1
C797: + x16 + x102 <= 1
C798: + x147 + x405 <= 1
C799: + x323 + x337 <= 1
C800: + x6 + x96 <= 1
C801: + x2 + x429 <= 1
C802: + x195 + x393 <= 1
C803: + x32 + x102 <= 1
C804: + x100 + x191 <= 1
C805: + x12 + x155 <= 1
C806: + x26 + x53 <= 1
C807: + x16 + x42 <= 1
C808: + x66 + x158 <= 1
C809: + x112 + x401 <= 1
C810: + x151 + x255 <= 1
C811: + x10 + x398 <= 1
C812: + x10 + x65 <= 1
C813: + x265 + x473 <= 1
C814: + x2 + x36 <= 1
C815: + x76 + x101 <= 1
C816: + x223 + x470 <= 1
C817: + x291 + x447 <= 1
C818: + x4 + x54 <= 1
C819: + x115 + x155 <= 1
C820: + x82 + x100 <= 1
C821: + x62 + x216 <= 1
C822: + x109 + x485 <= 1
C823: + x164 + x477 <= 1
C824: + x402 + x442 <= 1
C825: + x2 + x93 <= 1
C826: + x14 + x85 <= 1
C827: + x18 + x146 <= 1
C828: + x71 + x465 <= 1
C829: + x10 + x13 <= 1
C830: + x52 + x125 <= 1
C831: + x101 + x121 + x248 <= 1
C832: + x65 + x85 <= 1
C833: + x10 + x368 <= 1
C834: + x139 + x305 <= 1
C835: + x318 + x500 <= 1
C836: + x312 + x439 <= 1
C837: + x34 + x114 <= 1
C838: + x401 + x482 <= 1
C839: + x328 + x372 <= 1
C840: + x11 + x22 <= 1
C841: + x367 + x496 <= 1
C842: + x12 + x309 <= 1
C843: + x79 + x111 <= 1
C844: + x24 + x322 <= 1
C845: + x12 + x148 <= 1
C846: + x97 + x120 <= 1
C847: + x42 + x269 <= 1
C848: + x25 + x138 <= 1
C849: + x26 + x62 <= 1
C850: + x81 + x295 <= 1
C851: + x297 + x464 <= 1
C852: + x11 + x428 <= 1
C853: + x67 + x285 <= 1
C854: + x76 + x191 <= 1
C855: + x7 + x490 <= 1
C856: + x33 + x90 <= 1
C857: + x7 + x139 <= 1
C858: + x18 + x268 <= 1
C859: + x101 + x143 <= 1
C860: + x46 + x433 <= 1
C861: + x58 + x72 <= 1
C862: + x106 + x222 <= 1
C863: + x72 + x331 <= 1
C864: + x137 + x488 <= 1
C865: + x121 + x237 <= 1
C866: + x4 + x59 <= 1
C867: + x24 + x40 <= 1
C868: + x9 + x400 <= 1
C869: + x36 + x37 + x208 <= 1
C870: + x29 + x416 <= 1
C871: + x23 + x25 <= 1
C872: + x6 + x49 <= 1
C873: + x45 + x449 <= 1
C874: + x427 + x459 <= 1
C875: + x21 + x130 <= 1
C876: + x25 + x272 <= 1
C877: + x32 + x219 <= 1
C878: + x395 + x475 <= 1
C879: + x6 + x66 <= 1
C880: + x2 + x98 <= 1
C881: + x194 + x277 <= 1
C882: + x40 + x53 <= 1
C883: + x52 + x320 <= 1
C884: + x6 + x229 <= 1
C885: + x26 + x305 <= 1
C886: + x8 + x80 <= 1
C887: + x10 + x226 <= 1
C888: + x302 + x484 <= 1
C889: + x57 + x488 <= 1
C890: + x13 + x27 <= 1
C891: + x56 + x114 <= 1
C892: + x62 + x137 + x150 <= 1
C893: + x339 + x379 <= 1
C894: + x138 + x408 <= 1
C895: + x86 + x101 <= 1
C896: + x25 + x46 <= 1
C897: + x6 + x118 <= 1
C898: + x45 + x396 <= 1
C899: + x264 + x375 <= 1
C900: + x56 + x487 <= 1
C901: + x6 + x169 <= 1
C902: + x18 + x243 <= 1
C903: + x1 + x87 <= 1
C904: + x37 + x232 <= 1
C905: + x245 + x302 <= 1
C906: + x187 + x213 <= 1
C907: + x34 + x56 <= 1
C908: + x26 + x83 <= 1
C909: + x7 + x29 <= 1
C910: + x174 + x496 <= 1
C911: + x157 + x426 <= 1
C912: + x103 + x480 <= 1
C913: + x36 + x42 <= 1
C914: + x19 + x20 <= 1
C915: + x28 + x69 <= 1
C916: + x103 + x206 <= 1
C917: + x276 + x462 <= 1
C918: + x31 + x52 <= 1
C919: + x14 + x170 <= 1
C920: + x23 + x290 <= 1
C921: + x319 + x494 <= 1
C922: + x279 + x312 <= 1
C923: + x437 + x438 <= 1
C924: + x14 + x59 <= 1
C925: + x15 + x185 <= 1
C926: + x7 + x319 <= 1
C927: + x383 + x445 <= 1
C928: + x49 + x60 <= 1
C929: + x21 + x221 <= 1
C930: + x13 + x18 <= 1
C931: + x200 + x300 <= 1
C932: + x11 + x350 <= 1
C933: + x138 + x409 <= 1
C934: + x10 + x124 <= 1
C935: + x5 + x6 <= 1
C936: + x53 + x64 <= 1
C937: + x17 + x228 <= 1
C938: + x298 + x489 <= 1
C939: + x27 + x55 <= 1
C940: + x120 + x280 <= 1
C941: + x24 + x54 <= 1
C942: + x8 + x416 <= 1
C943: + x18 + x306 <= 1
C944: + x7 + x177 <= 1
C945: + x1 + x221 <= 1
C946: + x236 + x294 <= 1
C947: + x115 + x261 <= 1
C948: + x333 + x468 <= 1
C949: + x18 + x451 <= 1
C950: + x156 + x331 <= 1
C951: + x11 + x15 <= 1
C952: + x29 + x418 <= 1
C953: + x23 + x103 <= 1
C954: + x53 + x390 <= 1
C955: + x7 + x237 <= 1
C956: + x91 + x241 <= 1
C957: + x28 + x106 <= 1
C958: + x16 + x239 <= 1
C959: + x1 + x233 <= 1
C960: + x37 + x290 <= 1
C961: + x160 + x263 <= 1
C962: + x49 + x293 <= 1
C963: + x52 + x187 <= 1
C964: + x143 + x232 <= 1
C965: + x136 + x282 <= 1
C966: + x32 + x142 <= 1
C967: + x75 + x113 + x270 <= 1
C968: + x132 + x402 <= 1
C969: + x7 + x15 <= 1
C970: + x75 + x329 <= 1
C971: + x41 + x398 <= 1
C972: + x36 + x385 <= 1
C973: + x110 + x378 <= 1
C974: + x21 + x159 <= 1
C975: + x294 + x398 <= 1
C976: + x5 + x49 <= 1
C977: + x104 + x147 <= 1
C978: + x82 + x473 <= 1
C979: + x104 + x445 <= 1
C980: + x7 + x59 <= 1
C981: + x208 + x294 <= 1
C982: + x195 + x488 <= 1
C983: + x14 + x45 <= 1
C984: + x16 + x313 <= 1
C985: + x82 + x362 <= 1
C986: + x10 + x21 <= 1
C987: + x155 + x162 <= 1
C988: + x63 + x470 <= 1
C989: + x86 + x354 <= 1
C990: + x238 + x452 <= 1
C991: + x25 + x305 <= 1
C992: + x6 + x462 <= 1
C993: + x1 + x397 <= 1
C994: + x183 + x372 <= 1
C995: + x116 + x452 <= 1
C996: + x9 + x477 <= 1
C997: + x164 + x273 <= 1
C998: + x194 + x268 <= 1
C999: + x15 + x215 <= 1
C1000: + x160 + x413 <= 1
C1001: + x24 + x314 <= 1
C1002: + x189 + x377 <= 1
C1003: + x7 + x357 <= 1
C1004: + x230 + x427 <= 1
C1005: + x16 + x479 <= 1
C1006: + x164 + x482 <= 1
C1007: + x46 + x91 <= 1
C1008: + x56 + x184 <= 1
C1009: + x14 + x114 <= 1
C1010: + x25 + x463 <= 1
C1011: + x16 + x382 <= 1
C1012: + x6 + x21 <= 1
C1013: + x10 + x82 <= 1
C1014: + x65 + x363 <= 1
C1015: + x26 + x356 <= 1
C1016: + x53 + x82 <= 1
C1017: + x236 + x276 <= 1
C1018: + x93 + x441 <= 1
C1019: + x48 + x311 <= 1
C1020: + x401 + x453 <= 1
C1021: + x37 + x38 <= 1
C1022: + x55 + x92 <= 1
C1023: + x66 + x219 <= 1
C1024: + x156 + x345 <= 1
C1025: + x44 + x471 <= 1
C1026: + x7 + x223 <= 1
C1027: + x7 + x292 <= 1
C1028: + x8 + x180 <= 1
C1029: + x9 + x373 <= 1
C1030: + x6 + x311 <= 1
C1031: + x172 + x427 <= 1
C1032: + x1 + x150 <= 1
C1033: + x2 + x26 <= 1
C1034: + x29 + x332 <= 1
C1035: + x45 + x90 <= 1
C1036: + x1 + x51 <= 1
C1037: + x74 + x394 <= 1
C1038: + x9 + x246 <= 1
C1039: + x77 + x486 <= 1
C1040: + x12 + x97 <= 1
C1041: + x4 + x467 <= 1
C1042: + x24 + x65 <= 1
C1043: + x135 + x206 <= 1
C1044: + x78 + x160 <= 1
C1045: + x345 + x459 <= 1
C1046: + x279 + x353 <= 1
C1047: + x26 + x458 <= 1
C1048: + x75 + x105 <= 1
C1049: + x64 + x492 <= 1
C1050: + x33 + x406 <= 1
C1051: + x116 + x180 <= 1
C1052: + x24 + x267 <= 1
C1053: + x17 + x133 <= 1
C1054: + x10 + x182 <= 1
C1055: + x162 + x376 <= 1
C1056: + x70 + x422 <= 1
C1057: + x2 + x369 <= 1
C1058: + x340 + x444 <= 1
C1059: + x276 + x325 <= 1
C1060: + x186 + x378 <= 1
C1061: + x7 + x53 <= 1
C1062: + x337 + x439 <= 1
C1063: + x2 + x8 + x9 + x10 <= 1
C1064: + x6 + x194 <= 1
C1065: + x145 + x345 <= 1
C1066: + x46 + x374 <= 1
C1067: + x22 + x239 <= 1
C1068: + x14 + x130 <= 1
C1069: + x198 + x256 <= 1
C1070: + x236 + x325 <= 1
C1071: + x389 + x458 <= 1
C1072: + x41 + x226 <= 1
C1073: + x106 + x172 <= 1
C1074: + x14 + x19 <= 1
C1075: + x353 + x454 <= 1
C1076: + x24 + x336 <= 1
C1077: + x37 + x259 <= 1
C1078: + x21 + x197 <= 1
C1079: + x4 + x5 <= 1
C1080: + x255 + x429 <= 1
C1081: + x84 + x307 <= 1
C1082: + x2 + x473 <= 1
C1083: + x35 + x320 <= 1
C1084: + x16 + x324 <= 1
C1085: + x1 + x372 <= 1
C1086: + x5 + x16 + x28 <= 1
C1087: + x137 + x204 <= 1
C1088: + x46 + x443 <= 1
C1089: + x428 + x445 <= 1
C1090: + x116 + x185 <= 1
C1091: + x279 + x453 <= 1
C1092: + x117 + x232 <= 1
C1093: + x17 + x252 <= 1
C1094: + x312 + x482 <= 1
C1095: + x13 + x94 <= 1
C1096: + x176 + x500 <= 1
C1097: + x35 + x175 <= 1
C1098: + x16 + x497 <= 1
C1099: + x6 + x408 <= 1
C1100: + x337 + x430 <= 1
C1101: + x147 + x203 <= 1
C1102: + x158 + x178 <= 1
C1103: + x376 + x436 <= 1
C1104: + x172 + x223 <= 1
C1105: + x121 + x338 <= 1
C1106: + x48 + x127 <= 1
C1107: + x244 + x495 <= 1
C1108: + x154 + x424 <= 1
C1109: + x29 + x80 <= 1
C1110: + x49 + x188 <= 1
C1111: + x67 + x334 <= 1
C1112: + x107 + x386 <= 1
C1113: + x31 + x110 <= 1
C1114: + x97 + x152 <= 1
C1115: + x297 + x304 <= 1
C1116: + x293 + x455 <= 1
C1117: + x115 + x163 <= 1
C1118: + x81 + x292 <= 1
C1119: + x45 + x237 <= 1
C1120: + x47 + x359 <= 1
C1121: + x56 + x330 <= 1
C1122: + x270 + x296 <= 1
C1123: + x16 + x329 <= 1
C1124: + x163 + x356 <= 1
C1125: + x1 + x192 <= 1
C1126: + x57 + x333 <= 1
C1127: + x6 + x16 <= 1
C1128: + x44 + x258 <= 1
C1129: + x170 + x212 <= 1
C1130: + x88 + x89 <= 1
C1131: + x9 + x48 <= 1
C1132: + x28 + x222 <= 1
C1133: + x7 + x390 <= 1
C1134: + x68 + x291 <= 1
C1135: + x2 + x323 <= 1
C1136: + x307 + x378 <= 1
C1137: + x15 + x454 <= 1
C1138: + x7 + x39 <= 1
C1139: + x272 + x479 <= 1
C1140: + x357 + x485 <= 1
C1141: + x141 + x199 <= 1
C1142: + x150 + x201 <= 1
C1143: + x96 + x251 <= 1
C1144: + x7 + x196 <= 1
C1145: + x118 + x138 <= 1
C1146: + x102 + x109 <= 1
C1147: + x117 + x417 <= 1
C1148: + x188 + x455 <= 1
C1149: + x21 + x135 <= 1
C1150: + x23 + x231 <= 1
C1151: + x98 + x363 <= 1
C1152: + x108 + x368 <= 1
C1153: + x26 + x246 <= 1
C1154: + x110 + x128 <= 1
C1155: + x206 + x372 <= 1
C1156: + x38 + x62 <= 1
C1157: + x41 + x293 <= 1
C1158: + x81 + x140 <= 1
C1159: + x7 + x83 <= 1
C1160: + x138 + x258 <= 1
C1161: + x339 + x493 <= 1
C1162: + x55 + x121 <= 1
C1163: + x38 + x300 <= 1
C1164: + x275 + x451 <= 1
C1165: + x52 + x315 <= 1
C1166: + x34 + x465 <= 1
C1167: + x1 + x8 <= 1
C1168: + x59 + x457 <= 1
C1169: + x235 + x341 <= 1
C1170: + x17 + x392 <= 1
C1171: + x6 + x9 <= 1
C1172: + x10 + x443 <= 1
C1173: + x1 + x183 <= 1
C1174: + x121 + x404 <= 1
C1175: + x56 + x486 <= 1
C1176: + x162 + x216 <= 1
C1177: + x137 + x492 <= 1
C1178: + x219 + x350 <= 1
C1179: + x111 + x307 <= 1
C1180: + x34 + x79 + x483 <= 1
C1181: + x34 + x51 <= 1
C1182: + x17 + x23 <= 1
C1183: + x61 + x182 <= 1
C1184: + x6 + x410 <= 1
C1185: + x28 + x370 <= 1
C1186: + x8 + x422 <= 1
C1187: + x62 + x80 <= 1
C1188: + x7 + x187 <= 1
C1189: + x7 + x272 <= 1
C1190: + x163 + x335 <= 1
C1191: + x2 + x245 <= 1
C1192: + x13 + x35 <= 1
C1193: + x21 + x142 <= 1
C1194: + x115 + x225 <= 1
C1195: + x142 + x387 <= 1
C1196: + x23 + x250 <= 1
C1197: + x144 + x419 <= 1
C1198: + x153 + x318 <= 1
C1199: + x40 + x334 <= 1
C1200: + x7 + x86 <= 1
C1201: + x87 + x169 <= 1
C1202: + x122 + x164 <= 1
C1203: + x23 + x383 <= 1
C1204: + x45 + x227 <= 1
C1205: + x16 + x60 <= 1
C1206: + x20 + x61 <= 1
C1207: + x86 + x97 <= 1
C1208: + x13 + x257 <= 1
C1209: + x351 + x484 <= 1
C1210: + x81 + x191 <= 1
C1211: + x109 + x328 <= 1
C1212: + x364 + x387 <= 1
C1213: + x146 + x287 <= 1
C1214: + x10 + x119 <= 1
C1215: + x155 + x196 <= 1
C1216: + x13 + x230 <= 1
C1217: + x7 + x376 <= 1
C1218: + x1 + x43 <= 1
C1219: + x12 + x121 <= 1
C1220: + x21 + x38 <= 1
C1221: + x95 + x404 <= 1
C1222: + x97 + x388 <= 1
C1223: + x16 + x464 <= 1
C1224: + x74 + x77 <= 1
C1225: + x256 + x258 <= 1
C1226: + x76 + x337 <= 1
C1227: + x7 + x17 <= 1
C1228: + x64 + x194 <= 1
C1229: + x6 + x38 <= 1
C1230: + x154 + x288 <= 1
C1231: + x10 + x35 <= 1
C1232: + x229 + x435 <= 1
C1233: + x290 + x440 <= 1
C1234: + x18 + x35 <= 1
C1235: + x45 + x166 <= 1
C1236: + x64 + x87 <= 1
C1237: + x193 + x236 <= 1
C1238: + x62 + x343 <= 1
C1239: + x213 + x231 <= 1
C1240: + x79 + x292 <= 1
C1241: + x28 + x387 <= 1
C1242: + x64 + x321 <= 1
C1243: + x234 + x264 <= 1
C1244: + x97 + x189 <= 1
C1245: + x42 + x456 <= 1
C1246: + x355 + x478 <= 1
C1247: + x237 + x450 <= 1
C1248: + x65 + x470 <= 1
C1249: + x56 + x75 <= 1
C1250: + x188 + x272 <= 1
C1251: + x96 + x399 <= 1
C1252: + x5 + x464 <= 1
C1253: + x34 + x334 <= 1
C1254: + x264 + x453 <= 1
C1255: + x15 + x48 <= 1
C1256: + x364 + x380 <= 1
C1257: + x59 + x78 <= 1
C1258: + x149 + x208 <= 1
C1259: + x68 + x123 <= 1
C1260: + x153 + x384 <= 1
C1261: + x7 + x367 <= 1
C1262: + x15 + x318 <= 1
C1263: + x43 + x49 + x159 <= 1
C1264: + x42 + x303 <= 1
C1265: + x7 + x12 <= 1
C1266: + x169 + x352 <= 1
C1267: + x33 + x40 <= 1
C1268: + x7 + x181 <= 1
C1269: + x10 + x44 <= 1
C1270: + x52 + x88 <= 1
C1271: + x31 + x301 <= 1
C1272: + x93 + x103 + x328 <= 1
C1273: + x74 + x162 <= 1
C1274: + x2 + x120 <= 1
C1275: + x224 + x441 <= 1
C1276: + x28 + x265 <= 1
C1277: + x59 + x244 <= 1
C1278: + x33 + x99 <= 1
C1279: + x14 + x385 <= 1
C1280: + x15 + x55 <= 1
C1281: + x32 + x491 <= 1
C1282: + x29 + x370 <= 1
C1283: + x70 + x396 <= 1
C1284: + x17 + x223 <= 1
C1285: + x1 + x57 <= 1
C1286: + x47 + x57 <= 1
C1287: + x167 + x452 <= 1
C1288: + x27 + x351 <= 1
C1289: + x6 + x24 <= 1
C1290: + x15 + x67 <= 1
C1291: + x10 + x45 <= 1
C1292: + x8 + x131 <= 1
C1293: + x121 + x373 <= 1
C1294: + x49 + x498 <= 1
C1295: + x2 + x224 <= 1
C1296: + x42 + x417 <= 1
C1297: + x161 + x374 <= 1
C1298: + x1 + x117 <= 1
C1299: + x11 + x264 <= 1
C1300: + x17 + x56 <= 1
C1301: + x200 + x389 <= 1
C1302: + x2 + x73 <= 1
C1303: + x139 + x207 <= 1
C1304: + x93 + x144 <= 1
C1305: + x220 + x331 <= 1
C1306: + x1 + x228 <= 1
C1307: + x177 + x243 <= 1
C1308: + x178 + x197 <= 1
C1309: + x5 + x97 <= 1
C1310: + x43 + x355 <= 1
C1311: + x6 + x458 <= 1
C1312: + x34 + x131 <= 1
C1313: + x101 + x445 <= 1
C1314: + x32 + x317 <= 1
C1315: + x21 + x68 <= 1
C1316: + x33 + x122 <= 1
C1317: + x132 + x193 <= 1
C1318: + x43 + x81 <= 1
C1319: + x167 + x364 <= 1
C1320: + x7 + x107 <= 1
C1321: + x2 + x5 <= 1
C1322: + x101 + x274 <= 1
C1323: + x132 + x384 <= 1
C1324: + x5 + x248 <= 1
C1325: + x296 + x351 <= 1
C1326: + x189 + x373 <= 1
C1327: + x292 + x383 <= 1
C1328: + x174 + x180 <= 1
C1329: + x22 + x173 <= 1
C1330: + x52 + x53 <= 1
C1331: + x143 + x158 <= 1
C1332: + x155 + x403 <= 1
C1333: + x84 + x297 <= 1
C1334: + x321 + x450 <= 1
C1335: + x429 + x432 <= 1
C1336: + x178 + x423 <= 1
C1337: + x159 + x193 <= 1
C1338: + x26 + x453 <= 1
C1339: + x242 + x319 <= 1
C1340: + x31 + x41 <= 1
C1341: + x434 + x469 <= 1
C1342: + x23 + x134 <= 1
C1343: + x6 + x271 <= 1
C1344: + x237 + x416 <= 1
C1345: + x280 + x303 <= 1
C1346: + x59 + x261 <= 1
C1347: + x50 + x346 <= 1
C1348: + x6 + x418 <= 1
C1349: + x7 + x50 <= 1
C1350: + x134 + x253 <= 1
C1351: + x191 + x339 <= 1
C1352: + x136 + x344 <= 1
C1353: + x156 + x349 <= 1
C1354: + x308 + x381 <= 1
C1355: + x9 + x142 <= 1
C1356: + x63 + x449 <= 1
C1357: + x108 + x381 <= 1
C1358: + x7 + x449 <= 1
C1359: + x63 + x190 <= 1
C1360: + x250 + x411 <= 1
C1361: + x69 + x205 <= 1
C1362: + x352 + x472 <= 1
C1363: + x175 + x291 <= 1
C1364: + x296 + x344 <= 1
C1365: + x24 + x250 <= 1
C1366: + x21 + x58 <= 1
C1367: + x61 + x81 <= 1
C1368: + x8 + x391 <= 1
C1369: + x166 + x499 <= 1
C1370: + x275 + x357 <= 1
C1371: + x104 + x346 <= 1
C1372: + x6 + x26 <= 1
C1373: + x79 + x141 <= 1
C1374: + x142 + x178 <= 1
C1375: + x109 + x352 <= 1
C1376: + x2 + x42 <= 1
C1377: + x12 + x246 <= 1
C1378: + x21 + x169 <= 1
C1379: + x26 + x164 <= 1
C1380: + x1 + x67 <= 1
C1381: + x131 + x296 <= 1
C1382: + x30 + x39 <= 1
C1383: + x187 + x374 <= 1
C1384: + x359 + x362 <= 1
C1385: + x64 + x170 <= 1
C1386: + x165 + x425 <= 1
C1387: + x275 + x281 <= 1
C1388: + x26 + x282 <= 1
C1389: + x7 + x214 <= 1
C1390: + x9 + x181 <= 1
C1391: + x436 + x441 <= 1
C1392: + x137 + x330 <= 1
C1393: + x113 + x284 <= 1
C1394: + x13 + x50 <= 1
C1395: + x46 + x149 <= 1
C1396: + x12 + x468 <= 1
C1397: + x77 + x87 <= 1
C1398: + x4 + x335 <= 1
C1399: + x79 + x204 <= 1
C1400: + x1 + x316 <= 1
C1401: + x136 + x257 <= 1
C1402: + x22 + x92 <= 1
C1403: + x372 + x424 <= 1
C1404: + x15 + x165 <= 1
C1405: + x1 + x14 <= 1
C1406: + x225 + x498 <= 1
C1407: + x34 + x233 <= 1
C1408: + x53 + x189 <= 1
C1409: + x127 + x160 <= 1
C1410: + x171 + x431 <= 1
C1411: + x45 + x242 <= 1
C1412: + x66 + x157 <= 1
C1413: + x56 + x333 <= 1
C1414: + x136 + x203 <= 1
C1415: + x122 + x419 <= 1
C1416: + x12 + x400 <= 1
C1417: + x79 + x152 <= 1
C1418: + x119 + x127 <= 1
C1419: + x87 + x88 <= 1
C1420: + x146 + x459 <= 1
C1421: + x115 + x156 <= 1
C1422: + x7 + x36 <= 1
C1423: + x8 + x436 <= 1
C1424: + x46 + x125 <= 1
C1425: + x95 + x145 <= 1
C1426: + x7 + x205 <= 1
C1427: + x183 + x192 <= 1
C1428: + x110 + x224 <= 1
C1429: + x10 + x52 <= 1
C1430: + x136 + x489 <= 1
C1431: + x19 + x31 <= 1
C1432: + x108 + x363 <= 1
C1433: + x9 + x25 <= 1
C1434: + x65 + x86 <= 1
C1435: + x27 + x239 <= 1
C1436: + x1 + x406 <= 1
C1437: + x202 + x226 <= 1
C1438: + x30 + x447 <= 1
C1439: + x113 + x128 <= 1
C1440: + x21 + x89 <= 1
C1441: + x15 + x19 <= 1
C1442: + x56 + x203 <= 1
C1443: + x19 + x485 <= 1
C1444: + x58 + x357 <= 1
C1445: + x2 + x112 <= 1
C1446: + x58 + x123 <= 1
C1447: + x166 + x175 <= 1
C1448: + x62 + x171 <= 1
C1449: + x337 + x478 <= 1
C1450: + x6 + x251 <= 1
C1451: + x9 + x339 <= 1
C1452: + x1 + x5 <= 1
C1453: + x13 + x29 <= 1
C1454: + x24 + x83 <= 1
C1455: + x9 + x69 <= 1
C1456: + x7 + x495 <= 1
C1457: + x46 + x66 <= 1
C1458: + x138 + x366 <= 1
C1459: + x25 + x40 <= 1
C1460: + x10 + x73 <= 1
C1461: + x156 + x250 <= 1
C1462: + x93 + x253 <= 1
C1463: + x48 + x64 <= 1
C1464: + x133 + x401 <= 1
C1465: + x119 + x147 <= 1
C1466: + x17 + x20 <= 1
C1467: + x63 + x200 <= 1
C1468: + x28 + x381 <= 1
C1469: + x13 + x323 <= 1
C1470: + x14 + x77 <= 1
C1471: + x4 + x304 <= 1
C1472: + x6 + x64 <= 1
C1473: + x82 + x135 <= 1
C1474: + x19 + x26 <= 1
C1475: + x30 + x170 <= 1
C1476: + x14 + x176 <= 1
C1477: + x62 + x321 <= 1
C1478: + x28 + x238 <= 1
C1479: + x7 + x438 <= 1
C1480: + x16 + x107 <= 1
C1481: + x13 + x466 <= 1
C1482: + x228 + x241 <= 1
C1483: + x264 + x446 <= 1
C1484: + x95 + x200 <= 1
C1485: + x89 + x256 <= 1
C1486: + x7 + x244 <= 1
C1487: + x16 + x156 <= 1
C1488: + x74 + x417 <= 1
C1489: + x11 + x255 <= 1
C1490: + x214 + x257 <= 1
C1491: + x386 + x472 <= 1
C1492: + x56 + x152 <= 1
C1493: + x63 + x128 <= 1
C1494: + x155 + x268 <= 1
C1495: + x374 + x497 <= 1
C1496: + x2 + x61 <= 1
C1497: + x98 + x225 <= 1
C1498: + x81 + x89 <= 1
C1499: + x325 + x354 <= 1
C1500: + x36 + x92 <= 1
C1501: + x1 + x88 <= 1
C1502: + x142 + x459 <= 1
C1503: + x24 + x217 <= 1
C1504: + x21 + x27 <= 1
C1505: + x132 + x419 <= 1
C1506: + x115 + x343 <= 1
C1507: + x26 + x324 <= 1
C1508: + x6 + x390 <= 1
C1509: + x7 + x30 <= 1
C1510: + x12 + x72 <= 1
C1511: + x31 + x162 <= 1
C1512: + x67 + x297 <= 1
C1513: + x37 + x70 <= 1
C1514: + x86 + x184 <= 1
C1515: + x1 + x199 <= 1
C1516: + x193 + x332 <= 1
C1517: + x257 + x369 <= 1
C1518: + x5 + x68 <= 1
C1519: + x63 + x346 <= 1
C1520: + x37 + x213 <= 1
C1521: + x233 + x411 <= 1
C1522: + x68 + x175 <= 1
C1523: + x195 + x370 <= 1
C1524: + x4 + x422 <= 1
C1525: + x310 + x315 <= 1
C1526: + x402 + x487 <= 1
C1527: + x64 + x328 <= 1
C1528: + x29 + x428 <= 1
C1529: + x13 + x174 <= 1
C1530: + x214 + x439 <= 1
C1531: + x16 + x310 <= 1
C1532: + x55 + x326 <= 1
C1533: + x248 + x394 <= 1
C1534: + x245 + x391 <= 1
C1535: + x10 + x325 <= 1
C1536: + x152 + x432 <= 1
C1537: + x56 + x237 <= 1
C1538: + x212 + x312 <= 1
C1539: + x161 + x414 <= 1
C1540: + x7 + x134 <= 1
C1541: + x155 + x208 <= 1
C1542: + x1 + x130 <= 1
C1543: + x2 + x54 <= 1
C1544: + x30 + x45 + x209 <= 1
C1545: + x5 + x7 <= 1
C1546: + x6 + x364 <= 1
C1547: + x82 + x299 <= 1
C1548: + x8 + x124 <= 1
C1549: + x62 + x415 <= 1
C1550: + x82 + x86 <= 1
C1551: + x46 + x104 <= 1
C1552: + x5 + x150 <= 1
C1553: + x6 + x34 <= 1
C1554: + x353 + x426 <= 1
C1555: + x237 + x266 <= 1
C1556: + x146 + x335 <= 1
C1557: + x10 + x39 <= 1
C1558: + x174 + x214 <= 1
C1559: + x13 + x214 <= 1
C1560: + x5 + x75 <= 1
C1561: + x23 + x245 <= 1
C1562: + x98 + x377 <= 1
C1563: + x9 + x14 <= 1
C1564: + x465 + x491 <= 1
C1565: + x193 + x240 <= 1
C1566: + x230 + x364 <= 1
C1567: + x61 + x157 <= 1
C1568: + x7 + x65 <= 1
C1569: + x137 + x192 <= 1
C1570: + x55 + x79 <= 1
C1571: + x129 + x205 <= 1
C1572: + x402 + x480 <= 1
C1573: + x167 + x227 <= 1
C1574: + x337 + x368 <= 1
C1575: + x10 + x19 <= 1
C1576: + x49 + x52 <= 1
C1577: + x32 + x256 <= 1
C1578: + x29 + x101 <= 1
C1579: + x29 + x466 <= 1
C1580: + x1 + x153 <= 1
C1581: + x2 + x15 <= 1
C1582: + x289 + x492 <= 1
C1583: + x36 + x74 <= 1
C1584: + x1 + x38 <= 1
C1585: + x27 + x63 <= 1
C1586: + x46 + x318 <= 1
C1587: + x277 + x358 <= 1
C1588: + x206 + x213 <= 1
C1589: + x26 + x36 <= 1
C1590: + x9 + x422 <= 1
C1591: + x16 + x465 <= 1
C1592: + x38 + x68 <= 1
C1593: + x29 + x486 <= 1
C1594: + x25 + x457 <= 1
C1595: + x82 + x234 <= 1
C1596: + x329 + x408 <= 1
C1597: + x128 + x467 <= 1
C1598: + x37 + x358 <= 1
C1599: + x100 + x324 <= 1
C1600: + x23 + x305 <= 1
C1601: + x26 + x205 <= 1
C1602: + x14 + x358 <= 1
C1603: + x18 + x32 <= 1
C1604: + x36 + x182 <= 1
C1605: + x165 + x347 <= 1
C1606: + x38 + x213 <= 1
C1607: + x77 + x421 <= 1
C1608: + x26 + x112 <= 1
C1609: + x82 + x123 <= 1
C1610: + x138 + x313 <= 1
C1611: + x11 + x55 <= 1
C1612: + x21 + x271 <= 1
C1613: + x139 + x196 <= 1
C1614: + x5 + x193 <= 1
C1615: + x138 + x244 <= 1
C1616: + x29 + x442 <= 1
C1617: + x245 + x376 <= 1
C1618: + x237 + x309 <= 1
C1619: + x113 + x235 <= 1
C1620: + x77 + x316 <= 1
C1621: + x268 + x326 <= 1
C1622: + x224 + x421 <= 1
C1623: + x308 + x402 <= 1
C1624: + x3 + x418 <= 1
C1625: + x21 + x65 <= 1
C1626: + x131 + x216 <= 1
C1627: + x33 + x103 <= 1
C1628: + x13 + x307 <= 1
C1629: + x199 + x312 <= 1
C1630: + x8 + x384 <= 1
C1631: + x264 + x349 <= 1
C1632: + x349 + x379 <= 1
C1633: + x168 + x222 <= 1
C1634: + x1 + x61 <= 1
C1635: + x19 + x235 <= 1
C1636: + x38 + x234 <= 1
C1637: + x10 + x200 <= 1
C1638: + x8 + x397 <= 1
C1639: + x255 + x420 <= 1
C1640: + x264 + x494 <= 1
C1641: + x3 + x63 <= 1
C1642: + x33 + x51 <= 1
C1643: + x5 + x156 <= 1
C1644: + x6 + x20 <= 1
C1645: + x118 + x319 <= 1
C1646: + x19 + x433 <= 1
C1647: + x1 + x172 <= 1
C1648: + x10 + x414 <= 1
C1649: + x113 + x310 <= 1
C1650: + x39 + x121 <= 1
C1651: + x114 + x186 <= 1
C1652: + x8 + x30 <= 1
C1653: + x14 + x450 <= 1
C1654: + x405 + x411 <= 1
C1655: + x44 + x171 <= 1
C1656: + x92 + x341 <= 1
C1657: + x7 + x51 <= 1
C1658: + x49 + x325 <= 1
C1659: + x39 + x460 <= 1
C1660: + x50 + x75 <= 1
C1661: + x188 + x435 <= 1
C1662: + x267 + x392 <= 1
C1663: + x45 + x474 <= 1
C1664: + x9 + x139 <= 1
C1665: + x48 + x108 <= 1
C1666: + x6 + x310 <= 1
C1667: + x16 + x19 <= 1
C1668: + x247 + x396 <= 1
C1669: + x39 + x146 <= 1
C1670: + x50 + x273 <= 1
C1671: + x236 + x238 <= 1
C1672: + x318 + x327 <= 1
C1673: + x280 + x500 <= 1
C1674: + x2 + x25 <= 1
C1675: + x296 + x347 <= 1
C1676: + x26 + x147 <= 1
C1677: + x71 + x413 <= 1
C1678: + x1 + x52 <= 1
C1679: + x93 + x125 <= 1
C1680: + x24 + x253 <= 1
C1681: + x77 + x487 <= 1
C1682: + x1 + x465 <= 1
C1683: + x42 + x115 <= 1
C1684: + x7 + x155 <= 1
C1685: + x144 + x177 <= 1
C1686: + x201 + x475 <= 1
C1687: + x137 + x198 <= 1
C1688: + x28 + x36 <= 1
C1689: + x21 + x174 <= 1
C1690: + x101 + x159 <= 1
C1691: + x11 + x170 <= 1
C1692: + x24 + x262 <= 1
C1693: + x194 + x352 <= 1
C1694: + x34 + x281 <= 1
C1695: + x12 + x96 <= 1
C1696: + x98 + x495 <= 1
C1697: + x26 + x122 <= 1
C1698: + x199 + x374 <= 1
C1699: + x347 + x355 <= 1
C1700: + x2 + x70 <= 1
C1701: + x139 + x246 <= 1
C1702: + x48 + x414 <= 1
C1703: + x194 + x457 <= 1
C1704: + x16 + x197 <= 1
C1705: + x163 + x240 <= 1
C1706: + x75 + x94 <= 1
C1707: + x257 + x361 <= 1
C1708: + x54 + x434 <= 1
C1709: + x13 + x55 <= 1
C1710: + x52 + x447 <= 1
C1711: + x90 + x299 <= 1
C1712: + x195 + x362 <= 1
C1713: + x187 + x443 <= 1
C1714: + x12 + x479 <= 1
C1715: + x6 + x82 <= 1
C1716: + x7 + x98 <= 1
C1717: + x424 + x444 <= 1
C1718: + x138 + x279 <= 1
C1719: + x92 + x378 <= 1
C1720: + x2 + x18 <= 1
C1721: + x14 + x18 <= 1
C1722: + x87 + x133 <= 1
C1723: + x5 + x251 <= 1
C1724: + x16 + x137 <= 1
C1725: + x1 + x11 <= 1
C1726: + x146 + x410 <= 1
C1727: + x44 + x66 <= 1
C1728: + x21 + x198 <= 1
C1729: + x4 + x8 <= 1
C1730: + x10 + x242 <= 1
C1731: + x33 + x228 <= 1
C1732: + x101 + x492 <= 1
C1733: + x98 + x119 <= 1
C1734: + x71 + x94 <= 1
C1735: + x75 + x145 <= 1
C1736: + x287 + x489 <= 1
C1737: + x44 + x126 <= 1
C1738: + x227 + x312 <= 1
C1739: + x113 + x129 <= 1
C1740: + x26 + x67 <= 1
C1741: + x80 + x87 <= 1
C1742: + x172 + x210 <= 1
C1743: + x121 + x339 <= 1
C1744: + x13 + x46 <= 1
C1745: + x52 + x123 <= 1
C1746: + x168 + x391 <= 1
C1747: + x18 + x63 <= 1
C1748: + x36 + x149 <= 1
C1749: + x9 + x22 <= 1
C1750: + x121 + x176 <= 1
C1751: + x33 + x140 <= 1
C1752: + x26 + x399 <= 1
C1753: + x79 + x105 <= 1
C1754: + x6 + x254 <= 1
C1755: + x332 + x428 <= 1
C1756: + x96 + x403 <= 1
C1757: + x33 + x251 <= 1
C1758: + x239 + x371 <= 1
C1759: + x33 + x72 <= 1
C1760: + x161 + x397 <= 1
C1761: + x4 + x383 <= 1
C1762: + x23 + x463 <= 1
C1763: + x9 + x319 <= 1
C1764: + x8 + x287 <= 1
C1765: + x101 + x141 <= 1
C1766: + x156 + x229 <= 1
C1767: + x6 + x162 <= 1
C1768: + x156 + x388 <= 1
C1769: + x115 + x152 <= 1
C1770: + x52 + x211 <= 1
C1771: + x306 + x361 <= 1
C1772: + x7 + x40 <= 1
C1773: + x28 + x380 <= 1
C1774: + x75 + x338 <= 1
C1775: + x112 + x356 <= 1
C1776: + x43 + x423 <= 1
C1777: + x127 + x425 <= 1
C1778: + x194 + x358 <= 1
C1779: + x105 + x244 <= 1
C1780: + x98 + x167 <= 1
C1781: + x52 + x68 <= 1
C1782: + x2 + x286 <= 1
C1783: + x4 + x444 <= 1
C1784: + x25 + x32 <= 1
C1785: + x116 + x479 <= 1
C1786: + x208 + x333 <= 1
C1787: + x42 + x469 <= 1
C1788: + x18 + x382 <= 1
C1789: + x36 + x107 <= 1
C1790: + x80 + x100 <= 1
C1791: + x337 + x383 <= 1
C1792: + x79 + x322 <= 1
C1793: + x171 + x406 <= 1
C1794: + x230 + x252 <= 1
C1795: + x5 + x384 <= 1
C1796: + x172 + x333 <= 1
C1797: + x155 + x269 <= 1
C1798: + x8 + x280 <= 1
C1799: + x37 + x385 <= 1
C1800: + x58 + x75 <= 1
C1801: + x194 + x291 <= 1
C1802: + x102 + x359 <= 1
C1803: + x13 + x410 <= 1
C1804: + x1 + x498 <= 1
C1805: + x77 + x242 <= 1
C1806: + x178 + x442 <= 1
C1807: + x7 + x188 <= 1
C1808: + x8 + x151 <= 1
C1809: + x19 + x22 <= 1
C1810: + x75 + x119 <= 1
C1811: + x225 + x440 <= 1
C1812: + x6 + x298 <= 1
C1813: + x227 + x286 <= 1
C1814: + x56 + x224 <= 1
C1815: + x95 + x470 <= 1
C1816: + x78 + x79 <= 1
C1817: + x26 + x409 <= 1
C1818: + x401 + x478 <= 1
C1819: + x28 + x349 <= 1
C1820: + x66 + x293 <= 1
C1821: + x82 + x183 <= 1
C1822: + x12 + x144 <= 1
C1823: + x213 + x403 <= 1
C1824: + x379 + x462 <= 1
C1825: + x16 + x59 <= 1
C1826: + x202 + x219 <= 1
C1827: + x122 + x126 <= 1
C1828: + x352 + x499 <= 1
C1829: + x10 + x118 <= 1
C1830: + x87 + x102 <= 1
C1831: + x16 + x172 <= 1
C1832: + x121 + x249 <= 1
C1833: + x2 + x340 <= 1
C1834: + x21 + x39 <= 1
C1835: + x115 + x138 <= 1
C1836: + x7 + x18 <= 1
C1837: + x30 + x284 <= 1
C1838: + x31 + x412 <= 1
C1839: + x6 + x37 <= 1
C1840: + x16 + x366 <= 1
C1841: + x18 + x135 <= 1
C1842: + x10 + x34 <= 1
C1843: + x301 + x412 <= 1
C1844: + x33 + x399 <= 1
C1845: + x32 + x207 <= 1
C1846: + x70 + x461 <= 1
C1847: + x370 + x478 <= 1
C1848: + x133 + x464 <= 1
C1849: + x110 + x113 <= 1
C1850: + x6 + x275 <= 1
C1851: + x9 + x11 <= 1
C1852: + x11 + x275 <= 1
C1853: + x43 + x60 <= 1
C1854: + x298 + x306 <= 1
C1855: + x7 + x78 <= 1
C1856: + x14 + x467 <= 1
C1857: + x156 + x192 <= 1
C1858: + x423 + x433 <= 1
C1859: + x6 + x233 <= 1
C1860: + x272 + x279 <= 1
C1861: + x50 + x391 <= 1
C1862: + x49 + x158 <= 1
C1863: + x52 + x185 <= 1
C1864: + x96 + x301 <= 1
C1865: + x65 + x145 <= 1
C1866: + x101 + x365 <= 1
C1867: + x68 + x126 <= 1
C1868: + x22 + x71 <= 1
C1869: + x15 + x202 <= 1
C1870: + x37 + x236 <= 1
C1871: + x4 + x48 <= 1
C1872: + x24 + x49 <= 1
C1873: + x83 + x90 <= 1
C1874: + x411 + x481 <= 1
C1875: + x78 + x240 <= 1
C1876: + x8 + x314 <= 1
C1877: + x21 + x157 <= 1
C1878: + x12 + x45 <= 1
C1879: + x158 + x475 <= 1
C1880: + x196 + x367 <= 1
C1881: + x10 + x23 <= 1
C1882: + x2 + x146 <= 1
C1883: + x155 + x164 <= 1
C1884: + x47 + x110 <= 1
C1885: + x193 + x275 <= 1
C1886: + x98 + x134 <= 1
C1887: + x23 + x266 <= 1
C1888: + x47 + x207 <= 1
C1889: + x166 + x412 <= 1
C1890: + x21 + x499 <= 1
C1891: + x7 + x113 <= 1
C1892: + x37 + x446 <= 1
C1893: + x5 + x10 <= 1
C1894: + x6 + x134 <= 1
C1895: + x43 + x268 <= 1
C1896: + x8 + x109 <= 1
C1897: + x37 + x275 <= 1
C1898: + x20 + x187 <= 1
C1899: + x13 + x122 <= 1
C1900: + x187 + x285 <= 1
C1901: + x206 + x209 <= 1
C1902: + x287 + x351 <= 1
C1903: + x6 + x23 <= 1
C1904: + x118 + x306 <= 1
C1905: + x352 + x405 <= 1
C1906: + x10 + x84 <= 1
C1907: + x74 + x217 <= 1
C1908: + x146 + x316 <= 1
C1909: + x361 + x421 <= 1
C1910: + x82 + x468 <= 1
C1911: + x10 + x143 <= 1
C1912: + x39 + x167 <= 1
C1913: + x30 + x84 <= 1
C1914: + x82 + x127 <= 1
C1915: + x10 + x490 <= 1
C1916: + x54 + x94 <= 1
C1917: + x84 + x166 <= 1
C1918: + x115 + x414 <= 1
C1919: + x87 + x179 <= 1
C1920: + x9 + x136 <= 1
C1921: + x129 + x426 <= 1
C1922: + x12 + x179 <= 1
C1923: + x32 + x225 <= 1
C1924: + x287 + x424 <= 1
C1925: + x142 + x353 <= 1
C1926: + x247 + x437 <= 1
C1927: + x47 + x210 <= 1
C1928: + x2 + x310 <= 1
C1929: + x183 + x373 <= 1
C1930: + x23 + x494 <= 1
C1931: + x6 + x108 <= 1
C1932: + x7 + x108 <= 1
C1933: + x2 + x28 <= 1
C1934: + x44 + x88 <= 1
C1935: + x8 + x102 <= 1
C1936: + x6 + x346 <= 1
C1937: + x143 + x450 <= 1
C1938: + x195 + x218 <= 1
C1939: + x41 + x136 <= 1
C1940: + x42 + x211 <= 1
C1941: + x52 + x56 <= 1
C1942: + x99 + x289 <= 1
C1943: + x18 + x124 <= 1
C1944: + x327 + x400 <= 1

binary
x1 x2 x3 x4 x5 x6 x7 x8 x9 x10 x11 x12 x13 x14 x15 x16 x17 x18 x19 x20 x21 x22 x23 x24 x25 x26 x27 x28 x29 x30 x31 x32 x33 x34 x35 x36 x37 x38 x39 x40 x41 x42 x43 x44 x45 x46 x47 x48 x49 x50 x51 x52 x53 x54 x55 x56 x57 x58 x59 x60 x61 x62 x63 x64 x65 x66 x67 x68 x69 x70 x71 x72 x73 x74 x75 x76 x77 x78 x79 x80 x81 x82 x83 x84 x85 x86 x87 x88 x89 x90 x91 x92 x93 x94 x95 x96 x97 x98 x99 x100 x101 x102 x103 x104 x105 x106 x107 x108 x109 x110 x111 x112 x113 x114 x115 x116 x117 x118 x119 x120 x121 x122 x123 x124 x125 x126 x127 x128 x129 x130 x131 x132 x133 x134 x135 x136 x137 x138 x139 x140 x141 x142 x143 x144 x145 x146 x147 x148 x149 x150 x151 x152 x153 x154 x155 x156 x157 x158 x159 x160 x161 x162 x163 x164 x165 x166 x167 x168 x169 x170 x171 x172 x173 x174 x175 x176 x177 x178 x179 x180 x181 x182 x183 x184 x185 x186 x187 x188 x189 x190 x191 x192 x193 x194 x195 x196 x197 x198 x199 x200 x201 x202 x203 x204 x205 x206 x207 x208 x209 x210 x211 x212 x213 x214 x215 x216 x217 x218 x219 x220 x221 x222 x223 x224 x225 x226 x227 x228 x229 x230 x231 x232 x233 x234 x235 x236 x237 x238 x239 x240 x241 x242 x243 x244 x245 x246 x247 x248 x249 x250 x251 x252 x253 x254 x255 x256 x257 x258 x259 x260 x261 x262 x263 x264 x265 x266 x267 x268 x269 x270 x271 x272 x273 x274 x275 x276 x277 x278 x279 x280 x281 x282 x283 x284 x285 x286 x287 x288 x289 x290 x291 x292 x293 x294 x295 x296 x297 x298 x299 x300 x301 x302 x303 x304 x305 x306 x307 x308 x309 x310 x311 x312 x313 x314 x315 x316 x317 x318 x319 x320 x321 x322 x323 x324 x325 x326 x327 x328 x329 x330 x331 x332 x333 x334 x335 x336 x337 x338 x339 x340 x341 x342 x343 x344 x345 x346 x347 x348 x349 x350 x351 x352 x353 x354 x355 x356 x357 x358 x359 x360 x361 x362 x363 x364 x365 x366 x367 x368 x369 x370 x371 x372 x373 x374 x375 x376 x377 x378 x379 x380 x381 x382 x383 x384 x385 x386 x387 x388 x389 x390 x391 x392 x393 x394 x395 x396 x397 x398 x399 x400 x401 x402 x403 x404 x405 x406 x407 x408 x409 x410 x411 x412 x413 x414 x415 x416 x417 x418 x419 x420 x421 x422 x423 x424 x425 x426 x427 x428 x429 x430 x431 x432 x433 x434 x435 x436 x437 x438 x439 x440 x441 x442 x443 x444 x445 x446 x447 x448 x449 x450 x451 x452 x453 x454 x455 x456 x457 x458 x459 x460 x461 x462 x463 x464 x465 x466 x467 x468 x469 x470 x471 x472 x473 x474 x475 x476 x477 x478 x479 x480 x481 x482 x483 x484 x485 x486 x487 x488 x489 x490 x491 x492 x493 x494 x495 x496 x497 x498 x499 x500
