maximize
OBJ: + 1 x1 + 1 x2 + 1 x3 + 1 x4 + 1 x5 + 1 x6 + 1 x7 + 1 x8 + 1 x9 + 1 x10 + 1 x11 + 1 x12 + 1 x13 + 1 x14 + 1 x15 + 1 x16 + 1 x17 + 1 x18 + 1 x19 + 1 x20 + 1 x21 + 1 x22 + 1 x23 + 1 x24 + 1 x25 + 1 x26 + 1 x27 + 1 x28 + 1 x29 + 1 x30 + 1 x31 + 1 x32 + 1 x33 + 1 x34 + 1 x35 + 1 x36 + 1 x37 + 1 x38 + 1 x39 + 1 x40 + 1 x41 + 1 x42 + 1 x43 + 1 x44 + 1 x45 + 1 x46 + 1 x47 + 1 x48 + 1 x49 + 1 x50 + 1 x51 + 1 x52 + 1 x53 + 1 x54 + 1 x55 + 1 x56 + 1 x57 + 1 x58 + 1 x59 + 1 x60 + 1 x61 + 1 x62 + 1 x63 + 1 x64 + 1 x65 + 1 x66 + 1 x67 + 1 x68 + 1 x69 + 1 x70 + 1 x71 + 1 x72 + 1 x73 + 1 x74 + 1 x75 + 1 x76 + 1 x77 + 1 x78 + 1 x79 + 1 x80 + 1 x81 + 1 x82 + 1 x83 + 1 x84 + 1 x85 + 1 x86 + 1 x87 + 1 x88 + 1 x89 + 1 x90 + 1 x91 + 1 x92 + 1 x93 + 1 x94 + 1 x95 + 1 x96 + 1 x97 + 1 x98 + 1 x99 + 1 x100 + 1 x101 + 1 x102 + 1 x103 + 1 x104 + 1 x105 + 1 x106 + 1 x107 + 1 x108 + 1 x109 + 1 x110 + 1 x111 + 1 x112 + 1 x113 + 1 x114 + 1 x115 + 1 x116 + 1 x117 + 1 x118 + 1 x119 + 1 x120 + 1 x121 + 1 x122 + 1 x123 + 1 x124 + 1 x125 + 1 x126 + 1 x127 + 1 x128 + 1 x129 + 1 x130 + 1 x131 + 1 x132 + 1 x133 + 1 x134 + 1 x135 + 1 x136 + 1 x137 + 1 x138 + 1 x139 + 1 x140 + 1 x141 + 1 x142 + 1 x143 + 1 x144 + 1 x145 + 1 x146 + 1 x147 + 1 x148 + 1 x149 + 1 x150 + 1 x151 + 1 x152 + 1 x153 + 1 x154 + 1 x155 + 1 x156 + 1 x157 + 1 x158 + 1 x159 + 1 x160 + 1 x161 + 1 x162 + 1 x163 + 1 x164 + 1 x165 + 1 x166 + 1 x167 + 1 x168 + 1 x169 + 1 x170 + 1 x171 + 1 x172 + 1 x173 + 1 x174 + 1 x175 + 1 x176 + 1 x177 + 1 x178 + 1 x179 + 1 x180 + 1 x181 + 1 x182 + 1 x183 + 1 x184 + 1 x185 + 1 x186 + 1 x187 + 1 x188 + 1 x189 + 1 x190 + 1 x191 + 1 x192 + 1 x193 + 1 x194 + 1 x195 + 1 x196 + 1 x197 + 1 x198 + 1 x199 + 1 x200 + 1 x201 + 1 x202 + 1 x203 + 1 x204 + 1 x205 + 1 x206 + 1 x207 + 1 x208 + 1 x209 + 1 x210 + 1 x211 + 1 x212 + 1 x213 + 1 x214 + 1 x215 + 1 x216 + 1 x217 + 1 x218 + 1 x219 + 1 x220 + 1 x221 + 1 x222 + 1 x223 + 1 x224 + 1 x225 + 1 x226 + 1 x227 + 1 x228 + 1 x229 + 1 x230 + 1 x231 + 1 x232 + 1 x233 + 1 x234 + 1 x235 + 1 x236 + 1 x237 + 1 x238 + 1 x239 + 1 x240 + 1 x241 + 1 x242 + 1 x243 + 1 x244 + 1 x245 + 1 x246 + 1 x247 + 1 x248 + 1 x249 + 1 x250 + 1 x251 + 1 x252 + 1 x253 + 1 x254 + 1 x255 + 1 x256 + 1 x257 + 1 x258 + 1 x259 + 1 x260 + 1 x261 + 1 x262 + 1 x263 + 1 x264 + 1 x265 + 1 x266 + 1 x267 + 1 x268 + 1 x269 + 1 x270 + 1 x271 + 1 x272 + 1 x273 + 1 x274 + 1 x275 + 1 x276 + 1 x277 + 1 x278 + 1 x279 + 1 x280 + 1 x281 + 1 x282 + 1 x283 + 1 x284 + 1 x285 + 1 x286 + 1 x287 + 1 x288 + 1 x289 + 1 x290 + 1 x291 + 1 x292 + 1 x293 + 1 x294 + 1 x295 + 1 x296 + 1 x297 + 1 x298 + 1 x299 + 1 x300 + 1 x301 + 1 x302 + 1 x303 + 1 x304 + 1 x305 + 1 x306 + 1 x307 + 1 x308 + 1 x309 + 1 x310 + 1 x311 + 1 x312 + 1 x313 + 1 x314 + 1 x315 + 1 x316 + 1 x317 + 1 x318 + 1 x319 + 1 x320 + 1 x321 + 1 x322 + 1 x323 + 1 x324 + 1 x325 + 1 x326 + 1 x327 + 1 x328 + 1 x329 + 1 x330 + 1 x331 + 1 x332 + 1 x333 + 1 x334 + 1 x335 + 1 x336 + 1 x337 + 1 x338 + 1 x339 + 1 x340 + 1 x341 + 1 x342 + 1 x343 + 1 x344 + 1 x345 + 1 x346 + 1 x347 + 1 x348 + 1 x349 + 1 x350 + 1 x351 + 1 x352 + 1 x353 + 1 x354 + 1 x355 + 1 x356 + 1 x357 + 1 x358 + 1 x359 + 1 x360 + 1 x361 + 1 x362 + 1 x363 + 1 x364 + 1 x365 + 1 x366 + 1 x367 + 1 x368 + 1 x369 + 1 x370 + 1 x371 + 1 x372 + 1 x373 + 1 x374 + 1 x375 + 1 x376 + 1 x377 + 1 x378 + 1 x379 + 1 x380 + 1 x381 + 1 x382 + 1 x383 + 1 x384 + 1 x385 + 1 x386 + 1 x387 + 1 x388 + 1 x389 + 1 x390 + 1 x391 + 1 x392 + 1 x393 + 1 x394 + 1 x395 + 1 x396 + 1 x397 + 1 x398 + 1 x399 + 1 x400 + 1 x401 + 1 x402 + 1 x403 + 1 x404 + 1 x405 + 1 x406 + 1 x407 + 1 x408 + 1 x409 + 1 x410 + 1 x411 + 1 x412 + 1 x413 + 1 x414 + 1 x415 + 1 x416 + 1 x417 + 1 x418 + 1 x419 + 1 x420 + 1 x421 + 1 x422 + 1 x423 + 1 x424 + 1 x425 + 1 x426 + 1 x427 + 1 x428 + 1 x429 + 1 x430 + 1 x431 + 1 x432 + 1 x433 + 1 x434 + 1 x435 + 1 x436 + 1 x437 + 1 x438 + 1 x439 + 1 x440 + 1 x441 + 1 x442 + 1 x443 + 1 x444 + 1 x445 + 1 x446 + 1 x447 + 1 x448 + 1 x449 + 1 x450 + 1 x451 + 1 x452 + 1 x453 + 1 x454 + 1 x455 + 1 x456 + 1 x457 + 1 x458 + 1 x459 + 1 x460 + 1 x461 + 1 x462 + 1 x463 + 1 x464 + 1 x465 + 1 x466 + 1 x467 + 1 x468 + 1 x469 + 1 x470 + 1 x471 + 1 x472 + 1 x473 + 1 x474 + 1 x475 + 1 x476 + 1 x477 + 1 x478 + 1 x479 + 1 x480 + 1 x481 + 1 x482 + 1 x483 + 1 x484 + 1 x485 + 1 x486 + 1 x487 + 1 x488 + 1 x489 + 1 x490 + 1 x491 + 1 x492 + 1 x493 + 1 x494 + 1 x495 + 1 x496 + 1 x497 + 1 x498 + 1 x499 + 1 x500

subject to
C1: + x99 + x103 <= 1
C2: + x10 + x386 <= 1
C3: + x173 + x188 <= 1
C4: + x4 + x171 <= 1
C5: + x43 + x295 <= 1
C6: + x26 + x359 <= 1
C7: + x13 + x200 <= 1
C8: + x32 + x166 <= 1
C9: + x83 + x475 <= 1
C10: + x304 + x351 <= 1
C11: + x71 + x342 <= 1
C12: + x9 + x413 <= 1
C13: + x12 + x333 <= 1
C14: + x430 + x491 <= 1
C15: + x6 + x196 <= 1
C16: + x109 + x278 <= 1
C17: + x260 + x302 <= 1
C18: + x252 + x409 <= 1
C19: + x25 + x242 <= 1
C20: + x7 + x450 <= 1
C21: + x11 + x372 <= 1
C22: + x48 + x203 <= 1
C23: + x54 + x107 <= 1
C24: + x38 + x316 <= 1
C25: + x158 + x207 <= 1
C26: + x13 + x139 <= 1
C27: + x4 + x232 <= 1
C28: + x88 + x441 <= 1
C29: + x28 + x183 <= 1
C30: + x2 + x192 <= 1
C31: + x20 + x201 <= 1
C32: + x31 + x130 <= 1
C33: + x259 + x263 <= 1
C34: + x323 + x455 <= 1
C35: + x26 + x50 <= 1
C36: + x63 + x239 <= 1
C37: + x182 + x284 <= 1
C38: + x6 + x25 <= 1
C39: + x16 + x322 <= 1
C40: + x261 + x476 <= 1
C41: + x19 + x113 <= 1
C42: + x1 + x167 <= 1
C43: + x5 + x36 <= 1
C44: + x6 + x188 <= 1
C45: + x62 + x378 <= 1
C46: + x8 + x23 <= 1
C47: + x50 + x338 <= 1
C48: + x50 + x229 <= 1
C49: + x178 + x304 <= 1
C50: + x397 + x451 <= 1
C51: + x156 + x341 <= 1
C52: + x37 + x487 <= 1
C53: + x130 + x141 <= 1
C54: + x20 + x423 <= 1
C55: + x5 + x179 <= 1
C56: + x207 + x474 <= 1
C57: + x69 + x475 <= 1
C58: + x4 + x96 <= 1
C59: + x125 + x213 <= 1
C60: + x6 + x315 <= 1
C61: + x16 + x104 <= 1
C62: + x13 + x477 <= 1
C63: + x84 + x329 <= 1
C64: + x38 + x293 <= 1
C65: + x425 + x483 <= 1
C66: + x99 + x138 <= 1
C67: + x73 + x290 <= 1
C68: + x1 + x15 <= 1
C69: + x177 + x222 <= 1
C70: + x4 + x12 <= 1
C71: + x97 + x424 <= 1
C72: + x13 + x103 <= 1
C73: + x26 + x59 <= 1
C74: + x306 + x448 <= 1
C75: + x84 + x314 <= 1
C76: + x129 + x145 <= 1
C77: + x49 + x315 <= 1
C78: + x97 + x261 <= 1
C79: + x25 + x34 <= 1
C80: + x5 + x374 <= 1
C81: + x92 + x266 <= 1
C82: + x19 + x108 <= 1
C83: + x8 + x286 <= 1
C84: + x11 + x306 <= 1
C85: + x42 + x310 <= 1
C86: + x22 + x317 <= 1
C87: + x35 + x172 <= 1
C88: + x325 + x402 <= 1
C89: + x26 + x71 <= 1
C90: + x9 + x395 <= 1
C91: + x32 + x57 <= 1
C92: + x26 + x482 <= 1
C93: + x15 + x97 <= 1
C94: + x9 + x189 <= 1
C95: + x159 + x256 <= 1
C96: + x128 + x264 + x321 <= 1
C97: + x38 + x349 <= 1
C98: + x77 + x349 <= 1
C99: + x324 + x431 <= 1
C100: + x36 + x153 <= 1
C101: + x9 + x26 <= 1
C102: + x20 + x106 <= 1
C103: + x61 + x241 <= 1
C104: + x126 + x447 <= 1
C105: + x9 + x340 <= 1
C106: + x254 + x376 <= 1
C107: + x1 + x6 <= 1
C108: + x19 + x212 <= 1
C109: + x8 + x81 <= 1
C110: + x11 + x245 <= 1
C111: + x40 + x300 <= 1
C112: + x23 + x354 <= 1
C113: + x22 + x370 <= 1
C114: + x51 + x169 <= 1
C115: + x63 + x153 <= 1
C116: + x4 + x355 <= 1
C117: + x155 + x251 <= 1
C118: + x210 + x488 <= 1
C119: + x56 + x492 <= 1
C120: + x28 + x209 <= 1
C121: + x19 + x136 <= 1
C122: + x101 + x451 <= 1
C123: + x37 + x96 <= 1
C124: + x38 + x88 <= 1
C125: + x239 + x248 <= 1
C126: + x139 + x228 <= 1
C127: + x87 + x223 <= 1
C128: + x343 + x388 <= 1
C129: + x446 + x467 <= 1
C130: + x20 + x276 <= 1
C131: + x5 + x70 <= 1
C132: + x65 + x430 <= 1
C133: + x113 + x120 <= 1
C134: + x58 + x365 <= 1
C135: + x124 + x328 <= 1
C136: + x6 + x80 <= 1
C137: + x208 + x329 <= 1
C138: + x173 + x287 <= 1
C139: + x1 + x267 <= 1
C140: + x11 + x27 <= 1
C141: + x20 + x385 <= 1
C142: + x86 + x242 <= 1
C143: + x40 + x55 <= 1
C144: + x96 + x150 <= 1
C145: + x236 + x455 <= 1
C146: + x281 + x416 <= 1
C147: + x3 + x305 <= 1
C148: + x21 + x216 <= 1
C149: + x32 + x328 <= 1
C150: + x151 + x302 <= 1
C151: + x310 + x418 <= 1
C152: + x86 + x99 <= 1
C153: + x79 + x231 <= 1
C154: + x280 + x495 <= 1
C155: + x34 + x296 <= 1
C156: + x44 + x112 <= 1
C157: + x15 + x309 <= 1
C158: + x24 + x63 <= 1
C159: + x135 + x232 <= 1
C160: + x118 + x291 <= 1
C161: + x145 + x254 <= 1
C162: + x287 + x395 <= 1
C163: + x99 + x365 <= 1
C164: + x11 + x280 <= 1
C165: + x20 + x120 <= 1
C166: + x13 + x458 <= 1
C167: + x25 + x107 <= 1
C168: + x6 + x73 <= 1
C169: + x243 + x341 <= 1
C170: + x35 + x370 <= 1
C171: + x128 + x445 <= 1
C172: + x129 + x316 <= 1
C173: + x30 + x339 <= 1
C174: + x96 + x147 <= 1
C175: + x99 + x147 <= 1
C176: + x139 + x436 <= 1
C177: + x48 + x96 <= 1
C178: + x4 + x127 <= 1
C179: + x5 + x113 <= 1
C180: + x61 + x118 <= 1
C181: + x8 + x486 <= 1
C182: + x19 + x359 <= 1
C183: + x38 + x417 <= 1
C184: + x4 + x337 <= 1
C185: + x5 + x8 <= 1
C186: + x32 + x135 <= 1
C187: + x27 + x53 <= 1
C188: + x28 + x175 <= 1
C189: + x121 + x253 <= 1
C190: + x65 + x496 <= 1
C191: + x18 + x234 <= 1
C192: + x13 + x72 <= 1
C193: + x83 + x91 <= 1
C194: + x119 + x271 <= 1
C195: + x59 + x63 <= 1
C196: + x7 + x183 <= 1
C197: + x173 + x382 <= 1
C198: + x5 + x76 <= 1
C199: + x16 + x124 <= 1
C200: + x36 + x144 <= 1
C201: + x9 + x15 <= 1
C202: + x7 + x421 <= 1
C203: + x21 + x119 <= 1
C204: + x21 + x420 <= 1
C205: + x11 + x287 <= 1
C206: + x102 + x352 <= 1
C207: + x13 + x449 <= 1
C208: + x7 + x66 <= 1
C209: + x37 + x50 <= 1
C210: + x27 + x108 <= 1
C211: + x155 + x165 <= 1
C212: + x202 + x357 <= 1
C213: + x158 + x335 <= 1
C214: + x31 + x229 <= 1
C215: + x23 + x194 <= 1
C216: + x24 + x121 <= 1
C217: + x139 + x169 <= 1
C218: + x48 + x375 <= 1
C219: + x107 + x428 <= 1
C220: + x15 + x49 <= 1
C221: + x17 + x491 <= 1
C222: + x19 + x387 <= 1
C223: + x83 + x272 <= 1
C224: + x2 + x14 <= 1
C225: + x116 + x156 <= 1
C226: + x37 + x280 <= 1
C227: + x313 + x470 <= 1
C228: + x5 + x158 <= 1
C229: + x409 + x500 <= 1
C230: + x121 + x371 <= 1
C231: + x66 + x410 <= 1
C232: + x266 + x437 <= 1
C233: + x169 + x226 <= 1
C234: + x132 + x289 <= 1
C235: + x5 + x400 <= 1
C236: + x8 + x40 <= 1
C237: + x58 + x392 <= 1
C238: + x231 + x356 <= 1
C239: + x115 + x318 <= 1
C240: + x84 + x161 <= 1
C241: + x264 + x428 <= 1
C242: + x82 + x165 <= 1
C243: + x7 + x230 <= 1
C244: + x20 + x243 <= 1
C245: + x295 + x456 <= 1
C246: + x5 + x103 <= 1
C247: + x25 + x232 <= 1
C248: + x91 + x472 <= 1
C249: + x29 + x125 <= 1
C250: + x139 + x263 <= 1
C251: + x385 + x441 <= 1
C252: + x169 + x288 <= 1
C253: + x6 + x111 <= 1
C254: + x26 + x443 <= 1
C255: + x9 + x479 <= 1
C256: + x92 + x210 <= 1
C257: + x2 + x7 <= 1
C258: + x59 + x82 <= 1
C259: + x214 + x396 <= 1
C260: + x288 + x452 <= 1
C261: + x55 + x353 <= 1
C262: + x13 + x387 <= 1
C263: + x25 + x180 <= 1
C264: + x98 + x281 <= 1
C265: + x7 + x8 <= 1
C266: + x19 + x269 <= 1
C267: + x9 + x430 <= 1
C268: + x20 + x30 <= 1
C269: + x6 + x19 <= 1
C270: + x364 + x420 <= 1
C271: + x72 + x115 <= 1
C272: + x74 + x280 <= 1
C273: + x64 + x493 <= 1
C274: + x148 + x176 <= 1
C275: + x17 + x144 <= 1
C276: + x16 + x74 <= 1
C277: + x326 + x412 <= 1
C278: + x9 + x61 <= 1
C279: + x48 + x305 <= 1
C280: + x5 + x300 <= 1
C281: + x87 + x342 <= 1
C282: + x7 + x52 <= 1
C283: + x27 + x368 <= 1
C284: + x11 + x63 <= 1
C285: + x2 + x68 <= 1
C286: + x50 + x74 <= 1
C287: + x3 + x116 <= 1
C288: + x149 + x151 <= 1
C289: + x15 + x148 <= 1
C290: + x16 + x260 <= 1
C291: + x109 + x283 <= 1
C292: + x6 + x199 <= 1
C293: + x154 + x313 <= 1
C294: + x59 + x490 <= 1
C295: + x23 + x261 <= 1
C296: + x24 + x143 <= 1
C297: + x79 + x418 <= 1
C298: + x101 + x442 <= 1
C299: + x11 + x373 <= 1
C300: + x8 + x465 <= 1
C301: + x16 + x30 <= 1
C302: + x207 + x323 <= 1
C303: + x83 + x181 <= 1
C304: + x57 + x373 <= 1
C305: + x99 + x244 <= 1
C306: + x88 + x448 <= 1
C307: + x135 + x295 <= 1
C308: + x11 + x200 <= 1
C309: + x47 + x69 <= 1
C310: + x31 + x131 <= 1
C311: + x252 + x468 <= 1
C312: + x289 + x328 <= 1
C313: + x92 + x401 <= 1
C314: + x76 + x379 <= 1
C315: + x50 + x151 <= 1
C316: + x412 + x485 <= 1
C317: + x181 + x262 <= 1
C318: + x109 + x350 <= 1
C319: + x28 + x35 <= 1
C320: + x130 + x442 <= 1
C321: + x377 + x403 <= 1
C322: + x15 + x17 + x21 <= 1
C323: + x17 + x36 <= 1
C324: + x57 + x251 <= 1
C325: + x28 + x127 <= 1
C326: + x135 + x494 <= 1
C327: + x22 + x237 <= 1
C328: + x43 + x164 <= 1
C329: + x218 + x285 <= 1
C330: + x8 + x458 <= 1
C331: + x11 + x384 <= 1
C332: + x399 + x407 <= 1
C333: + x97 + x310 <= 1
C334: + x252 + x380 <= 1
C335: + x14 + x430 <= 1
C336: + x6 + x81 <= 1
C337: + x188 + x391 <= 1
C338: + x353 + x456 <= 1
C339: + x460 + x495 <= 1
C340: + x69 + x89 <= 1
C341: + x14 + x319 <= 1
C342: + x9 + x92 <= 1
C343: + x20 + x44 <= 1
C344: + x5 + x139 <= 1
C345: + x28 + x60 <= 1
C346: + x25 + x380 <= 1
C347: + x17 + x297 <= 1
C348: + x325 + x370 <= 1
C349: + x153 + x177 <= 1
C350: + x8 + x19 <= 1
C351: + x29 + x182 <= 1
C352: + x123 + x201 <= 1
C353: + x4 + x51 <= 1
C354: + x26 + x66 <= 1
C355: + x64 + x356 <= 1
C356: + x274 + x398 <= 1
C357: + x107 + x125 <= 1
C358: + x108 + x135 <= 1
C359: + x89 + x171 <= 1
C360: + x91 + x272 <= 1
C361: + x236 + x401 <= 1
C362: + x5 + x191 <= 1
C363: + x190 + x444 <= 1
C364: + x7 + x276 <= 1
C365: + x13 + x47 <= 1
C366: + x5 + x84 <= 1
C367: + x107 + x146 <= 1
C368: + x244 + x497 <= 1
C369: + x62 + x330 <= 1
C370: + x34 + x152 <= 1
C371: + x125 + x300 <= 1
C372: + x20 + x101 <= 1
C373: + x3 + x396 <= 1
C374: + x13 + x473 <= 1
C375: + x150 + x319 <= 1
C376: + x16 + x391 <= 1
C377: + x173 + x293 <= 1
C378: + x84 + x333 <= 1
C379: + x321 + x422 <= 1
C380: + x85 + x244 <= 1
C381: + x431 + x484 <= 1
C382: + x280 + x360 <= 1
C383: + x13 + x432 <= 1
C384: + x14 + x312 <= 1
C385: + x64 + x234 <= 1
C386: + x212 + x241 <= 1
C387: + x3 + x9 <= 1
C388: + x266 + x374 <= 1
C389: + x169 + x289 <= 1
C390: + x6 + x14 <= 1
C391: + x9 + x320 <= 1
C392: + x20 + x323 <= 1
C393: + x15 + x303 <= 1
C394: + x99 + x259 <= 1
C395: + x11 + x318 <= 1
C396: + x166 + x376 <= 1
C397: + x6 + x415 <= 1
C398: + x127 + x333 <= 1
C399: + x2 + x87 <= 1
C400: + x55 + x408 <= 1
C401: + x50 + x125 <= 1
C402: + x95 + x311 <= 1
C403: + x276 + x454 <= 1
C404: + x25 + x196 <= 1
C405: + x26 + x252 <= 1
C406: + x17 + x161 <= 1
C407: + x19 + x189 <= 1
C408: + x57 + x120 <= 1
C409: + x53 + x274 <= 1
C410: + x17 + x462 <= 1
C411: + x226 + x255 <= 1
C412: + x11 + x451 <= 1
C413: + x2 + x99 <= 1
C414: + x37 + x478 <= 1
C415: + x194 + x278 <= 1
C416: + x279 + x409 <= 1
C417: + x9 + x237 <= 1
C418: + x36 + x110 <= 1
C419: + x11 + x241 <= 1
C420: + x4 + x9 + x14 + x20 <= 1
C421: + x159 + x414 <= 1
C422: + x45 + x230 <= 1
C423: + x54 + x234 <= 1
C424: + x20 + x58 <= 1
C425: + x3 + x471 <= 1
C426: + x181 + x275 <= 1
C427: + x63 + x435 <= 1
C428: + x92 + x202 <= 1
C429: + x30 + x145 <= 1
C430: + x40 + x106 <= 1
C431: + x23 + x164 <= 1
C432: + x25 + x330 <= 1
C433: + x15 + x306 <= 1
C434: + x99 + x286 <= 1
C435: + x113 + x192 <= 1
C436: + x51 + x336 <= 1
C437: + x22 + x322 <= 1
C438: + x25 + x92 <= 1
C439: + x5 + x272 <= 1
C440: + x63 + x201 <= 1
C441: + x13 + x384 <= 1
C442: + x5 + x173 <= 1
C443: + x20 + x31 <= 1
C444: + x1 + x197 <= 1
C445: + x356 + x369 <= 1
C446: + x41 + x60 <= 1
C447: + x4 + x178 <= 1
C448: + x76 + x299 <= 1
C449: + x177 + x390 <= 1
C450: + x6 + x76 <= 1
C451: + x398 + x431 <= 1
C452: + x227 + x256 <= 1
C453: + x84 + x347 <= 1
C454: + x221 + x362 <= 1
C455: + x113 + x414 <= 1
C456: + x175 + x313 <= 1
C457: + x214 + x425 <= 1
C458: + x19 + x199 <= 1
C459: + x2 + x135 <= 1
C460: + x244 + x267 <= 1
C461: + x120 + x360 <= 1
C462: + x94 + x401 <= 1
C463: + x230 + x297 <= 1
C464: + x10 + x35 + x44 <= 1
C465: + x32 + x487 <= 1
C466: + x27 + x476 <= 1
C467: + x338 + x394 <= 1
C468: + x146 + x202 <= 1
C469: + x2 + x339 <= 1
C470: + x120 + x277 <= 1
C471: + x351 + x369 <= 1
C472: + x173 + x478 <= 1
C473: + x57 + x151 <= 1
C474: + x164 + x227 <= 1
C475: + x6 + x274 <= 1
C476: + x36 + x139 <= 1
C477: + x14 + x466 <= 1
C478: + x249 + x419 <= 1
C479: + x3 + x99 <= 1
C480: + x48 + x389 <= 1
C481: + x14 + x53 <= 1
C482: + x27 + x109 <= 1
C483: + x13 + x16 <= 1
C484: + x98 + x132 <= 1
C485: + x159 + x400 <= 1
C486: + x6 + x454 <= 1
C487: + x73 + x440 <= 1
C488: + x37 + x134 <= 1
C489: + x310 + x439 <= 1
C490: + x252 + x340 <= 1
C491: + x81 + x184 <= 1
C492: + x324 + x364 <= 1
C493: + x14 + x390 <= 1
C494: + x1 + x338 <= 1
C495: + x21 + x330 <= 1
C496: + x6 + x156 <= 1
C497: + x1 + x36 <= 1
C498: + x28 + x163 <= 1
C499: + x130 + x415 <= 1
C500: + x4 + x47 <= 1
C501: + x51 + x322 <= 1
C502: + x116 + x361 <= 1
C503: + x44 + x136 <= 1
C504: + x16 + x471 <= 1
C505: + x183 + x440 <= 1
C506: + x47 + x145 <= 1
C507: + x194 + x429 <= 1
C508: + x76 + x159 <= 1
C509: + x113 + x480 <= 1
C510: + x116 + x163 <= 1
C511: + x7 + x409 <= 1
C512: + x12 + x48 <= 1
C513: + x12 + x499 <= 1
C514: + x7 + x70 <= 1
C515: + x29 + x448 <= 1
C516: + x50 + x84 <= 1
C517: + x22 + x123 <= 1
C518: + x30 + x296 <= 1
C519: + x360 + x432 <= 1
C520: + x7 + x231 <= 1
C521: + x100 + x270 <= 1
C522: + x84 + x123 <= 1
C523: + x89 + x112 <= 1
C524: + x5 + x124 <= 1
C525: + x207 + x220 <= 1
C526: + x19 + x350 <= 1
C527: + x57 + x89 <= 1
C528: + x49 + x150 <= 1
C529: + x39 + x153 <= 1
C530: + x176 + x298 <= 1
C531: + x107 + x408 <= 1
C532: + x1 + x158 <= 1
C533: + x140 + x142 <= 1
C534: + x13 + x150 <= 1
C535: + x24 + x446 <= 1
C536: + x7 + x360 <= 1
C537: + x135 + x297 <= 1
C538: + x102 + x145 <= 1
C539: + x123 + x248 <= 1
C540: + x4 + x24 <= 1
C541: + x124 + x275 <= 1
C542: + x125 + x157 <= 1
C543: + x44 + x253 <= 1
C544: + x6 + x499 <= 1
C545: + x339 + x411 <= 1
C546: + x130 + x307 <= 1
C547: + x15 + x65 <= 1
C548: + x79 + x129 <= 1
C549: + x110 + x191 <= 1
C550: + x57 + x439 <= 1
C551: + x28 + x41 <= 1
C552: + x16 + x77 <= 1
C553: + x20 + x412 <= 1
C554: + x25 + x410 <= 1
C555: + x15 + x141 <= 1
C556: + x10 + x31 <= 1
C557: + x11 + x149 <= 1
C558: + x365 + x383 <= 1
C559: + x89 + x119 <= 1
C560: + x43 + x190 <= 1
C561: + x25 + x236 <= 1
C562: + x4 + x323 <= 1
C563: + x15 + x64 <= 1
C564: + x155 + x219 <= 1
C565: + x67 + x73 <= 1
C566: + x38 + x306 <= 1
C567: + x14 + x27 <= 1
C568: + x237 + x486 <= 1
C569: + x4 + x29 <= 1
C570: + x32 + x355 <= 1
C571: + x92 + x416 <= 1
C572: + x3 + x463 <= 1
C573: + x20 + x469 <= 1
C574: + x19 + x119 <= 1
C575: + x16 + x86 <= 1
C576: + x19 + x156 <= 1
C577: + x48 + x130 <= 1
C578: + x187 + x361 <= 1
C579: + x17 + x33 <= 1
C580: + x66 + x221 <= 1
C581: + x113 + x442 <= 1
C582: + x114 + x270 <= 1
C583: + x358 + x450 <= 1
C584: + x176 + x335 <= 1
C585: + x19 + x43 <= 1
C586: + x57 + x394 <= 1
C587: + x12 + x171 <= 1
C588: + x13 + x53 <= 1
C589: + x125 + x274 <= 1
C590: + x22 + x240 <= 1
C591: + x55 + x205 <= 1
C592: + x174 + x282 <= 1
C593: + x21 + x85 <= 1
C594: + x67 + x374 <= 1
C595: + x259 + x405 <= 1
C596: + x133 + x220 <= 1
C597: + x11 + x470 <= 1
C598: + x25 + x429 <= 1
C599: + x6 + x322 <= 1
C600: + x4 + x6 <= 1
C601: + x22 + x180 <= 1
C602: + x9 + x89 <= 1
C603: + x63 + x240 <= 1
C604: + x16 + x46 <= 1
C605: + x20 + x39 <= 1
C606: + x39 + x268 <= 1
C607: + x6 + x8 <= 1
C608: + x44 + x266 <= 1
C609: + x74 + x202 <= 1
C610: + x155 + x317 <= 1
C611: + x2 + x48 <= 1
C612: + x8 + x243 <= 1
C613: + x11 + x83 <= 1
C614: + x84 + x198 <= 1
C615: + x5 + x45 <= 1
C616: + x6 + x187 <= 1
C617: + x428 + x446 <= 1
C618: + x15 + x240 <= 1
C619: + x8 + x18 <= 1
C620: + x16 + x83 <= 1
C621: + x2 + x331 <= 1
C622: + x58 + x406 <= 1
C623: + x4 + x50 <= 1
C624: + x138 + x225 <= 1
C625: + x21 + x282 <= 1
C626: + x4 + x292 <= 1
C627: + x141 + x207 <= 1
C628: + x14 + x89 <= 1
C629: + x7 + x204 <= 1
C630: + x9 + x183 <= 1
C631: + x5 + x81 <= 1
C632: + x159 + x492 <= 1
C633: + x173 + x389 <= 1
C634: + x13 + x131 <= 1
C635: + x69 + x363 <= 1
C636: + x169 + x175 <= 1
C637: + x1 + x16 <= 1
C638: + x164 + x406 <= 1
C639: + x3 + x449 <= 1
C640: + x28 + x457 <= 1
C641: + x13 + x247 <= 1
C642: + x6 + x164 <= 1
C643: + x15 + x247 <= 1
C644: + x72 + x335 <= 1
C645: + x29 + x178 <= 1
C646: + x248 + x497 <= 1
C647: + x51 + x346 <= 1
C648: + x51 + x227 <= 1
C649: + x251 + x443 <= 1
C650: + x5 + x187 <= 1
C651: + x9 + x190 <= 1
C652: + x2 + x253 <= 1
C653: + x15 + x376 <= 1
C654: + x7 + x433 <= 1
C655: + x2 + x288 <= 1
C656: + x3 + x392 <= 1
C657: + x47 + x236 <= 1
C658: + x16 + x387 <= 1
C659: + x1 + x309 <= 1
C660: + x19 + x483 <= 1
C661: + x11 + x17 <= 1
C662: + x103 + x162 <= 1
C663: + x4 + x213 <= 1
C664: + x36 + x105 <= 1
C665: + x124 + x140 <= 1
C666: + x3 + x5 <= 1
C667: + x22 + x468 <= 1
C668: + x20 + x327 <= 1
C669: + x85 + x196 <= 1
C670: + x141 + x366 <= 1
C671: + x5 + x19 <= 1
C672: + x80 + x481 <= 1
C673: + x1 + x83 <= 1
C674: + x19 + x133 <= 1
C675: + x4 + x64 <= 1
C676: + x17 + x22 <= 1
C677: + x109 + x479 <= 1
C678: + x18 + x325 <= 1
C679: + x27 + x83 <= 1
C680: + x12 + x210 <= 1
C681: + x21 + x141 <= 1
C682: + x34 + x378 <= 1
C683: + x253 + x273 <= 1
C684: + x16 + x117 <= 1
C685: + x65 + x431 <= 1
C686: + x47 + x243 <= 1
C687: + x32 + x434 <= 1
C688: + x207 + x348 <= 1
C689: + x335 + x397 <= 1
C690: + x1 + x268 <= 1
C691: + x174 + x424 <= 1
C692: + x11 + x28 <= 1
C693: + x55 + x115 <= 1
C694: + x147 + x244 <= 1
C695: + x79 + x117 <= 1
C696: + x85 + x348 <= 1
C697: + x23 + x378 <= 1
C698: + x9 + x78 <= 1
C699: + x118 + x123 <= 1
C700: + x38 + x108 <= 1
C701: + x47 + x372 <= 1
C702: + x264 + x461 <= 1
C703: + x94 + x404 <= 1
C704: + x11 + x80 <= 1
C705: + x44 + x111 <= 1
C706: + x80 + x490 <= 1
C707: + x1 + x42 <= 1
C708: + x304 + x465 <= 1
C709: + x150 + x377 <= 1
C710: + x7 + x20 <= 1
C711: + x19 + x289 <= 1
C712: + x63 + x205 <= 1
C713: + x32 + x42 <= 1
C714: + x215 + x343 <= 1
C715: + x7 + x258 <= 1
C716: + x8 + x142 <= 1
C717: + x102 + x243 <= 1
C718: + x75 + x116 <= 1
C719: + x133 + x462 <= 1
C720: + x96 + x476 <= 1
C721: + x16 + x126 <= 1
C722: + x29 + x92 <= 1
C723: + x21 + x105 <= 1
C724: + x50 + x312 <= 1
C725: + x17 + x57 <= 1
C726: + x105 + x271 <= 1
C727: + x5 + x221 <= 1
C728: + x6 + x235 <= 1
C729: + x72 + x258 <= 1
C730: + x197 + x306 <= 1
C731: + x322 + x425 <= 1
C732: + x20 + x67 <= 1
C733: + x232 + x256 <= 1
C734: + x14 + x393 <= 1
C735: + x142 + x212 <= 1
C736: + x107 + x418 <= 1
C737: + x146 + x206 <= 1
C738: + x6 + x124 <= 1
C739: + x47 + x472 <= 1
C740: + x25 + x341 <= 1
C741: + x26 + x190 <= 1
C742: + x27 + x54 <= 1
C743: + x21 + x36 <= 1
C744: + x59 + x290 <= 1
C745: + x276 + x359 <= 1
C746: + x87 + x397 <= 1
C747: + x109 + x461 <= 1
C748: + x19 + x284 <= 1
C749: + x3 + x482 <= 1
C750: + x155 + x388 <= 1
C751: + x137 + x211 <= 1
C752: + x8 + x320 <= 1
C753: + x79 + x393 <= 1
C754: + x242 + x489 <= 1
C755: + x340 + x426 <= 1
C756: + x4 + x429 <= 1
C757: + x7 + x71 <= 1
C758: + x435 + x443 <= 1
C759: + x16 + x236 <= 1
C760: + x92 + x171 <= 1
C761: + x124 + x159 <= 1
C762: + x14 + x148 <= 1
C763: + x32 + x250 <= 1
C764: + x24 + x124 <= 1
C765: + x17 + x79 <= 1
C766: + x36 + x251 <= 1
C767: + x120 + x377 <= 1
C768: + x125 + x257 <= 1
C769: + x15 + x405 <= 1
C770: + x21 + x497 <= 1
C771: + x51 + x56 <= 1
C772: + x40 + x437 <= 1
C773: + x96 + x300 <= 1
C774: + x9 + x473 <= 1
C775: + x92 + x220 <= 1
C776: + x48 + x469 <= 1
C777: + x69 + x371 <= 1
C778: + x217 + x412 <= 1
C779: + x15 + x211 <= 1
C780: + x126 + x384 <= 1
C781: + x11 + x211 <= 1
C782: + x383 + x407 <= 1
C783: + x68 + x288 <= 1
C784: + x13 + x128 <= 1
C785: + x21 + x43 <= 1
C786: + x40 + x255 <= 1
C787: + x19 + x275 <= 1
C788: + x1 + x453 <= 1
C789: + x3 + x38 <= 1
C790: + x20 + x459 <= 1
C791: + x5 + x159 <= 1
C792: + x62 + x92 <= 1
C793: + x65 + x279 <= 1
C794: + x137 + x367 <= 1
C795: + x37 + x58 <= 1
C796: + x357 + x452 <= 1
C797: + x152 + x174 <= 1
C798: + x7 + x304 <= 1
C799: + x19 + x53 <= 1
C800: + x8 + x184 <= 1
C801: + x130 + x480 <= 1
C802: + x222 + x391 <= 1
C803: + x29 + x217 <= 1
C804: + x86 + x367 <= 1
C805: + x26 + x31 <= 1
C806: + x124 + x152 <= 1
C807: + x160 + x265 <= 1
C808: + x16 + x24 <= 1
C809: + x48 + x383 <= 1
C810: + x16 + x427 <= 1
C811: + x255 + x343 <= 1
C812: + x2 + x6 <= 1
C813: + x134 + x407 <= 1
C814: + x174 + x181 <= 1
C815: + x460 + x500 <= 1
C816: + x17 + x114 <= 1
C817: + x73 + x111 <= 1
C818: + x38 + x75 <= 1
C819: + x52 + x337 <= 1
C820: + x6 + x18 <= 1
C821: + x99 + x105 <= 1
C822: + x10 + x388 <= 1
C823: + x10 + x87 <= 1
C824: + x102 + x238 <= 1
C825: + x231 + x447 <= 1
C826: + x9 + x62 <= 1
C827: + x187 + x366 <= 1
C828: + x99 + x476 <= 1
C829: + x216 + x217 <= 1
C830: + x93 + x345 <= 1
C831: + x57 + x298 <= 1
C832: + x96 + x137 <= 1
C833: + x6 + x198 <= 1
C834: + x109 + x225 <= 1
C835: + x174 + x250 <= 1
C836: + x60 + x493 <= 1
C837: + x214 + x291 <= 1
C838: + x34 + x133 <= 1
C839: + x17 + x189 <= 1
C840: + x326 + x463 <= 1
C841: + x249 + x292 <= 1
C842: + x202 + x241 <= 1
C843: + x20 + x90 <= 1
C844: + x77 + x402 <= 1
C845: + x176 + x307 <= 1
C846: + x14 + x436 <= 1
C847: + x131 + x173 <= 1
C848: + x149 + x458 <= 1
C849: + x128 + x415 <= 1
C850: + x6 + x87 <= 1
C851: + x84 + x245 <= 1
C852: + x148 + x236 <= 1
C853: + x136 + x265 <= 1
C854: + x24 + x308 <= 1
C855: + x118 + x208 <= 1
C856: + x236 + x466 <= 1
C857: + x12 + x102 <= 1
C858: + x21 + x57 <= 1
C859: + x124 + x304 <= 1
C860: + x222 + x340 <= 1
C861: + x15 + x435 <= 1
C862: + x6 + x488 <= 1
C863: + x11 + x442 <= 1
C864: + x56 + x373 <= 1
C865: + x4 + x371 <= 1
C866: + x63 + x70 <= 1
C867: + x147 + x192 <= 1
C868: + x287 + x488 <= 1
C869: + x133 + x418 <= 1
C870: + x81 + x456 <= 1
C871: + x9 + x37 <= 1
C872: + x54 + x271 <= 1
C873: + x25 + x72 <= 1
C874: + x72 + x252 <= 1
C875: + x102 + x104 <= 1
C876: + x288 + x397 <= 1
C877: + x208 + x460 <= 1
C878: + x202 + x287 <= 1
C879: + x178 + x248 <= 1
C880: + x9 + x17 <= 1
C881: + x72 + x137 <= 1
C882: + x3 + x434 <= 1
C883: + x21 + x81 <= 1
C884: + x207 + x331 <= 1
C885: + x110 + x302 <= 1
C886: + x6 + x334 <= 1
C887: + x160 + x400 <= 1
C888: + x8 + x90 <= 1
C889: + x15 + x438 <= 1
C890: + x25 + x480 <= 1
C891: + x63 + x386 <= 1
C892: + x374 + x496 <= 1
C893: + x19 + x110 <= 1
C894: + x116 + x190 <= 1
C895: + x117 + x227 <= 1
C896: + x27 + x222 <= 1
C897: + x166 + x334 <= 1
C898: + x48 + x139 <= 1
C899: + x124 + x206 <= 1
C900: + x62 + x216 <= 1
C901: + x119 + x296 <= 1
C902: + x156 + x159 <= 1
C903: + x169 + x359 <= 1
C904: + x28 + x119 <= 1
C905: + x434 + x436 <= 1
C906: + x153 + x307 <= 1
C907: + x119 + x343 <= 1
C908: + x3 + x393 <= 1
C909: + x167 + x416 <= 1
C910: + x25 + x27 <= 1
C911: + x7 + x95 <= 1
C912: + x337 + x477 <= 1
C913: + x40 + x64 <= 1
C914: + x87 + x158 <= 1
C915: + x16 + x148 <= 1
C916: + x13 + x100 <= 1
C917: + x22 + x185 <= 1
C918: + x22 + x372 <= 1
C919: + x5 + x478 <= 1
C920: + x9 + x68 <= 1
C921: + x3 + x10 <= 1
C922: + x123 + x283 <= 1
C923: + x78 + x143 <= 1
C924: + x4 + x353 <= 1
C925: + x6 + x13 <= 1
C926: + x273 + x483 <= 1
C927: + x380 + x427 <= 1
C928: + x25 + x324 <= 1
C929: + x6 + x379 <= 1
C930: + x63 + x358 <= 1
C931: + x20 + x161 <= 1
C932: + x40 + x215 <= 1
C933: + x104 + x478 <= 1
C934: + x73 + x80 <= 1
C935: + x8 + x426 <= 1
C936: + x66 + x163 <= 1
C937: + x11 + x41 <= 1
C938: + x18 + x421 <= 1
C939: + x58 + x177 <= 1
C940: + x95 + x155 <= 1
C941: + x348 + x411 <= 1
C942: + x23 + x25 <= 1
C943: + x73 + x173 <= 1
C944: + x4 + x76 <= 1
C945: + x6 + x303 <= 1
C946: + x475 + x479 <= 1
C947: + x20 + x109 <= 1
C948: + x124 + x326 <= 1
C949: + x89 + x290 <= 1
C950: + x22 + x268 <= 1
C951: + x13 + x182 <= 1
C952: + x38 + x140 <= 1
C953: + x30 + x255 <= 1
C954: + x21 + x214 <= 1
C955: + x22 + x194 <= 1
C956: + x115 + x358 <= 1
C957: + x22 + x381 <= 1
C958: + x155 + x490 <= 1
C959: + x165 + x273 <= 1
C960: + x115 + x455 <= 1
C961: + x3 + x166 <= 1
C962: + x269 + x311 <= 1
C963: + x25 + x331 <= 1
C964: + x134 + x447 <= 1
C965: + x21 + x26 <= 1
C966: + x68 + x301 <= 1
C967: + x25 + x93 <= 1
C968: + x19 + x294 <= 1
C969: + x85 + x386 <= 1
C970: + x124 + x494 <= 1
C971: + x32 + x45 <= 1
C972: + x22 + x420 <= 1
C973: + x5 + x174 <= 1
C974: + x16 + x222 <= 1
C975: + x1 + x198 <= 1
C976: + x6 + x58 <= 1
C977: + x76 + x79 <= 1
C978: + x140 + x342 <= 1
C979: + x25 + x279 <= 1
C980: + x25 + x204 <= 1
C981: + x190 + x219 <= 1
C982: + x7 + x432 <= 1
C983: + x44 + x325 <= 1
C984: + x6 + x238 <= 1
C985: + x80 + x107 <= 1
C986: + x16 + x299 <= 1
C987: + x181 + x364 <= 1
C988: + x11 + x249 <= 1
C989: + x46 + x274 <= 1
C990: + x380 + x460 <= 1
C991: + x243 + x426 <= 1
C992: + x18 + x91 <= 1
C993: + x14 + x396 <= 1
C994: + x7 + x133 <= 1
C995: + x94 + x254 <= 1
C996: + x86 + x193 <= 1
C997: + x6 + x146 <= 1
C998: + x73 + x257 <= 1
C999: + x4 + x41 <= 1
C1000: + x72 + x224 <= 1
C1001: + x11 + x386 <= 1
C1002: + x28 + x94 <= 1
C1003: + x86 + x277 <= 1
C1004: + x89 + x94 <= 1
C1005: + x306 + x490 <= 1
C1006: + x9 + x13 <= 1
C1007: + x472 + x477 <= 1
C1008: + x12 + x42 <= 1
C1009: + x115 + x261 <= 1
C1010: + x179 + x402 <= 1
C1011: + x244 + x358 <= 1
C1012: + x54 + x74 <= 1
C1013: + x28 + x392 <= 1
C1014: + x11 + x15 <= 1
C1015: + x203 + x284 <= 1
C1016: + x84 + x154 <= 1
C1017: + x6 + x215 <= 1
C1018: + x15 + x132 <= 1
C1019: + x4 + x102 <= 1
C1020: + x6 + x453 <= 1
C1021: + x85 + x121 <= 1
C1022: + x7 + x128 <= 1
C1023: + x63 + x105 <= 1
C1024: + x146 + x277 <= 1
C1025: + x3 + x184 <= 1
C1026: + x105 + x319 <= 1
C1027: + x185 + x282 <= 1
C1028: + x5 + x13 <= 1
C1029: + x417 + x422 <= 1
C1030: + x189 + x354 <= 1
C1031: + x82 + x301 <= 1
C1032: + x8 + x114 <= 1
C1033: + x4 + x485 <= 1
C1034: + x80 + x146 <= 1
C1035: + x21 + x314 <= 1
C1036: + x184 + x337 <= 1
C1037: + x278 + x353 <= 1
C1038: + x83 + x249 <= 1
C1039: + x101 + x339 <= 1
C1040: + x4 + x191 <= 1
C1041: + x107 + x336 <= 1
C1042: + x54 + x320 <= 1
C1043: + x41 + x200 <= 1
C1044: + x17 + x52 <= 1
C1045: + x128 + x417 <= 1
C1046: + x26 + x268 <= 1
C1047: + x36 + x461 <= 1
C1048: + x2 + x152 <= 1
C1049: + x166 + x295 <= 1
C1050: + x149 + x355 <= 1
C1051: + x14 + x144 <= 1
C1052: + x5 + x434 <= 1
C1053: + x8 + x474 <= 1
C1054: + x230 + x346 <= 1
C1055: + x231 + x346 <= 1
C1056: + x306 + x314 <= 1
C1057: + x44 + x367 <= 1
C1058: + x189 + x412 <= 1
C1059: + x15 + x54 <= 1
C1060: + x65 + x351 <= 1
C1061: + x415 + x486 <= 1
C1062: + x103 + x187 <= 1
C1063: + x51 + x405 <= 1
C1064: + x5 + x12 <= 1
C1065: + x16 + x188 <= 1
C1066: + x459 + x485 <= 1
C1067: + x9 + x428 <= 1
C1068: + x156 + x269 <= 1
C1069: + x59 + x195 <= 1
C1070: + x23 + x37 <= 1
C1071: + x6 + x21 <= 1
C1072: + x74 + x223 <= 1
C1073: + x193 + x352 <= 1
C1074: + x370 + x462 <= 1
C1075: + x13 + x203 <= 1
C1076: + x32 + x191 <= 1
C1077: + x11 + x259 <= 1
C1078: + x138 + x456 <= 1
C1079: + x12 + x40 <= 1
C1080: + x163 + x458 <= 1
C1081: + x7 + x62 <= 1
C1082: + x229 + x230 <= 1
C1083: + x12 + x330 <= 1
C1084: + x4 + x309 <= 1
C1085: + x141 + x218 <= 1
C1086: + x99 + x162 <= 1
C1087: + x279 + x422 <= 1
C1088: + x172 + x225 <= 1
C1089: + x28 + x104 <= 1
C1090: + x308 + x377 <= 1
C1091: + x38 + x176 <= 1
C1092: + x13 + x63 <= 1
C1093: + x5 + x100 <= 1
C1094: + x6 + x311 <= 1
C1095: + x29 + x122 <= 1
C1096: + x204 + x212 <= 1
C1097: + x342 + x495 <= 1
C1098: + x81 + x167 <= 1
C1099: + x5 + x6 + x7 + x11 <= 1
C1100: + x54 + x112 <= 1
C1101: + x32 + x116 <= 1
C1102: + x125 + x395 <= 1
C1103: + x44 + x74 <= 1
C1104: + x28 + x180 <= 1
C1105: + x11 + x218 <= 1
C1106: + x4 + x32 <= 1
C1107: + x22 + x357 <= 1
C1108: + x13 + x115 <= 1
C1109: + x176 + x423 <= 1
C1110: + x73 + x403 <= 1
C1111: + x28 + x351 <= 1
C1112: + x130 + x267 <= 1
C1113: + x58 + x214 <= 1
C1114: + x48 + x335 <= 1
C1115: + x3 + x464 <= 1
C1116: + x99 + x101 <= 1
C1117: + x271 + x446 <= 1
C1118: + x104 + x129 <= 1
C1119: + x153 + x285 <= 1
C1120: + x30 + x43 <= 1
C1121: + x5 + x273 <= 1
C1122: + x17 + x34 <= 1
C1123: + x44 + x161 <= 1
C1124: + x109 + x221 <= 1
C1125: + x174 + x246 <= 1
C1126: + x105 + x133 <= 1
C1127: + x43 + x166 <= 1
C1128: + x9 + x110 <= 1
C1129: + x95 + x210 <= 1
C1130: + x32 + x121 <= 1
C1131: + x417 + x459 <= 1
C1132: + x15 + x278 <= 1
C1133: + x44 + x79 <= 1
C1134: + x1 + x10 <= 1
C1135: + x58 + x457 <= 1
C1136: + x4 + x5 <= 1
C1137: + x97 + x126 <= 1
C1138: + x4 + x375 <= 1
C1139: + x159 + x207 <= 1
C1140: + x279 + x380 <= 1
C1141: + x20 + x316 <= 1
C1142: + x5 + x46 <= 1
C1143: + x16 + x94 <= 1
C1144: + x36 + x170 <= 1
C1145: + x115 + x160 <= 1
C1146: + x42 + x307 <= 1
C1147: + x25 + x76 <= 1
C1148: + x259 + x345 <= 1
C1149: + x1 + x483 <= 1
C1150: + x7 + x286 <= 1
C1151: + x122 + x326 <= 1
C1152: + x86 + x381 <= 1
C1153: + x13 + x45 <= 1
C1154: + x19 + x328 <= 1
C1155: + x26 + x400 <= 1
C1156: + x36 + x369 <= 1
C1157: + x101 + x259 <= 1
C1158: + x23 + x84 + x86 <= 1
C1159: + x25 + x437 <= 1
C1160: + x26 + x299 <= 1
C1161: + x108 + x264 <= 1
C1162: + x41 + x120 <= 1
C1163: + x59 + x450 <= 1
C1164: + x124 + x246 <= 1
C1165: + x16 + x54 <= 1
C1166: + x20 + x47 <= 1
C1167: + x3 + x11 <= 1
C1168: + x59 + x224 <= 1
C1169: + x17 + x385 <= 1
C1170: + x6 + x16 <= 1
C1171: + x7 + x152 <= 1
C1172: + x209 + x321 <= 1
C1173: + x262 + x475 <= 1
C1174: + x38 + x279 <= 1
C1175: + x138 + x160 <= 1
C1176: + x169 + x220 <= 1
C1177: + x5 + x21 <= 1
C1178: + x161 + x233 <= 1
C1179: + x126 + x134 <= 1
C1180: + x22 + x315 <= 1
C1181: + x34 + x58 <= 1
C1182: + x17 + x32 <= 1
C1183: + x79 + x262 <= 1
C1184: + x229 + x304 <= 1
C1185: + x367 + x424 <= 1
C1186: + x207 + x295 <= 1
C1187: + x73 + x170 <= 1
C1188: + x206 + x372 <= 1
C1189: + x44 + x48 <= 1
C1190: + x89 + x115 + x154 <= 1
C1191: + x38 + x62 <= 1
C1192: + x349 + x441 <= 1
C1193: + x15 + x18 <= 1
C1194: + x11 + x18 <= 1
C1195: + x97 + x175 <= 1
C1196: + x15 + x179 <= 1
C1197: + x26 + x308 <= 1
C1198: + x45 + x71 <= 1
C1199: + x246 + x393 <= 1
C1200: + x62 + x438 <= 1
C1201: + x192 + x205 <= 1
C1202: + x21 + x203 <= 1
C1203: + x294 + x474 <= 1
C1204: + x30 + x226 <= 1
C1205: + x13 + x32 <= 1
C1206: + x27 + x178 <= 1
C1207: + x65 + x101 <= 1
C1208: + x11 + x344 <= 1
C1209: + x67 + x281 <= 1
C1210: + x157 + x411 <= 1
C1211: + x130 + x193 <= 1
C1212: + x59 + x231 <= 1
C1213: + x414 + x486 <= 1
C1214: + x6 + x9 <= 1
C1215: + x21 + x186 <= 1
C1216: + x6 + x172 <= 1
C1217: + x7 + x381 <= 1
C1218: + x16 + x164 <= 1
C1219: + x17 + x23 <= 1
C1220: + x26 + x78 <= 1
C1221: + x7 + x26 <= 1
C1222: + x64 + x217 <= 1
C1223: + x49 + x219 <= 1
C1224: + x22 + x423 <= 1
C1225: + x96 + x228 <= 1
C1226: + x174 + x225 <= 1
C1227: + x151 + x472 <= 1
C1228: + x1 + x112 <= 1
C1229: + x8 + x59 <= 1
C1230: + x38 + x39 <= 1
C1231: + x21 + x99 <= 1
C1232: + x130 + x347 <= 1
C1233: + x59 + x353 <= 1
C1234: + x58 + x73 + x425 <= 1
C1235: + x11 + x25 <= 1
C1236: + x57 + x271 <= 1
C1237: + x221 + x368 <= 1
C1238: + x232 + x369 <= 1
C1239: + x368 + x489 <= 1
C1240: + x90 + x245 <= 1
C1241: + x17 + x368 <= 1
C1242: + x27 + x104 <= 1
C1243: + x146 + x398 <= 1
C1244: + x2 + x129 <= 1
C1245: + x129 + x452 <= 1
C1246: + x66 + x449 <= 1
C1247: + x25 + x149 <= 1
C1248: + x244 + x265 <= 1
C1249: + x71 + x293 <= 1
C1250: + x19 + x366 <= 1
C1251: + x38 + x107 <= 1
C1252: + x14 + x399 <= 1
C1253: + x288 + x308 <= 1
C1254: + x65 + x334 <= 1
C1255: + x358 + x404 <= 1
C1256: + x6 + x149 <= 1
C1257: + x28 + x172 <= 1
C1258: + x1 + x43 <= 1
C1259: + x38 + x252 <= 1
C1260: + x124 + x224 <= 1
C1261: + x379 + x401 <= 1
C1262: + x42 + x249 <= 1
C1263: + x407 + x417 <= 1
C1264: + x21 + x312 <= 1
C1265: + x12 + x363 <= 1
C1266: + x73 + x216 <= 1
C1267: + x280 + x445 <= 1
C1268: + x9 + x10 <= 1
C1269: + x154 + x443 <= 1
C1270: + x11 + x278 <= 1
C1271: + x14 + x468 <= 1
C1272: + x164 + x315 <= 1
C1273: + x129 + x318 <= 1
C1274: + x220 + x381 <= 1
C1275: + x13 + x169 <= 1
C1276: + x198 + x298 <= 1
C1277: + x18 + x180 <= 1
C1278: + x254 + x264 <= 1
C1279: + x256 + x475 <= 1
C1280: + x47 + x199 <= 1
C1281: + x25 + x57 <= 1
C1282: + x44 + x404 <= 1
C1283: + x9 + x197 <= 1
C1284: + x21 + x45 <= 1
C1285: + x25 + x168 <= 1
C1286: + x16 + x469 <= 1
C1287: + x212 + x261 <= 1
C1288: + x155 + x294 <= 1
C1289: + x33 + x389 <= 1
C1290: + x32 + x181 <= 1
C1291: + x61 + x398 <= 1
C1292: + x17 + x148 <= 1
C1293: + x11 + x285 <= 1
C1294: + x4 + x432 <= 1
C1295: + x17 + x49 <= 1
C1296: + x28 + x110 <= 1
C1297: + x85 + x363 <= 1
C1298: + x5 + x122 <= 1
C1299: + x231 + x240 <= 1
C1300: + x41 + x326 <= 1
C1301: + x32 + x491 <= 1
C1302: + x53 + x305 <= 1
C1303: + x4 + x348 <= 1
C1304: + x128 + x492 <= 1
C1305: + x204 + x365 <= 1
C1306: + x6 + x100 <= 1
C1307: + x9 + x474 <= 1
C1308: + x10 + x97 <= 1
C1309: + x11 + x127 <= 1
C1310: + x5 + x9 <= 1
C1311: + x210 + x457 <= 1
C1312: + x6 + x338 <= 1
C1313: + x158 + x254 <= 1
C1314: + x10 + x196 <= 1
C1315: + x92 + x122 <= 1
C1316: + x285 + x324 <= 1
C1317: + x50 + x373 <= 1
C1318: + x38 + x238 <= 1
C1319: + x150 + x394 <= 1
C1320: + x26 + x33 <= 1
C1321: + x57 + x163 <= 1
C1322: + x139 + x155 <= 1
C1323: + x267 + x344 <= 1
C1324: + x6 + x24 <= 1
C1325: + x38 + x383 <= 1
C1326: + x43 + x140 <= 1
C1327: + x46 + x239 <= 1
C1328: + x157 + x299 <= 1
C1329: + x21 + x128 <= 1
C1330: + x156 + x441 <= 1
C1331: + x22 + x291 <= 1
C1332: + x169 + x470 <= 1
C1333: + x73 + x85 <= 1
C1334: + x265 + x436 <= 1
C1335: + x32 + x67 <= 1
C1336: + x109 + x235 <= 1
C1337: + x74 + x345 <= 1
C1338: + x118 + x178 <= 1
C1339: + x173 + x248 <= 1
C1340: + x228 + x283 <= 1
C1341: + x205 + x324 <= 1
C1342: + x60 + x471 <= 1
C1343: + x16 + x23 <= 1
C1344: + x131 + x362 <= 1
C1345: + x89 + x327 <= 1
C1346: + x17 + x484 <= 1
C1347: + x28 + x429 <= 1
C1348: + x2 + x5 <= 1
C1349: + x67 + x75 <= 1
C1350: + x10 + x197 <= 1
C1351: + x69 + x85 <= 1
C1352: + x151 + x257 <= 1
C1353: + x29 + x51 <= 1
C1354: + x58 + x209 <= 1
C1355: + x13 + x354 <= 1
C1356: + x25 + x467 <= 1
C1357: + x6 + x17 <= 1
C1358: + x145 + x229 <= 1
C1359: + x17 + x317 <= 1
C1360: + x123 + x197 <= 1
C1361: + x61 + x174 <= 1
C1362: + x26 + x118 <= 1
C1363: + x200 + x382 <= 1
C1364: + x11 + x61 <= 1
C1365: + x66 + x258 <= 1
C1366: + x14 + x34 <= 1
C1367: + x48 + x117 <= 1
C1368: + x124 + x176 <= 1
C1369: + x25 + x316 <= 1
C1370: + x18 + x66 <= 1
C1371: + x28 + x263 <= 1
C1372: + x130 + x371 <= 1
C1373: + x28 + x422 <= 1
C1374: + x156 + x361 <= 1
C1375: + x11 + x97 <= 1
C1376: + x408 + x450 <= 1
C1377: + x50 + x60 <= 1
C1378: + x158 + x208 <= 1
C1379: + x30 + x336 <= 1
C1380: + x90 + x157 <= 1
C1381: + x244 + x406 <= 1
C1382: + x113 + x209 <= 1
C1383: + x60 + x444 <= 1
C1384: + x4 + x471 <= 1
C1385: + x252 + x470 <= 1
C1386: + x24 + x93 <= 1
C1387: + x18 + x126 <= 1
C1388: + x63 + x75 <= 1
C1389: + x28 + x498 <= 1
C1390: + x11 + x85 <= 1
C1391: + x3 + x218 <= 1
C1392: + x59 + x427 <= 1
C1393: + x14 + x202 <= 1
C1394: + x9 + x38 <= 1
C1395: + x45 + x138 <= 1
C1396: + x83 + x122 <= 1
C1397: + x63 + x214 <= 1
C1398: + x84 + x382 <= 1
C1399: + x14 + x91 <= 1
C1400: + x425 + x438 <= 1
C1401: + x6 + x206 <= 1
C1402: + x7 + x214 <= 1
C1403: + x63 + x460 <= 1
C1404: + x274 + x310 <= 1
C1405: + x5 + x87 <= 1
C1406: + x150 + x465 <= 1
C1407: + x7 + x444 <= 1
C1408: + x18 + x59 <= 1
C1409: + x46 + x149 <= 1
C1410: + x58 + x356 <= 1
C1411: + x21 + x82 <= 1
C1412: + x35 + x360 <= 1
C1413: + x6 + x95 <= 1
C1414: + x328 + x374 <= 1
C1415: + x153 + x348 <= 1
C1416: + x45 + x77 <= 1
C1417: + x121 + x283 <= 1
C1418: + x48 + x66 <= 1
C1419: + x13 + x102 <= 1
C1420: + x298 + x364 <= 1
C1421: + x6 + x496 <= 1
C1422: + x102 + x481 <= 1
C1423: + x58 + x227 <= 1
C1424: + x50 + x142 <= 1
C1425: + x4 + x379 <= 1
C1426: + x413 + x488 <= 1
C1427: + x28 + x62 <= 1
C1428: + x354 + x410 <= 1
C1429: + x44 + x127 <= 1
C1430: + x8 + x13 <= 1
C1431: + x191 + x228 <= 1
C1432: + x121 + x231 <= 1
C1433: + x97 + x499 <= 1
C1434: + x18 + x419 <= 1
C1435: + x129 + x273 <= 1
C1436: + x15 + x100 <= 1
C1437: + x9 + x188 <= 1
C1438: + x102 + x195 <= 1
C1439: + x85 + x143 <= 1
C1440: + x86 + x377 <= 1
C1441: + x90 + x305 <= 1
C1442: + x85 + x484 <= 1
C1443: + x115 + x281 <= 1
C1444: + x5 + x336 <= 1
C1445: + x6 + x72 <= 1
C1446: + x57 + x208 <= 1
C1447: + x46 + x49 <= 1
C1448: + x38 + x303 <= 1
C1449: + x319 + x350 <= 1
C1450: + x5 + x237 <= 1
C1451: + x99 + x132 <= 1
C1452: + x82 + x186 <= 1
C1453: + x7 + x249 <= 1
C1454: + x28 + x134 <= 1
C1455: + x265 + x370 <= 1
C1456: + x139 + x385 <= 1
C1457: + x80 + x467 <= 1
C1458: + x52 + x314 <= 1
C1459: + x1 + x5 <= 1
C1460: + x40 + x158 <= 1
C1461: + x38 + x101 <= 1
C1462: + x3 + x7 <= 1
C1463: + x85 + x109 <= 1
C1464: + x266 + x380 <= 1
C1465: + x6 + x12 <= 1
C1466: + x83 + x217 <= 1
C1467: + x28 + x51 <= 1
C1468: + x375 + x496 <= 1
C1469: + x104 + x179 <= 1
C1470: + x6 + x175 <= 1
C1471: + x51 + x160 <= 1
C1472: + x2 + x482 <= 1
C1473: + x11 + x42 <= 1
C1474: + x104 + x260 <= 1
C1475: + x5 + x168 <= 1
C1476: + x6 + x64 <= 1
C1477: + x7 + x200 <= 1
C1478: + x118 + x347 <= 1
C1479: + x272 + x378 <= 1
C1480: + x56 + x445 <= 1
C1481: + x23 + x251 <= 1
C1482: + x171 + x365 <= 1
C1483: + x142 + x390 <= 1
C1484: + x219 + x355 <= 1
C1485: + x11 + x30 <= 1
C1486: + x185 + x449 <= 1
C1487: + x40 + x56 <= 1
C1488: + x106 + x154 <= 1
C1489: + x16 + x301 <= 1
C1490: + x28 + x155 <= 1
C1491: + x47 + x96 <= 1
C1492: + x58 + x479 <= 1
C1493: + x13 + x28 <= 1
C1494: + x22 + x193 <= 1
C1495: + x5 + x454 <= 1
C1496: + x6 + x466 <= 1
C1497: + x139 + x186 <= 1
C1498: + x105 + x405 <= 1
C1499: + x120 + x123 <= 1
C1500: + x103 + x151 <= 1
C1501: + x86 + x199 <= 1
C1502: + x2 + x61 <= 1
C1503: + x52 + x459 <= 1
C1504: + x15 + x195 <= 1
C1505: + x186 + x387 <= 1
C1506: + x40 + x108 <= 1
C1507: + x183 + x287 <= 1
C1508: + x11 + x291 <= 1
C1509: + x158 + x434 <= 1
C1510: + x81 + x331 <= 1
C1511: + x250 + x454 <= 1
C1512: + x38 + x82 <= 1
C1513: + x3 + x489 <= 1
C1514: + x73 + x213 <= 1
C1515: + x292 + x435 <= 1
C1516: + x51 + x477 <= 1
C1517: + x23 + x254 <= 1
C1518: + x79 + x388 <= 1
C1519: + x36 + x136 <= 1
C1520: + x8 + x55 <= 1
C1521: + x10 + x153 <= 1
C1522: + x29 + x90 <= 1
C1523: + x41 + x219 <= 1
C1524: + x25 + x106 <= 1
C1525: + x26 + x414 <= 1
C1526: + x118 + x469 <= 1
C1527: + x113 + x416 <= 1
C1528: + x47 + x262 <= 1
C1529: + x97 + x186 <= 1
C1530: + x99 + x150 <= 1
C1531: + x26 + x313 <= 1
C1532: + x308 + x357 <= 1
C1533: + x286 + x290 <= 1
C1534: + x32 + x247 <= 1
C1535: + x10 + x325 <= 1
C1536: + x84 + x462 <= 1
C1537: + x12 + x435 <= 1
C1538: + x25 + x54 <= 1
C1539: + x6 + x126 <= 1
C1540: + x149 + x205 <= 1
C1541: + x26 + x325 <= 1
C1542: + x189 + x364 <= 1
C1543: + x27 + x56 <= 1
C1544: + x11 + x302 <= 1
C1545: + x124 + x263 <= 1
C1546: + x5 + x497 <= 1
C1547: + x6 + x399 <= 1
C1548: + x1 + x460 <= 1
C1549: + x38 + x91 <= 1
C1550: + x212 + x260 <= 1
C1551: + x20 + x452 <= 1
C1552: + x52 + x321 <= 1
C1553: + x6 + x34 <= 1
C1554: + x62 + x69 <= 1
C1555: + x10 + x39 <= 1
C1556: + x75 + x125 <= 1
C1557: + x3 + x242 <= 1
C1558: + x28 + x93 <= 1
C1559: + x50 + x464 <= 1
C1560: + x125 + x256 <= 1
C1561: + x22 + x285 <= 1
C1562: + x7 + x65 <= 1
C1563: + x11 + x16 <= 1
C1564: + x7 + x238 <= 1
C1565: + x21 + x229 <= 1
C1566: + x179 + x213 <= 1
C1567: + x17 + x77 <= 1
C1568: + x339 + x366 <= 1
C1569: + x138 + x385 <= 1
C1570: + x121 + x173 + x204 <= 1
C1571: + x12 + x428 <= 1
C1572: + x4 + x343 <= 1
C1573: + x28 + x467 <= 1
C1574: + x2 + x15 <= 1
C1575: + x58 + x90 <= 1
C1576: + x177 + x344 <= 1
C1577: + x106 + x184 <= 1
C1578: + x147 + x156 <= 1
C1579: + x38 + x270 <= 1
C1580: + x15 + x258 <= 1
C1581: + x19 + x244 <= 1
C1582: + x28 + x165 <= 1
C1583: + x20 + x183 <= 1
C1584: + x222 + x324 <= 1
C1585: + x22 + x167 <= 1
C1586: + x17 + x121 <= 1
C1587: + x35 + x207 <= 1
C1588: + x128 + x384 <= 1
C1589: + x56 + x357 <= 1
C1590: + x89 + x137 <= 1
C1591: + x63 + x86 <= 1
C1592: + x8 + x130 <= 1
C1593: + x43 + x141 <= 1
C1594: + x179 + x293 <= 1
C1595: + x63 + x332 <= 1
C1596: + x135 + x356 <= 1
C1597: + x194 + x233 <= 1
C1598: + x39 + x376 <= 1
C1599: + x44 + x182 <= 1
C1600: + x9 + x402 <= 1
C1601: + x8 + x332 <= 1
C1602: + x165 + x448 <= 1
C1603: + x99 + x451 <= 1
C1604: + x11 + x55 <= 1
C1605: + x120 + x455 <= 1
C1606: + x5 + x193 <= 1
C1607: + x15 + x140 <= 1
C1608: + x16 + x247 <= 1
C1609: + x28 + x98 <= 1
C1610: + x37 + x298 <= 1
C1611: + x89 + x114 <= 1
C1612: + x107 + x168 <= 1
C1613: + x235 + x334 <= 1
C1614: + x16 + x22 <= 1
C1615: + x20 + x79 <= 1
C1616: + x14 + x445 <= 1
C1617: + x15 + x59 <= 1
C1618: + x62 + x131 <= 1
C1619: + x92 + x223 <= 1
C1620: + x2 + x8 <= 1
C1621: + x141 + x280 <= 1
C1622: + x32 + x118 <= 1
C1623: + x37 + x286 <= 1
C1624: + x20 + x192 <= 1
C1625: + x11 + x224 <= 1
C1626: + x47 + x61 <= 1
C1627: + x157 + x275 <= 1
C1628: + x25 + x179 <= 1
C1629: + x26 + x37 <= 1
C1630: + x23 + x345 <= 1
C1631: + x5 + x487 <= 1
C1632: + x285 + x352 <= 1
C1633: + x51 + x375 <= 1
C1634: + x73 + x109 <= 1
C1635: + x359 + x481 <= 1
C1636: + x17 + x413 <= 1
C1637: + x199 + x484 <= 1
C1638: + x155 + x297 <= 1
C1639: + x83 + x318 <= 1
C1640: + x21 + x167 <= 1
C1641: + x27 + x206 <= 1
C1642: + x101 + x117 <= 1
C1643: + x2 + x383 <= 1
C1644: + x105 + x453 <= 1
C1645: + x24 + x31 <= 1
C1646: + x80 + x174 <= 1
C1647: + x388 + x419 <= 1
C1648: + x102 + x113 <= 1
C1649: + x66 + x269 <= 1
C1650: + x12 + x329 <= 1
C1651: + x15 + x147 <= 1
C1652: + x65 + x69 <= 1
C1653: + x20 + x88 <= 1
C1654: + x158 + x485 <= 1
C1655: + x43 + x93 <= 1
C1656: + x5 + x351 <= 1
C1657: + x11 + x102 <= 1
C1658: + x37 + x424 <= 1
C1659: + x340 + x349 <= 1
C1660: + x38 + x320 <= 1
C1661: + x39 + x46 + x52 <= 1
C1662: + x216 + x498 <= 1
C1663: + x73 + x311 <= 1
C1664: + x13 + x116 <= 1
C1665: + x51 + x187 <= 1
C1666: + x16 + x39 <= 1
C1667: + x255 + x427 <= 1
C1668: + x249 + x494 <= 1
C1669: + x145 + x444 <= 1
C1670: + x59 + x203 <= 1
C1671: + x350 + x495 <= 1
C1672: + x34 + x446 <= 1
C1673: + x6 + x29 <= 1
C1674: + x92 + x228 <= 1
C1675: + x102 + x233 <= 1
C1676: + x113 + x301 <= 1
C1677: + x40 + x68 <= 1
C1678: + x107 + x230 <= 1
C1679: + x16 + x88 <= 1
C1680: + x8 + x27 <= 1
C1681: + x10 + x181 <= 1
C1682: + x138 + x464 <= 1
C1683: + x93 + x433 <= 1
C1684: + x113 + x138 <= 1
C1685: + x34 + x47 <= 1
C1686: + x109 + x500 <= 1
C1687: + x2 + x70 <= 1
C1688: + x55 + x389 <= 1
C1689: + x350 + x419 <= 1
C1690: + x43 + x437 <= 1
C1691: + x26 + x277 <= 1
C1692: + x7 + x215 <= 1
C1693: + x198 + x257 <= 1
C1694: + x101 + x195 <= 1
C1695: + x173 + x235 <= 1
C1696: + x126 + x313 <= 1
C1697: + x130 + x375 <= 1
C1698: + x29 + x114 <= 1
C1699: + x6 + x82 <= 1
C1700: + x120 + x489 <= 1
C1701: + x57 + x379 <= 1
C1702: + x284 + x391 <= 1
C1703: + x25 + x431 <= 1
C1704: + x216 + x399 <= 1
C1705: + x325 + x333 <= 1
C1706: + x16 + x137 <= 1
C1707: + x279 + x394 <= 1
C1708: + x25 + x129 <= 1
C1709: + x32 + x342 <= 1
C1710: + x16 + x48 <= 1
C1711: + x101 + x492 <= 1
C1712: + x92 + x407 <= 1
C1713: + x129 + x157 <= 1
C1714: + x3 + x49 <= 1
C1715: + x13 + x25 + x29 <= 1
C1716: + x5 + x138 <= 1
C1717: + x71 + x94 <= 1
C1718: + x10 + x67 <= 1
C1719: + x2 + x46 <= 1
C1720: + x22 + x35 <= 1
C1721: + x44 + x439 <= 1
C1722: + x13 + x95 <= 1
C1723: + x22 + x134 <= 1
C1724: + x89 + x269 <= 1
C1725: + x108 + x473 <= 1
C1726: + x18 + x430 <= 1
C1727: + x40 + x363 <= 1
C1728: + x25 + x77 <= 1
C1729: + x2 + x95 <= 1
C1730: + x190 + x346 <= 1
C1731: + x21 + x284 <= 1
C1732: + x264 + x408 <= 1
C1733: + x9 + x185 <= 1
C1734: + x183 + x185 <= 1
C1735: + x85 + x132 <= 1
C1736: + x113 + x288 <= 1
C1737: + x6 + x296 <= 1
C1738: + x9 + x22 <= 1
C1739: + x59 + x352 <= 1
C1740: + x123 + x329 <= 1
C1741: + x23 + x499 <= 1
C1742: + x141 + x317 <= 1
C1743: + x4 + x210 <= 1
C1744: + x133 + x354 <= 1
C1745: + x37 + x267 <= 1
C1746: + x148 + x339 <= 1
C1747: + x131 + x487 <= 1
C1748: + x229 + x459 <= 1
C1749: + x13 + x98 <= 1
C1750: + x5 + x468 <= 1
C1751: + x69 + x71 <= 1
C1752: + x1 + x22 + x33 <= 1
C1753: + x212 + x242 <= 1
C1754: + x103 + x491 <= 1
C1755: + x40 + x403 <= 1
C1756: + x25 + x37 <= 1
C1757: + x16 + x332 <= 1
C1758: + x19 + x103 <= 1
C1759: + x81 + x111 <= 1
C1760: + x9 + x209 <= 1
C1761: + x37 + x255 <= 1
C1762: + x12 + x78 <= 1
C1763: + x25 + x84 <= 1
C1764: + x44 + x146 <= 1
C1765: + x64 + x362 <= 1
C1766: + x5 + x165 <= 1
C1767: + x62 + x481 <= 1
C1768: + x254 + x289 <= 1
C1769: + x94 + x162 <= 1
C1770: + x20 + x272 <= 1
C1771: + x25 + x270 <= 1
C1772: + x17 + x176 <= 1
C1773: + x8 + x28 + x170 <= 1
C1774: + x16 + x397 <= 1
C1775: + x283 + x367 <= 1
C1776: + x148 + x253 <= 1
C1777: + x4 + x215 <= 1
C1778: + x5 + x233 <= 1
C1779: + x108 + x169 <= 1
C1780: + x16 + x292 <= 1
C1781: + x381 + x440 <= 1
C1782: + x128 + x166 <= 1
C1783: + x36 + x472 <= 1
C1784: + x99 + x160 <= 1
C1785: + x77 + x276 <= 1
C1786: + x196 + x265 <= 1
C1787: + x9 + x73 <= 1
C1788: + x54 + x235 <= 1
C1789: + x38 + x97 <= 1
C1790: + x56 + x155 <= 1
C1791: + x20 + x494 <= 1
C1792: + x34 + x65 <= 1
C1793: + x15 + x35 <= 1
C1794: + x9 + x294 <= 1
C1795: + x434 + x500 <= 1
C1796: + x17 + x294 <= 1
C1797: + x19 + x131 <= 1
C1798: + x21 + x32 <= 1
C1799: + x39 + x194 <= 1
C1800: + x13 + x410 <= 1
C1801: + x92 + x433 <= 1
C1802: + x76 + x226 <= 1
C1803: + x264 + x390 <= 1
C1804: + x23 + x30 <= 1
C1805: + x34 + x413 <= 1
C1806: + x12 + x212 <= 1
C1807: + x141 + x420 <= 1
C1808: + x50 + x466 <= 1
C1809: + x21 + x143 <= 1
C1810: + x198 + x234 <= 1
C1811: + x43 + x323 <= 1
C1812: + x137 + x473 <= 1
C1813: + x48 + x282 <= 1
C1814: + x22 + x279 <= 1
C1815: + x352 + x463 <= 1
C1816: + x15 + x26 <= 1
C1817: + x54 + x67 <= 1
C1818: + x165 + x399 <= 1
C1819: + x362 + x465 <= 1
C1820: + x9 + x147 <= 1
C1821: + x30 + x250 <= 1
C1822: + x13 + x24 <= 1
C1823: + x278 + x392 <= 1
C1824: + x188 + x189 <= 1
C1825: + x248 + x340 <= 1
C1826: + x15 + x38 <= 1
C1827: + x7 + x135 <= 1
C1828: + x55 + x498 <= 1
C1829: + x38 + x264 <= 1
C1830: + x192 + x326 <= 1
C1831: + x17 + x226 <= 1
C1832: + x29 + x130 <= 1
C1833: + x223 + x358 <= 1
C1834: + x25 + x162 <= 1
C1835: + x157 + x423 <= 1
C1836: + x149 + x177 <= 1
C1837: + x68 + x417 <= 1
C1838: + x32 + x262 <= 1
C1839: + x16 + x128 <= 1
C1840: + x63 + x350 <= 1
C1841: + x43 + x60 <= 1
C1842: + x408 + x482 <= 1
C1843: + x20 + x395 <= 1
C1844: + x86 + x136 <= 1
C1845: + x7 + x308 <= 1
C1846: + x128 + x172 <= 1
C1847: + x8 + x68 <= 1
C1848: + x139 + x447 <= 1
C1849: + x40 + x144 <= 1
C1850: + x87 + x439 <= 1
C1851: + x58 + x250 <= 1
C1852: + x32 + x493 <= 1
C1853: + x363 + x414 <= 1
C1854: + x6 + x344 <= 1
C1855: + x20 + x182 <= 1
C1856: + x108 + x453 <= 1
C1857: + x200 + x347 <= 1
C1858: + x220 + x246 <= 1
C1859: + x44 + x292 <= 1
C1860: + x24 + x408 <= 1
C1861: + x36 + x415 <= 1
C1862: + x85 + x168 <= 1
C1863: + x141 + x338 <= 1
C1864: + x5 + x55 <= 1
C1865: + x25 + x216 <= 1
C1866: + x16 + x69 <= 1
C1867: + x36 + x177 <= 1
C1868: + x100 + x113 <= 1
C1869: + x8 + x44 <= 1
C1870: + x125 + x252 <= 1
C1871: + x106 + x493 <= 1
C1872: + x17 + x50 <= 1
C1873: + x27 + x281 <= 1
C1874: + x36 + x368 <= 1
C1875: + x75 + x319 <= 1
C1876: + x11 + x12 <= 1
C1877: + x84 + x157 <= 1
C1878: + x265 + x398 <= 1
C1879: + x129 + x310 <= 1
C1880: + x55 + x440 <= 1
C1881: + x5 + x198 <= 1
C1882: + x9 + x332 <= 1
C1883: + x16 + x19 + x239 <= 1
C1884: + x11 + x237 <= 1
C1885: + x38 + x185 <= 1
C1886: + x222 + x396 <= 1
C1887: + x48 + x98 <= 1
C1888: + x26 + x28 <= 1
C1889: + x17 + x65 <= 1
C1890: + x8 + x480 <= 1
C1891: + x128 + x312 <= 1
C1892: + x57 + x88 <= 1
C1893: + x20 + x78 <= 1
C1894: + x176 + x303 <= 1
C1895: + x5 + x341 <= 1
C1896: + x126 + x411 <= 1
C1897: + x18 + x498 <= 1
C1898: + x170 + x404 <= 1
C1899: + x19 + x75 <= 1
C1900: + x83 + x194 <= 1
C1901: + x38 + x266 <= 1
C1902: + x8 + x259 <= 1
C1903: + x123 + x406 <= 1
C1904: + x5 + x10 <= 1
C1905: + x224 + x457 <= 1
C1906: + x6 + x337 <= 1
C1907: + x35 + x106 <= 1
C1908: + x97 + x403 <= 1
C1909: + x26 + x40 <= 1
C1910: + x182 + x266 <= 1
C1911: + x11 + x438 <= 1
C1912: + x85 + x413 <= 1
C1913: + x22 + x433 <= 1
C1914: + x96 + x218 <= 1
C1915: + x6 + x23 <= 1
C1916: + x353 + x421 <= 1
C1917: + x83 + x246 <= 1
C1918: + x25 + x461 <= 1
C1919: + x13 + x201 <= 1
C1920: + x97 + x221 <= 1
C1921: + x25 + x223 <= 1
C1922: + x28 + x245 <= 1
C1923: + x81 + x361 <= 1
C1924: + x17 + x41 <= 1
C1925: + x139 + x208 <= 1
C1926: + x176 + x327 <= 1
C1927: + x14 + x40 <= 1
C1928: + x19 + x51 <= 1
C1929: + x193 + x362 <= 1
C1930: + x5 + x98 <= 1
C1931: + x89 + x118 <= 1
C1932: + x17 + x72 <= 1
C1933: + x134 + x260 <= 1
C1934: + x210 + x211 <= 1
C1935: + x7 + x463 <= 1
C1936: + x18 + x80 <= 1
C1937: + x195 + x276 <= 1
C1938: + x323 + x349 <= 1
C1939: + x113 + x382 <= 1
C1940: + x375 + x464 <= 1
C1941: + x86 + x222 <= 1
C1942: + x25 + x421 <= 1
C1943: + x26 + x142 <= 1
C1944: + x64 + x409 <= 1
C1945: + x85 + x327 <= 1
C1946: + x183 + x232 <= 1
C1947: + x52 + x56 <= 1
C1948: + x15 + x426 <= 1
C1949: + x16 + x38 <= 1
C1950: + x130 + x309 <= 1

binary
x1 x2 x3 x4 x5 x6 x7 x8 x9 x10 x11 x12 x13 x14 x15 x16 x17 x18 x19 x20 x21 x22 x23 x24 x25 x26 x27 x28 x29 x30 x31 x32 x33 x34 x35 x36 x37 x38 x39 x40 x41 x42 x43 x44 x45 x46 x47 x48 x49 x50 x51 x52 x53 x54 x55 x56 x57 x58 x59 x60 x61 x62 x63 x64 x65 x66 x67 x68 x69 x70 x71 x72 x73 x74 x75 x76 x77 x78 x79 x80 x81 x82 x83 x84 x85 x86 x87 x88 x89 x90 x91 x92 x93 x94 x95 x96 x97 x98 x99 x100 x101 x102 x103 x104 x105 x106 x107 x108 x109 x110 x111 x112 x113 x114 x115 x116 x117 x118 x119 x120 x121 x122 x123 x124 x125 x126 x127 x128 x129 x130 x131 x132 x133 x134 x135 x136 x137 x138 x139 x140 x141 x142 x143 x144 x145 x146 x147 x148 x149 x150 x151 x152 x153 x154 x155 x156 x157 x158 x159 x160 x161 x162 x163 x164 x165 x166 x167 x168 x169 x170 x171 x172 x173 x174 x175 x176 x177 x178 x179 x180 x181 x182 x183 x184 x185 x186 x187 x188 x189 x190 x191 x192 x193 x194 x195 x196 x197 x198 x199 x200 x201 x202 x203 x204 x205 x206 x207 x208 x209 x210 x211 x212 x213 x214 x215 x216 x217 x218 x219 x220 x221 x222 x223 x224 x225 x226 x227 x228 x229 x230 x231 x232 x233 x234 x235 x236 x237 x238 x239 x240 x241 x242 x243 x244 x245 x246 x247 x248 x249 x250 x251 x252 x253 x254 x255 x256 x257 x258 x259 x260 x261 x262 x263 x264 x265 x266 x267 x268 x269 x270 x271 x272 x273 x274 x275 x276 x277 x278 x279 x280 x281 x282 x283 x284 x285 x286 x287 x288 x289 x290 x291 x292 x293 x294 x295 x296 x297 x298 x299 x300 x301 x302 x303 x304 x305 x306 x307 x308 x309 x310 x311 x312 x313 x314 x315 x316 x317 x318 x319 x320 x321 x322 x323 x324 x325 x326 x327 x328 x329 x330 x331 x332 x333 x334 x335 x336 x337 x338 x339 x340 x341 x342 x343 x344 x345 x346 x347 x348 x349 x350 x351 x352 x353 x354 x355 x356 x357 x358 x359 x360 x361 x362 x363 x364 x365 x366 x367 x368 x369 x370 x371 x372 x373 x374 x375 x376 x377 x378 x379 x380 x381 x382 x383 x384 x385 x386 x387 x388 x389 x390 x391 x392 x393 x394 x395 x396 x397 x398 x399 x400 x401 x402 x403 x404 x405 x406 x407 x408 x409 x410 x411 x412 x413 x414 x415 x416 x417 x418 x419 x420 x421 x422 x423 x424 x425 x426 x427 x428 x429 x430 x431 x432 x433 x434 x435 x436 x437 x438 x439 x440 x441 x442 x443 x444 x445 x446 x447 x448 x449 x450 x451 x452 x453 x454 x455 x456 x457 x458 x459 x460 x461 x462 x463 x464 x465 x466 x467 x468 x469 x470 x471 x472 x473 x474 x475 x476 x477 x478 x479 x480 x481 x482 x483 x484 x485 x486 x487 x488 x489 x490 x491 x492 x493 x494 x495 x496 x497 x498 x499 x500
