maximize
OBJ: + 1 x1 + 1 x2 + 1 x3 + 1 x4 + 1 x5 + 1 x6 + 1 x7 + 1 x8 + 1 x9 + 1 x10 + 1 x11 + 1 x12 + 1 x13 + 1 x14 + 1 x15 + 1 x16 + 1 x17 + 1 x18 + 1 x19 + 1 x20 + 1 x21 + 1 x22 + 1 x23 + 1 x24 + 1 x25 + 1 x26 + 1 x27 + 1 x28 + 1 x29 + 1 x30 + 1 x31 + 1 x32 + 1 x33 + 1 x34 + 1 x35 + 1 x36 + 1 x37 + 1 x38 + 1 x39 + 1 x40 + 1 x41 + 1 x42 + 1 x43 + 1 x44 + 1 x45 + 1 x46 + 1 x47 + 1 x48 + 1 x49 + 1 x50 + 1 x51 + 1 x52 + 1 x53 + 1 x54 + 1 x55 + 1 x56 + 1 x57 + 1 x58 + 1 x59 + 1 x60 + 1 x61 + 1 x62 + 1 x63 + 1 x64 + 1 x65 + 1 x66 + 1 x67 + 1 x68 + 1 x69 + 1 x70 + 1 x71 + 1 x72 + 1 x73 + 1 x74 + 1 x75 + 1 x76 + 1 x77 + 1 x78 + 1 x79 + 1 x80 + 1 x81 + 1 x82 + 1 x83 + 1 x84 + 1 x85 + 1 x86 + 1 x87 + 1 x88 + 1 x89 + 1 x90 + 1 x91 + 1 x92 + 1 x93 + 1 x94 + 1 x95 + 1 x96 + 1 x97 + 1 x98 + 1 x99 + 1 x100 + 1 x101 + 1 x102 + 1 x103 + 1 x104 + 1 x105 + 1 x106 + 1 x107 + 1 x108 + 1 x109 + 1 x110 + 1 x111 + 1 x112 + 1 x113 + 1 x114 + 1 x115 + 1 x116 + 1 x117 + 1 x118 + 1 x119 + 1 x120 + 1 x121 + 1 x122 + 1 x123 + 1 x124 + 1 x125 + 1 x126 + 1 x127 + 1 x128 + 1 x129 + 1 x130 + 1 x131 + 1 x132 + 1 x133 + 1 x134 + 1 x135 + 1 x136 + 1 x137 + 1 x138 + 1 x139 + 1 x140 + 1 x141 + 1 x142 + 1 x143 + 1 x144 + 1 x145 + 1 x146 + 1 x147 + 1 x148 + 1 x149 + 1 x150 + 1 x151 + 1 x152 + 1 x153 + 1 x154 + 1 x155 + 1 x156 + 1 x157 + 1 x158 + 1 x159 + 1 x160 + 1 x161 + 1 x162 + 1 x163 + 1 x164 + 1 x165 + 1 x166 + 1 x167 + 1 x168 + 1 x169 + 1 x170 + 1 x171 + 1 x172 + 1 x173 + 1 x174 + 1 x175 + 1 x176 + 1 x177 + 1 x178 + 1 x179 + 1 x180 + 1 x181 + 1 x182 + 1 x183 + 1 x184 + 1 x185 + 1 x186 + 1 x187 + 1 x188 + 1 x189 + 1 x190 + 1 x191 + 1 x192 + 1 x193 + 1 x194 + 1 x195 + 1 x196 + 1 x197 + 1 x198 + 1 x199 + 1 x200 + 1 x201 + 1 x202 + 1 x203 + 1 x204 + 1 x205 + 1 x206 + 1 x207 + 1 x208 + 1 x209 + 1 x210 + 1 x211 + 1 x212 + 1 x213 + 1 x214 + 1 x215 + 1 x216 + 1 x217 + 1 x218 + 1 x219 + 1 x220 + 1 x221 + 1 x222 + 1 x223 + 1 x224 + 1 x225 + 1 x226 + 1 x227 + 1 x228 + 1 x229 + 1 x230 + 1 x231 + 1 x232 + 1 x233 + 1 x234 + 1 x235 + 1 x236 + 1 x237 + 1 x238 + 1 x239 + 1 x240 + 1 x241 + 1 x242 + 1 x243 + 1 x244 + 1 x245 + 1 x246 + 1 x247 + 1 x248 + 1 x249 + 1 x250 + 1 x251 + 1 x252 + 1 x253 + 1 x254 + 1 x255 + 1 x256 + 1 x257 + 1 x258 + 1 x259 + 1 x260 + 1 x261 + 1 x262 + 1 x263 + 1 x264 + 1 x265 + 1 x266 + 1 x267 + 1 x268 + 1 x269 + 1 x270 + 1 x271 + 1 x272 + 1 x273 + 1 x274 + 1 x275 + 1 x276 + 1 x277 + 1 x278 + 1 x279 + 1 x280 + 1 x281 + 1 x282 + 1 x283 + 1 x284 + 1 x285 + 1 x286 + 1 x287 + 1 x288 + 1 x289 + 1 x290 + 1 x291 + 1 x292 + 1 x293 + 1 x294 + 1 x295 + 1 x296 + 1 x297 + 1 x298 + 1 x299 + 1 x300 + 1 x301 + 1 x302 + 1 x303 + 1 x304 + 1 x305 + 1 x306 + 1 x307 + 1 x308 + 1 x309 + 1 x310 + 1 x311 + 1 x312 + 1 x313 + 1 x314 + 1 x315 + 1 x316 + 1 x317 + 1 x318 + 1 x319 + 1 x320 + 1 x321 + 1 x322 + 1 x323 + 1 x324 + 1 x325 + 1 x326 + 1 x327 + 1 x328 + 1 x329 + 1 x330 + 1 x331 + 1 x332 + 1 x333 + 1 x334 + 1 x335 + 1 x336 + 1 x337 + 1 x338 + 1 x339 + 1 x340 + 1 x341 + 1 x342 + 1 x343 + 1 x344 + 1 x345 + 1 x346 + 1 x347 + 1 x348 + 1 x349 + 1 x350 + 1 x351 + 1 x352 + 1 x353 + 1 x354 + 1 x355 + 1 x356 + 1 x357 + 1 x358 + 1 x359 + 1 x360 + 1 x361 + 1 x362 + 1 x363 + 1 x364 + 1 x365 + 1 x366 + 1 x367 + 1 x368 + 1 x369 + 1 x370 + 1 x371 + 1 x372 + 1 x373 + 1 x374 + 1 x375 + 1 x376 + 1 x377 + 1 x378 + 1 x379 + 1 x380 + 1 x381 + 1 x382 + 1 x383 + 1 x384 + 1 x385 + 1 x386 + 1 x387 + 1 x388 + 1 x389 + 1 x390 + 1 x391 + 1 x392 + 1 x393 + 1 x394 + 1 x395 + 1 x396 + 1 x397 + 1 x398 + 1 x399 + 1 x400 + 1 x401 + 1 x402 + 1 x403 + 1 x404 + 1 x405 + 1 x406 + 1 x407 + 1 x408 + 1 x409 + 1 x410 + 1 x411 + 1 x412 + 1 x413 + 1 x414 + 1 x415 + 1 x416 + 1 x417 + 1 x418 + 1 x419 + 1 x420 + 1 x421 + 1 x422 + 1 x423 + 1 x424 + 1 x425 + 1 x426 + 1 x427 + 1 x428 + 1 x429 + 1 x430 + 1 x431 + 1 x432 + 1 x433 + 1 x434 + 1 x435 + 1 x436 + 1 x437 + 1 x438 + 1 x439 + 1 x440 + 1 x441 + 1 x442 + 1 x443 + 1 x444 + 1 x445 + 1 x446 + 1 x447 + 1 x448 + 1 x449 + 1 x450 + 1 x451 + 1 x452 + 1 x453 + 1 x454 + 1 x455 + 1 x456 + 1 x457 + 1 x458 + 1 x459 + 1 x460 + 1 x461 + 1 x462 + 1 x463 + 1 x464 + 1 x465 + 1 x466 + 1 x467 + 1 x468 + 1 x469 + 1 x470 + 1 x471 + 1 x472 + 1 x473 + 1 x474 + 1 x475 + 1 x476 + 1 x477 + 1 x478 + 1 x479 + 1 x480 + 1 x481 + 1 x482 + 1 x483 + 1 x484 + 1 x485 + 1 x486 + 1 x487 + 1 x488 + 1 x489 + 1 x490 + 1 x491 + 1 x492 + 1 x493 + 1 x494 + 1 x495 + 1 x496 + 1 x497 + 1 x498 + 1 x499 + 1 x500

subject to
C1: + x43 + x390 <= 1
C2: + x6 + x32 <= 1
C3: + x16 + x377 <= 1
C4: + x81 + x209 <= 1
C5: + x335 + x384 <= 1
C6: + x5 + x37 <= 1
C7: + x24 + x265 <= 1
C8: + x235 + x397 <= 1
C9: + x237 + x409 <= 1
C10: + x34 + x42 <= 1
C11: + x17 + x48 <= 1
C12: + x199 + x375 <= 1
C13: + x7 + x55 <= 1
C14: + x5 + x204 <= 1
C15: + x15 + x151 <= 1
C16: + x100 + x208 <= 1
C17: + x165 + x221 <= 1
C18: + x13 + x60 <= 1
C19: + x5 + x105 <= 1
C20: + x34 + x155 <= 1
C21: + x162 + x334 <= 1
C22: + x36 + x235 <= 1
C23: + x98 + x347 <= 1
C24: + x239 + x281 <= 1
C25: + x12 + x23 <= 1
C26: + x6 + x85 <= 1
C27: + x109 + x421 <= 1
C28: + x1 + x294 <= 1
C29: + x64 + x152 <= 1
C30: + x66 + x349 <= 1
C31: + x92 + x357 <= 1
C32: + x104 + x204 <= 1
C33: + x78 + x266 <= 1
C34: + x295 + x333 <= 1
C35: + x25 + x428 <= 1
C36: + x13 + x24 + x69 <= 1
C37: + x22 + x451 <= 1
C38: + x265 + x468 <= 1
C39: + x10 + x17 + x70 <= 1
C40: + x30 + x131 <= 1
C41: + x6 + x188 <= 1
C42: + x27 + x209 <= 1
C43: + x36 + x168 <= 1
C44: + x78 + x108 <= 1
C45: + x82 + x105 <= 1
C46: + x134 + x229 <= 1
C47: + x165 + x426 <= 1
C48: + x2 + x90 <= 1
C49: + x122 + x485 <= 1
C50: + x21 + x281 <= 1
C51: + x132 + x161 <= 1
C52: + x118 + x344 <= 1
C53: + x27 + x68 <= 1
C54: + x18 + x159 <= 1
C55: + x14 + x189 <= 1
C56: + x109 + x127 <= 1
C57: + x329 + x360 <= 1
C58: + x55 + x199 <= 1
C59: + x20 + x97 <= 1
C60: + x71 + x377 <= 1
C61: + x65 + x96 <= 1
C62: + x270 + x374 <= 1
C63: + x37 + x427 <= 1
C64: + x3 + x158 <= 1
C65: + x79 + x102 <= 1
C66: + x35 + x115 <= 1
C67: + x117 + x217 <= 1
C68: + x1 + x15 <= 1
C69: + x46 + x293 <= 1
C70: + x30 + x235 <= 1
C71: + x3 + x13 <= 1
C72: + x58 + x226 <= 1
C73: + x43 + x120 <= 1
C74: + x7 + x146 <= 1
C75: + x401 + x409 <= 1
C76: + x118 + x269 <= 1
C77: + x85 + x188 <= 1
C78: + x95 + x263 <= 1
C79: + x22 + x47 <= 1
C80: + x104 + x181 <= 1
C81: + x125 + x339 <= 1
C82: + x99 + x263 <= 1
C83: + x46 + x217 <= 1
C84: + x106 + x118 <= 1
C85: + x42 + x137 <= 1
C86: + x36 + x268 <= 1
C87: + x11 + x403 <= 1
C88: + x147 + x200 <= 1
C89: + x211 + x392 <= 1
C90: + x184 + x335 <= 1
C91: + x4 + x298 <= 1
C92: + x103 + x117 <= 1
C93: + x81 + x251 <= 1
C94: + x69 + x173 <= 1
C95: + x7 + x279 <= 1
C96: + x36 + x62 <= 1
C97: + x14 + x321 <= 1
C98: + x6 + x292 <= 1
C99: + x18 + x51 <= 1
C100: + x76 + x306 <= 1
C101: + x14 + x420 <= 1
C102: + x19 + x486 <= 1
C103: + x55 + x123 <= 1
C104: + x2 + x111 <= 1
C105: + x16 + x158 <= 1
C106: + x236 + x450 <= 1
C107: + x292 + x500 <= 1
C108: + x112 + x138 <= 1
C109: + x205 + x235 <= 1
C110: + x23 + x354 <= 1
C111: + x5 + x381 <= 1
C112: + x6 + x11 <= 1
C113: + x85 + x195 <= 1
C114: + x24 + x195 <= 1
C115: + x15 + x302 <= 1
C116: + x111 + x301 <= 1
C117: + x49 + x124 <= 1
C118: + x118 + x391 <= 1
C119: + x85 + x389 <= 1
C120: + x106 + x365 <= 1
C121: + x108 + x113 <= 1
C122: + x74 + x471 <= 1
C123: + x121 + x187 <= 1
C124: + x12 + x62 <= 1
C125: + x173 + x287 <= 1
C126: + x34 + x492 <= 1
C127: + x5 + x213 <= 1
C128: + x3 + x305 <= 1
C129: + x158 + x381 <= 1
C130: + x248 + x343 <= 1
C131: + x43 + x122 <= 1
C132: + x15 + x39 <= 1
C133: + x7 + x132 <= 1
C134: + x8 + x276 <= 1
C135: + x27 + x480 <= 1
C136: + x46 + x424 <= 1
C137: + x90 + x374 <= 1
C138: + x7 + x370 <= 1
C139: + x63 + x275 <= 1
C140: + x71 + x434 <= 1
C141: + x143 + x490 <= 1
C142: + x105 + x112 <= 1
C143: + x31 + x380 <= 1
C144: + x5 + x267 <= 1
C145: + x15 + x466 <= 1
C146: + x153 + x404 <= 1
C147: + x38 + x81 <= 1
C148: + x239 + x326 <= 1
C149: + x21 + x139 <= 1
C150: + x287 + x395 <= 1
C151: + x40 + x95 <= 1
C152: + x5 + x77 <= 1
C153: + x60 + x267 <= 1
C154: + x6 + x278 <= 1
C155: + x62 + x345 <= 1
C156: + x59 + x393 <= 1
C157: + x12 + x51 <= 1
C158: + x97 + x478 <= 1
C159: + x74 + x187 <= 1
C160: + x110 + x279 <= 1
C161: + x121 + x468 <= 1
C162: + x2 + x121 <= 1
C163: + x17 + x357 <= 1
C164: + x127 + x388 <= 1
C165: + x18 + x190 <= 1
C166: + x7 + x236 <= 1
C167: + x2 + x156 <= 1
C168: + x45 + x59 <= 1
C169: + x41 + x107 <= 1
C170: + x84 + x114 <= 1
C171: + x23 + x207 <= 1
C172: + x179 + x219 <= 1
C173: + x7 + x474 <= 1
C174: + x40 + x445 <= 1
C175: + x16 + x422 <= 1
C176: + x1 + x350 <= 1
C177: + x10 + x423 <= 1
C178: + x263 + x464 <= 1
C179: + x194 + x320 <= 1
C180: + x21 + x334 <= 1
C181: + x5 + x8 <= 1
C182: + x84 + x446 <= 1
C183: + x29 + x158 <= 1
C184: + x457 + x493 <= 1
C185: + x24 + x56 <= 1
C186: + x94 + x418 <= 1
C187: + x49 + x215 <= 1
C188: + x103 + x469 <= 1
C189: + x10 + x38 <= 1
C190: + x43 + x131 <= 1
C191: + x9 + x15 <= 1
C192: + x7 + x421 <= 1
C193: + x38 + x43 <= 1
C194: + x25 + x114 <= 1
C195: + x147 + x284 <= 1
C196: + x11 + x13 <= 1
C197: + x2 + x399 <= 1
C198: + x4 + x201 <= 1
C199: + x73 + x350 <= 1
C200: + x146 + x378 <= 1
C201: + x12 + x185 <= 1
C202: + x99 + x444 <= 1
C203: + x73 + x443 <= 1
C204: + x302 + x375 <= 1
C205: + x36 + x343 <= 1
C206: + x31 + x120 <= 1
C207: + x217 + x288 + x331 <= 1
C208: + x195 + x196 <= 1
C209: + x40 + x256 <= 1
C210: + x125 + x129 <= 1
C211: + x127 + x357 <= 1
C212: + x130 + x226 <= 1
C213: + x53 + x379 <= 1
C214: + x28 + x85 <= 1
C215: + x11 + x165 <= 1
C216: + x17 + x137 <= 1
C217: + x218 + x327 <= 1
C218: + x1 + x115 <= 1
C219: + x229 + x310 <= 1
C220: + x22 + x392 <= 1
C221: + x6 + x222 <= 1
C222: + x296 + x464 <= 1
C223: + x125 + x287 <= 1
C224: + x244 + x286 <= 1
C225: + x16 + x21 <= 1
C226: + x218 + x275 <= 1
C227: + x67 + x383 <= 1
C228: + x231 + x352 <= 1
C229: + x23 + x495 <= 1
C230: + x6 + x111 <= 1
C231: + x155 + x358 <= 1
C232: + x119 + x490 <= 1
C233: + x63 + x264 <= 1
C234: + x211 + x373 <= 1
C235: + x1 + x62 <= 1
C236: + x291 + x476 <= 1
C237: + x40 + x245 <= 1
C238: + x40 + x487 <= 1
C239: + x224 + x326 <= 1
C240: + x6 + x19 <= 1
C241: + x270 + x315 <= 1
C242: + x18 + x290 <= 1
C243: + x10 + x88 <= 1
C244: + x1 + x173 <= 1
C245: + x112 + x231 <= 1
C246: + x14 + x211 <= 1
C247: + x15 + x225 <= 1
C248: + x8 + x29 <= 1
C249: + x167 + x433 <= 1
C250: + x82 + x115 <= 1
C251: + x45 + x310 <= 1
C252: + x202 + x444 <= 1
C253: + x359 + x478 <= 1
C254: + x53 + x406 <= 1
C255: + x7 + x221 <= 1
C256: + x45 + x475 <= 1
C257: + x8 + x174 <= 1
C258: + x12 + x183 <= 1
C259: + x4 + x86 <= 1
C260: + x170 + x171 <= 1
C261: + x88 + x463 <= 1
C262: + x290 + x372 <= 1
C263: + x12 + x22 <= 1
C264: + x6 + x88 <= 1
C265: + x7 + x112 <= 1
C266: + x329 + x475 <= 1
C267: + x138 + x168 <= 1
C268: + x3 + x136 <= 1
C269: + x158 + x242 <= 1
C270: + x216 + x497 <= 1
C271: + x10 + x208 <= 1
C272: + x11 + x200 <= 1
C273: + x1 + x53 <= 1
C274: + x21 + x64 <= 1
C275: + x40 + x238 <= 1
C276: + x312 + x471 <= 1
C277: + x136 + x212 <= 1
C278: + x76 + x130 <= 1
C279: + x15 + x79 <= 1
C280: + x63 + x69 <= 1
C281: + x10 + x89 <= 1
C282: + x1 + x164 <= 1
C283: + x213 + x495 <= 1
C284: + x149 + x303 <= 1
C285: + x209 + x498 <= 1
C286: + x20 + x148 <= 1
C287: + x12 + x95 <= 1
C288: + x39 + x359 <= 1
C289: + x403 + x451 <= 1
C290: + x5 + x275 <= 1
C291: + x13 + x494 <= 1
C292: + x52 + x200 <= 1
C293: + x182 + x291 <= 1
C294: + x55 + x81 <= 1
C295: + x2 + x402 <= 1
C296: + x49 + x381 <= 1
C297: + x12 + x321 <= 1
C298: + x29 + x393 <= 1
C299: + x124 + x456 <= 1
C300: + x60 + x136 <= 1
C301: + x25 + x484 <= 1
C302: + x79 + x91 <= 1
C303: + x33 + x356 <= 1
C304: + x25 + x257 <= 1
C305: + x65 + x93 <= 1
C306: + x142 + x249 <= 1
C307: + x35 + x362 <= 1
C308: + x55 + x466 <= 1
C309: + x56 + x478 <= 1
C310: + x66 + x337 <= 1
C311: + x105 + x278 <= 1
C312: + x23 + x70 <= 1
C313: + x358 + x435 <= 1
C314: + x70 + x377 <= 1
C315: + x17 + x194 <= 1
C316: + x16 + x140 <= 1
C317: + x88 + x437 <= 1
C318: + x47 + x80 <= 1
C319: + x23 + x364 <= 1
C320: + x1 + x425 <= 1
C321: + x120 + x409 <= 1
C322: + x60 + x193 <= 1
C323: + x42 + x123 <= 1
C324: + x15 + x82 <= 1
C325: + x7 + x147 <= 1
C326: + x309 + x311 <= 1
C327: + x2 + x45 <= 1
C328: + x94 + x148 <= 1
C329: + x57 + x328 <= 1
C330: + x23 + x146 <= 1
C331: + x45 + x300 <= 1
C332: + x103 + x114 <= 1
C333: + x30 + x272 <= 1
C334: + x176 + x337 <= 1
C335: + x7 + x207 <= 1
C336: + x218 + x459 <= 1
C337: + x154 + x216 <= 1
C338: + x10 + x14 <= 1
C339: + x4 + x68 <= 1
C340: + x5 + x84 <= 1
C341: + x52 + x126 <= 1
C342: + x127 + x213 <= 1
C343: + x5 + x334 <= 1
C344: + x55 + x104 <= 1
C345: + x400 + x425 <= 1
C346: + x321 + x422 <= 1
C347: + x84 + x132 <= 1
C348: + x85 + x412 <= 1
C349: + x99 + x134 <= 1
C350: + x9 + x230 <= 1
C351: + x16 + x56 <= 1
C352: + x42 + x100 <= 1
C353: + x13 + x269 <= 1
C354: + x6 + x14 <= 1
C355: + x63 + x119 <= 1
C356: + x65 + x141 <= 1
C357: + x1 + x333 <= 1
C358: + x106 + x223 <= 1
C359: + x23 + x169 <= 1
C360: + x309 + x467 <= 1
C361: + x4 + x60 <= 1
C362: + x179 + x427 <= 1
C363: + x17 + x18 <= 1
C364: + x7 + x37 <= 1
C365: + x6 + x50 <= 1
C366: + x273 + x414 <= 1
C367: + x40 + x165 <= 1
C368: + x387 + x398 <= 1
C369: + x81 + x481 <= 1
C370: + x45 + x178 <= 1
C371: + x63 + x337 <= 1
C372: + x322 + x392 <= 1
C373: + x30 + x79 <= 1
C374: + x13 + x472 <= 1
C375: + x32 + x438 <= 1
C376: + x78 + x85 <= 1
C377: + x43 + x55 <= 1
C378: + x226 + x255 <= 1
C379: + x332 + x467 <= 1
C380: + x376 + x479 <= 1
C381: + x80 + x99 <= 1
C382: + x1 + x26 <= 1
C383: + x94 + x373 <= 1
C384: + x31 + x248 <= 1
C385: + x7 + x484 <= 1
C386: + x102 + x277 <= 1
C387: + x12 + x444 <= 1
C388: + x5 + x377 <= 1
C389: + x135 + x411 <= 1
C390: + x84 + x213 <= 1
C391: + x48 + x59 <= 1
C392: + x108 + x232 <= 1
C393: + x161 + x226 <= 1
C394: + x36 + x90 <= 1
C395: + x181 + x237 <= 1
C396: + x14 + x247 <= 1
C397: + x5 + x30 <= 1
C398: + x13 + x78 <= 1
C399: + x42 + x246 <= 1
C400: + x334 + x496 <= 1
C401: + x108 + x458 <= 1
C402: + x36 + x309 <= 1
C403: + x127 + x376 <= 1
C404: + x392 + x442 <= 1
C405: + x32 + x46 <= 1
C406: + x145 + x251 <= 1
C407: + x7 + x270 <= 1
C408: + x85 + x147 <= 1
C409: + x205 + x413 <= 1
C410: + x42 + x436 <= 1
C411: + x25 + x203 <= 1
C412: + x125 + x314 <= 1
C413: + x7 + x76 <= 1
C414: + x83 + x153 <= 1
C415: + x40 + x51 <= 1
C416: + x97 + x168 <= 1
C417: + x34 + x496 <= 1
C418: + x35 + x472 <= 1
C419: + x45 + x64 <= 1
C420: + x42 + x384 <= 1
C421: + x263 + x304 <= 1
C422: + x139 + x163 <= 1
C423: + x5 + x360 <= 1
C424: + x2 + x56 <= 1
C425: + x14 + x240 <= 1
C426: + x35 + x428 <= 1
C427: + x115 + x135 <= 1
C428: + x85 + x400 <= 1
C429: + x130 + x289 <= 1
C430: + x125 + x468 <= 1
C431: + x158 + x318 <= 1
C432: + x106 + x245 <= 1
C433: + x61 + x62 <= 1
C434: + x17 + x159 <= 1
C435: + x8 + x46 <= 1
C436: + x10 + x132 <= 1
C437: + x6 + x437 <= 1
C438: + x334 + x477 <= 1
C439: + x121 + x472 <= 1
C440: + x20 + x398 <= 1
C441: + x52 + x267 <= 1
C442: + x2 + x160 <= 1
C443: + x49 + x50 <= 1
C444: + x91 + x450 <= 1
C445: + x134 + x273 <= 1
C446: + x15 + x46 <= 1
C447: + x7 + x127 <= 1
C448: + x91 + x99 <= 1
C449: + x416 + x498 <= 1
C450: + x2 + x9 <= 1
C451: + x47 + x475 <= 1
C452: + x158 + x227 <= 1
C453: + x431 + x449 <= 1
C454: + x97 + x139 <= 1
C455: + x18 + x238 <= 1
C456: + x1 + x36 <= 1
C457: + x7 + x365 <= 1
C458: + x33 + x221 <= 1
C459: + x100 + x483 <= 1
C460: + x147 + x356 <= 1
C461: + x267 + x427 <= 1
C462: + x21 + x313 <= 1
C463: + x5 + x147 <= 1
C464: + x1 + x128 <= 1
C465: + x37 + x217 <= 1
C466: + x67 + x432 <= 1
C467: + x146 + x493 <= 1
C468: + x40 + x382 <= 1
C469: + x31 + x80 <= 1
C470: + x35 + x490 <= 1
C471: + x7 + x231 <= 1
C472: + x397 + x422 <= 1
C473: + x12 + x28 <= 1
C474: + x305 + x475 <= 1
C475: + x42 + x96 <= 1
C476: + x150 + x295 <= 1
C477: + x134 + x189 <= 1
C478: + x194 + x309 <= 1
C479: + x367 + x471 <= 1
C480: + x23 + x181 <= 1
C481: + x35 + x103 <= 1
C482: + x21 + x54 <= 1
C483: + x25 + x177 <= 1
C484: + x70 + x104 <= 1
C485: + x397 + x410 <= 1
C486: + x7 + x174 <= 1
C487: + x83 + x243 <= 1
C488: + x5 + x63 <= 1
C489: + x9 + x58 <= 1
C490: + x45 + x150 <= 1
C491: + x7 + x404 <= 1
C492: + x19 + x161 <= 1
C493: + x75 + x454 <= 1
C494: + x33 + x176 <= 1
C495: + x7 + x61 <= 1
C496: + x1 + x276 <= 1
C497: + x111 + x499 <= 1
C498: + x1 + x478 <= 1
C499: + x56 + x312 <= 1
C500: + x18 + x345 <= 1
C501: + x152 + x342 <= 1
C502: + x210 + x439 <= 1
C503: + x92 + x165 <= 1
C504: + x56 + x91 <= 1
C505: + x21 + x233 <= 1
C506: + x95 + x351 <= 1
C507: + x24 + x142 <= 1
C508: + x41 + x335 <= 1
C509: + x88 + x145 <= 1
C510: + x16 + x440 <= 1
C511: + x67 + x73 <= 1
C512: + x17 + x259 <= 1
C513: + x38 + x149 <= 1
C514: + x12 + x98 <= 1
C515: + x195 + x215 <= 1
C516: + x108 + x438 <= 1
C517: + x14 + x108 <= 1
C518: + x6 + x31 <= 1
C519: + x209 + x338 <= 1
C520: + x229 + x426 <= 1
C521: + x20 + x308 <= 1
C522: + x24 + x183 <= 1
C523: + x119 + x144 <= 1
C524: + x63 + x376 <= 1
C525: + x49 + x88 <= 1
C526: + x41 + x266 <= 1
C527: + x34 + x41 <= 1
C528: + x58 + x163 <= 1
C529: + x439 + x445 <= 1
C530: + x194 + x459 <= 1
C531: + x12 + x171 <= 1
C532: + x4 + x90 <= 1
C533: + x107 + x172 <= 1
C534: + x34 + x154 <= 1
C535: + x5 + x106 <= 1
C536: + x155 + x472 <= 1
C537: + x196 + x396 <= 1
C538: + x101 + x283 <= 1
C539: + x194 + x263 <= 1
C540: + x384 + x441 <= 1
C541: + x167 + x206 <= 1
C542: + x1 + x9 <= 1
C543: + x10 + x244 <= 1
C544: + x210 + x348 <= 1
C545: + x213 + x380 <= 1
C546: + x4 + x6 <= 1
C547: + x207 + x242 <= 1
C548: + x299 + x383 <= 1
C549: + x2 + x474 <= 1
C550: + x212 + x231 <= 1
C551: + x23 + x50 <= 1
C552: + x6 + x8 <= 1
C553: + x8 + x296 <= 1
C554: + x101 + x335 <= 1
C555: + x85 + x190 <= 1
C556: + x103 + x228 <= 1
C557: + x77 + x225 + x291 <= 1
C558: + x5 + x45 <= 1
C559: + x17 + x310 <= 1
C560: + x35 + x388 <= 1
C561: + x100 + x103 <= 1
C562: + x12 + x83 <= 1
C563: + x17 + x40 <= 1
C564: + x162 + x469 <= 1
C565: + x51 + x77 <= 1
C566: + x7 + x204 <= 1
C567: + x27 + x65 <= 1
C568: + x224 + x402 <= 1
C569: + x61 + x489 <= 1
C570: + x143 + x290 <= 1
C571: + x114 + x408 <= 1
C572: + x6 + x93 <= 1
C573: + x279 + x290 <= 1
C574: + x88 + x167 <= 1
C575: + x2 + x21 <= 1
C576: + x194 + x288 <= 1
C577: + x31 + x109 <= 1
C578: + x125 + x416 <= 1
C579: + x7 + x329 <= 1
C580: + x56 + x125 <= 1
C581: + x16 + x43 <= 1
C582: + x127 + x158 <= 1
C583: + x201 + x213 <= 1
C584: + x239 + x365 <= 1
C585: + x366 + x413 <= 1
C586: + x1 + x429 <= 1
C587: + x338 + x411 <= 1
C588: + x208 + x394 <= 1
C589: + x114 + x175 <= 1
C590: + x5 + x44 <= 1
C591: + x24 + x282 <= 1
C592: + x8 + x15 <= 1
C593: + x1 + x92 <= 1
C594: + x21 + x23 <= 1
C595: + x222 + x382 <= 1
C596: + x162 + x494 <= 1
C597: + x24 + x44 <= 1
C598: + x30 + x268 <= 1
C599: + x6 + x53 <= 1
C600: + x262 + x400 <= 1
C601: + x66 + x445 <= 1
C602: + x31 + x197 <= 1
C603: + x142 + x395 <= 1
C604: + x7 + x433 <= 1
C605: + x100 + x439 <= 1
C606: + x2 + x110 <= 1
C607: + x7 + x255 <= 1
C608: + x27 + x32 <= 1
C609: + x18 + x110 <= 1
C610: + x46 + x192 <= 1
C611: + x3 + x5 <= 1
C612: + x40 + x394 <= 1
C613: + x6 + x10 <= 1
C614: + x347 + x463 <= 1
C615: + x1 + x182 <= 1
C616: + x28 + x53 <= 1
C617: + x49 + x416 <= 1
C618: + x12 + x230 <= 1
C619: + x260 + x344 <= 1
C620: + x17 + x233 <= 1
C621: + x45 + x122 <= 1
C622: + x85 + x289 <= 1
C623: + x196 + x307 <= 1
C624: + x14 + x488 <= 1
C625: + x7 + x25 <= 1
C626: + x10 + x261 <= 1
C627: + x321 + x485 <= 1
C628: + x38 + x87 <= 1
C629: + x3 + x89 <= 1
C630: + x29 + x46 <= 1
C631: + x7 + x271 <= 1
C632: + x227 + x443 <= 1
C633: + x371 + x429 <= 1
C634: + x291 + x393 <= 1
C635: + x55 + x210 <= 1
C636: + x65 + x431 <= 1
C637: + x48 + x225 <= 1
C638: + x70 + x180 <= 1
C639: + x35 + x376 <= 1
C640: + x301 + x306 <= 1
C641: + x60 + x358 <= 1
C642: + x15 + x181 <= 1
C643: + x117 + x371 <= 1
C644: + x109 + x253 <= 1
C645: + x1 + x30 <= 1
C646: + x242 + x336 <= 1
C647: + x30 + x252 <= 1
C648: + x332 + x424 <= 1
C649: + x34 + x249 <= 1
C650: + x17 + x81 <= 1
C651: + x10 + x322 <= 1
C652: + x165 + x276 <= 1
C653: + x12 + x448 <= 1
C654: + x34 + x92 <= 1
C655: + x1 + x328 <= 1
C656: + x1 + x141 <= 1
C657: + x291 + x363 <= 1
C658: + x5 + x26 <= 1
C659: + x27 + x43 <= 1
C660: + x321 + x351 <= 1
C661: + x391 + x397 <= 1
C662: + x55 + x157 <= 1
C663: + x89 + x288 <= 1
C664: + x6 + x388 <= 1
C665: + x7 + x20 <= 1
C666: + x402 + x425 <= 1
C667: + x120 + x447 <= 1
C668: + x112 + x376 <= 1
C669: + x6 + x39 <= 1
C670: + x55 + x272 <= 1
C671: + x166 + x206 <= 1
C672: + x4 + x182 <= 1
C673: + x179 + x232 <= 1
C674: + x53 + x72 <= 1
C675: + x253 + x304 <= 1
C676: + x6 + x277 <= 1
C677: + x68 + x145 <= 1
C678: + x33 + x159 <= 1
C679: + x164 + x316 <= 1
C680: + x55 + x118 <= 1
C681: + x93 + x185 <= 1
C682: + x68 + x80 <= 1
C683: + x15 + x192 <= 1
C684: + x171 + x172 <= 1
C685: + x7 + x233 <= 1
C686: + x10 + x240 <= 1
C687: + x2 + x155 <= 1
C688: + x12 + x131 <= 1
C689: + x234 + x420 <= 1
C690: + x25 + x294 <= 1
C691: + x34 + x242 <= 1
C692: + x24 + x99 <= 1
C693: + x101 + x398 <= 1
C694: + x328 + x500 <= 1
C695: + x10 + x121 <= 1
C696: + x376 + x488 <= 1
C697: + x36 + x67 <= 1
C698: + x10 + x220 <= 1
C699: + x121 + x254 <= 1
C700: + x84 + x445 <= 1
C701: + x42 + x227 <= 1
C702: + x15 + x474 <= 1
C703: + x7 + x11 <= 1
C704: + x62 + x256 <= 1
C705: + x483 + x492 <= 1
C706: + x3 + x18 + x36 <= 1
C707: + x133 + x280 <= 1
C708: + x7 + x184 <= 1
C709: + x371 + x382 <= 1
C710: + x1 + x224 <= 1
C711: + x85 + x166 <= 1
C712: + x112 + x212 <= 1
C713: + x35 + x37 <= 1
C714: + x111 + x268 <= 1
C715: + x11 + x288 <= 1
C716: + x323 + x436 <= 1
C717: + x35 + x138 <= 1
C718: + x127 + x303 <= 1
C719: + x86 + x131 <= 1
C720: + x104 + x232 <= 1
C721: + x1 + x236 <= 1
C722: + x144 + x295 <= 1
C723: + x49 + x54 <= 1
C724: + x192 + x249 <= 1
C725: + x160 + x260 <= 1
C726: + x9 + x124 <= 1
C727: + x65 + x73 <= 1
C728: + x62 + x293 <= 1
C729: + x173 + x413 <= 1
C730: + x2 + x319 <= 1
C731: + x74 + x239 <= 1
C732: + x92 + x220 <= 1
C733: + x291 + x381 <= 1
C734: + x5 + x16 <= 1
C735: + x6 + x136 <= 1
C736: + x44 + x93 <= 1
C737: + x32 + x143 <= 1
C738: + x17 + x265 <= 1
C739: + x198 + x328 <= 1
C740: + x237 + x500 <= 1
C741: + x2 + x176 <= 1
C742: + x295 + x442 <= 1
C743: + x31 + x363 <= 1
C744: + x53 + x167 <= 1
C745: + x7 + x14 <= 1
C746: + x20 + x24 <= 1
C747: + x3 + x38 <= 1
C748: + x38 + x66 <= 1
C749: + x94 + x101 <= 1
C750: + x59 + x199 <= 1
C751: + x24 + x403 <= 1
C752: + x7 + x175 <= 1
C753: + x152 + x218 <= 1
C754: + x11 + x166 <= 1
C755: + x12 + x197 <= 1
C756: + x190 + x234 <= 1
C757: + x10 + x137 <= 1
C758: + x183 + x315 <= 1
C759: + x77 + x423 <= 1
C760: + x51 + x251 <= 1
C761: + x335 + x482 <= 1
C762: + x1 + x273 <= 1
C763: + x25 + x407 <= 1
C764: + x2 + x149 <= 1
C765: + x113 + x237 <= 1
C766: + x26 + x31 <= 1
C767: + x18 + x74 <= 1
C768: + x249 + x285 <= 1
C769: + x86 + x450 <= 1
C770: + x323 + x351 <= 1
C771: + x327 + x383 <= 1
C772: + x137 + x298 <= 1
C773: + x2 + x6 <= 1
C774: + x4 + x253 <= 1
C775: + x224 + x312 <= 1
C776: + x154 + x323 <= 1
C777: + x2 + x161 <= 1
C778: + x94 + x368 <= 1
C779: + x108 + x433 <= 1
C780: + x244 + x297 <= 1
C781: + x59 + x194 <= 1
C782: + x167 + x295 <= 1
C783: + x196 + x462 <= 1
C784: + x151 + x237 <= 1
C785: + x18 + x289 <= 1
C786: + x63 + x67 <= 1
C787: + x173 + x186 <= 1
C788: + x110 + x368 <= 1
C789: + x5 + x59 <= 1
C790: + x23 + x133 <= 1
C791: + x35 + x55 <= 1
C792: + x53 + x93 <= 1
C793: + x237 + x415 <= 1
C794: + x278 + x458 <= 1
C795: + x45 + x146 <= 1
C796: + x10 + x178 <= 1
C797: + x84 + x407 <= 1
C798: + x195 + x345 <= 1
C799: + x25 + x65 <= 1
C800: + x7 + x49 <= 1
C801: + x211 + x408 <= 1
C802: + x162 + x186 <= 1
C803: + x7 + x222 <= 1
C804: + x100 + x311 <= 1
C805: + x129 + x431 <= 1
C806: + x121 + x327 <= 1
C807: + x95 + x323 <= 1
C808: + x23 + x209 <= 1
C809: + x17 + x189 <= 1
C810: + x203 + x207 <= 1
C811: + x34 + x104 <= 1
C812: + x118 + x498 <= 1
C813: + x65 + x228 <= 1
C814: + x64 + x251 <= 1
C815: + x33 + x76 <= 1
C816: + x5 + x141 <= 1
C817: + x261 + x474 <= 1
C818: + x7 + x153 <= 1
C819: + x178 + x473 <= 1
C820: + x76 + x112 <= 1
C821: + x5 + x34 <= 1
C822: + x24 + x179 <= 1
C823: + x1 + x66 <= 1
C824: + x84 + x416 <= 1
C825: + x142 + x260 <= 1
C826: + x71 + x236 <= 1
C827: + x177 + x259 <= 1
C828: + x95 + x169 <= 1
C829: + x55 + x296 <= 1
C830: + x225 + x421 <= 1
C831: + x25 + x258 <= 1
C832: + x24 + x135 <= 1
C833: + x10 + x359 <= 1
C834: + x4 + x336 <= 1
C835: + x83 + x173 <= 1
C836: + x191 + x385 <= 1
C837: + x21 + x355 <= 1
C838: + x267 + x497 <= 1
C839: + x51 + x390 <= 1
C840: + x14 + x16 <= 1
C841: + x45 + x84 <= 1
C842: + x8 + x90 <= 1
C843: + x100 + x191 <= 1
C844: + x10 + x248 <= 1
C845: + x1 + x13 <= 1
C846: + x41 + x116 <= 1
C847: + x259 + x260 <= 1
C848: + x161 + x299 <= 1
C849: + x5 + x140 <= 1
C850: + x72 + x100 <= 1
C851: + x146 + x297 <= 1
C852: + x34 + x280 <= 1
C853: + x5 + x41 <= 1
C854: + x7 + x386 <= 1
C855: + x147 + x476 <= 1
C856: + x311 + x497 <= 1
C857: + x85 + x287 <= 1
C858: + x51 + x347 <= 1
C859: + x78 + x103 <= 1
C860: + x24 + x47 <= 1
C861: + x7 + x35 <= 1
C862: + x11 + x34 <= 1
C863: + x212 + x366 <= 1
C864: + x184 + x333 <= 1
C865: + x31 + x421 <= 1
C866: + x364 + x461 <= 1
C867: + x28 + x119 <= 1
C868: + x4 + x67 <= 1
C869: + x368 + x375 <= 1
C870: + x29 + x75 <= 1
C871: + x43 + x77 <= 1
C872: + x6 + x89 <= 1
C873: + x116 + x476 <= 1
C874: + x129 + x300 <= 1
C875: + x123 + x428 <= 1
C876: + x42 + x466 <= 1
C877: + x15 + x175 <= 1
C878: + x109 + x318 <= 1
C879: + x45 + x75 <= 1
C880: + x118 + x210 <= 1
C881: + x7 + x333 <= 1
C882: + x30 + x230 <= 1
C883: + x97 + x120 <= 1
C884: + x9 + x68 <= 1
C885: + x2 + x471 <= 1
C886: + x179 + x473 <= 1
C887: + x6 + x13 <= 1
C888: + x10 + x74 <= 1
C889: + x32 + x151 <= 1
C890: + x180 + x314 <= 1
C891: + x171 + x239 <= 1
C892: + x27 + x37 <= 1
C893: + x74 + x485 <= 1
C894: + x230 + x439 <= 1
C895: + x60 + x387 <= 1
C896: + x106 + x121 <= 1
C897: + x5 + x258 <= 1
C898: + x24 + x40 <= 1
C899: + x7 + x38 <= 1
C900: + x251 + x455 <= 1
C901: + x103 + x106 <= 1
C902: + x104 + x257 <= 1
C903: + x89 + x179 <= 1
C904: + x142 + x153 <= 1
C905: + x7 + x199 <= 1
C906: + x10 + x54 <= 1
C907: + x274 + x289 <= 1
C908: + x193 + x372 <= 1
C909: + x85 + x149 <= 1
C910: + x132 + x460 <= 1
C911: + x23 + x303 <= 1
C912: + x387 + x395 <= 1
C913: + x17 + x162 <= 1
C914: + x228 + x403 <= 1
C915: + x126 + x215 <= 1
C916: + x49 + x182 <= 1
C917: + x75 + x431 <= 1
C918: + x13 + x465 <= 1
C919: + x97 + x453 <= 1
C920: + x19 + x479 <= 1
C921: + x75 + x260 <= 1
C922: + x20 + x383 <= 1
C923: + x264 + x323 <= 1
C924: + x91 + x348 <= 1
C925: + x1 + x27 <= 1
C926: + x274 + x349 <= 1
C927: + x3 + x307 <= 1
C928: + x241 + x325 <= 1
C929: + x323 + x470 <= 1
C930: + x2 + x304 <= 1
C931: + x330 + x344 <= 1
C932: + x256 + x466 <= 1
C933: + x6 + x118 <= 1
C934: + x15 + x33 <= 1
C935: + x19 + x96 <= 1
C936: + x7 + x372 <= 1
C937: + x239 + x491 <= 1
C938: + x7 + x29 <= 1
C939: + x83 + x102 <= 1
C940: + x148 + x389 <= 1
C941: + x175 + x366 <= 1
C942: + x5 + x174 <= 1
C943: + x16 + x359 <= 1
C944: + x73 + x361 <= 1
C945: + x7 + x186 <= 1
C946: + x2 + x202 <= 1
C947: + x76 + x79 <= 1
C948: + x46 + x129 <= 1
C949: + x50 + x198 <= 1
C950: + x89 + x297 <= 1
C951: + x17 + x454 <= 1
C952: + x25 + x105 <= 1
C953: + x81 + x134 <= 1
C954: + x7 + x73 <= 1
C955: + x5 + x317 <= 1
C956: + x243 + x343 <= 1
C957: + x30 + x341 <= 1
C958: + x340 + x379 <= 1
C959: + x25 + x390 <= 1
C960: + x16 + x299 <= 1
C961: + x1 + x18 <= 1
C962: + x46 + x274 <= 1
C963: + x113 + x252 <= 1
C964: + x13 + x18 <= 1
C965: + x5 + x119 <= 1
C966: + x6 + x476 <= 1
C967: + x248 + x302 <= 1
C968: + x16 + x348 <= 1
C969: + x265 + x462 <= 1
C970: + x175 + x262 <= 1
C971: + x13 + x225 <= 1
C972: + x232 + x290 <= 1
C973: + x132 + x270 <= 1
C974: + x67 + x125 <= 1
C975: + x23 + x188 <= 1
C976: + x19 + x252 <= 1
C977: + x2 + x338 <= 1
C978: + x7 + x24 <= 1
C979: + x69 + x160 <= 1
C980: + x89 + x129 <= 1
C981: + x31 + x410 <= 1
C982: + x91 + x282 <= 1
C983: + x1 + x221 <= 1
C984: + x43 + x133 <= 1
C985: + x36 + x142 <= 1
C986: + x74 + x451 <= 1
C987: + x175 + x488 <= 1
C988: + x13 + x455 <= 1
C989: + x167 + x385 <= 1
C990: + x235 + x307 <= 1
C991: + x45 + x326 <= 1
C992: + x8 + x340 <= 1
C993: + x64 + x183 <= 1
C994: + x86 + x134 <= 1
C995: + x30 + x302 <= 1
C996: + x7 + x306 <= 1
C997: + x36 + x250 <= 1
C998: + x120 + x384 <= 1
C999: + x29 + x108 <= 1
C1000: + x23 + x179 <= 1
C1001: + x160 + x408 <= 1
C1002: + x88 + x432 <= 1
C1003: + x40 + x254 <= 1
C1004: + x42 + x276 <= 1
C1005: + x12 + x357 <= 1
C1006: + x106 + x322 <= 1
C1007: + x55 + x283 <= 1
C1008: + x1 + x113 <= 1
C1009: + x84 + x397 <= 1
C1010: + x38 + x214 <= 1
C1011: + x177 + x437 <= 1
C1012: + x178 + x315 <= 1
C1013: + x127 + x339 <= 1
C1014: + x367 + x396 <= 1
C1015: + x4 + x208 <= 1
C1016: + x31 + x77 <= 1
C1017: + x6 + x224 <= 1
C1018: + x32 + x71 <= 1
C1019: + x13 + x163 <= 1
C1020: + x127 + x400 <= 1
C1021: + x102 + x172 <= 1
C1022: + x41 + x87 <= 1
C1023: + x89 + x422 <= 1
C1024: + x43 + x180 <= 1
C1025: + x23 + x272 <= 1
C1026: + x202 + x203 <= 1
C1027: + x285 + x304 <= 1
C1028: + x91 + x107 <= 1
C1029: + x1 + x159 <= 1
C1030: + x64 + x319 <= 1
C1031: + x49 + x441 <= 1
C1032: + x5 + x12 <= 1
C1033: + x17 + x210 <= 1
C1034: + x111 + x203 <= 1
C1035: + x26 + x38 <= 1
C1036: + x18 + x385 <= 1
C1037: + x29 + x484 <= 1
C1038: + x38 + x380 <= 1
C1039: + x361 + x423 <= 1
C1040: + x2 + x12 + x216 <= 1
C1041: + x45 + x151 <= 1
C1042: + x12 + x40 <= 1
C1043: + x25 + x126 <= 1
C1044: + x253 + x415 <= 1
C1045: + x81 + x363 <= 1
C1046: + x20 + x411 <= 1
C1047: + x192 + x399 <= 1
C1048: + x13 + x346 <= 1
C1049: + x6 + x217 <= 1
C1050: + x26 + x269 <= 1
C1051: + x1 + x231 <= 1
C1052: + x75 + x86 <= 1
C1053: + x111 + x130 <= 1
C1054: + x86 + x363 <= 1
C1055: + x68 + x477 <= 1
C1056: + x41 + x94 <= 1
C1057: + x179 + x275 <= 1
C1058: + x42 + x72 <= 1
C1059: + x17 + x487 <= 1
C1060: + x190 + x285 <= 1
C1061: + x10 + x111 <= 1
C1062: + x300 + x325 <= 1
C1063: + x273 + x454 <= 1
C1064: + x112 + x125 <= 1
C1065: + x74 + x101 <= 1
C1066: + x20 + x33 <= 1
C1067: + x76 + x144 <= 1
C1068: + x5 + x130 <= 1
C1069: + x7 + x166 <= 1
C1070: + x63 + x71 <= 1
C1071: + x10 + x91 <= 1
C1072: + x22 + x27 <= 1
C1073: + x17 + x320 <= 1
C1074: + x8 + x28 <= 1
C1075: + x72 + x255 <= 1
C1076: + x8 + x447 <= 1
C1077: + x49 + x379 <= 1
C1078: + x167 + x279 <= 1
C1079: + x6 + x194 <= 1
C1080: + x299 + x407 <= 1
C1081: + x121 + x331 <= 1
C1082: + x165 + x223 <= 1
C1083: + x30 + x220 <= 1
C1084: + x6 + x320 <= 1
C1085: + x16 + x25 <= 1
C1086: + x72 + x144 <= 1
C1087: + x329 + x355 <= 1
C1088: + x45 + x194 <= 1
C1089: + x242 + x459 <= 1
C1090: + x27 + x317 <= 1
C1091: + x48 + x487 <= 1
C1092: + x104 + x198 <= 1
C1093: + x16 + x138 <= 1
C1094: + x1 + x10 <= 1
C1095: + x93 + x123 <= 1
C1096: + x122 + x137 <= 1
C1097: + x4 + x5 <= 1
C1098: + x25 + x192 <= 1
C1099: + x179 + x322 <= 1
C1100: + x134 + x319 <= 1
C1101: + x28 + x344 <= 1
C1102: + x67 + x263 <= 1
C1103: + x76 + x133 <= 1
C1104: + x366 + x419 <= 1
C1105: + x261 + x454 <= 1
C1106: + x11 + x84 <= 1
C1107: + x106 + x216 <= 1
C1108: + x23 + x148 <= 1
C1109: + x13 + x249 <= 1
C1110: + x99 + x270 <= 1
C1111: + x45 + x133 <= 1
C1112: + x10 + x191 <= 1
C1113: + x121 + x227 <= 1
C1114: + x17 + x311 <= 1
C1115: + x1 + x70 <= 1
C1116: + x328 + x416 <= 1
C1117: + x31 + x261 <= 1
C1118: + x396 + x499 <= 1
C1119: + x222 + x356 <= 1
C1120: + x7 + x48 <= 1
C1121: + x1 + x483 <= 1
C1122: + x292 + x294 <= 1
C1123: + x76 + x241 <= 1
C1124: + x202 + x424 <= 1
C1125: + x123 + x473 <= 1
C1126: + x125 + x298 <= 1
C1127: + x188 + x212 <= 1
C1128: + x17 + x184 <= 1
C1129: + x147 + x401 <= 1
C1130: + x322 + x393 <= 1
C1131: + x112 + x457 <= 1
C1132: + x6 + x92 <= 1
C1133: + x80 + x197 <= 1
C1134: + x53 + x265 <= 1
C1135: + x84 + x331 <= 1
C1136: + x348 + x349 <= 1
C1137: + x17 + x370 <= 1
C1138: + x7 + x330 <= 1
C1139: + x4 + x14 <= 1
C1140: + x31 + x143 <= 1
C1141: + x24 + x87 <= 1
C1142: + x56 + x330 <= 1
C1143: + x132 + x256 <= 1
C1144: + x6 + x16 <= 1
C1145: + x145 + x214 <= 1
C1146: + x408 + x432 <= 1
C1147: + x19 + x106 <= 1
C1148: + x185 + x258 <= 1
C1149: + x5 + x21 <= 1
C1150: + x23 + x171 <= 1
C1151: + x25 + x321 <= 1
C1152: + x189 + x346 <= 1
C1153: + x84 + x425 <= 1
C1154: + x286 + x360 <= 1
C1155: + x323 + x404 <= 1
C1156: + x25 + x83 <= 1
C1157: + x17 + x32 <= 1
C1158: + x53 + x196 <= 1
C1159: + x86 + x163 <= 1
C1160: + x25 + x496 <= 1
C1161: + x6 + x52 <= 1
C1162: + x91 + x224 <= 1
C1163: + x118 + x138 <= 1
C1164: + x2 + x244 <= 1
C1165: + x86 + x262 <= 1
C1166: + x180 + x184 <= 1
C1167: + x28 + x234 <= 1
C1168: + x305 + x456 <= 1
C1169: + x21 + x401 <= 1
C1170: + x71 + x147 <= 1
C1171: + x18 + x468 <= 1
C1172: + x103 + x167 <= 1
C1173: + x38 + x300 <= 1
C1174: + x106 + x150 <= 1
C1175: + x33 + x495 <= 1
C1176: + x149 + x246 <= 1
C1177: + x7 + x256 <= 1
C1178: + x27 + x29 <= 1
C1179: + x1 + x8 <= 1
C1180: + x146 + x405 <= 1
C1181: + x291 + x482 <= 1
C1182: + x45 + x71 <= 1
C1183: + x63 + x318 <= 1
C1184: + x47 + x92 <= 1
C1185: + x43 + x220 <= 1
C1186: + x283 + x387 <= 1
C1187: + x9 + x72 <= 1
C1188: + x71 + x302 <= 1
C1189: + x34 + x35 + x94 <= 1
C1190: + x14 + x95 + x292 <= 1
C1191: + x366 + x405 <= 1
C1192: + x104 + x329 <= 1
C1193: + x34 + x66 <= 1
C1194: + x6 + x9 <= 1
C1195: + x12 + x229 <= 1
C1196: + x5 + x20 <= 1
C1197: + x117 + x313 <= 1
C1198: + x25 + x328 <= 1
C1199: + x27 + x33 <= 1
C1200: + x45 + x123 <= 1
C1201: + x176 + x386 <= 1
C1202: + x70 + x143 <= 1
C1203: + x81 + x343 <= 1
C1204: + x109 + x480 <= 1
C1205: + x57 + x142 <= 1
C1206: + x220 + x229 <= 1
C1207: + x96 + x228 <= 1
C1208: + x206 + x394 <= 1
C1209: + x7 + x187 <= 1
C1210: + x36 + x402 <= 1
C1211: + x10 + x58 <= 1
C1212: + x109 + x202 <= 1
C1213: + x40 + x164 <= 1
C1214: + x98 + x185 <= 1
C1215: + x34 + x164 <= 1
C1216: + x23 + x291 <= 1
C1217: + x1 + x112 <= 1
C1218: + x10 + x149 <= 1
C1219: + x12 + x64 <= 1
C1220: + x43 + x52 <= 1
C1221: + x151 + x177 <= 1
C1222: + x7 + x86 <= 1
C1223: + x226 + x242 <= 1
C1224: + x27 + x266 <= 1
C1225: + x126 + x438 <= 1
C1226: + x425 + x467 <= 1
C1227: + x99 + x154 <= 1
C1228: + x7 + x316 <= 1
C1229: + x449 + x457 <= 1
C1230: + x2 + x292 <= 1
C1231: + x49 + x299 <= 1
C1232: + x12 + x447 <= 1
C1233: + x176 + x282 <= 1
C1234: + x132 + x238 <= 1
C1235: + x24 + x460 <= 1
C1236: + x9 + x300 <= 1
C1237: + x208 + x415 <= 1
C1238: + x101 + x178 <= 1
C1239: + x10 + x420 <= 1
C1240: + x40 + x101 <= 1
C1241: + x117 + x264 <= 1
C1242: + x1 + x43 <= 1
C1243: + x46 + x201 <= 1
C1244: + x85 + x297 <= 1
C1245: + x113 + x181 <= 1
C1246: + x312 + x461 <= 1
C1247: + x115 + x342 <= 1
C1248: + x24 + x57 <= 1
C1249: + x7 + x17 <= 1
C1250: + x7 + x190 <= 1
C1251: + x10 + x35 <= 1
C1252: + x292 + x440 <= 1
C1253: + x194 + x369 <= 1
C1254: + x149 + x277 <= 1
C1255: + x31 + x56 <= 1
C1256: + x5 + x412 <= 1
C1257: + x9 + x10 <= 1
C1258: + x30 + x67 <= 1
C1259: + x259 + x378 <= 1
C1260: + x89 + x301 <= 1
C1261: + x17 + x58 <= 1
C1262: + x80 + x212 <= 1
C1263: + x235 + x312 <= 1
C1264: + x16 + x404 <= 1
C1265: + x31 + x71 <= 1
C1266: + x9 + x153 <= 1
C1267: + x1 + x22 <= 1
C1268: + x238 + x462 <= 1
C1269: + x8 + x65 <= 1
C1270: + x7 + x307 <= 1
C1271: + x34 + x241 <= 1
C1272: + x79 + x339 <= 1
C1273: + x15 + x403 <= 1
C1274: + x47 + x380 <= 1
C1275: + x48 + x364 <= 1
C1276: + x185 + x442 <= 1
C1277: + x52 + x186 <= 1
C1278: + x252 + x338 <= 1
C1279: + x199 + x313 <= 1
C1280: + x1 + x352 <= 1
C1281: + x112 + x428 <= 1
C1282: + x112 + x271 <= 1
C1283: + x53 + x60 <= 1
C1284: + x1 + x34 <= 1
C1285: + x64 + x108 <= 1
C1286: + x12 + x114 <= 1
C1287: + x13 + x399 <= 1
C1288: + x259 + x317 <= 1
C1289: + x351 + x374 <= 1
C1290: + x7 + x12 <= 1
C1291: + x83 + x89 <= 1
C1292: + x40 + x75 + x410 <= 1
C1293: + x404 + x431 <= 1
C1294: + x6 + x47 <= 1
C1295: + x145 + x247 <= 1
C1296: + x5 + x54 <= 1
C1297: + x28 + x253 <= 1
C1298: + x64 + x96 <= 1
C1299: + x106 + x494 <= 1
C1300: + x423 + x427 <= 1
C1301: + x45 + x52 <= 1
C1302: + x112 + x167 <= 1
C1303: + x5 + x122 <= 1
C1304: + x6 + x449 <= 1
C1305: + x236 + x342 <= 1
C1306: + x94 + x485 <= 1
C1307: + x12 + x26 <= 1
C1308: + x231 + x240 <= 1
C1309: + x7 + x116 <= 1
C1310: + x63 + x418 <= 1
C1311: + x175 + x273 <= 1
C1312: + x31 + x118 <= 1
C1313: + x5 + x9 <= 1
C1314: + x7 + x354 <= 1
C1315: + x218 + x441 <= 1
C1316: + x103 + x353 <= 1
C1317: + x286 + x332 <= 1
C1318: + x97 + x109 <= 1
C1319: + x316 + x459 <= 1
C1320: + x5 + x160 <= 1
C1321: + x6 + x24 <= 1
C1322: + x43 + x414 <= 1
C1323: + x45 + x426 <= 1
C1324: + x263 + x497 <= 1
C1325: + x5 + x61 <= 1
C1326: + x170 + x335 <= 1
C1327: + x289 + x443 <= 1
C1328: + x199 + x222 <= 1
C1329: + x334 + x366 <= 1
C1330: + x45 + x156 <= 1
C1331: + x239 + x453 <= 1
C1332: + x21 + x128 <= 1
C1333: + x222 + x277 <= 1
C1334: + x59 + x382 <= 1
C1335: + x84 + x401 <= 1
C1336: + x7 + x63 <= 1
C1337: + x18 + x448 <= 1
C1338: + x1 + x274 <= 1
C1339: + x145 + x154 <= 1
C1340: + x364 + x473 <= 1
C1341: + x9 + x135 <= 1
C1342: + x238 + x448 <= 1
C1343: + x10 + x25 <= 1
C1344: + x11 + x151 <= 1
C1345: + x25 + x309 <= 1
C1346: + x5 + x446 <= 1
C1347: + x88 + x308 <= 1
C1348: + x119 + x323 <= 1
C1349: + x75 + x396 <= 1
C1350: + x2 + x5 <= 1
C1351: + x438 + x452 <= 1
C1352: + x56 + x458 <= 1
C1353: + x122 + x296 <= 1
C1354: + x70 + x373 <= 1
C1355: + x15 + x219 <= 1
C1356: + x180 + x205 <= 1
C1357: + x17 + x257 <= 1
C1358: + x213 + x371 <= 1
C1359: + x22 + x173 <= 1
C1360: + x24 + x72 <= 1
C1361: + x44 + x244 <= 1
C1362: + x57 + x170 <= 1
C1363: + x75 + x384 <= 1
C1364: + x20 + x467 <= 1
C1365: + x51 + x100 <= 1
C1366: + x6 + x17 <= 1
C1367: + x71 + x103 <= 1
C1368: + x8 + x301 <= 1
C1369: + x373 + x483 <= 1
C1370: + x49 + x489 <= 1
C1371: + x12 + x253 <= 1
C1372: + x5 + x60 <= 1
C1373: + x226 + x435 <= 1
C1374: + x9 + x63 <= 1
C1375: + x201 + x308 <= 1
C1376: + x4 + x8 + x45 <= 1
C1377: + x149 + x391 <= 1
C1378: + x6 + x418 <= 1
C1379: + x7 + x50 <= 1
C1380: + x83 + x127 <= 1
C1381: + x8 + x446 <= 1
C1382: + x11 + x61 <= 1
C1383: + x38 + x457 <= 1
C1384: + x112 + x338 <= 1
C1385: + x124 + x449 <= 1
C1386: + x7 + x211 <= 1
C1387: + x100 + x205 <= 1
C1388: + x39 + x44 <= 1
C1389: + x4 + x88 <= 1
C1390: + x104 + x124 <= 1
C1391: + x23 + x283 <= 1
C1392: + x334 + x347 <= 1
C1393: + x17 + x190 <= 1
C1394: + x127 + x169 <= 1
C1395: + x75 + x435 <= 1
C1396: + x30 + x429 <= 1
C1397: + x190 + x281 <= 1
C1398: + x182 + x492 <= 1
C1399: + x84 + x321 <= 1
C1400: + x111 + x117 <= 1
C1401: + x7 + x340 <= 1
C1402: + x236 + x465 <= 1
C1403: + x1 + x55 <= 1
C1404: + x42 + x258 <= 1
C1405: + x16 + x36 <= 1
C1406: + x18 + x126 <= 1
C1407: + x75 + x359 <= 1
C1408: + x49 + x259 <= 1
C1409: + x7 + x154 <= 1
C1410: + x355 + x430 <= 1
C1411: + x1 + x369 <= 1
C1412: + x64 + x280 <= 1
C1413: + x121 + x387 <= 1
C1414: + x12 + x246 <= 1
C1415: + x213 + x489 <= 1
C1416: + x5 + x35 <= 1
C1417: + x38 + x196 <= 1
C1418: + x133 + x157 <= 1
C1419: + x5 + x285 <= 1
C1420: + x7 + x41 <= 1
C1421: + x28 + x367 <= 1
C1422: + x23 + x419 <= 1
C1423: + x2 + x91 <= 1
C1424: + x196 + x482 <= 1
C1425: + x261 + x271 <= 1
C1426: + x18 + x341 <= 1
C1427: + x10 + x11 <= 1
C1428: + x55 + x293 <= 1
C1429: + x14 + x329 <= 1
C1430: + x101 + x264 <= 1
C1431: + x2 + x420 <= 1
C1432: + x36 + x98 <= 1
C1433: + x144 + x449 <= 1
C1434: + x2 + x178 <= 1
C1435: + x183 + x241 <= 1
C1436: + x13 + x435 <= 1
C1437: + x88 + x278 <= 1
C1438: + x24 + x86 <= 1
C1439: + x388 + x490 <= 1
C1440: + x66 + x157 <= 1
C1441: + x156 + x287 <= 1
C1442: + x42 + x121 <= 1
C1443: + x60 + x195 <= 1
C1444: + x346 + x458 <= 1
C1445: + x57 + x330 <= 1
C1446: + x17 + x299 <= 1
C1447: + x36 + x174 <= 1
C1448: + x7 + x391 <= 1
C1449: + x31 + x184 <= 1
C1450: + x45 + x294 <= 1
C1451: + x21 + x295 <= 1
C1452: + x184 + x336 <= 1
C1453: + x65 + x265 <= 1
C1454: + x14 + x183 <= 1
C1455: + x25 + x255 <= 1
C1456: + x99 + x350 <= 1
C1457: + x27 + x239 <= 1
C1458: + x2 + x282 <= 1
C1459: + x21 + x406 <= 1
C1460: + x43 + x78 <= 1
C1461: + x164 + x268 <= 1
C1462: + x46 + x49 <= 1
C1463: + x31 + x82 <= 1
C1464: + x23 + x83 <= 1
C1465: + x109 + x140 <= 1
C1466: + x28 + x134 <= 1
C1467: + x149 + x336 <= 1
C1468: + x70 + x94 <= 1
C1469: + x5 + x479 <= 1
C1470: + x24 + x83 <= 1
C1471: + x62 + x284 <= 1
C1472: + x156 + x280 <= 1
C1473: + x29 + x32 <= 1
C1474: + x3 + x7 <= 1
C1475: + x135 + x418 <= 1
C1476: + x210 + x481 <= 1
C1477: + x75 + x135 <= 1
C1478: + x5 + x17 <= 1
C1479: + x171 + x240 <= 1
C1480: + x313 + x355 <= 1
C1481: + x30 + x57 <= 1
C1482: + x25 + x87 <= 1
C1483: + x26 + x73 <= 1
C1484: + x7 + x27 <= 1
C1485: + x17 + x20 <= 1
C1486: + x64 + x224 <= 1
C1487: + x5 + x168 <= 1
C1488: + x7 + x200 <= 1
C1489: + x8 + x155 <= 1
C1490: + x52 + x69 <= 1
C1491: + x24 + x152 <= 1
C1492: + x45 + x180 <= 1
C1493: + x99 + x341 <= 1
C1494: + x120 + x341 <= 1
C1495: + x21 + x104 <= 1
C1496: + x15 + x22 <= 1
C1497: + x75 + x257 <= 1
C1498: + x2 + x97 <= 1
C1499: + x77 + x170 <= 1
C1500: + x16 + x301 <= 1
C1501: + x18 + x371 <= 1
C1502: + x1 + x28 <= 1
C1503: + x2 + x132 <= 1
C1504: + x3 + x308 <= 1
C1505: + x59 + x469 <= 1
C1506: + x20 + x495 <= 1
C1507: + x72 + x81 <= 1
C1508: + x30 + x367 <= 1
C1509: + x48 + x453 <= 1
C1510: + x328 + x394 <= 1
C1511: + x157 + x262 <= 1
C1512: + x60 + x66 <= 1
C1513: + x5 + x266 <= 1
C1514: + x13 + x405 <= 1
C1515: + x7 + x30 <= 1
C1516: + x71 + x222 <= 1
C1517: + x158 + x160 <= 1
C1518: + x2 + x201 <= 1
C1519: + x45 + x171 <= 1
C1520: + x28 + x227 <= 1
C1521: + x7 + x429 <= 1
C1522: + x246 + x493 <= 1
C1523: + x68 + x175 <= 1
C1524: + x21 + x412 <= 1
C1525: + x6 + x74 <= 1
C1526: + x164 + x314 <= 1
C1527: + x47 + x262 <= 1
C1528: + x122 + x453 <= 1
C1529: + x27 + x439 <= 1
C1530: + x80 + x417 <= 1
C1531: + x10 + x234 <= 1
C1532: + x134 + x499 <= 1
C1533: + x1 + x19 <= 1
C1534: + x129 + x456 <= 1
C1535: + x239 + x423 <= 1
C1536: + x14 + x157 <= 1
C1537: + x287 + x434 <= 1
C1538: + x24 + x97 <= 1
C1539: + x45 + x223 <= 1
C1540: + x19 + x362 <= 1
C1541: + x2 + x296 <= 1
C1542: + x227 + x365 <= 1
C1543: + x29 + x110 <= 1
C1544: + x315 + x340 <= 1
C1545: + x54 + x463 <= 1
C1546: + x274 + x486 <= 1
C1547: + x12 + x274 <= 1
C1548: + x98 + x250 <= 1
C1549: + x25 + x339 <= 1
C1550: + x1 + x47 <= 1
C1551: + x195 + x204 <= 1
C1552: + x69 + x124 <= 1
C1553: + x25 + x165 <= 1
C1554: + x24 + x53 <= 1
C1555: + x7 + x21 <= 1
C1556: + x81 + x322 <= 1
C1557: + x64 + x206 <= 1
C1558: + x335 + x461 <= 1
C1559: + x482 + x486 <= 1
C1560: + x56 + x161 <= 1
C1561: + x23 + x44 <= 1
C1562: + x72 + x126 <= 1
C1563: + x146 + x252 <= 1
C1564: + x10 + x39 <= 1
C1565: + x47 + x414 <= 1
C1566: + x286 + x487 <= 1
C1567: + x5 + x75 <= 1
C1568: + x45 + x162 <= 1
C1569: + x135 + x361 <= 1
C1570: + x83 + x493 <= 1
C1571: + x116 + x434 <= 1
C1572: + x99 + x460 <= 1
C1573: + x92 + x327 <= 1
C1574: + x55 + x436 <= 1
C1575: + x5 + x218 <= 1
C1576: + x162 + x170 <= 1
C1577: + x10 + x19 <= 1
C1578: + x8 + x189 <= 1
C1579: + x371 + x405 <= 1
C1580: + x299 + x352 <= 1
C1581: + x72 + x164 <= 1
C1582: + x19 + x353 <= 1
C1583: + x56 + x230 <= 1
C1584: + x241 + x465 <= 1
C1585: + x43 + x107 <= 1
C1586: + x7 + x125 <= 1
C1587: + x118 + x482 <= 1
C1588: + x57 + x358 <= 1
C1589: + x59 + x74 <= 1
C1590: + x260 + x329 <= 1
C1591: + x15 + x205 <= 1
C1592: + x24 + x239 <= 1
C1593: + x71 + x419 <= 1
C1594: + x92 + x101 <= 1
C1595: + x129 + x491 <= 1
C1596: + x178 + x187 <= 1
C1597: + x4 + x488 <= 1
C1598: + x88 + x270 <= 1
C1599: + x7 + x16 <= 1
C1600: + x85 + x401 <= 1
C1601: + x95 + x141 <= 1
C1602: + x22 + x437 <= 1
C1603: + x353 + x417 <= 1
C1604: + x109 + x367 <= 1
C1605: + x246 + x348 <= 1
C1606: + x211 + x272 <= 1
C1607: + x53 + x76 <= 1
C1608: + x28 + x241 <= 1
C1609: + x2 + x358 <= 1
C1610: + x123 + x191 <= 1
C1611: + x195 + x324 <= 1
C1612: + x186 + x367 <= 1
C1613: + x253 + x385 <= 1
C1614: + x18 + x443 <= 1
C1615: + x226 + x264 <= 1
C1616: + x45 + x318 <= 1
C1617: + x2 + x76 <= 1
C1618: + x10 + x486 <= 1
C1619: + x64 + x191 <= 1
C1620: + x86 + x142 <= 1
C1621: + x31 + x78 <= 1
C1622: + x70 + x324 <= 1
C1623: + x7 + x298 <= 1
C1624: + x92 + x162 <= 1
C1625: + x129 + x470 <= 1
C1626: + x179 + x208 <= 1
C1627: + x43 + x177 <= 1
C1628: + x71 + x267 <= 1
C1629: + x183 + x369 <= 1
C1630: + x86 + x452 <= 1
C1631: + x88 + x150 <= 1
C1632: + x45 + x370 <= 1
C1633: + x38 + x311 <= 1
C1634: + x13 + x152 <= 1
C1635: + x87 + x139 <= 1
C1636: + x297 + x316 <= 1
C1637: + x5 + x245 <= 1
C1638: + x36 + x79 <= 1
C1639: + x206 + x480 <= 1
C1640: + x8 + x106 <= 1
C1641: + x95 + x386 <= 1
C1642: + x12 + x107 <= 1
C1643: + x60 + x85 <= 1
C1644: + x28 + x345 <= 1
C1645: + x272 + x350 <= 1
C1646: + x292 + x426 <= 1
C1647: + x17 + x314 <= 1
C1648: + x12 + x39 <= 1
C1649: + x21 + x433 <= 1
C1650: + x22 + x303 <= 1
C1651: + x40 + x373 <= 1
C1652: + x216 + x223 <= 1
C1653: + x18 + x436 <= 1
C1654: + x9 + x409 <= 1
C1655: + x120 + x480 <= 1
C1656: + x30 + x319 <= 1
C1657: + x105 + x354 <= 1
C1658: + x57 + x389 <= 1
C1659: + x32 + x313 <= 1
C1660: + x7 + x462 <= 1
C1661: + x310 + x391 <= 1
C1662: + x12 + x19 <= 1
C1663: + x16 + x434 <= 1
C1664: + x101 + x286 <= 1
C1665: + x8 + x196 <= 1
C1666: + x265 + x484 <= 1
C1667: + x74 + x155 <= 1
C1668: + x68 + x109 <= 1
C1669: + x158 + x243 <= 1
C1670: + x220 + x283 <= 1
C1671: + x21 + x346 <= 1
C1672: + x35 + x128 <= 1
C1673: + x4 + x228 <= 1
C1674: + x5 + x244 <= 1
C1675: + x6 + x140 <= 1
C1676: + x25 + x424 <= 1
C1677: + x192 + x209 <= 1
C1678: + x29 + x234 <= 1
C1679: + x52 + x57 <= 1
C1680: + x347 + x351 <= 1
C1681: + x37 + x122 <= 1
C1682: + x320 + x440 <= 1
C1683: + x1 + x465 <= 1
C1684: + x27 + x455 <= 1
C1685: + x72 + x105 <= 1
C1686: + x55 + x278 <= 1
C1687: + x6 + x192 <= 1
C1688: + x45 + x143 <= 1
C1689: + x28 + x207 <= 1
C1690: + x84 + x414 <= 1
C1691: + x200 + x219 <= 1
C1692: + x5 + x274 <= 1
C1693: + x199 + x374 <= 1
C1694: + x92 + x430 <= 1
C1695: + x327 + x447 <= 1
C1696: + x11 + x57 <= 1
C1697: + x193 + x455 <= 1
C1698: + x42 + x63 <= 1
C1699: + x6 + x193 <= 1
C1700: + x109 + x273 <= 1
C1701: + x19 + x41 <= 1
C1702: + x16 + x28 <= 1
C1703: + x77 + x399 <= 1
C1704: + x196 + x398 <= 1
C1705: + x46 + x59 <= 1
C1706: + x265 + x491 <= 1
C1707: + x30 + x332 <= 1
C1708: + x35 + x119 <= 1
C1709: + x1 + x11 <= 1
C1710: + x103 + x279 <= 1
C1711: + x192 + x218 <= 1
C1712: + x40 + x236 <= 1
C1713: + x5 + x469 <= 1
C1714: + x51 + x182 <= 1
C1715: + x74 + x109 <= 1
C1716: + x157 + x390 <= 1
C1717: + x57 + x327 <= 1
C1718: + x24 + x202 <= 1
C1719: + x9 + x42 <= 1
C1720: + x8 + x20 <= 1
C1721: + x60 + x396 <= 1
C1722: + x149 + x156 <= 1
C1723: + x421 + x460 <= 1
C1724: + x180 + x352 <= 1
C1725: + x91 + x214 <= 1
C1726: + x36 + x483 <= 1
C1727: + x10 + x15 <= 1
C1728: + x72 + x481 <= 1
C1729: + x122 + x325 <= 1
C1730: + x2 + x250 <= 1
C1731: + x371 + x441 <= 1
C1732: + x107 + x366 <= 1
C1733: + x53 + x117 <= 1
C1734: + x276 + x281 <= 1
C1735: + x143 + x193 <= 1
C1736: + x46 + x52 <= 1
C1737: + x264 + x332 <= 1
C1738: + x204 + x499 <= 1
C1739: + x141 + x317 <= 1
C1740: + x70 + x355 <= 1
C1741: + x34 + x479 <= 1
C1742: + x25 + x438 <= 1
C1743: + x237 + x470 <= 1
C1744: + x166 + x261 <= 1
C1745: + x122 + x145 <= 1
C1746: + x125 + x172 <= 1
C1747: + x11 + x430 <= 1
C1748: + x47 + x179 <= 1
C1749: + x85 + x98 <= 1
C1750: + x76 + x362 <= 1
C1751: + x5 + x369 <= 1
C1752: + x17 + x386 <= 1
C1753: + x145 + x215 <= 1
C1754: + x39 + x110 <= 1
C1755: + x5 + x22 <= 1
C1756: + x6 + x162 <= 1
C1757: + x15 + x23 + x42 <= 1
C1758: + x7 + x379 <= 1
C1759: + x36 + x82 <= 1
C1760: + x160 + x235 + x247 <= 1
C1761: + x85 + x284 <= 1
C1762: + x38 + x201 <= 1
C1763: + x214 + x250 <= 1
C1764: + x7 + x40 <= 1
C1765: + x55 + x407 <= 1
C1766: + x14 + x80 <= 1
C1767: + x6 + x51 <= 1
C1768: + x7 + x193 <= 1
C1769: + x19 + x27 <= 1
C1770: + x2 + x243 <= 1
C1771: + x112 + x199 <= 1
C1772: + x40 + x166 <= 1
C1773: + x52 + x68 <= 1
C1774: + x25 + x195 <= 1
C1775: + x387 + x397 <= 1
C1776: + x38 + x61 <= 1
C1777: + x113 + x116 <= 1
C1778: + x67 + x326 <= 1
C1779: + x4 + x444 <= 1
C1780: + x158 + x464 <= 1
C1781: + x7 + x84 <= 1
C1782: + x8 + x356 <= 1
C1783: + x112 + x312 <= 1
C1784: + x43 + x491 <= 1
C1785: + x80 + x100 <= 1
C1786: + x381 + x440 <= 1
C1787: + x1 + x25 <= 1
C1788: + x27 + x30 <= 1
C1789: + x56 + x120 <= 1
C1790: + x112 + x139 <= 1
C1791: + x3 + x309 <= 1
C1792: + x145 + x417 <= 1
C1793: + x72 + x177 <= 1
C1794: + x420 + x446 <= 1
C1795: + x161 + x388 <= 1
C1796: + x91 + x148 <= 1
C1797: + x53 + x293 <= 1
C1798: + x23 + x450 <= 1
C1799: + x85 + x206 <= 1
C1800: + x1 + x5 + x6 + x7 <= 1
C1801: + x5 + x29 <= 1
C1802: + x15 + x305 <= 1
C1803: + x7 + x31 <= 1
C1804: + x29 + x48 <= 1
C1805: + x192 + x430 <= 1
C1806: + x367 + x432 <= 1
C1807: + x177 + x310 <= 1
C1808: + x288 + x378 <= 1
C1809: + x7 + x269 <= 1
C1810: + x32 + x285 <= 1
C1811: + x25 + x202 <= 1
C1812: + x226 + x406 <= 1
C1813: + x239 + x305 <= 1
C1814: + x86 + x481 <= 1
C1815: + x17 + x452 <= 1
C1816: + x55 + x113 <= 1
C1817: + x11 + x26 <= 1
C1818: + x64 + x347 <= 1
C1819: + x60 + x360 <= 1
C1820: + x5 + x117 <= 1
C1821: + x211 + x248 <= 1
C1822: + x113 + x492 <= 1
C1823: + x35 + x330 <= 1
C1824: + x10 + x419 <= 1
C1825: + x291 + x361 <= 1
C1826: + x2 + x49 <= 1
C1827: + x11 + x78 <= 1
C1828: + x95 + x248 <= 1
C1829: + x371 + x498 <= 1
C1830: + x198 + x340 <= 1
C1831: + x18 + x246 <= 1
C1832: + x22 + x145 <= 1
C1833: + x53 + x211 <= 1
C1834: + x74 + x116 <= 1
C1835: + x111 + x408 <= 1
C1836: + x1 + x457 <= 1
C1837: + x3 + x82 <= 1
C1838: + x30 + x284 <= 1
C1839: + x259 + x456 <= 1
C1840: + x10 + x34 <= 1
C1841: + x77 + x334 <= 1
C1842: + x198 + x211 <= 1
C1843: + x7 + x417 <= 1
C1844: + x2 + x368 <= 1
C1845: + x213 + x232 <= 1
C1846: + x259 + x375 <= 1
C1847: + x1 + x261 <= 1
C1848: + x84 + x353 <= 1
C1849: + x2 + x395 <= 1
C1850: + x23 + x97 <= 1
C1851: + x6 + x233 <= 1
C1852: + x299 + x448 <= 1
C1853: + x40 + x144 <= 1
C1854: + x43 + x203 <= 1
C1855: + x171 + x392 <= 1
C1856: + x80 + x324 <= 1
C1857: + x7 + x477 <= 1
C1858: + x4 + x342 <= 1
C1859: + x61 + x214 <= 1
C1860: + x160 + x188 <= 1
C1861: + x91 + x102 <= 1
C1862: + x1 + x337 <= 1
C1863: + x257 + x320 <= 1
C1864: + x370 + x411 <= 1
C1865: + x9 + x198 <= 1
C1866: + x55 + x150 <= 1
C1867: + x12 + x113 <= 1
C1868: + x62 + x254 <= 1
C1869: + x72 + x219 <= 1
C1870: + x45 + x271 <= 1
C1871: + x84 + x286 <= 1
C1872: + x175 + x378 <= 1
C1873: + x51 + x111 <= 1
C1874: + x23 + x48 <= 1
C1875: + x106 + x324 <= 1
C1876: + x91 + x170 <= 1
C1877: + x54 + x415 <= 1
C1878: + x7 + x412 <= 1
C1879: + x2 + x353 <= 1
C1880: + x64 + x95 <= 1
C1881: + x41 + x198 <= 1
C1882: + x123 + x180 <= 1
C1883: + x305 + x494 <= 1
C1884: + x13 + x452 <= 1
C1885: + x244 + x361 <= 1
C1886: + x35 + x136 <= 1
C1887: + x36 + x368 <= 1
C1888: + x247 + x259 <= 1
C1889: + x11 + x12 <= 1
C1890: + x158 + x169 <= 1
C1891: + x35 + x489 <= 1
C1892: + x24 + x364 <= 1
C1893: + x109 + x237 <= 1
C1894: + x1 + x238 <= 1
C1895: + x2 + x146 <= 1
C1896: + x7 + x226 <= 1
C1897: + x9 + x332 <= 1
C1898: + x8 + x185 <= 1
C1899: + x101 + x210 <= 1
C1900: + x139 + x442 <= 1
C1901: + x6 + x464 <= 1
C1902: + x10 + x370 <= 1
C1903: + x256 + x451 <= 1
C1904: + x39 + x156 <= 1
C1905: + x123 + x305 <= 1
C1906: + x258 + x286 <= 1
C1907: + x95 + x500 <= 1
C1908: + x6 + x99 <= 1
C1909: + x65 + x349 <= 1
C1910: + x57 + x362 <= 1
C1911: + x214 + x400 <= 1
C1912: + x5 + x10 <= 1
C1913: + x47 + x58 <= 1
C1914: + x103 + x354 <= 1
C1915: + x41 + x129 <= 1
C1916: + x89 + x496 <= 1
C1917: + x160 + x306 <= 1
C1918: + x127 + x364 <= 1
C1919: + x18 + x387 <= 1
C1920: + x25 + x176 <= 1
C1921: + x44 + x254 <= 1
C1922: + x6 + x23 <= 1
C1923: + x81 + x218 <= 1
C1924: + x19 + x127 <= 1
C1925: + x184 + x243 <= 1
C1926: + x117 + x152 <= 1
C1927: + x8 + x33 <= 1
C1928: + x250 + x325 <= 1
C1929: + x89 + x316 <= 1
C1930: + x53 + x245 <= 1
C1931: + x7 + x64 <= 1
C1932: + x9 + x406 <= 1
C1933: + x2 + x389 <= 1
C1934: + x38 + x463 <= 1
C1935: + x23 + x115 <= 1
C1936: + x5 + x205 <= 1
C1937: + x9 + x371 <= 1
C1938: + x1 + x229 <= 1
C1939: + x28 + x102 <= 1
C1940: + x305 + x372 <= 1
C1941: + x5 + x98 <= 1
C1942: + x34 + x130 <= 1
C1943: + x29 + x128 <= 1
C1944: + x149 + x461 <= 1
C1945: + x173 + x315 <= 1
C1946: + x54 + x477 <= 1
C1947: + x10 + x470 <= 1
C1948: + x51 + x402 <= 1
C1949: + x118 + x197 <= 1
C1950: + x7 + x346 <= 1
C1951: + x1 + x49 <= 1
C1952: + x47 + x65 <= 1
C1953: + x53 + x176 <= 1
C1954: + x92 + x413 <= 1
C1955: + x20 + x31 <= 1

binary
x1 x2 x3 x4 x5 x6 x7 x8 x9 x10 x11 x12 x13 x14 x15 x16 x17 x18 x19 x20 x21 x22 x23 x24 x25 x26 x27 x28 x29 x30 x31 x32 x33 x34 x35 x36 x37 x38 x39 x40 x41 x42 x43 x44 x45 x46 x47 x48 x49 x50 x51 x52 x53 x54 x55 x56 x57 x58 x59 x60 x61 x62 x63 x64 x65 x66 x67 x68 x69 x70 x71 x72 x73 x74 x75 x76 x77 x78 x79 x80 x81 x82 x83 x84 x85 x86 x87 x88 x89 x90 x91 x92 x93 x94 x95 x96 x97 x98 x99 x100 x101 x102 x103 x104 x105 x106 x107 x108 x109 x110 x111 x112 x113 x114 x115 x116 x117 x118 x119 x120 x121 x122 x123 x124 x125 x126 x127 x128 x129 x130 x131 x132 x133 x134 x135 x136 x137 x138 x139 x140 x141 x142 x143 x144 x145 x146 x147 x148 x149 x150 x151 x152 x153 x154 x155 x156 x157 x158 x159 x160 x161 x162 x163 x164 x165 x166 x167 x168 x169 x170 x171 x172 x173 x174 x175 x176 x177 x178 x179 x180 x181 x182 x183 x184 x185 x186 x187 x188 x189 x190 x191 x192 x193 x194 x195 x196 x197 x198 x199 x200 x201 x202 x203 x204 x205 x206 x207 x208 x209 x210 x211 x212 x213 x214 x215 x216 x217 x218 x219 x220 x221 x222 x223 x224 x225 x226 x227 x228 x229 x230 x231 x232 x233 x234 x235 x236 x237 x238 x239 x240 x241 x242 x243 x244 x245 x246 x247 x248 x249 x250 x251 x252 x253 x254 x255 x256 x257 x258 x259 x260 x261 x262 x263 x264 x265 x266 x267 x268 x269 x270 x271 x272 x273 x274 x275 x276 x277 x278 x279 x280 x281 x282 x283 x284 x285 x286 x287 x288 x289 x290 x291 x292 x293 x294 x295 x296 x297 x298 x299 x300 x301 x302 x303 x304 x305 x306 x307 x308 x309 x310 x311 x312 x313 x314 x315 x316 x317 x318 x319 x320 x321 x322 x323 x324 x325 x326 x327 x328 x329 x330 x331 x332 x333 x334 x335 x336 x337 x338 x339 x340 x341 x342 x343 x344 x345 x346 x347 x348 x349 x350 x351 x352 x353 x354 x355 x356 x357 x358 x359 x360 x361 x362 x363 x364 x365 x366 x367 x368 x369 x370 x371 x372 x373 x374 x375 x376 x377 x378 x379 x380 x381 x382 x383 x384 x385 x386 x387 x388 x389 x390 x391 x392 x393 x394 x395 x396 x397 x398 x399 x400 x401 x402 x403 x404 x405 x406 x407 x408 x409 x410 x411 x412 x413 x414 x415 x416 x417 x418 x419 x420 x421 x422 x423 x424 x425 x426 x427 x428 x429 x430 x431 x432 x433 x434 x435 x436 x437 x438 x439 x440 x441 x442 x443 x444 x445 x446 x447 x448 x449 x450 x451 x452 x453 x454 x455 x456 x457 x458 x459 x460 x461 x462 x463 x464 x465 x466 x467 x468 x469 x470 x471 x472 x473 x474 x475 x476 x477 x478 x479 x480 x481 x482 x483 x484 x485 x486 x487 x488 x489 x490 x491 x492 x493 x494 x495 x496 x497 x498 x499 x500
