maximize
OBJ: + 1 x1 + 1 x2 + 1 x3 + 1 x4 + 1 x5 + 1 x6 + 1 x7 + 1 x8 + 1 x9 + 1 x10 + 1 x11 + 1 x12 + 1 x13 + 1 x14 + 1 x15 + 1 x16 + 1 x17 + 1 x18 + 1 x19 + 1 x20 + 1 x21 + 1 x22 + 1 x23 + 1 x24 + 1 x25 + 1 x26 + 1 x27 + 1 x28 + 1 x29 + 1 x30 + 1 x31 + 1 x32 + 1 x33 + 1 x34 + 1 x35 + 1 x36 + 1 x37 + 1 x38 + 1 x39 + 1 x40 + 1 x41 + 1 x42 + 1 x43 + 1 x44 + 1 x45 + 1 x46 + 1 x47 + 1 x48 + 1 x49 + 1 x50 + 1 x51 + 1 x52 + 1 x53 + 1 x54 + 1 x55 + 1 x56 + 1 x57 + 1 x58 + 1 x59 + 1 x60 + 1 x61 + 1 x62 + 1 x63 + 1 x64 + 1 x65 + 1 x66 + 1 x67 + 1 x68 + 1 x69 + 1 x70 + 1 x71 + 1 x72 + 1 x73 + 1 x74 + 1 x75 + 1 x76 + 1 x77 + 1 x78 + 1 x79 + 1 x80 + 1 x81 + 1 x82 + 1 x83 + 1 x84 + 1 x85 + 1 x86 + 1 x87 + 1 x88 + 1 x89 + 1 x90 + 1 x91 + 1 x92 + 1 x93 + 1 x94 + 1 x95 + 1 x96 + 1 x97 + 1 x98 + 1 x99 + 1 x100 + 1 x101 + 1 x102 + 1 x103 + 1 x104 + 1 x105 + 1 x106 + 1 x107 + 1 x108 + 1 x109 + 1 x110 + 1 x111 + 1 x112 + 1 x113 + 1 x114 + 1 x115 + 1 x116 + 1 x117 + 1 x118 + 1 x119 + 1 x120 + 1 x121 + 1 x122 + 1 x123 + 1 x124 + 1 x125 + 1 x126 + 1 x127 + 1 x128 + 1 x129 + 1 x130 + 1 x131 + 1 x132 + 1 x133 + 1 x134 + 1 x135 + 1 x136 + 1 x137 + 1 x138 + 1 x139 + 1 x140 + 1 x141 + 1 x142 + 1 x143 + 1 x144 + 1 x145 + 1 x146 + 1 x147 + 1 x148 + 1 x149 + 1 x150 + 1 x151 + 1 x152 + 1 x153 + 1 x154 + 1 x155 + 1 x156 + 1 x157 + 1 x158 + 1 x159 + 1 x160 + 1 x161 + 1 x162 + 1 x163 + 1 x164 + 1 x165 + 1 x166 + 1 x167 + 1 x168 + 1 x169 + 1 x170 + 1 x171 + 1 x172 + 1 x173 + 1 x174 + 1 x175 + 1 x176 + 1 x177 + 1 x178 + 1 x179 + 1 x180 + 1 x181 + 1 x182 + 1 x183 + 1 x184 + 1 x185 + 1 x186 + 1 x187 + 1 x188 + 1 x189 + 1 x190 + 1 x191 + 1 x192 + 1 x193 + 1 x194 + 1 x195 + 1 x196 + 1 x197 + 1 x198 + 1 x199 + 1 x200 + 1 x201 + 1 x202 + 1 x203 + 1 x204 + 1 x205 + 1 x206 + 1 x207 + 1 x208 + 1 x209 + 1 x210 + 1 x211 + 1 x212 + 1 x213 + 1 x214 + 1 x215 + 1 x216 + 1 x217 + 1 x218 + 1 x219 + 1 x220 + 1 x221 + 1 x222 + 1 x223 + 1 x224 + 1 x225 + 1 x226 + 1 x227 + 1 x228 + 1 x229 + 1 x230 + 1 x231 + 1 x232 + 1 x233 + 1 x234 + 1 x235 + 1 x236 + 1 x237 + 1 x238 + 1 x239 + 1 x240 + 1 x241 + 1 x242 + 1 x243 + 1 x244 + 1 x245 + 1 x246 + 1 x247 + 1 x248 + 1 x249 + 1 x250 + 1 x251 + 1 x252 + 1 x253 + 1 x254 + 1 x255 + 1 x256 + 1 x257 + 1 x258 + 1 x259 + 1 x260 + 1 x261 + 1 x262 + 1 x263 + 1 x264 + 1 x265 + 1 x266 + 1 x267 + 1 x268 + 1 x269 + 1 x270 + 1 x271 + 1 x272 + 1 x273 + 1 x274 + 1 x275 + 1 x276 + 1 x277 + 1 x278 + 1 x279 + 1 x280 + 1 x281 + 1 x282 + 1 x283 + 1 x284 + 1 x285 + 1 x286 + 1 x287 + 1 x288 + 1 x289 + 1 x290 + 1 x291 + 1 x292 + 1 x293 + 1 x294 + 1 x295 + 1 x296 + 1 x297 + 1 x298 + 1 x299 + 1 x300 + 1 x301 + 1 x302 + 1 x303 + 1 x304 + 1 x305 + 1 x306 + 1 x307 + 1 x308 + 1 x309 + 1 x310 + 1 x311 + 1 x312 + 1 x313 + 1 x314 + 1 x315 + 1 x316 + 1 x317 + 1 x318 + 1 x319 + 1 x320 + 1 x321 + 1 x322 + 1 x323 + 1 x324 + 1 x325 + 1 x326 + 1 x327 + 1 x328 + 1 x329 + 1 x330 + 1 x331 + 1 x332 + 1 x333 + 1 x334 + 1 x335 + 1 x336 + 1 x337 + 1 x338 + 1 x339 + 1 x340 + 1 x341 + 1 x342 + 1 x343 + 1 x344 + 1 x345 + 1 x346 + 1 x347 + 1 x348 + 1 x349 + 1 x350 + 1 x351 + 1 x352 + 1 x353 + 1 x354 + 1 x355 + 1 x356 + 1 x357 + 1 x358 + 1 x359 + 1 x360 + 1 x361 + 1 x362 + 1 x363 + 1 x364 + 1 x365 + 1 x366 + 1 x367 + 1 x368 + 1 x369 + 1 x370 + 1 x371 + 1 x372 + 1 x373 + 1 x374 + 1 x375 + 1 x376 + 1 x377 + 1 x378 + 1 x379 + 1 x380 + 1 x381 + 1 x382 + 1 x383 + 1 x384 + 1 x385 + 1 x386 + 1 x387 + 1 x388 + 1 x389 + 1 x390 + 1 x391 + 1 x392 + 1 x393 + 1 x394 + 1 x395 + 1 x396 + 1 x397 + 1 x398 + 1 x399 + 1 x400 + 1 x401 + 1 x402 + 1 x403 + 1 x404 + 1 x405 + 1 x406 + 1 x407 + 1 x408 + 1 x409 + 1 x410 + 1 x411 + 1 x412 + 1 x413 + 1 x414 + 1 x415 + 1 x416 + 1 x417 + 1 x418 + 1 x419 + 1 x420 + 1 x421 + 1 x422 + 1 x423 + 1 x424 + 1 x425 + 1 x426 + 1 x427 + 1 x428 + 1 x429 + 1 x430 + 1 x431 + 1 x432 + 1 x433 + 1 x434 + 1 x435 + 1 x436 + 1 x437 + 1 x438 + 1 x439 + 1 x440 + 1 x441 + 1 x442 + 1 x443 + 1 x444 + 1 x445 + 1 x446 + 1 x447 + 1 x448 + 1 x449 + 1 x450 + 1 x451 + 1 x452 + 1 x453 + 1 x454 + 1 x455 + 1 x456 + 1 x457 + 1 x458 + 1 x459 + 1 x460 + 1 x461 + 1 x462 + 1 x463 + 1 x464 + 1 x465 + 1 x466 + 1 x467 + 1 x468 + 1 x469 + 1 x470 + 1 x471 + 1 x472 + 1 x473 + 1 x474 + 1 x475 + 1 x476 + 1 x477 + 1 x478 + 1 x479 + 1 x480 + 1 x481 + 1 x482 + 1 x483 + 1 x484 + 1 x485 + 1 x486 + 1 x487 + 1 x488 + 1 x489 + 1 x490 + 1 x491 + 1 x492 + 1 x493 + 1 x494 + 1 x495 + 1 x496 + 1 x497 + 1 x498 + 1 x499 + 1 x500

subject to
C1: + x30 + x487 <= 1
C2: + x215 + x378 <= 1
C3: + x35 + x295 <= 1
C4: + x6 + x32 <= 1
C5: + x19 + x429 <= 1
C6: + x99 + x103 <= 1
C7: + x261 + x477 <= 1
C8: + x40 + x71 <= 1
C9: + x23 + x155 <= 1
C10: + x98 + x220 <= 1
C11: + x99 + x373 <= 1
C12: + x197 + x357 <= 1
C13: + x18 + x21 <= 1
C14: + x11 + x272 <= 1
C15: + x467 + x497 <= 1
C16: + x1 + x77 <= 1
C17: + x340 + x442 <= 1
C18: + x2 + x371 <= 1
C19: + x256 + x397 <= 1
C20: + x147 + x488 <= 1
C21: + x416 + x442 <= 1
C22: + x72 + x253 <= 1
C23: + x93 + x347 <= 1
C24: + x209 + x240 <= 1
C25: + x211 + x406 <= 1
C26: + x186 + x471 <= 1
C27: + x66 + x420 <= 1
C28: + x213 + x439 <= 1
C29: + x25 + x317 <= 1
C30: + x252 + x409 <= 1
C31: + x5 + x422 <= 1
C32: + x20 + x92 <= 1
C33: + x64 + x152 <= 1
C34: + x328 + x384 <= 1
C35: + x3 + x131 <= 1
C36: + x35 + x124 <= 1
C37: + x7 + x337 <= 1
C38: + x74 + x397 <= 1
C39: + x46 + x300 <= 1
C40: + x64 + x229 <= 1
C41: + x6 + x25 <= 1
C42: + x163 + x363 <= 1
C43: + x54 + x63 <= 1
C44: + x56 + x406 <= 1
C45: + x95 + x288 <= 1
C46: + x312 + x321 <= 1
C47: + x6 + x188 <= 1
C48: + x8 + x23 <= 1
C49: + x101 + x128 <= 1
C50: + x21 + x444 <= 1
C51: + x40 + x362 <= 1
C52: + x252 + x289 <= 1
C53: + x18 + x425 <= 1
C54: + x7 + x42 <= 1
C55: + x129 + x214 <= 1
C56: + x10 + x284 <= 1
C57: + x11 + x37 <= 1
C58: + x77 + x193 <= 1
C59: + x137 + x331 <= 1
C60: + x92 + x180 <= 1
C61: + x243 + x455 <= 1
C62: + x9 + x19 <= 1
C63: + x223 + x243 <= 1
C64: + x104 + x414 <= 1
C65: + x57 + x202 <= 1
C66: + x5 + x231 <= 1
C67: + x6 + x332 <= 1
C68: + x132 + x396 <= 1
C69: + x5 + x465 <= 1
C70: + x120 + x406 <= 1
C71: + x11 + x431 <= 1
C72: + x56 + x336 <= 1
C73: + x35 + x313 <= 1
C74: + x1 + x329 <= 1
C75: + x137 + x241 <= 1
C76: + x147 + x181 <= 1
C77: + x202 + x474 <= 1
C78: + x242 + x304 <= 1
C79: + x437 + x495 <= 1
C80: + x5 + x43 <= 1
C81: + x107 + x233 <= 1
C82: + x29 + x177 <= 1
C83: + x24 + x41 <= 1
C84: + x3 + x65 <= 1
C85: + x95 + x146 <= 1
C86: + x31 + x427 <= 1
C87: + x70 + x315 <= 1
C88: + x27 + x75 <= 1
C89: + x454 + x471 <= 1
C90: + x57 + x407 <= 1
C91: + x214 + x307 <= 1
C92: + x14 + x182 <= 1
C93: + x34 + x149 <= 1
C94: + x17 + x173 <= 1
C95: + x199 + x244 <= 1
C96: + x5 + x95 <= 1
C97: + x170 + x365 <= 1
C98: + x6 + x292 <= 1
C99: + x9 + x26 <= 1
C100: + x336 + x412 <= 1
C101: + x48 + x217 <= 1
C102: + x5 + x329 <= 1
C103: + x15 + x20 <= 1
C104: + x119 + x498 <= 1
C105: + x11 + x20 <= 1
C106: + x122 + x314 <= 1
C107: + x31 + x87 <= 1
C108: + x368 + x482 <= 1
C109: + x15 + x173 <= 1
C110: + x379 + x456 <= 1
C111: + x6 + x472 <= 1
C112: + x227 + x348 <= 1
C113: + x53 + x133 <= 1
C114: + x2 + x469 <= 1
C115: + x3 + x8 <= 1
C116: + x14 + x408 <= 1
C117: + x25 + x41 <= 1
C118: + x148 + x200 <= 1
C119: + x30 + x149 <= 1
C120: + x260 + x341 <= 1
C121: + x15 + x249 <= 1
C122: + x35 + x405 <= 1
C123: + x11 + x313 <= 1
C124: + x350 + x366 <= 1
C125: + x70 + x129 <= 1
C126: + x350 + x353 + x437 <= 1
C127: + x66 + x161 <= 1
C128: + x385 + x489 <= 1
C129: + x331 + x381 <= 1
C130: + x50 + x114 <= 1
C131: + x9 + x164 <= 1
C132: + x137 + x377 <= 1
C133: + x11 + x140 <= 1
C134: + x21 + x132 <= 1
C135: + x69 + x457 <= 1
C136: + x25 + x199 <= 1
C137: + x53 + x128 <= 1
C138: + x72 + x377 <= 1
C139: + x8 + x57 <= 1
C140: + x30 + x76 <= 1
C141: + x13 + x467 <= 1
C142: + x252 + x267 <= 1
C143: + x83 + x157 <= 1
C144: + x8 + x352 <= 1
C145: + x400 + x435 <= 1
C146: + x67 + x176 <= 1
C147: + x153 + x246 <= 1
C148: + x254 + x369 <= 1
C149: + x7 + x326 <= 1
C150: + x210 + x336 <= 1
C151: + x134 + x393 <= 1
C152: + x13 + x21 <= 1
C153: + x98 + x314 <= 1
C154: + x96 + x392 <= 1
C155: + x9 + x77 <= 1
C156: + x14 + x302 <= 1
C157: + x66 + x110 <= 1
C158: + x236 + x358 <= 1
C159: + x15 + x39 <= 1
C160: + x163 + x376 <= 1
C161: + x72 + x84 <= 1
C162: + x161 + x229 <= 1
C163: + x6 + x151 <= 1
C164: + x29 + x135 <= 1
C165: + x7 + x19 <= 1
C166: + x66 + x186 <= 1
C167: + x21 + x310 <= 1
C168: + x106 + x342 <= 1
C169: + x287 + x362 <= 1
C170: + x6 + x40 <= 1
C171: + x85 + x158 <= 1
C172: + x159 + x480 <= 1
C173: + x213 + x304 <= 1
C174: + x4 + x421 <= 1
C175: + x52 + x236 <= 1
C176: + x6 + x73 <= 1
C177: + x24 + x499 <= 1
C178: + x110 + x279 <= 1
C179: + x20 + x394 <= 1
C180: + x23 + x110 <= 1
C181: + x5 + x212 <= 1
C182: + x153 + x253 <= 1
C183: + x146 + x385 <= 1
C184: + x119 + x210 <= 1
C185: + x56 + x73 <= 1
C186: + x46 + x272 <= 1
C187: + x13 + x20 <= 1
C188: + x107 + x272 <= 1
C189: + x1 + x433 <= 1
C190: + x50 + x184 <= 1
C191: + x51 + x64 <= 1
C192: + x15 + x42 <= 1
C193: + x6 + x125 <= 1
C194: + x27 + x295 <= 1
C195: + x13 + x227 <= 1
C196: + x6 + x160 <= 1
C197: + x51 + x481 <= 1
C198: + x27 + x53 <= 1
C199: + x235 + x492 <= 1
C200: + x220 + x241 <= 1
C201: + x77 + x229 <= 1
C202: + x6 + x33 <= 1
C203: + x9 + x285 <= 1
C204: + x91 + x171 <= 1
C205: + x16 + x362 <= 1
C206: + x182 + x423 <= 1
C207: + x232 + x280 <= 1
C208: + x142 + x439 <= 1
C209: + x334 + x375 <= 1
C210: + x152 + x468 <= 1
C211: + x191 + x194 <= 1
C212: + x49 + x166 <= 1
C213: + x131 + x349 <= 1
C214: + x12 + x44 <= 1
C215: + x48 + x291 <= 1
C216: + x31 + x303 <= 1
C217: + x91 + x94 <= 1
C218: + x3 + x98 <= 1
C219: + x186 + x456 <= 1
C220: + x14 + x50 <= 1
C221: + x46 + x265 <= 1
C222: + x34 + x321 <= 1
C223: + x23 + x267 <= 1
C224: + x13 + x309 <= 1
C225: + x15 + x49 <= 1
C226: + x6 + x102 <= 1
C227: + x436 + x465 <= 1
C228: + x185 + x284 <= 1
C229: + x67 + x118 <= 1
C230: + x122 + x281 <= 1
C231: + x15 + x206 <= 1
C232: + x97 + x107 <= 1
C233: + x72 + x215 <= 1
C234: + x13 + x361 <= 1
C235: + x17 + x423 <= 1
C236: + x191 + x475 <= 1
C237: + x29 + x268 <= 1
C238: + x22 + x23 <= 1
C239: + x5 + x51 <= 1
C240: + x126 + x256 <= 1
C241: + x76 + x478 <= 1
C242: + x12 + x33 <= 1
C243: + x167 + x442 <= 1
C244: + x344 + x400 <= 1
C245: + x332 + x346 <= 1
C246: + x115 + x415 <= 1
C247: + x163 + x274 <= 1
C248: + x381 + x473 <= 1
C249: + x193 + x279 <= 1
C250: + x12 + x178 <= 1
C251: + x14 + x142 <= 1
C252: + x71 + x268 <= 1
C253: + x67 + x383 <= 1
C254: + x12 + x29 <= 1
C255: + x105 + x395 <= 1
C256: + x294 + x339 <= 1
C257: + x87 + x303 <= 1
C258: + x40 + x435 <= 1
C259: + x5 + x337 <= 1
C260: + x7 + x117 <= 1
C261: + x146 + x260 <= 1
C262: + x166 + x182 <= 1
C263: + x11 + x124 <= 1
C264: + x12 + x271 <= 1
C265: + x5 + x246 <= 1
C266: + x9 + x241 <= 1
C267: + x62 + x432 <= 1
C268: + x18 + x220 <= 1
C269: + x13 + x118 <= 1
C270: + x7 + x8 <= 1
C271: + x8 + x400 <= 1
C272: + x393 + x440 <= 1
C273: + x25 + x465 <= 1
C274: + x6 + x19 <= 1
C275: + x92 + x295 <= 1
C276: + x47 + x429 <= 1
C277: + x149 + x296 <= 1
C278: + x14 + x211 <= 1
C279: + x17 + x144 <= 1
C280: + x94 + x293 <= 1
C281: + x95 + x435 <= 1
C282: + x48 + x305 <= 1
C283: + x6 + x420 <= 1
C284: + x111 + x498 <= 1
C285: + x220 + x322 <= 1
C286: + x31 + x438 <= 1
C287: + x132 + x183 <= 1
C288: + x22 + x385 <= 1
C289: + x82 + x158 <= 1
C290: + x172 + x288 <= 1
C291: + x56 + x88 <= 1
C292: + x47 + x121 <= 1
C293: + x197 + x251 <= 1
C294: + x128 + x313 <= 1
C295: + x121 + x163 <= 1
C296: + x2 + x266 <= 1
C297: + x5 + x352 <= 1
C298: + x44 + x346 <= 1
C299: + x21 + x347 <= 1
C300: + x6 + x139 <= 1
C301: + x15 + x224 <= 1
C302: + x9 + x248 <= 1
C303: + x8 + x98 <= 1
C304: + x182 + x252 <= 1
C305: + x248 + x428 <= 1
C306: + x55 + x380 <= 1
C307: + x9 + x85 <= 1
C308: + x11 + x87 <= 1
C309: + x59 + x429 <= 1
C310: + x5 + x33 <= 1
C311: + x35 + x392 <= 1
C312: + x317 + x448 <= 1
C313: + x10 + x188 <= 1
C314: + x13 + x494 <= 1
C315: + x17 + x36 <= 1
C316: + x8 + x441 <= 1
C317: + x66 + x261 <= 1
C318: + x2 + x69 <= 1
C319: + x169 + x383 <= 1
C320: + x14 + x93 <= 1
C321: + x27 + x396 <= 1
C322: + x113 + x282 <= 1
C323: + x5 + x418 <= 1
C324: + x45 + x196 <= 1
C325: + x119 + x351 <= 1
C326: + x293 + x331 <= 1
C327: + x59 + x342 <= 1
C328: + x14 + x430 <= 1
C329: + x128 + x389 <= 1
C330: + x39 + x448 <= 1
C331: + x13 + x135 <= 1
C332: + x162 + x307 <= 1
C333: + x47 + x80 <= 1
C334: + x149 + x327 <= 1
C335: + x196 + x286 <= 1
C336: + x115 + x371 <= 1
C337: + x195 + x315 <= 1
C338: + x24 + x447 <= 1
C339: + x8 + x289 <= 1
C340: + x92 + x252 <= 1
C341: + x66 + x365 <= 1
C342: + x205 + x443 <= 1
C343: + x17 + x254 <= 1
C344: + x16 + x96 <= 1
C345: + x226 + x463 <= 1
C346: + x62 + x374 <= 1
C347: + x25 + x78 <= 1
C348: + x53 + x199 <= 1
C349: + x80 + x179 <= 1
C350: + x46 + x127 <= 1
C351: + x86 + x168 <= 1
C352: + x5 + x191 <= 1
C353: + x6 + x201 <= 1
C354: + x80 + x82 <= 1
C355: + x10 + x14 <= 1
C356: + x2 + x249 <= 1
C357: + x107 + x146 <= 1
C358: + x315 + x411 <= 1
C359: + x307 + x464 <= 1
C360: + x111 + x371 <= 1
C361: + x313 + x422 <= 1
C362: + x30 + x118 <= 1
C363: + x148 + x485 <= 1
C364: + x25 + x26 <= 1
C365: + x142 + x242 <= 1
C366: + x122 + x152 <= 1
C367: + x334 + x387 <= 1
C368: + x50 + x129 <= 1
C369: + x25 + x38 <= 1
C370: + x150 + x259 <= 1
C371: + x5 + x370 <= 1
C372: + x45 + x404 <= 1
C373: + x50 + x484 <= 1
C374: + x51 + x500 <= 1
C375: + x5 + x23 <= 1
C376: + x326 + x375 <= 1
C377: + x17 + x18 <= 1
C378: + x163 + x465 <= 1
C379: + x29 + x415 <= 1
C380: + x50 + x125 <= 1
C381: + x114 + x317 <= 1
C382: + x14 + x79 <= 1
C383: + x345 + x487 <= 1
C384: + x9 + x161 <= 1
C385: + x110 + x219 <= 1
C386: + x10 + x55 <= 1
C387: + x7 + x267 <= 1
C388: + x32 + x279 <= 1
C389: + x104 + x407 <= 1
C390: + x15 + x24 <= 1
C391: + x53 + x274 <= 1
C392: + x27 + x269 <= 1
C393: + x155 + x378 <= 1
C394: + x141 + x309 <= 1
C395: + x83 + x400 <= 1
C396: + x201 + x354 <= 1
C397: + x69 + x498 <= 1
C398: + x5 + x476 <= 1
C399: + x27 + x192 <= 1
C400: + x165 + x280 <= 1
C401: + x138 + x401 <= 1
C402: + x178 + x461 <= 1
C403: + x126 + x399 <= 1
C404: + x282 + x388 <= 1
C405: + x147 + x172 <= 1
C406: + x197 + x350 <= 1
C407: + x25 + x330 <= 1
C408: + x15 + x306 <= 1
C409: + x381 + x389 <= 1
C410: + x6 + x357 <= 1
C411: + x191 + x240 <= 1
C412: + x113 + x192 <= 1
C413: + x64 + x104 <= 1
C414: + x30 + x52 <= 1
C415: + x31 + x164 <= 1
C416: + x32 + x399 <= 1
C417: + x119 + x305 <= 1
C418: + x15 + x112 <= 1
C419: + x163 + x250 <= 1
C420: + x11 + x184 <= 1
C421: + x5 + x66 <= 1
C422: + x180 + x191 <= 1
C423: + x82 + x496 <= 1
C424: + x8 + x53 <= 1
C425: + x165 + x299 <= 1
C426: + x130 + x345 <= 1
C427: + x12 + x50 <= 1
C428: + x303 + x427 <= 1
C429: + x276 + x298 <= 1
C430: + x4 + x420 <= 1
C431: + x15 + x31 <= 1
C432: + x25 + x104 <= 1
C433: + x172 + x251 <= 1
C434: + x10 + x236 <= 1
C435: + x13 + x17 <= 1
C436: + x1 + x446 <= 1
C437: + x338 + x367 <= 1
C438: + x8 + x489 <= 1
C439: + x56 + x346 <= 1
C440: + x5 + x360 <= 1
C441: + x324 + x355 <= 1
C442: + x7 + x136 <= 1
C443: + x191 + x481 <= 1
C444: + x59 + x65 <= 1
C445: + x28 + x174 <= 1
C446: + x10 + x216 <= 1
C447: + x39 + x250 <= 1
C448: + x4 + x42 <= 1
C449: + x187 + x223 <= 1
C450: + x66 + x190 <= 1
C451: + x51 + x117 <= 1
C452: + x159 + x238 <= 1
C453: + x146 + x329 <= 1
C454: + x21 + x151 <= 1
C455: + x5 + x73 <= 1
C456: + x89 + x93 <= 1
C457: + x16 + x127 <= 1
C458: + x8 + x46 <= 1
C459: + x68 + x150 <= 1
C460: + x150 + x330 <= 1
C461: + x253 + x400 <= 1
C462: + x40 + x44 <= 1
C463: + x27 + x109 <= 1
C464: + x121 + x309 <= 1
C465: + x178 + x201 <= 1
C466: + x14 + x152 <= 1
C467: + x17 + x75 <= 1
C468: + x6 + x454 <= 1
C469: + x8 + x482 <= 1
C470: + x37 + x134 <= 1
C471: + x9 + x469 <= 1
C472: + x17 + x277 <= 1
C473: + x63 + x282 <= 1
C474: + x11 + x215 <= 1
C475: + x40 + x195 <= 1
C476: + x25 + x170 <= 1
C477: + x53 + x219 <= 1
C478: + x307 + x353 <= 1
C479: + x37 + x74 <= 1
C480: + x6 + x45 <= 1
C481: + x92 + x148 <= 1
C482: + x5 + x56 <= 1
C483: + x48 + x244 <= 1
C484: + x12 + x499 <= 1
C485: + x178 + x316 <= 1
C486: + x21 + x115 <= 1
C487: + x4 + x402 <= 1
C488: + x37 + x62 <= 1
C489: + x55 + x68 <= 1
C490: + x50 + x84 <= 1
C491: + x16 + x314 <= 1
C492: + x5 + x6 + x8 + x11 <= 1
C493: + x10 + x22 <= 1
C494: + x11 + x238 <= 1
C495: + x95 + x344 <= 1
C496: + x59 + x484 <= 1
C497: + x43 + x179 <= 1
C498: + x200 + x287 <= 1
C499: + x46 + x168 <= 1
C500: + x11 + x335 <= 1
C501: + x59 + x242 <= 1
C502: + x78 + x180 <= 1
C503: + x43 + x88 <= 1
C504: + x68 + x199 <= 1
C505: + x396 + x441 <= 1
C506: + x14 + x447 <= 1
C507: + x155 + x212 <= 1
C508: + x36 + x347 <= 1
C509: + x398 + x405 <= 1
C510: + x92 + x221 <= 1
C511: + x39 + x57 + x80 <= 1
C512: + x280 + x352 <= 1
C513: + x45 + x263 <= 1
C514: + x262 + x334 <= 1
C515: + x128 + x379 <= 1
C516: + x166 + x463 <= 1
C517: + x38 + x410 <= 1
C518: + x40 + x486 <= 1
C519: + x83 + x243 <= 1
C520: + x31 + x40 <= 1
C521: + x5 + x63 <= 1
C522: + x125 + x244 <= 1
C523: + x6 + x260 <= 1
C524: + x20 + x138 <= 1
C525: + x67 + x181 <= 1
C526: + x296 + x357 <= 1
C527: + x25 + x410 <= 1
C528: + x145 + x156 <= 1
C529: + x9 + x137 <= 1
C530: + x5 + x99 <= 1
C531: + x53 + x101 <= 1
C532: + x21 + x78 <= 1
C533: + x7 + x105 <= 1
C534: + x10 + x112 <= 1
C535: + x11 + x104 <= 1
C536: + x219 + x411 <= 1
C537: + x20 + x360 <= 1
C538: + x22 + x88 <= 1
C539: + x14 + x27 <= 1
C540: + x15 + x217 <= 1
C541: + x168 + x217 <= 1
C542: + x16 + x130 <= 1
C543: + x132 + x354 <= 1
C544: + x103 + x282 <= 1
C545: + x14 + x265 <= 1
C546: + x92 + x416 <= 1
C547: + x3 + x60 <= 1
C548: + x95 + x121 <= 1
C549: + x178 + x421 <= 1
C550: + x39 + x126 <= 1
C551: + x21 + x164 <= 1
C552: + x5 + x38 <= 1
C553: + x96 + x101 <= 1
C554: + x171 + x334 <= 1
C555: + x161 + x218 <= 1
C556: + x197 + x358 <= 1
C557: + x57 + x301 <= 1
C558: + x56 + x269 <= 1
C559: + x4 + x30 + x178 <= 1
C560: + x6 + x195 <= 1
C561: + x80 + x443 <= 1
C562: + x170 + x175 <= 1
C563: + x154 + x480 <= 1
C564: + x200 + x269 <= 1
C565: + x2 + x270 <= 1
C566: + x67 + x374 <= 1
C567: + x149 + x469 <= 1
C568: + x233 + x417 <= 1
C569: + x52 + x143 <= 1
C570: + x200 + x436 <= 1
C571: + x2 + x20 <= 1
C572: + x85 + x234 <= 1
C573: + x29 + x322 <= 1
C574: + x184 + x272 <= 1
C575: + x99 + x144 <= 1
C576: + x1 + x9 <= 1
C577: + x8 + x94 <= 1
C578: + x192 + x224 <= 1
C579: + x95 + x398 <= 1
C580: + x4 + x6 <= 1
C581: + x135 + x200 <= 1
C582: + x56 + x139 <= 1
C583: + x67 + x243 <= 1
C584: + x122 + x416 <= 1
C585: + x33 + x79 <= 1
C586: + x11 + x83 <= 1
C587: + x222 + x450 <= 1
C588: + x206 + x264 <= 1
C589: + x180 + x301 <= 1
C590: + x6 + x425 <= 1
C591: + x11 + x38 <= 1
C592: + x56 + x262 <= 1
C593: + x5 + x180 <= 1
C594: + x207 + x479 <= 1
C595: + x52 + x359 <= 1
C596: + x125 + x460 <= 1
C597: + x16 + x277 <= 1
C598: + x34 + x368 <= 1
C599: + x20 + x100 <= 1
C600: + x12 + x15 <= 1
C601: + x170 + x390 <= 1
C602: + x44 + x69 <= 1
C603: + x8 + x91 <= 1
C604: + x64 + x394 <= 1
C605: + x122 + x147 <= 1
C606: + x222 + x426 <= 1
C607: + x4 + x11 <= 1
C608: + x5 + x466 <= 1
C609: + x105 + x183 <= 1
C610: + x385 + x455 <= 1
C611: + x48 + x350 <= 1
C612: + x69 + x250 <= 1
C613: + x25 + x35 <= 1
C614: + x257 + x297 <= 1
C615: + x67 + x111 <= 1
C616: + x49 + x409 <= 1
C617: + x15 + x247 <= 1
C618: + x8 + x15 <= 1
C619: + x15 + x453 <= 1
C620: + x27 + x76 <= 1
C621: + x10 + x50 <= 1
C622: + x8 + x160 <= 1
C623: + x78 + x426 <= 1
C624: + x25 + x193 <= 1
C625: + x5 + x405 <= 1
C626: + x91 + x429 <= 1
C627: + x11 + x355 <= 1
C628: + x41 + x239 <= 1
C629: + x25 + x30 <= 1
C630: + x52 + x157 <= 1
C631: + x43 + x64 + x67 <= 1
C632: + x11 + x17 <= 1
C633: + x66 + x302 <= 1
C634: + x30 + x352 <= 1
C635: + x90 + x237 <= 1
C636: + x35 + x450 <= 1
C637: + x163 + x184 <= 1
C638: + x1 + x7 <= 1
C639: + x294 + x475 <= 1
C640: + x42 + x197 <= 1
C641: + x205 + x236 <= 1
C642: + x326 + x482 <= 1
C643: + x475 + x487 <= 1
C644: + x38 + x99 <= 1
C645: + x3 + x5 <= 1
C646: + x87 + x260 <= 1
C647: + x6 + x10 <= 1
C648: + x44 + x264 <= 1
C649: + x63 + x123 <= 1
C650: + x147 + x173 <= 1
C651: + x11 + x69 <= 1
C652: + x114 + x168 <= 1
C653: + x197 + x339 <= 1
C654: + x9 + x214 <= 1
C655: + x9 + x10 + x31 <= 1
C656: + x168 + x294 <= 1
C657: + x6 + x411 <= 1
C658: + x84 + x270 <= 1
C659: + x302 + x319 <= 1
C660: + x103 + x109 <= 1
C661: + x48 + x431 <= 1
C662: + x27 + x410 <= 1
C663: + x27 + x83 <= 1
C664: + x3 + x254 <= 1
C665: + x13 + x34 <= 1
C666: + x14 + x174 <= 1
C667: + x52 + x71 <= 1
C668: + x17 + x165 <= 1
C669: + x32 + x275 <= 1
C670: + x66 + x81 <= 1
C671: + x95 + x472 <= 1
C672: + x50 + x194 <= 1
C673: + x6 + x79 <= 1
C674: + x7 + x85 <= 1
C675: + x310 + x320 <= 1
C676: + x93 + x162 <= 1
C677: + x13 + x177 <= 1
C678: + x32 + x85 <= 1
C679: + x5 + x214 <= 1
C680: + x184 + x186 <= 1
C681: + x21 + x209 <= 1
C682: + x297 + x442 <= 1
C683: + x13 + x22 <= 1
C684: + x56 + x349 <= 1
C685: + x2 + x7 + x13 + x14 <= 1
C686: + x6 + x115 <= 1
C687: + x91 + x157 <= 1
C688: + x347 + x458 <= 1
C689: + x7 + x129 <= 1
C690: + x63 + x126 <= 1
C691: + x185 + x271 <= 1
C692: + x298 + x485 <= 1
C693: + x27 + x43 <= 1
C694: + x20 + x171 <= 1
C695: + x51 + x332 <= 1
C696: + x31 + x377 <= 1
C697: + x78 + x459 <= 1
C698: + x6 + x388 <= 1
C699: + x147 + x366 <= 1
C700: + x50 + x106 <= 1
C701: + x9 + x279 <= 1
C702: + x10 + x36 <= 1
C703: + x52 + x80 <= 1
C704: + x35 + x46 <= 1
C705: + x8 + x49 <= 1
C706: + x21 + x422 <= 1
C707: + x136 + x163 <= 1
C708: + x11 + x458 <= 1
C709: + x130 + x163 <= 1
C710: + x5 + x221 <= 1
C711: + x45 + x60 <= 1
C712: + x37 + x294 <= 1
C713: + x11 + x232 <= 1
C714: + x33 + x345 <= 1
C715: + x5 + x114 <= 1
C716: + x65 + x114 <= 1
C717: + x14 + x393 <= 1
C718: + x25 + x56 <= 1
C719: + x5 + x356 <= 1
C720: + x266 + x455 <= 1
C721: + x44 + x401 <= 1
C722: + x53 + x462 <= 1
C723: + x21 + x36 <= 1
C724: + x63 + x248 <= 1
C725: + x77 + x230 <= 1
C726: + x430 + x455 <= 1
C727: + x5 + x152 <= 1
C728: + x14 + x125 <= 1
C729: + x27 + x492 <= 1
C730: + x65 + x171 <= 1
C731: + x63 + x486 <= 1
C732: + x120 + x130 <= 1
C733: + x2 + x200 <= 1
C734: + x94 + x143 <= 1
C735: + x5 + x53 <= 1
C736: + x396 + x460 <= 1
C737: + x76 + x205 + x296 <= 1
C738: + x57 + x231 <= 1
C739: + x238 + x293 <= 1
C740: + x58 + x148 <= 1
C741: + x31 + x73 <= 1
C742: + x14 + x49 <= 1
C743: + x214 + x446 <= 1
C744: + x44 + x478 <= 1
C745: + x8 + x191 <= 1
C746: + x56 + x65 <= 1
C747: + x166 + x315 <= 1
C748: + x168 + x413 <= 1
C749: + x5 + x438 <= 1
C750: + x10 + x372 <= 1
C751: + x67 + x210 <= 1
C752: + x413 + x454 <= 1
C753: + x43 + x105 <= 1
C754: + x15 + x50 <= 1
C755: + x200 + x449 <= 1
C756: + x5 + x16 <= 1
C757: + x28 + x167 <= 1
C758: + x10 + x221 <= 1
C759: + x29 + x150 <= 1
C760: + x85 + x318 <= 1
C761: + x19 + x242 <= 1
C762: + x97 + x108 <= 1
C763: + x108 + x444 <= 1
C764: + x47 + x330 <= 1
C765: + x131 + x239 <= 1
C766: + x6 + x41 <= 1
C767: + x63 + x92 <= 1
C768: + x229 + x424 <= 1
C769: + x129 + x412 <= 1
C770: + x140 + x325 <= 1
C771: + x95 + x304 <= 1
C772: + x15 + x340 <= 1
C773: + x243 + x328 <= 1
C774: + x45 + x320 <= 1
C775: + x347 + x415 <= 1
C776: + x13 + x350 <= 1
C777: + x32 + x68 <= 1
C778: + x163 + x303 <= 1
C779: + x27 + x116 <= 1
C780: + x100 + x197 <= 1
C781: + x165 + x172 <= 1
C782: + x11 + x234 <= 1
C783: + x86 + x450 <= 1
C784: + x251 + x375 <= 1
C785: + x15 + x57 <= 1
C786: + x2 + x6 <= 1
C787: + x95 + x235 <= 1
C788: + x5 + x247 <= 1
C789: + x201 + x327 <= 1
C790: + x131 + x284 <= 1
C791: + x5 + x481 <= 1
C792: + x74 + x97 <= 1
C793: + x72 + x207 <= 1
C794: + x135 + x202 <= 1
C795: + x8 + x399 <= 1
C796: + x70 + x263 <= 1
C797: + x408 + x414 <= 1
C798: + x66 + x402 <= 1
C799: + x104 + x133 <= 1
C800: + x13 + x198 <= 1
C801: + x15 + x226 <= 1
C802: + x99 + x206 <= 1
C803: + x144 + x392 <= 1
C804: + x147 + x490 <= 1
C805: + x49 + x85 <= 1
C806: + x136 + x138 <= 1
C807: + x66 + x259 <= 1
C808: + x55 + x95 <= 1
C809: + x57 + x245 <= 1
C810: + x76 + x200 <= 1
C811: + x115 + x407 <= 1
C812: + x9 + x141 <= 1
C813: + x100 + x206 <= 1
C814: + x11 + x145 <= 1
C815: + x13 + x58 <= 1
C816: + x333 + x340 <= 1
C817: + x334 + x348 <= 1
C818: + x5 + x444 <= 1
C819: + x85 + x477 <= 1
C820: + x76 + x258 <= 1
C821: + x476 + x498 <= 1
C822: + x106 + x261 <= 1
C823: + x6 + x87 <= 1
C824: + x236 + x240 <= 1
C825: + x109 + x427 <= 1
C826: + x238 + x256 <= 1
C827: + x2 + x31 <= 1
C828: + x94 + x198 <= 1
C829: + x21 + x348 <= 1
C830: + x62 + x154 <= 1
C831: + x119 + x482 <= 1
C832: + x6 + x138 <= 1
C833: + x17 + x204 <= 1
C834: + x119 + x248 <= 1
C835: + x21 + x57 <= 1
C836: + x13 + x443 <= 1
C837: + x348 + x497 <= 1
C838: + x5 + x141 <= 1
C839: + x145 + x219 <= 1
C840: + x63 + x70 <= 1
C841: + x72 + x434 <= 1
C842: + x49 + x495 <= 1
C843: + x30 + x133 <= 1
C844: + x305 + x308 <= 1
C845: + x22 + x40 <= 1
C846: + x17 + x136 <= 1
C847: + x10 + x187 <= 1
C848: + x5 + x276 <= 1
C849: + x82 + x107 <= 1
C850: + x10 + x278 <= 1
C851: + x71 + x236 <= 1
C852: + x36 + x257 <= 1
C853: + x37 + x48 <= 1
C854: + x39 + x449 <= 1
C855: + x107 + x115 <= 1
C856: + x180 + x345 <= 1
C857: + x27 + x70 <= 1
C858: + x154 + x257 <= 1
C859: + x11 + x156 <= 1
C860: + x240 + x307 <= 1
C861: + x15 + x362 <= 1
C862: + x19 + x332 <= 1
C863: + x182 + x339 <= 1
C864: + x67 + x370 <= 1
C865: + x48 + x210 <= 1
C866: + x13 + x291 <= 1
C867: + x98 + x441 <= 1
C868: + x9 + x462 <= 1
C869: + x2 + x24 <= 1
C870: + x5 + x229 <= 1
C871: + x14 + x16 <= 1
C872: + x15 + x281 <= 1
C873: + x8 + x90 <= 1
C874: + x11 + x208 <= 1
C875: + x292 + x457 <= 1
C876: + x4 + x10 <= 1
C877: + x65 + x106 <= 1
C878: + x3 + x454 <= 1
C879: + x8 + x239 <= 1
C880: + x92 + x251 <= 1
C881: + x56 + x401 <= 1
C882: + x167 + x190 <= 1
C883: + x161 + x213 <= 1
C884: + x25 + x381 <= 1
C885: + x71 + x322 <= 1
C886: + x62 + x373 <= 1
C887: + x77 + x468 <= 1
C888: + x12 + x87 <= 1
C889: + x24 + x47 <= 1
C890: + x244 + x323 <= 1
C891: + x11 + x34 <= 1
C892: + x2 + x93 <= 1
C893: + x7 + x208 <= 1
C894: + x36 + x60 <= 1
C895: + x27 + x77 <= 1
C896: + x28 + x119 <= 1
C897: + x82 + x338 <= 1
C898: + x277 + x312 <= 1
C899: + x5 + x93 <= 1
C900: + x13 + x48 <= 1
C901: + x32 + x222 <= 1
C902: + x7 + x446 <= 1
C903: + x161 + x342 <= 1
C904: + x107 + x364 <= 1
C905: + x2 + x283 <= 1
C906: + x56 + x204 <= 1
C907: + x12 + x458 <= 1
C908: + x187 + x324 <= 1
C909: + x32 + x464 <= 1
C910: + x25 + x27 <= 1
C911: + x71 + x159 <= 1
C912: + x6 + x89 <= 1
C913: + x55 + x101 <= 1
C914: + x84 + x131 <= 1
C915: + x5 + x228 <= 1
C916: + x417 + x453 <= 1
C917: + x9 + x338 <= 1
C918: + x27 + x424 <= 1
C919: + x46 + x288 <= 1
C920: + x2 + x140 <= 1
C921: + x86 + x334 <= 1
C922: + x13 + x100 <= 1
C923: + x34 + x227 <= 1
C924: + x16 + x55 <= 1
C925: + x66 + x151 <= 1
C926: + x114 + x456 <= 1
C927: + x25 + x39 <= 1
C928: + x6 + x13 <= 1
C929: + x7 + x139 <= 1
C930: + x72 + x89 <= 1
C931: + x2 + x37 <= 1
C932: + x126 + x131 <= 1
C933: + x30 + x58 <= 1
C934: + x232 + x407 <= 1
C935: + x107 + x452 <= 1
C936: + x27 + x378 <= 1
C937: + x147 + x376 <= 1
C938: + x56 + x287 <= 1
C939: + x32 + x40 <= 1
C940: + x14 + x78 <= 1
C941: + x35 + x266 <= 1
C942: + x7 + x199 <= 1
C943: + x9 + x365 <= 1
C944: + x21 + x130 <= 1
C945: + x17 + x162 <= 1
C946: + x1 + x108 <= 1
C947: + x103 + x440 <= 1
C948: + x204 + x271 <= 1
C949: + x25 + x98 <= 1
C950: + x110 + x288 <= 1
C951: + x147 + x300 <= 1
C952: + x11 + x29 <= 1
C953: + x66 + x290 <= 1
C954: + x77 + x169 <= 1
C955: + x71 + x392 <= 1
C956: + x50 + x395 <= 1
C957: + x361 + x375 <= 1
C958: + x395 + x430 <= 1
C959: + x25 + x145 <= 1
C960: + x244 + x261 <= 1
C961: + x27 + x189 <= 1
C962: + x293 + x302 <= 1
C963: + x49 + x226 <= 1
C964: + x266 + x382 <= 1
C965: + x106 + x300 <= 1
C966: + x101 + x377 <= 1
C967: + x12 + x282 <= 1
C968: + x112 + x262 <= 1
C969: + x116 + x140 <= 1
C970: + x296 + x440 <= 1
C971: + x21 + x25 + x37 <= 1
C972: + x15 + x27 + x66 <= 1
C973: + x119 + x149 <= 1
C974: + x93 + x416 <= 1
C975: + x147 + x462 <= 1
C976: + x67 + x391 <= 1
C977: + x30 + x51 <= 1
C978: + x31 + x161 <= 1
C979: + x14 + x484 <= 1
C980: + x24 + x61 <= 1
C981: + x7 + x29 <= 1
C982: + x110 + x485 <= 1
C983: + x56 + x169 <= 1
C984: + x124 + x494 <= 1
C985: + x10 + x63 <= 1
C986: + x57 + x419 <= 1
C987: + x31 + x52 <= 1
C988: + x5 + x67 <= 1
C989: + x25 + x204 <= 1
C990: + x51 + x480 <= 1
C991: + x15 + x323 <= 1
C992: + x137 + x475 <= 1
C993: + x233 + x410 <= 1
C994: + x2 + x440 <= 1
C995: + x11 + x459 <= 1
C996: + x58 + x134 <= 1
C997: + x205 + x493 <= 1
C998: + x34 + x495 <= 1
C999: + x82 + x181 <= 1
C1000: + x27 + x99 <= 1
C1001: + x182 + x223 <= 1
C1002: + x41 + x105 <= 1
C1003: + x125 + x271 <= 1
C1004: + x25 + x291 <= 1
C1005: + x5 + x452 <= 1
C1006: + x91 + x456 <= 1
C1007: + x8 + x492 <= 1
C1008: + x130 + x364 <= 1
C1009: + x5 + x353 <= 1
C1010: + x65 + x156 <= 1
C1011: + x10 + x124 <= 1
C1012: + x272 + x441 <= 1
C1013: + x29 + x383 <= 1
C1014: + x3 + x189 <= 1
C1015: + x95 + x246 <= 1
C1016: + x310 + x478 <= 1
C1017: + x67 + x386 <= 1
C1018: + x40 + x197 <= 1
C1019: + x51 + x145 <= 1
C1020: + x7 + x24 <= 1
C1021: + x80 + x137 <= 1
C1022: + x56 + x365 <= 1
C1023: + x13 + x376 <= 1
C1024: + x341 + x432 <= 1
C1025: + x5 + x149 <= 1
C1026: + x207 + x312 <= 1
C1027: + x31 + x59 <= 1
C1028: + x5 + x74 <= 1
C1029: + x25 + x286 <= 1
C1030: + x8 + x45 <= 1
C1031: + x11 + x273 <= 1
C1032: + x39 + x384 <= 1
C1033: + x134 + x143 <= 1
C1034: + x11 + x15 <= 1
C1035: + x95 + x177 <= 1
C1036: + x39 + x473 <= 1
C1037: + x237 + x317 <= 1
C1038: + x85 + x367 <= 1
C1039: + x14 + x151 <= 1
C1040: + x5 + x459 <= 1
C1041: + x8 + x481 <= 1
C1042: + x37 + x135 <= 1
C1043: + x122 + x448 <= 1
C1044: + x69 + x211 <= 1
C1045: + x5 + x368 <= 1
C1046: + x105 + x319 <= 1
C1047: + x81 + x86 <= 1
C1048: + x35 + x109 <= 1
C1049: + x237 + x497 <= 1
C1050: + x8 + x114 <= 1
C1051: + x29 + x64 <= 1
C1052: + x76 + x146 <= 1
C1053: + x50 + x103 <= 1
C1054: + x71 + x108 <= 1
C1055: + x10 + x406 <= 1
C1056: + x95 + x297 <= 1
C1057: + x69 + x316 <= 1
C1058: + x10 + x140 <= 1
C1059: + x328 + x433 <= 1
C1060: + x31 + x276 <= 1
C1061: + x179 + x393 <= 1
C1062: + x163 + x463 <= 1
C1063: + x7 + x59 <= 1
C1064: + x22 + x122 <= 1
C1065: + x42 + x462 <= 1
C1066: + x14 + x45 <= 1
C1067: + x52 + x275 <= 1
C1068: + x27 + x117 <= 1
C1069: + x248 + x413 <= 1
C1070: + x94 + x351 <= 1
C1071: + x21 + x227 <= 1
C1072: + x40 + x135 <= 1
C1073: + x278 + x408 <= 1
C1074: + x61 + x477 <= 1
C1075: + x11 + x336 <= 1
C1076: + x120 + x373 <= 1
C1077: + x21 + x72 <= 1
C1078: + x59 + x255 <= 1
C1079: + x5 + x343 <= 1
C1080: + x6 + x97 <= 1
C1081: + x116 + x452 <= 1
C1082: + x191 + x404 <= 1
C1083: + x10 + x102 <= 1
C1084: + x241 + x249 <= 1
C1085: + x52 + x479 <= 1
C1086: + x5 + x12 <= 1
C1087: + x35 + x104 <= 1
C1088: + x70 + x103 <= 1
C1089: + x27 + x350 <= 1
C1090: + x10 + x292 <= 1
C1091: + x120 + x393 <= 1
C1092: + x49 + x195 <= 1
C1093: + x95 + x119 <= 1
C1094: + x296 + x308 <= 1
C1095: + x37 + x356 <= 1
C1096: + x13 + x203 <= 1
C1097: + x43 + x318 <= 1
C1098: + x207 + x419 <= 1
C1099: + x270 + x416 <= 1
C1100: + x160 + x449 <= 1
C1101: + x215 + x216 <= 1
C1102: + x325 + x423 <= 1
C1103: + x7 + x62 <= 1
C1104: + x118 + x417 <= 1
C1105: + x10 + x30 <= 1
C1106: + x105 + x158 <= 1
C1107: + x214 + x294 <= 1
C1108: + x77 + x306 <= 1
C1109: + x135 + x146 <= 1
C1110: + x6 + x106 <= 1
C1111: + x7 + x106 <= 1
C1112: + x19 + x68 <= 1
C1113: + x111 + x113 <= 1
C1114: + x12 + x262 <= 1
C1115: + x48 + x474 <= 1
C1116: + x95 + x239 <= 1
C1117: + x39 + x228 <= 1
C1118: + x15 + x432 <= 1
C1119: + x40 + x414 <= 1
C1120: + x6 + x30 <= 1
C1121: + x8 + x298 <= 1
C1122: + x194 + x345 <= 1
C1123: + x5 + x39 <= 1
C1124: + x62 + x383 <= 1
C1125: + x241 + x265 <= 1
C1126: + x59 + x189 <= 1
C1127: + x6 + x431 <= 1
C1128: + x74 + x81 <= 1
C1129: + x165 + x223 <= 1
C1130: + x12 + x174 <= 1
C1131: + x107 + x169 <= 1
C1132: + x5 + x107 <= 1
C1133: + x108 + x370 <= 1
C1134: + x117 + x173 <= 1
C1135: + x89 + x337 <= 1
C1136: + x126 + x427 <= 1
C1137: + x7 + x97 <= 1
C1138: + x180 + x453 <= 1
C1139: + x5 + x250 <= 1
C1140: + x180 + x215 <= 1
C1141: + x181 + x201 <= 1
C1142: + x15 + x278 <= 1
C1143: + x301 + x491 <= 1
C1144: + x4 + x5 <= 1
C1145: + x379 + x436 <= 1
C1146: + x23 + x342 <= 1
C1147: + x15 + x439 <= 1
C1148: + x150 + x308 + x379 <= 1
C1149: + x20 + x42 <= 1
C1150: + x85 + x90 <= 1
C1151: + x340 + x468 <= 1
C1152: + x6 + x7 <= 1
C1153: + x11 + x84 <= 1
C1154: + x148 + x188 <= 1
C1155: + x23 + x148 <= 1
C1156: + x24 + x493 <= 1
C1157: + x16 + x94 <= 1
C1158: + x8 + x17 <= 1
C1159: + x56 + x59 <= 1
C1160: + x39 + x215 <= 1
C1161: + x42 + x134 <= 1
C1162: + x25 + x76 <= 1
C1163: + x17 + x25 <= 1
C1164: + x181 + x434 <= 1
C1165: + x1 + x483 <= 1
C1166: + x24 + x46 <= 1
C1167: + x2 + x96 <= 1
C1168: + x336 + x496 <= 1
C1169: + x247 + x278 <= 1
C1170: + x115 + x398 <= 1
C1171: + x36 + x55 <= 1
C1172: + x92 + x182 <= 1
C1173: + x3 + x233 <= 1
C1174: + x113 + x287 <= 1
C1175: + x232 + x494 <= 1
C1176: + x34 + x367 <= 1
C1177: + x389 + x433 <= 1
C1178: + x5 + x324 <= 1
C1179: + x352 + x474 <= 1
C1180: + x7 + x92 <= 1
C1181: + x192 + x353 <= 1
C1182: + x105 + x283 <= 1
C1183: + x20 + x373 <= 1
C1184: + x5 + x225 <= 1
C1185: + x153 + x234 <= 1
C1186: + x6 + x255 <= 1
C1187: + x242 + x349 <= 1
C1188: + x12 + x159 <= 1
C1189: + x9 + x65 <= 1
C1190: + x7 + x491 <= 1
C1191: + x36 + x194 <= 1
C1192: + x85 + x428 <= 1
C1193: + x474 + x487 <= 1
C1194: + x293 + x316 <= 1
C1195: + x56 + x330 <= 1
C1196: + x14 + x413 <= 1
C1197: + x21 + x478 <= 1
C1198: + x6 + x16 <= 1
C1199: + x28 + x63 <= 1
C1200: + x37 + x409 <= 1
C1201: + x294 + x418 <= 1
C1202: + x9 + x48 <= 1
C1203: + x8 + x10 <= 1
C1204: + x30 + x61 <= 1
C1205: + x77 + x464 <= 1
C1206: + x96 + x328 <= 1
C1207: + x2 + x81 <= 1
C1208: + x331 + x372 <= 1
C1209: + x413 + x439 <= 1
C1210: + x165 + x290 <= 1
C1211: + x11 + x18 <= 1
C1212: + x94 + x212 <= 1
C1213: + x6 + x232 <= 1
C1214: + x8 + x83 <= 1
C1215: + x2 + x144 <= 1
C1216: + x10 + x253 <= 1
C1217: + x13 + x32 <= 1
C1218: + x178 + x217 <= 1
C1219: + x25 + x142 <= 1
C1220: + x17 + x91 <= 1
C1221: + x211 + x256 <= 1
C1222: + x20 + x56 <= 1
C1223: + x3 + x6 <= 1
C1224: + x25 + x43 <= 1
C1225: + x6 + x9 <= 1
C1226: + x364 + x398 <= 1
C1227: + x82 + x208 <= 1
C1228: + x10 + x443 <= 1
C1229: + x27 + x467 <= 1
C1230: + x375 + x483 <= 1
C1231: + x15 + x255 <= 1
C1232: + x79 + x500 <= 1
C1233: + x85 + x290 <= 1
C1234: + x259 + x299 <= 1
C1235: + x25 + x90 <= 1
C1236: + x200 + x358 <= 1
C1237: + x66 + x167 <= 1
C1238: + x6 + x61 <= 1
C1239: + x19 + x21 <= 1
C1240: + x49 + x461 <= 1
C1241: + x12 + x209 <= 1
C1242: + x17 + x166 <= 1
C1243: + x6 + x299 <= 1
C1244: + x7 + x425 <= 1
C1245: + x8 + x59 <= 1
C1246: + x43 + x52 <= 1
C1247: + x7 + x86 <= 1
C1248: + x80 + x203 <= 1
C1249: + x181 + x361 <= 1
C1250: + x92 + x96 <= 1
C1251: + x48 + x81 <= 1
C1252: + x69 + x76 <= 1
C1253: + x9 + x79 <= 1
C1254: + x118 + x122 <= 1
C1255: + x7 + x485 <= 1
C1256: + x2 + x292 <= 1
C1257: + x142 + x218 <= 1
C1258: + x13 + x230 <= 1
C1259: + x25 + x335 <= 1
C1260: + x24 + x214 <= 1
C1261: + x256 + x419 <= 1
C1262: + x21 + x38 <= 1
C1263: + x34 + x204 <= 1
C1264: + x32 + x374 <= 1
C1265: + x181 + x399 <= 1
C1266: + x154 + x165 <= 1
C1267: + x27 + x91 <= 1
C1268: + x10 + x35 <= 1
C1269: + x73 + x216 <= 1
C1270: + x104 + x153 <= 1
C1271: + x6 + x276 <= 1
C1272: + x312 + x385 <= 1
C1273: + x13 + x460 <= 1
C1274: + x74 + x185 <= 1
C1275: + x49 + x339 <= 1
C1276: + x25 + x394 <= 1
C1277: + x37 + x295 <= 1
C1278: + x3 + x266 <= 1
C1279: + x85 + x356 <= 1
C1280: + x81 + x265 <= 1
C1281: + x27 + x132 <= 1
C1282: + x134 + x275 <= 1
C1283: + x7 + x480 <= 1
C1284: + x15 + x403 <= 1
C1285: + x187 + x422 <= 1
C1286: + x6 + x123 <= 1
C1287: + x72 + x75 <= 1
C1288: + x347 + x466 <= 1
C1289: + x191 + x486 <= 1
C1290: + x66 + x331 <= 1
C1291: + x67 + x121 <= 1
C1292: + x23 + x192 <= 1
C1293: + x107 + x196 <= 1
C1294: + x244 + x447 <= 1
C1295: + x34 + x319 <= 1
C1296: + x35 + x82 <= 1
C1297: + x20 + x179 <= 1
C1298: + x21 + x45 <= 1
C1299: + x51 + x141 <= 1
C1300: + x205 + x207 <= 1
C1301: + x98 + x269 <= 1
C1302: + x7 + x12 <= 1
C1303: + x63 + x245 <= 1
C1304: + x84 + x283 <= 1
C1305: + x47 + x147 <= 1
C1306: + x8 + x412 <= 1
C1307: + x9 + x418 <= 1
C1308: + x157 + x445 <= 1
C1309: + x215 + x367 <= 1
C1310: + x6 + x47 <= 1
C1311: + x244 + x249 <= 1
C1312: + x27 + x489 <= 1
C1313: + x83 + x327 <= 1
C1314: + x91 + x169 <= 1
C1315: + x294 + x385 <= 1
C1316: + x97 + x197 <= 1
C1317: + x5 + x54 <= 1
C1318: + x7 + x411 <= 1
C1319: + x63 + x328 <= 1
C1320: + x20 + x127 <= 1
C1321: + x21 + x113 <= 1
C1322: + x39 + x372 <= 1
C1323: + x13 + x451 <= 1
C1324: + x215 + x218 <= 1
C1325: + x7 + x72 <= 1
C1326: + x143 + x224 <= 1
C1327: + x2 + x397 <= 1
C1328: + x132 + x331 <= 1
C1329: + x9 + x160 <= 1
C1330: + x227 + x386 <= 1
C1331: + x37 + x302 <= 1
C1332: + x282 + x488 <= 1
C1333: + x178 + x196 <= 1
C1334: + x24 + x123 <= 1
C1335: + x200 + x285 <= 1
C1336: + x103 + x402 <= 1
C1337: + x10 + x97 <= 1
C1338: + x220 + x258 <= 1
C1339: + x204 + x460 <= 1
C1340: + x5 + x9 <= 1
C1341: + x8 + x110 <= 1
C1342: + x12 + x119 <= 1
C1343: + x68 + x287 <= 1
C1344: + x53 + x168 <= 1
C1345: + x56 + x187 <= 1
C1346: + x29 + x60 <= 1
C1347: + x39 + x284 <= 1
C1348: + x48 + x325 <= 1
C1349: + x12 + x409 <= 1
C1350: + x100 + x325 <= 1
C1351: + x13 + x208 <= 1
C1352: + x21 + x155 <= 1
C1353: + x116 + x285 <= 1
C1354: + x8 + x34 <= 1
C1355: + x256 + x389 <= 1
C1356: + x166 + x338 <= 1
C1357: + x77 + x424 <= 1
C1358: + x29 + x171 <= 1
C1359: + x103 + x349 <= 1
C1360: + x233 + x396 <= 1
C1361: + x143 + x167 <= 1
C1362: + x398 + x476 <= 1
C1363: + x11 + x54 <= 1
C1364: + x283 + x326 <= 1
C1365: + x99 + x163 <= 1
C1366: + x16 + x244 <= 1
C1367: + x32 + x317 <= 1
C1368: + x6 + x458 <= 1
C1369: + x8 + x470 <= 1
C1370: + x21 + x68 <= 1
C1371: + x52 + x136 <= 1
C1372: + x27 + x311 <= 1
C1373: + x9 + x449 <= 1
C1374: + x2 + x5 <= 1
C1375: + x148 + x230 <= 1
C1376: + x11 + x122 <= 1
C1377: + x49 + x445 <= 1
C1378: + x15 + x219 <= 1
C1379: + x21 + x51 <= 1
C1380: + x33 + x233 <= 1
C1381: + x52 + x53 <= 1
C1382: + x53 + x175 <= 1
C1383: + x2 + x451 <= 1
C1384: + x56 + x180 <= 1
C1385: + x29 + x51 <= 1
C1386: + x251 + x316 <= 1
C1387: + x6 + x17 <= 1
C1388: + x142 + x185 <= 1
C1389: + x8 + x252 <= 1
C1390: + x94 + x160 <= 1
C1391: + x175 + x232 <= 1
C1392: + x33 + x403 <= 1
C1393: + x14 + x209 <= 1
C1394: + x78 + x326 <= 1
C1395: + x206 + x273 <= 1
C1396: + x10 + x177 <= 1
C1397: + x68 + x308 <= 1
C1398: + x131 + x154 <= 1
C1399: + x52 + x193 <= 1
C1400: + x24 + x28 <= 1
C1401: + x26 + x118 <= 1
C1402: + x147 + x268 <= 1
C1403: + x121 + x491 <= 1
C1404: + x5 + x203 <= 1
C1405: + x209 + x396 <= 1
C1406: + x8 + x176 <= 1
C1407: + x105 + x130 <= 1
C1408: + x8 + x467 <= 1
C1409: + x11 + x371 <= 1
C1410: + x55 + x207 <= 1
C1411: + x48 + x263 <= 1
C1412: + x104 + x358 <= 1
C1413: + x77 + x96 <= 1
C1414: + x142 + x254 <= 1
C1415: + x27 + x306 <= 1
C1416: + x111 + x452 <= 1
C1417: + x393 + x466 <= 1
C1418: + x14 + x22 <= 1
C1419: + x44 + x78 <= 1
C1420: + x326 + x351 <= 1
C1421: + x254 + x359 <= 1
C1422: + x265 + x324 <= 1
C1423: + x42 + x258 <= 1
C1424: + x223 + x321 <= 1
C1425: + x35 + x224 <= 1
C1426: + x92 + x403 <= 1
C1427: + x15 + x77 <= 1
C1428: + x36 + x435 <= 1
C1429: + x8 + x241 <= 1
C1430: + x384 + x483 <= 1
C1431: + x98 + x222 <= 1
C1432: + x326 + x387 <= 1
C1433: + x8 + x24 <= 1
C1434: + x139 + x451 <= 1
C1435: + x41 + x186 <= 1
C1436: + x77 + x99 <= 1
C1437: + x10 + x277 <= 1
C1438: + x266 + x310 <= 1
C1439: + x13 + x333 <= 1
C1440: + x22 + x408 <= 1
C1441: + x6 + x206 <= 1
C1442: + x27 + x67 <= 1
C1443: + x205 + x370 <= 1
C1444: + x14 + x190 <= 1
C1445: + x12 + x13 <= 1
C1446: + x21 + x82 <= 1
C1447: + x53 + x270 <= 1
C1448: + x414 + x476 <= 1
C1449: + x66 + x228 <= 1
C1450: + x2 + x23 <= 1
C1451: + x57 + x382 <= 1
C1452: + x419 + x436 <= 1
C1453: + x85 + x247 <= 1
C1454: + x340 + x359 <= 1
C1455: + x118 + x216 <= 1
C1456: + x82 + x268 <= 1
C1457: + x11 + x205 <= 1
C1458: + x80 + x470 <= 1
C1459: + x16 + x150 <= 1
C1460: + x6 + x496 <= 1
C1461: + x95 + x101 <= 1
C1462: + x48 + x340 <= 1
C1463: + x25 + x33 <= 1
C1464: + x160 + x193 <= 1
C1465: + x206 + x259 <= 1
C1466: + x7 + x391 <= 1
C1467: + x168 + x307 <= 1
C1468: + x44 + x158 <= 1
C1469: + x27 + x384 <= 1
C1470: + x83 + x113 <= 1
C1471: + x37 + x88 <= 1
C1472: + x102 + x112 <= 1
C1473: + x165 + x472 <= 1
C1474: + x14 + x84 <= 1
C1475: + x61 + x257 <= 1
C1476: + x6 + x55 <= 1
C1477: + x7 + x274 <= 1
C1478: + x11 + x132 <= 1
C1479: + x46 + x363 <= 1
C1480: + x21 + x252 <= 1
C1481: + x95 + x334 <= 1
C1482: + x14 + x183 <= 1
C1483: + x25 + x255 <= 1
C1484: + x32 + x300 <= 1
C1485: + x17 + x172 <= 1
C1486: + x306 + x454 <= 1
C1487: + x201 + x238 <= 1
C1488: + x20 + x103 <= 1
C1489: + x21 + x89 <= 1
C1490: + x94 + x457 <= 1
C1491: + x25 + x28 <= 1
C1492: + x17 + x457 <= 1
C1493: + x168 + x198 <= 1
C1494: + x5 + x237 <= 1
C1495: + x52 + x314 <= 1
C1496: + x8 + x82 <= 1
C1497: + x1 + x5 <= 1
C1498: + x34 + x226 <= 1
C1499: + x117 + x124 <= 1
C1500: + x6 + x12 <= 1
C1501: + x352 + x394 <= 1
C1502: + x180 + x414 <= 1
C1503: + x8 + x231 <= 1
C1504: + x283 + x311 <= 1
C1505: + x72 + x92 <= 1
C1506: + x87 + x111 <= 1
C1507: + x307 + x401 <= 1
C1508: + x135 + x323 <= 1
C1509: + x137 + x489 <= 1
C1510: + x148 + x292 <= 1
C1511: + x122 + x226 <= 1
C1512: + x42 + x243 <= 1
C1513: + x14 + x490 <= 1
C1514: + x8 + x425 <= 1
C1515: + x72 + x233 <= 1
C1516: + x136 + x323 <= 1
C1517: + x200 + x361 <= 1
C1518: + x197 + x488 <= 1
C1519: + x209 + x369 <= 1
C1520: + x189 + x453 <= 1
C1521: + x154 + x274 <= 1
C1522: + x19 + x26 <= 1
C1523: + x164 + x247 <= 1
C1524: + x299 + x389 <= 1
C1525: + x11 + x139 <= 1
C1526: + x7 + x438 <= 1
C1527: + x16 + x107 <= 1
C1528: + x109 + x116 <= 1
C1529: + x38 + x58 <= 1
C1530: + x223 + x256 <= 1
C1531: + x44 + x335 <= 1
C1532: + x12 + x301 <= 1
C1533: + x31 + x89 <= 1
C1534: + x31 + x246 <= 1
C1535: + x205 + x225 <= 1
C1536: + x70 + x71 <= 1
C1537: + x49 + x312 <= 1
C1538: + x39 + x319 <= 1
C1539: + x86 + x100 <= 1
C1540: + x357 + x444 <= 1
C1541: + x52 + x176 <= 1
C1542: + x11 + x66 <= 1
C1543: + x23 + x162 <= 1
C1544: + x17 + x238 <= 1
C1545: + x6 + x355 <= 1
C1546: + x62 + x390 <= 1
C1547: + x131 + x305 <= 1
C1548: + x214 + x341 <= 1
C1549: + x79 + x273 <= 1
C1550: + x46 + x111 <= 1
C1551: + x56 + x172 <= 1
C1552: + x5 + x175 <= 1
C1553: + x35 + x258 <= 1
C1554: + x9 + x170 <= 1
C1555: + x28 + x72 <= 1
C1556: + x228 + x320 <= 1
C1557: + x103 + x195 <= 1
C1558: + x42 + x434 <= 1
C1559: + x179 + x234 <= 1
C1560: + x53 + x70 <= 1
C1561: + x190 + x218 <= 1
C1562: + x74 + x473 <= 1
C1563: + x294 + x382 <= 1
C1564: + x39 + x326 <= 1
C1565: + x53 + x283 <= 1
C1566: + x6 + x74 <= 1
C1567: + x224 + x253 <= 1
C1568: + x64 + x137 <= 1
C1569: + x220 + x380 <= 1
C1570: + x20 + x391 <= 1
C1571: + x223 + x388 <= 1
C1572: + x5 + x211 <= 1
C1573: + x6 + x237 <= 1
C1574: + x296 + x380 <= 1
C1575: + x25 + x391 <= 1
C1576: + x8 + x72 <= 1
C1577: + x14 + x58 <= 1
C1578: + x52 + x264 <= 1
C1579: + x16 + x310 <= 1
C1580: + x13 + x19 <= 1
C1581: + x18 + x191 <= 1
C1582: + x165 + x188 <= 1
C1583: + x17 + x86 <= 1
C1584: + x77 + x262 <= 1
C1585: + x5 + x120 <= 1
C1586: + x37 + x153 <= 1
C1587: + x63 + x134 <= 1
C1588: + x76 + x176 <= 1
C1589: + x43 + x100 <= 1
C1590: + x6 + x126 <= 1
C1591: + x34 + x95 <= 1
C1592: + x36 + x431 <= 1
C1593: + x10 + x123 <= 1
C1594: + x92 + x286 <= 1
C1595: + x291 + x360 <= 1
C1596: + x4 + x141 <= 1
C1597: + x5 + x7 <= 1
C1598: + x160 + x426 <= 1
C1599: + x100 + x129 <= 1
C1600: + x1 + x47 <= 1
C1601: + x7 + x364 <= 1
C1602: + x25 + x165 <= 1
C1603: + x106 + x445 <= 1
C1604: + x29 + x34 <= 1
C1605: + x385 + x486 <= 1
C1606: + x39 + x494 <= 1
C1607: + x44 + x304 <= 1
C1608: + x18 + x305 <= 1
C1609: + x8 + x318 <= 1
C1610: + x272 + x336 <= 1
C1611: + x324 + x387 <= 1
C1612: + x16 + x121 <= 1
C1613: + x236 + x293 <= 1
C1614: + x291 + x413 <= 1
C1615: + x150 + x344 <= 1
C1616: + x191 + x446 <= 1
C1617: + x13 + x165 <= 1
C1618: + x96 + x153 <= 1
C1619: + x206 + x499 <= 1
C1620: + x7 + x311 <= 1
C1621: + x94 + x325 <= 1
C1622: + x80 + x333 <= 1
C1623: + x147 + x430 <= 1
C1624: + x94 + x488 <= 1
C1625: + x67 + x212 <= 1
C1626: + x114 + x490 <= 1
C1627: + x68 + x196 <= 1
C1628: + x105 + x320 <= 1
C1629: + x195 + x418 <= 1
C1630: + x14 + x231 <= 1
C1631: + x6 + x154 <= 1
C1632: + x17 + x220 <= 1
C1633: + x36 + x74 <= 1
C1634: + x253 + x368 <= 1
C1635: + x55 + x361 <= 1
C1636: + x6 + x341 <= 1
C1637: + x21 + x41 <= 1
C1638: + x7 + x355 <= 1
C1639: + x103 + x366 <= 1
C1640: + x158 + x388 <= 1
C1641: + x19 + x277 <= 1
C1642: + x56 + x186 <= 1
C1643: + x56 + x357 <= 1
C1644: + x23 + x35 <= 1
C1645: + x15 + x128 <= 1
C1646: + x145 + x235 <= 1
C1647: + x6 + x43 <= 1
C1648: + x5 + x157 <= 1
C1649: + x242 + x257 <= 1
C1650: + x86 + x285 <= 1
C1651: + x236 + x286 <= 1
C1652: + x91 + x387 <= 1
C1653: + x11 + x281 <= 1
C1654: + x25 + x120 <= 1
C1655: + x142 + x276 <= 1
C1656: + x226 + x264 <= 1
C1657: + x43 + x451 <= 1
C1658: + x14 + x44 <= 1
C1659: + x154 + x254 <= 1
C1660: + x292 + x493 <= 1
C1661: + x34 + x347 <= 1
C1662: + x34 + x142 <= 1
C1663: + x397 + x424 <= 1
C1664: + x5 + x102 <= 1
C1665: + x188 + x281 <= 1
C1666: + x39 + x159 <= 1
C1667: + x30 + x471 <= 1
C1668: + x7 + x120 <= 1
C1669: + x102 + x159 <= 1
C1670: + x85 + x315 <= 1
C1671: + x4 + x26 <= 1
C1672: + x6 + x497 <= 1
C1673: + x10 + x291 <= 1
C1674: + x72 + x205 <= 1
C1675: + x47 + x154 <= 1
C1676: + x385 + x500 <= 1
C1677: + x13 + x359 <= 1
C1678: + x14 + x113 <= 1
C1679: + x5 + x156 <= 1
C1680: + x111 + x187 <= 1
C1681: + x11 + x175 <= 1
C1682: + x6 + x183 <= 1
C1683: + x281 + x332 <= 1
C1684: + x331 + x483 <= 1
C1685: + x67 + x179 <= 1
C1686: + x12 + x329 <= 1
C1687: + x31 + x437 <= 1
C1688: + x288 + x390 <= 1
C1689: + x53 + x405 <= 1
C1690: + x27 + x125 <= 1
C1691: + x120 + x170 <= 1
C1692: + x14 + x136 <= 1
C1693: + x8 + x466 <= 1
C1694: + x85 + x467 <= 1
C1695: + x172 + x430 <= 1
C1696: + x28 + x417 <= 1
C1697: + x2 + x25 <= 1
C1698: + x167 + x201 <= 1
C1699: + x87 + x142 <= 1
C1700: + x205 + x463 <= 1
C1701: + x171 + x203 <= 1
C1702: + x195 + x213 <= 1
C1703: + x106 + x408 <= 1
C1704: + x191 + x363 <= 1
C1705: + x4 + x369 <= 1
C1706: + x23 + x61 <= 1
C1707: + x6 + x29 <= 1
C1708: + x98 + x126 <= 1
C1709: + x5 + x131 <= 1
C1710: + x28 + x36 <= 1
C1711: + x111 + x190 <= 1
C1712: + x7 + x155 <= 1
C1713: + x8 + x248 <= 1
C1714: + x8 + x297 <= 1
C1715: + x24 + x423 <= 1
C1716: + x6 + x192 <= 1
C1717: + x53 + x90 <= 1
C1718: + x326 + x390 <= 1
C1719: + x8 + x27 <= 1
C1720: + x17 + x35 <= 1
C1721: + x16 + x491 <= 1
C1722: + x13 + x338 <= 1
C1723: + x71 + x476 <= 1
C1724: + x102 + x221 <= 1
C1725: + x442 + x490 <= 1
C1726: + x5 + x108 <= 1
C1727: + x24 + x133 <= 1
C1728: + x9 + x111 <= 1
C1729: + x74 + x132 <= 1
C1730: + x55 + x112 <= 1
C1731: + x11 + x109 <= 1
C1732: + x14 + x18 <= 1
C1733: + x5 + x251 <= 1
C1734: + x11 + x194 <= 1
C1735: + x56 + x98 <= 1
C1736: + x95 + x372 <= 1
C1737: + x316 + x477 <= 1
C1738: + x16 + x48 <= 1
C1739: + x54 + x153 <= 1
C1740: + x49 + x242 <= 1
C1741: + x320 + x445 <= 1
C1742: + x12 + x395 <= 1
C1743: + x5 + x138 <= 1
C1744: + x2 + x46 <= 1
C1745: + x29 + x280 <= 1
C1746: + x107 + x237 <= 1
C1747: + x24 + x259 <= 1
C1748: + x14 + x500 <= 1
C1749: + x53 + x198 <= 1
C1750: + x247 + x363 <= 1
C1751: + x95 + x174 <= 1
C1752: + x114 + x261 <= 1
C1753: + x22 + x404 <= 1
C1754: + x6 + x202 <= 1
C1755: + x17 + x327 <= 1
C1756: + x299 + x415 <= 1
C1757: + x8 + x161 <= 1
C1758: + x38 + x337 <= 1
C1759: + x5 + x83 <= 1
C1760: + x21 + x94 <= 1
C1761: + x5 + x333 <= 1
C1762: + x6 + x91 <= 1
C1763: + x344 + x496 <= 1
C1764: + x66 + x232 <= 1
C1765: + x48 + x495 <= 1
C1766: + x52 + x309 <= 1
C1767: + x122 + x145 <= 1
C1768: + x105 + x185 <= 1
C1769: + x44 + x230 <= 1
C1770: + x27 + x184 <= 1
C1771: + x258 + x306 <= 1
C1772: + x343 + x436 <= 1
C1773: + x6 + x15 <= 1
C1774: + x100 + x384 <= 1
C1775: + x45 + x403 <= 1
C1776: + x2 + x39 <= 1
C1777: + x229 + x346 <= 1
C1778: + x39 + x110 <= 1
C1779: + x50 + x493 <= 1
C1780: + x5 + x22 <= 1
C1781: + x171 + x225 <= 1
C1782: + x51 + x499 <= 1
C1783: + x7 + x379 <= 1
C1784: + x8 + x9 <= 1
C1785: + x180 + x312 <= 1
C1786: + x16 + x166 <= 1
C1787: + x35 + x167 <= 1
C1788: + x134 + x235 <= 1
C1789: + x134 + x473 <= 1
C1790: + x246 + x324 <= 1
C1791: + x11 + x144 <= 1
C1792: + x41 + x52 <= 1
C1793: + x168 + x448 <= 1
C1794: + x26 + x245 <= 1
C1795: + x6 + x289 <= 1
C1796: + x21 + x402 <= 1
C1797: + x22 + x270 <= 1
C1798: + x25 + x32 <= 1
C1799: + x51 + x213 <= 1
C1800: + x14 + x417 <= 1
C1801: + x17 + x461 <= 1
C1802: + x13 + x471 <= 1
C1803: + x375 + x472 <= 1
C1804: + x132 + x343 <= 1
C1805: + x279 + x412 <= 1
C1806: + x211 + x348 <= 1
C1807: + x56 + x120 <= 1
C1808: + x240 + x267 <= 1
C1809: + x94 + x374 <= 1
C1810: + x85 + x351 <= 1
C1811: + x25 + x143 <= 1
C1812: + x119 + x360 <= 1
C1813: + x11 + x341 <= 1
C1814: + x202 + x210 <= 1
C1815: + x69 + x227 <= 1
C1816: + x25 + x44 <= 1
C1817: + x9 + x294 <= 1
C1818: + x8 + x280 <= 1
C1819: + x46 + x428 <= 1
C1820: + x303 + x381 <= 1
C1821: + x287 + x475 <= 1
C1822: + x21 + x32 <= 1
C1823: + x295 + x395 <= 1
C1824: + x8 + x421 <= 1
C1825: + x239 + x322 <= 1
C1826: + x21 + x298 <= 1
C1827: + x50 + x119 <= 1
C1828: + x125 + x313 <= 1
C1829: + x25 + x202 <= 1
C1830: + x470 + x474 <= 1
C1831: + x236 + x299 <= 1
C1832: + x160 + x492 <= 1
C1833: + x7 + x426 <= 1
C1834: + x20 + x116 <= 1
C1835: + x8 + x54 <= 1
C1836: + x66 + x293 <= 1
C1837: + x356 + x479 <= 1
C1838: + x8 + x75 <= 1
C1839: + x119 + x222 <= 1
C1840: + x25 + x289 <= 1
C1841: + x25 + x150 <= 1
C1842: + x20 + x64 <= 1
C1843: + x56 + x148 <= 1
C1844: + x12 + x434 <= 1
C1845: + x91 + x155 <= 1
C1846: + x65 + x335 <= 1
C1847: + x66 + x369 <= 1
C1848: + x5 + x28 <= 1
C1849: + x108 + x222 <= 1
C1850: + x12 + x16 + x344 <= 1
C1851: + x11 + x303 <= 1
C1852: + x41 + x147 <= 1
C1853: + x7 + x18 <= 1
C1854: + x53 + x376 <= 1
C1855: + x66 + x397 <= 1
C1856: + x32 + x207 <= 1
C1857: + x14 + x368 <= 1
C1858: + x15 + x328 <= 1
C1859: + x324 + x386 <= 1
C1860: + x25 + x209 <= 1
C1861: + x119 + x166 <= 1
C1862: + x153 + x419 <= 1
C1863: + x14 + x54 <= 1
C1864: + x109 + x297 <= 1
C1865: + x3 + x263 <= 1
C1866: + x5 + x116 <= 1
C1867: + x170 + x181 <= 1
C1868: + x85 + x450 <= 1
C1869: + x141 + x185 <= 1
C1870: + x5 + x366 <= 1
C1871: + x7 + x122 <= 1
C1872: + x10 + x428 <= 1
C1873: + x10 + x127 <= 1
C1874: + x11 + x117 <= 1
C1875: + x20 + x343 <= 1
C1876: + x25 + x343 <= 1
C1877: + x153 + x321 <= 1
C1878: + x109 + x170 <= 1
C1879: + x168 + x470 <= 1
C1880: + x24 + x49 <= 1
C1881: + x56 + x364 <= 1
C1882: + x59 + x62 <= 1
C1883: + x352 + x432 <= 1
C1884: + x336 + x354 <= 1
C1885: + x117 + x137 <= 1
C1886: + x16 + x69 <= 1
C1887: + x189 + x225 <= 1
C1888: + x119 + x189 <= 1
C1889: + x168 + x266 <= 1
C1890: + x70 + x164 <= 1
C1891: + x11 + x12 <= 1
C1892: + x129 + x310 <= 1
C1893: + x21 + x260 <= 1
C1894: + x14 + x47 <= 1
C1895: + x164 + x213 <= 1
C1896: + x6 + x464 <= 1
C1897: + x21 + x70 <= 1
C1898: + x170 + x404 <= 1
C1899: + x15 + x56 <= 1
C1900: + x27 + x301 <= 1
C1901: + x19 + x386 <= 1
C1902: + x138 + x187 <= 1
C1903: + x260 + x333 <= 1
C1904: + x88 + x128 <= 1
C1905: + x44 + x95 <= 1
C1906: + x24 + x235 <= 1
C1907: + x19 + x240 <= 1
C1908: + x37 + x275 <= 1
C1909: + x379 + x420 <= 1
C1910: + x4 + x21 <= 1
C1911: + x14 + x273 <= 1
C1912: + x10 + x318 <= 1
C1913: + x191 + x381 <= 1
C1914: + x67 + x311 <= 1
C1915: + x49 + x278 <= 1
C1916: + x168 + x178 <= 1
C1917: + x25 + x461 <= 1
C1918: + x38 + x382 <= 1
C1919: + x51 + x459 <= 1
C1920: + x5 + x62 <= 1
C1921: + x14 + x354 <= 1
C1922: + x222 + x223 <= 1
C1923: + x53 + x245 <= 1
C1924: + x27 + x356 <= 1
C1925: + x29 + x438 <= 1
C1926: + x50 + x86 <= 1
C1927: + x158 + x162 <= 1
C1928: + x35 + x484 <= 1
C1929: + x275 + x296 <= 1
C1930: + x39 + x469 <= 1
C1931: + x144 + x298 <= 1
C1932: + x23 + x115 <= 1
C1933: + x5 + x205 <= 1
C1934: + x189 + x290 <= 1
C1935: + x122 + x182 <= 1
C1936: + x449 + x479 <= 1
C1937: + x5 + x447 <= 1
C1938: + x268 + x378 <= 1
C1939: + x27 + x147 <= 1
C1940: + x105 + x398 <= 1
C1941: + x5 + x340 <= 1
C1942: + x8 + x380 <= 1
C1943: + x10 + x105 <= 1
C1944: + x10 + x470 <= 1
C1945: + x195 + x437 <= 1
C1946: + x205 + x468 <= 1
C1947: + x25 + x421 <= 1
C1948: + x14 + x28 <= 1
C1949: + x24 + x228 <= 1
C1950: + x15 + x220 <= 1
C1951: + x8 + x102 <= 1
C1952: + x197 + x433 <= 1
C1953: + x42 + x211 <= 1
C1954: + x24 + x71 <= 1

binary
x1 x2 x3 x4 x5 x6 x7 x8 x9 x10 x11 x12 x13 x14 x15 x16 x17 x18 x19 x20 x21 x22 x23 x24 x25 x26 x27 x28 x29 x30 x31 x32 x33 x34 x35 x36 x37 x38 x39 x40 x41 x42 x43 x44 x45 x46 x47 x48 x49 x50 x51 x52 x53 x54 x55 x56 x57 x58 x59 x60 x61 x62 x63 x64 x65 x66 x67 x68 x69 x70 x71 x72 x73 x74 x75 x76 x77 x78 x79 x80 x81 x82 x83 x84 x85 x86 x87 x88 x89 x90 x91 x92 x93 x94 x95 x96 x97 x98 x99 x100 x101 x102 x103 x104 x105 x106 x107 x108 x109 x110 x111 x112 x113 x114 x115 x116 x117 x118 x119 x120 x121 x122 x123 x124 x125 x126 x127 x128 x129 x130 x131 x132 x133 x134 x135 x136 x137 x138 x139 x140 x141 x142 x143 x144 x145 x146 x147 x148 x149 x150 x151 x152 x153 x154 x155 x156 x157 x158 x159 x160 x161 x162 x163 x164 x165 x166 x167 x168 x169 x170 x171 x172 x173 x174 x175 x176 x177 x178 x179 x180 x181 x182 x183 x184 x185 x186 x187 x188 x189 x190 x191 x192 x193 x194 x195 x196 x197 x198 x199 x200 x201 x202 x203 x204 x205 x206 x207 x208 x209 x210 x211 x212 x213 x214 x215 x216 x217 x218 x219 x220 x221 x222 x223 x224 x225 x226 x227 x228 x229 x230 x231 x232 x233 x234 x235 x236 x237 x238 x239 x240 x241 x242 x243 x244 x245 x246 x247 x248 x249 x250 x251 x252 x253 x254 x255 x256 x257 x258 x259 x260 x261 x262 x263 x264 x265 x266 x267 x268 x269 x270 x271 x272 x273 x274 x275 x276 x277 x278 x279 x280 x281 x282 x283 x284 x285 x286 x287 x288 x289 x290 x291 x292 x293 x294 x295 x296 x297 x298 x299 x300 x301 x302 x303 x304 x305 x306 x307 x308 x309 x310 x311 x312 x313 x314 x315 x316 x317 x318 x319 x320 x321 x322 x323 x324 x325 x326 x327 x328 x329 x330 x331 x332 x333 x334 x335 x336 x337 x338 x339 x340 x341 x342 x343 x344 x345 x346 x347 x348 x349 x350 x351 x352 x353 x354 x355 x356 x357 x358 x359 x360 x361 x362 x363 x364 x365 x366 x367 x368 x369 x370 x371 x372 x373 x374 x375 x376 x377 x378 x379 x380 x381 x382 x383 x384 x385 x386 x387 x388 x389 x390 x391 x392 x393 x394 x395 x396 x397 x398 x399 x400 x401 x402 x403 x404 x405 x406 x407 x408 x409 x410 x411 x412 x413 x414 x415 x416 x417 x418 x419 x420 x421 x422 x423 x424 x425 x426 x427 x428 x429 x430 x431 x432 x433 x434 x435 x436 x437 x438 x439 x440 x441 x442 x443 x444 x445 x446 x447 x448 x449 x450 x451 x452 x453 x454 x455 x456 x457 x458 x459 x460 x461 x462 x463 x464 x465 x466 x467 x468 x469 x470 x471 x472 x473 x474 x475 x476 x477 x478 x479 x480 x481 x482 x483 x484 x485 x486 x487 x488 x489 x490 x491 x492 x493 x494 x495 x496 x497 x498 x499 x500
