maximize
OBJ: + 1 x1 + 1 x2 + 1 x3 + 1 x4 + 1 x5 + 1 x6 + 1 x7 + 1 x8 + 1 x9 + 1 x10 + 1 x11 + 1 x12 + 1 x13 + 1 x14 + 1 x15 + 1 x16 + 1 x17 + 1 x18 + 1 x19 + 1 x20 + 1 x21 + 1 x22 + 1 x23 + 1 x24 + 1 x25 + 1 x26 + 1 x27 + 1 x28 + 1 x29 + 1 x30 + 1 x31 + 1 x32 + 1 x33 + 1 x34 + 1 x35 + 1 x36 + 1 x37 + 1 x38 + 1 x39 + 1 x40 + 1 x41 + 1 x42 + 1 x43 + 1 x44 + 1 x45 + 1 x46 + 1 x47 + 1 x48 + 1 x49 + 1 x50 + 1 x51 + 1 x52 + 1 x53 + 1 x54 + 1 x55 + 1 x56 + 1 x57 + 1 x58 + 1 x59 + 1 x60 + 1 x61 + 1 x62 + 1 x63 + 1 x64 + 1 x65 + 1 x66 + 1 x67 + 1 x68 + 1 x69 + 1 x70 + 1 x71 + 1 x72 + 1 x73 + 1 x74 + 1 x75 + 1 x76 + 1 x77 + 1 x78 + 1 x79 + 1 x80 + 1 x81 + 1 x82 + 1 x83 + 1 x84 + 1 x85 + 1 x86 + 1 x87 + 1 x88 + 1 x89 + 1 x90 + 1 x91 + 1 x92 + 1 x93 + 1 x94 + 1 x95 + 1 x96 + 1 x97 + 1 x98 + 1 x99 + 1 x100 + 1 x101 + 1 x102 + 1 x103 + 1 x104 + 1 x105 + 1 x106 + 1 x107 + 1 x108 + 1 x109 + 1 x110 + 1 x111 + 1 x112 + 1 x113 + 1 x114 + 1 x115 + 1 x116 + 1 x117 + 1 x118 + 1 x119 + 1 x120 + 1 x121 + 1 x122 + 1 x123 + 1 x124 + 1 x125 + 1 x126 + 1 x127 + 1 x128 + 1 x129 + 1 x130 + 1 x131 + 1 x132 + 1 x133 + 1 x134 + 1 x135 + 1 x136 + 1 x137 + 1 x138 + 1 x139 + 1 x140 + 1 x141 + 1 x142 + 1 x143 + 1 x144 + 1 x145 + 1 x146 + 1 x147 + 1 x148 + 1 x149 + 1 x150 + 1 x151 + 1 x152 + 1 x153 + 1 x154 + 1 x155 + 1 x156 + 1 x157 + 1 x158 + 1 x159 + 1 x160 + 1 x161 + 1 x162 + 1 x163 + 1 x164 + 1 x165 + 1 x166 + 1 x167 + 1 x168 + 1 x169 + 1 x170 + 1 x171 + 1 x172 + 1 x173 + 1 x174 + 1 x175 + 1 x176 + 1 x177 + 1 x178 + 1 x179 + 1 x180 + 1 x181 + 1 x182 + 1 x183 + 1 x184 + 1 x185 + 1 x186 + 1 x187 + 1 x188 + 1 x189 + 1 x190 + 1 x191 + 1 x192 + 1 x193 + 1 x194 + 1 x195 + 1 x196 + 1 x197 + 1 x198 + 1 x199 + 1 x200 + 1 x201 + 1 x202 + 1 x203 + 1 x204 + 1 x205 + 1 x206 + 1 x207 + 1 x208 + 1 x209 + 1 x210 + 1 x211 + 1 x212 + 1 x213 + 1 x214 + 1 x215 + 1 x216 + 1 x217 + 1 x218 + 1 x219 + 1 x220 + 1 x221 + 1 x222 + 1 x223 + 1 x224 + 1 x225 + 1 x226 + 1 x227 + 1 x228 + 1 x229 + 1 x230 + 1 x231 + 1 x232 + 1 x233 + 1 x234 + 1 x235 + 1 x236 + 1 x237 + 1 x238 + 1 x239 + 1 x240 + 1 x241 + 1 x242 + 1 x243 + 1 x244 + 1 x245 + 1 x246 + 1 x247 + 1 x248 + 1 x249 + 1 x250 + 1 x251 + 1 x252 + 1 x253 + 1 x254 + 1 x255 + 1 x256 + 1 x257 + 1 x258 + 1 x259 + 1 x260 + 1 x261 + 1 x262 + 1 x263 + 1 x264 + 1 x265 + 1 x266 + 1 x267 + 1 x268 + 1 x269 + 1 x270 + 1 x271 + 1 x272 + 1 x273 + 1 x274 + 1 x275 + 1 x276 + 1 x277 + 1 x278 + 1 x279 + 1 x280 + 1 x281 + 1 x282 + 1 x283 + 1 x284 + 1 x285 + 1 x286 + 1 x287 + 1 x288 + 1 x289 + 1 x290 + 1 x291 + 1 x292 + 1 x293 + 1 x294 + 1 x295 + 1 x296 + 1 x297 + 1 x298 + 1 x299 + 1 x300 + 1 x301 + 1 x302 + 1 x303 + 1 x304 + 1 x305 + 1 x306 + 1 x307 + 1 x308 + 1 x309 + 1 x310 + 1 x311 + 1 x312 + 1 x313 + 1 x314 + 1 x315 + 1 x316 + 1 x317 + 1 x318 + 1 x319 + 1 x320 + 1 x321 + 1 x322 + 1 x323 + 1 x324 + 1 x325 + 1 x326 + 1 x327 + 1 x328 + 1 x329 + 1 x330 + 1 x331 + 1 x332 + 1 x333 + 1 x334 + 1 x335 + 1 x336 + 1 x337 + 1 x338 + 1 x339 + 1 x340 + 1 x341 + 1 x342 + 1 x343 + 1 x344 + 1 x345 + 1 x346 + 1 x347 + 1 x348 + 1 x349 + 1 x350 + 1 x351 + 1 x352 + 1 x353 + 1 x354 + 1 x355 + 1 x356 + 1 x357 + 1 x358 + 1 x359 + 1 x360 + 1 x361 + 1 x362 + 1 x363 + 1 x364 + 1 x365 + 1 x366 + 1 x367 + 1 x368 + 1 x369 + 1 x370 + 1 x371 + 1 x372 + 1 x373 + 1 x374 + 1 x375 + 1 x376 + 1 x377 + 1 x378 + 1 x379 + 1 x380 + 1 x381 + 1 x382 + 1 x383 + 1 x384 + 1 x385 + 1 x386 + 1 x387 + 1 x388 + 1 x389 + 1 x390 + 1 x391 + 1 x392 + 1 x393 + 1 x394 + 1 x395 + 1 x396 + 1 x397 + 1 x398 + 1 x399 + 1 x400 + 1 x401 + 1 x402 + 1 x403 + 1 x404 + 1 x405 + 1 x406 + 1 x407 + 1 x408 + 1 x409 + 1 x410 + 1 x411 + 1 x412 + 1 x413 + 1 x414 + 1 x415 + 1 x416 + 1 x417 + 1 x418 + 1 x419 + 1 x420 + 1 x421 + 1 x422 + 1 x423 + 1 x424 + 1 x425 + 1 x426 + 1 x427 + 1 x428 + 1 x429 + 1 x430 + 1 x431 + 1 x432 + 1 x433 + 1 x434 + 1 x435 + 1 x436 + 1 x437 + 1 x438 + 1 x439 + 1 x440 + 1 x441 + 1 x442 + 1 x443 + 1 x444 + 1 x445 + 1 x446 + 1 x447 + 1 x448 + 1 x449 + 1 x450 + 1 x451 + 1 x452 + 1 x453 + 1 x454 + 1 x455 + 1 x456 + 1 x457 + 1 x458 + 1 x459 + 1 x460 + 1 x461 + 1 x462 + 1 x463 + 1 x464 + 1 x465 + 1 x466 + 1 x467 + 1 x468 + 1 x469 + 1 x470 + 1 x471 + 1 x472 + 1 x473 + 1 x474 + 1 x475 + 1 x476 + 1 x477 + 1 x478 + 1 x479 + 1 x480 + 1 x481 + 1 x482 + 1 x483 + 1 x484 + 1 x485 + 1 x486 + 1 x487 + 1 x488 + 1 x489 + 1 x490 + 1 x491 + 1 x492 + 1 x493 + 1 x494 + 1 x495 + 1 x496 + 1 x497 + 1 x498 + 1 x499 + 1 x500

subject to
C1: + x146 + x317 <= 1
C2: + x20 + x305 <= 1
C3: + x38 + x359 <= 1
C4: + x22 + x29 <= 1
C5: + x5 + x37 <= 1
C6: + x15 + x232 <= 1
C7: + x6 + x270 <= 1
C8: + x30 + x45 <= 1
C9: + x12 + x91 <= 1
C10: + x339 + x457 <= 1
C11: + x129 + x260 <= 1
C12: + x12 + x333 <= 1
C13: + x106 + x378 <= 1
C14: + x15 + x151 <= 1
C15: + x21 + x247 <= 1
C16: + x4 + x87 <= 1
C17: + x21 + x385 <= 1
C18: + x124 + x433 <= 1
C19: + x178 + x483 <= 1
C20: + x180 + x451 <= 1
C21: + x184 + x269 <= 1
C22: + x6 + x248 <= 1
C23: + x15 + x280 <= 1
C24: + x24 + x334 <= 1
C25: + x62 + x422 <= 1
C26: + x47 + x76 <= 1
C27: + x97 + x124 <= 1
C28: + x33 + x225 <= 1
C29: + x24 + x96 <= 1
C30: + x108 + x428 <= 1
C31: + x20 + x40 <= 1
C32: + x241 + x447 <= 1
C33: + x14 + x102 <= 1
C34: + x81 + x216 <= 1
C35: + x28 + x40 <= 1
C36: + x113 + x289 <= 1
C37: + x68 + x413 <= 1
C38: + x5 + x36 <= 1
C39: + x96 + x99 <= 1
C40: + x198 + x380 <= 1
C41: + x35 + x387 <= 1
C42: + x12 + x84 <= 1
C43: + x105 + x123 <= 1
C44: + x86 + x156 <= 1
C45: + x4 + x289 <= 1
C46: + x18 + x332 <= 1
C47: + x11 + x154 <= 1
C48: + x231 + x484 <= 1
C49: + x10 + x357 <= 1
C50: + x20 + x97 <= 1
C51: + x293 + x374 <= 1
C52: + x12 + x306 <= 1
C53: + x225 + x278 <= 1
C54: + x297 + x302 <= 1
C55: + x1 + x15 <= 1
C56: + x8 + x92 <= 1
C57: + x4 + x12 <= 1
C58: + x31 + x137 <= 1
C59: + x134 + x314 <= 1
C60: + x174 + x456 <= 1
C61: + x420 + x436 <= 1
C62: + x15 + x85 <= 1
C63: + x208 + x399 <= 1
C64: + x119 + x128 <= 1
C65: + x8 + x233 <= 1
C66: + x158 + x284 <= 1
C67: + x141 + x374 <= 1
C68: + x100 + x109 <= 1
C69: + x8 + x16 <= 1
C70: + x290 + x311 <= 1
C71: + x87 + x379 <= 1
C72: + x42 + x44 <= 1
C73: + x5 + x186 <= 1
C74: + x169 + x361 <= 1
C75: + x51 + x71 <= 1
C76: + x125 + x450 <= 1
C77: + x109 + x209 <= 1
C78: + x19 + x32 <= 1
C79: + x29 + x296 <= 1
C80: + x2 + x254 <= 1
C81: + x94 + x165 <= 1
C82: + x5 + x95 <= 1
C83: + x24 + x154 <= 1
C84: + x54 + x218 <= 1
C85: + x41 + x238 <= 1
C86: + x98 + x440 <= 1
C87: + x6 + x71 <= 1
C88: + x107 + x395 <= 1
C89: + x66 + x252 <= 1
C90: + x165 + x389 <= 1
C91: + x22 + x100 <= 1
C92: + x45 + x69 <= 1
C93: + x1 + x6 <= 1
C94: + x293 + x452 <= 1
C95: + x14 + x17 + x50 <= 1
C96: + x9 + x70 <= 1
C97: + x208 + x241 <= 1
C98: + x35 + x308 <= 1
C99: + x44 + x261 <= 1
C100: + x74 + x245 <= 1
C101: + x75 + x136 <= 1
C102: + x22 + x56 <= 1
C103: + x5 + x18 <= 1
C104: + x170 + x215 <= 1
C105: + x109 + x185 <= 1
C106: + x10 + x171 <= 1
C107: + x210 + x259 <= 1
C108: + x124 + x268 <= 1
C109: + x166 + x472 <= 1
C110: + x29 + x410 <= 1
C111: + x258 + x450 <= 1
C112: + x176 + x347 <= 1
C113: + x24 + x389 <= 1
C114: + x445 + x485 <= 1
C115: + x202 + x271 <= 1
C116: + x59 + x386 <= 1
C117: + x157 + x452 <= 1
C118: + x151 + x179 <= 1
C119: + x15 + x27 <= 1
C120: + x40 + x55 <= 1
C121: + x6 + x227 <= 1
C122: + x91 + x237 <= 1
C123: + x118 + x366 <= 1
C124: + x56 + x116 <= 1
C125: + x115 + x215 <= 1
C126: + x243 + x429 <= 1
C127: + x14 + x302 <= 1
C128: + x9 + x77 <= 1
C129: + x15 + x390 <= 1
C130: + x301 + x357 <= 1
C131: + x4 + x135 <= 1
C132: + x5 + x25 <= 1
C133: + x214 + x497 <= 1
C134: + x17 + x282 <= 1
C135: + x46 + x203 <= 1
C136: + x49 + x115 <= 1
C137: + x40 + x202 <= 1
C138: + x5 + x267 <= 1
C139: + x7 + x19 <= 1
C140: + x4 + x280 <= 1
C141: + x81 + x233 <= 1
C142: + x11 + x179 <= 1
C143: + x136 + x474 <= 1
C144: + x5 + x77 <= 1
C145: + x11 + x12 + x490 <= 1
C146: + x16 + x115 <= 1
C147: + x7 + x430 <= 1
C148: + x102 + x343 <= 1
C149: + x84 + x385 <= 1
C150: + x149 + x496 <= 1
C151: + x131 + x143 <= 1
C152: + x97 + x478 <= 1
C153: + x12 + x51 <= 1
C154: + x393 + x463 <= 1
C155: + x12 + x293 <= 1
C156: + x6 + x236 <= 1
C157: + x4 + x127 <= 1
C158: + x40 + x147 <= 1
C159: + x22 + x201 <= 1
C160: + x89 + x101 <= 1
C161: + x47 + x193 <= 1
C162: + x103 + x409 <= 1
C163: + x4 + x337 <= 1
C164: + x92 + x285 <= 1
C165: + x5 + x8 <= 1
C166: + x125 + x384 <= 1
C167: + x198 + x352 <= 1
C168: + x193 + x213 <= 1
C169: + x4 + x43 <= 1
C170: + x118 + x393 <= 1
C171: + x57 + x154 <= 1
C172: + x98 + x106 <= 1
C173: + x364 + x438 <= 1
C174: + x110 + x383 <= 1
C175: + x11 + x190 <= 1
C176: + x56 + x398 <= 1
C177: + x40 + x88 <= 1
C178: + x52 + x415 <= 1
C179: + x5 + x76 <= 1
C180: + x9 + x15 <= 1
C181: + x76 + x293 <= 1
C182: + x133 + x166 <= 1
C183: + x37 + x50 <= 1
C184: + x136 + x360 <= 1
C185: + x57 + x283 <= 1
C186: + x23 + x101 <= 1
C187: + x260 + x416 <= 1
C188: + x10 + x18 <= 1
C189: + x5 + x128 <= 1
C190: + x23 + x194 <= 1
C191: + x150 + x283 <= 1
C192: + x15 + x49 <= 1
C193: + x142 + x206 <= 1
C194: + x271 + x358 <= 1
C195: + x66 + x334 <= 1
C196: + x169 + x182 <= 1
C197: + x78 + x283 <= 1
C198: + x209 + x472 <= 1
C199: + x281 + x442 <= 1
C200: + x16 + x189 <= 1
C201: + x54 + x362 <= 1
C202: + x74 + x414 <= 1
C203: + x130 + x404 <= 1
C204: + x39 + x248 <= 1
C205: + x115 + x189 <= 1
C206: + x206 + x212 <= 1
C207: + x7 + x13 <= 1
C208: + x62 + x250 <= 1
C209: + x6 + x42 <= 1
C210: + x44 + x296 <= 1
C211: + x10 + x47 <= 1
C212: + x2 + x218 <= 1
C213: + x40 + x77 <= 1
C214: + x25 + x220 <= 1
C215: + x134 + x339 <= 1
C216: + x40 + x383 <= 1
C217: + x31 + x274 <= 1
C218: + x14 + x456 <= 1
C219: + x42 + x52 <= 1
C220: + x216 + x424 <= 1
C221: + x145 + x168 <= 1
C222: + x10 + x27 <= 1
C223: + x158 + x328 <= 1
C224: + x87 + x462 <= 1
C225: + x18 + x75 <= 1
C226: + x86 + x126 <= 1
C227: + x74 + x145 <= 1
C228: + x101 + x173 <= 1
C229: + x2 + x7 <= 1
C230: + x5 + x246 <= 1
C231: + x36 + x114 <= 1
C232: + x71 + x411 <= 1
C233: + x136 + x440 <= 1
C234: + x25 + x180 <= 1
C235: + x160 + x318 <= 1
C236: + x18 + x391 <= 1
C237: + x15 + x427 <= 1
C238: + x10 + x290 <= 1
C239: + x14 + x112 <= 1
C240: + x6 + x19 <= 1
C241: + x91 + x189 <= 1
C242: + x137 + x277 <= 1
C243: + x237 + x377 <= 1
C244: + x33 + x401 <= 1
C245: + x5 + x58 <= 1
C246: + x15 + x225 <= 1
C247: + x180 + x292 <= 1
C248: + x103 + x338 <= 1
C249: + x21 + x434 <= 1
C250: + x31 + x281 <= 1
C251: + x113 + x390 <= 1
C252: + x120 + x169 <= 1
C253: + x285 + x388 <= 1
C254: + x5 + x443 <= 1
C255: + x195 + x368 <= 1
C256: + x10 + x474 <= 1
C257: + x257 + x258 <= 1
C258: + x78 + x269 <= 1
C259: + x24 + x256 <= 1
C260: + x88 + x448 <= 1
C261: + x60 + x109 <= 1
C262: + x187 + x292 <= 1
C263: + x26 + x45 <= 1
C264: + x20 + x35 <= 1
C265: + x357 + x397 <= 1
C266: + x167 + x345 <= 1
C267: + x5 + x132 <= 1
C268: + x260 + x455 <= 1
C269: + x208 + x389 <= 1
C270: + x17 + x405 <= 1
C271: + x110 + x362 <= 1
C272: + x1 + x164 <= 1
C273: + x194 + x351 <= 1
C274: + x2 + x44 <= 1
C275: + x33 + x408 <= 1
C276: + x153 + x170 <= 1
C277: + x334 + x354 <= 1
C278: + x36 + x163 <= 1
C279: + x9 + x36 <= 1
C280: + x457 + x462 <= 1
C281: + x195 + x339 <= 1
C282: + x198 + x272 <= 1
C283: + x69 + x480 <= 1
C284: + x37 + x190 <= 1
C285: + x67 + x369 <= 1
C286: + x233 + x420 <= 1
C287: + x4 + x333 <= 1
C288: + x170 + x386 <= 1
C289: + x19 + x496 <= 1
C290: + x129 + x239 <= 1
C291: + x136 + x188 <= 1
C292: + x60 + x340 <= 1
C293: + x23 + x70 <= 1
C294: + x227 + x481 <= 1
C295: + x293 + x474 <= 1
C296: + x14 + x319 <= 1
C297: + x46 + x75 <= 1
C298: + x148 + x428 <= 1
C299: + x20 + x479 <= 1
C300: + x33 + x66 <= 1
C301: + x15 + x82 <= 1
C302: + x152 + x230 <= 1
C303: + x9 + x313 <= 1
C304: + x208 + x398 <= 1
C305: + x10 + x399 <= 1
C306: + x145 + x209 <= 1
C307: + x54 + x59 <= 1
C308: + x33 + x431 <= 1
C309: + x24 + x201 <= 1
C310: + x9 + x43 <= 1
C311: + x101 + x124 <= 1
C312: + x79 + x488 <= 1
C313: + x103 + x324 <= 1
C314: + x105 + x127 <= 1
C315: + x78 + x104 <= 1
C316: + x25 + x78 <= 1
C317: + x5 + x282 <= 1
C318: + x4 + x394 <= 1
C319: + x13 + x23 + x24 <= 1
C320: + x2 + x491 <= 1
C321: + x76 + x243 <= 1
C322: + x12 + x378 <= 1
C323: + x69 + x162 <= 1
C324: + x20 + x427 <= 1
C325: + x10 + x14 <= 1
C326: + x155 + x185 <= 1
C327: + x114 + x231 <= 1
C328: + x54 + x221 <= 1
C329: + x250 + x423 <= 1
C330: + x35 + x353 <= 1
C331: + x9 + x500 <= 1
C332: + x255 + x331 <= 1
C333: + x5 + x227 <= 1
C334: + x24 + x327 <= 1
C335: + x187 + x249 <= 1
C336: + x43 + x223 <= 1
C337: + x420 + x440 <= 1
C338: + x4 + x354 <= 1
C339: + x15 + x89 <= 1
C340: + x39 + x99 <= 1
C341: + x116 + x132 <= 1
C342: + x307 + x403 <= 1
C343: + x196 + x252 <= 1
C344: + x31 + x270 <= 1
C345: + x15 + x460 <= 1
C346: + x134 + x234 <= 1
C347: + x57 + x137 <= 1
C348: + x53 + x355 <= 1
C349: + x40 + x165 <= 1
C350: + x81 + x481 <= 1
C351: + x9 + x30 <= 1
C352: + x10 + x146 <= 1
C353: + x102 + x289 <= 1
C354: + x15 + x379 <= 1
C355: + x144 + x424 <= 1
C356: + x2 + x285 <= 1
C357: + x42 + x185 <= 1
C358: + x15 + x24 <= 1
C359: + x16 + x400 <= 1
C360: + x321 + x445 <= 1
C361: + x115 + x119 <= 1
C362: + x168 + x193 <= 1
C363: + x44 + x492 <= 1
C364: + x15 + x177 <= 1
C365: + x80 + x474 <= 1
C366: + x28 + x153 <= 1
C367: + x57 + x487 <= 1
C368: + x5 + x476 <= 1
C369: + x106 + x293 <= 1
C370: + x5 + x377 <= 1
C371: + x6 + x119 <= 1
C372: + x7 + x141 <= 1
C373: + x19 + x406 <= 1
C374: + x120 + x121 <= 1
C375: + x170 + x219 <= 1
C376: + x130 + x397 <= 1
C377: + x6 + x392 <= 1
C378: + x80 + x129 <= 1
C379: + x2 + x485 <= 1
C380: + x67 + x299 <= 1
C381: + x69 + x152 <= 1
C382: + x126 + x451 <= 1
C383: + x172 + x380 <= 1
C384: + x237 + x273 <= 1
C385: + x94 + x186 <= 1
C386: + x42 + x436 <= 1
C387: + x5 + x66 <= 1
C388: + x14 + x171 <= 1
C389: + x6 + x297 <= 1
C390: + x389 + x417 <= 1
C391: + x197 + x258 <= 1
C392: + x145 + x493 <= 1
C393: + x20 + x115 <= 1
C394: + x40 + x336 <= 1
C395: + x5 + x308 <= 1
C396: + x15 + x31 <= 1
C397: + x9 + x482 <= 1
C398: + x5 + x209 <= 1
C399: + x125 + x425 <= 1
C400: + x29 + x207 <= 1
C401: + x184 + x187 <= 1
C402: + x22 + x204 <= 1
C403: + x15 + x394 <= 1
C404: + x18 + x92 <= 1
C405: + x10 + x327 <= 1
C406: + x20 + x63 <= 1
C407: + x5 + x360 <= 1
C408: + x6 + x128 <= 1
C409: + x207 + x363 <= 1
C410: + x10 + x117 <= 1
C411: + x64 + x266 <= 1
C412: + x157 + x254 <= 1
C413: + x12 + x288 <= 1
C414: + x59 + x65 <= 1
C415: + x60 + x307 <= 1
C416: + x57 + x58 <= 1
C417: + x116 + x356 <= 1
C418: + x7 + x23 <= 1
C419: + x191 + x372 <= 1
C420: + x241 + x404 <= 1
C421: + x50 + x111 <= 1
C422: + x184 + x345 <= 1
C423: + x22 + x430 <= 1
C424: + x43 + x426 <= 1
C425: + x109 + x374 <= 1
C426: + x27 + x89 <= 1
C427: + x144 + x279 <= 1
C428: + x10 + x33 <= 1
C429: + x9 + x175 <= 1
C430: + x47 + x416 <= 1
C431: + x4 + x183 <= 1
C432: + x281 + x479 <= 1
C433: + x291 + x415 <= 1
C434: + x39 + x182 <= 1
C435: + x31 + x300 <= 1
C436: + x55 + x446 <= 1
C437: + x84 + x151 <= 1
C438: + x46 + x489 <= 1
C439: + x27 + x436 <= 1
C440: + x16 + x305 <= 1
C441: + x8 + x67 <= 1
C442: + x38 + x191 <= 1
C443: + x112 + x156 <= 1
C444: + x33 + x348 <= 1
C445: + x69 + x488 <= 1
C446: + x14 + x291 <= 1
C447: + x90 + x466 <= 1
C448: + x308 + x391 <= 1
C449: + x240 + x284 <= 1
C450: + x239 + x261 <= 1
C451: + x4 + x341 <= 1
C452: + x43 + x109 <= 1
C453: + x81 + x184 <= 1
C454: + x71 + x191 <= 1
C455: + x336 + x349 <= 1
C456: + x30 + x355 <= 1
C457: + x358 + x411 <= 1
C458: + x25 + x344 <= 1
C459: + x6 + x156 <= 1
C460: + x246 + x429 <= 1
C461: + x20 + x181 <= 1
C462: + x4 + x47 <= 1
C463: + x42 + x301 <= 1
C464: + x179 + x344 <= 1
C465: + x307 + x353 <= 1
C466: + x14 + x122 <= 1
C467: + x6 + x45 <= 1
C468: + x146 + x255 <= 1
C469: + x10 + x407 <= 1
C470: + x39 + x68 <= 1
C471: + x14 + x360 <= 1
C472: + x26 + x207 <= 1
C473: + x9 + x51 <= 1
C474: + x87 + x499 <= 1
C475: + x35 + x133 <= 1
C476: + x23 + x121 <= 1
C477: + x453 + x486 <= 1
C478: + x101 + x211 <= 1
C479: + x14 + x348 <= 1
C480: + x252 + x398 <= 1
C481: + x12 + x28 <= 1
C482: + x6 + x98 <= 1
C483: + x62 + x133 <= 1
C484: + x10 + x103 <= 1
C485: + x103 + x134 <= 1
C486: + x5 + x11 <= 1
C487: + x90 + x332 <= 1
C488: + x10 + x194 <= 1
C489: + x21 + x54 <= 1
C490: + x95 + x388 <= 1
C491: + x96 + x422 <= 1
C492: + x57 + x165 <= 1
C493: + x48 + x327 <= 1
C494: + x175 + x386 <= 1
C495: + x186 + x257 <= 1
C496: + x15 + x65 <= 1
C497: + x180 + x388 <= 1
C498: + x6 + x22 <= 1
C499: + x79 + x129 <= 1
C500: + x10 + x83 <= 1
C501: + x246 + x295 <= 1
C502: + x2 + x412 <= 1
C503: + x111 + x499 <= 1
C504: + x20 + x412 <= 1
C505: + x13 + x345 <= 1
C506: + x5 + x206 <= 1
C507: + x9 + x372 <= 1
C508: + x109 + x229 <= 1
C509: + x10 + x31 <= 1
C510: + x236 + x418 <= 1
C511: + x32 + x228 <= 1
C512: + x5 + x448 <= 1
C513: + x16 + x17 <= 1
C514: + x66 + x117 <= 1
C515: + x11 + x330 <= 1
C516: + x12 + x17 <= 1
C517: + x141 + x176 <= 1
C518: + x6 + x107 <= 1
C519: + x62 + x158 <= 1
C520: + x92 + x214 <= 1
C521: + x38 + x306 <= 1
C522: + x41 + x492 <= 1
C523: + x60 + x346 <= 1
C524: + x23 + x80 <= 1
C525: + x198 + x334 <= 1
C526: + x133 + x370 <= 1
C527: + x7 + x351 <= 1
C528: + x139 + x406 <= 1
C529: + x4 + x29 <= 1
C530: + x69 + x87 <= 1
C531: + x57 + x172 <= 1
C532: + x39 + x273 <= 1
C533: + x69 + x140 <= 1
C534: + x21 + x463 <= 1
C535: + x181 + x315 <= 1
C536: + x202 + x303 <= 1
C537: + x38 + x358 <= 1
C538: + x175 + x230 <= 1
C539: + x40 + x66 <= 1
C540: + x15 + x346 <= 1
C541: + x50 + x227 <= 1
C542: + x21 + x446 <= 1
C543: + x35 + x151 <= 1
C544: + x88 + x342 <= 1
C545: + x416 + x441 <= 1
C546: + x55 + x94 <= 1
C547: + x57 + x248 <= 1
C548: + x174 + x393 <= 1
C549: + x96 + x246 <= 1
C550: + x79 + x88 <= 1
C551: + x14 + x96 <= 1
C552: + x159 + x243 <= 1
C553: + x228 + x262 <= 1
C554: + x63 + x455 <= 1
C555: + x16 + x251 <= 1
C556: + x12 + x171 <= 1
C557: + x13 + x53 <= 1
C558: + x141 + x437 <= 1
C559: + x1 + x253 <= 1
C560: + x24 + x139 <= 1
C561: + x16 + x26 <= 1
C562: + x20 + x91 <= 1
C563: + x195 + x364 <= 1
C564: + x167 + x353 <= 1
C565: + x314 + x378 <= 1
C566: + x103 + x184 <= 1
C567: + x50 + x58 <= 1
C568: + x298 + x454 <= 1
C569: + x137 + x433 <= 1
C570: + x56 + x104 <= 1
C571: + x40 + x234 <= 1
C572: + x351 + x365 <= 1
C573: + x314 + x491 <= 1
C574: + x141 + x489 <= 1
C575: + x284 + x310 <= 1
C576: + x3 + x51 <= 1
C577: + x33 + x79 <= 1
C578: + x142 + x176 <= 1
C579: + x6 + x8 <= 1
C580: + x125 + x341 <= 1
C581: + x40 + x222 <= 1
C582: + x60 + x61 <= 1
C583: + x5 + x287 <= 1
C584: + x334 + x449 <= 1
C585: + x82 + x112 <= 1
C586: + x102 + x426 <= 1
C587: + x11 + x489 <= 1
C588: + x154 + x211 <= 1
C589: + x21 + x255 <= 1
C590: + x5 + x81 <= 1
C591: + x334 + x338 <= 1
C592: + x19 + x327 <= 1
C593: + x11 + x380 <= 1
C594: + x29 + x79 <= 1
C595: + x12 + x15 <= 1
C596: + x134 + x152 <= 1
C597: + x190 + x304 <= 1
C598: + x408 + x473 <= 1
C599: + x74 + x135 <= 1
C600: + x67 + x91 <= 1
C601: + x384 + x418 <= 1
C602: + x15 + x171 <= 1
C603: + x17 + x198 <= 1
C604: + x102 + x140 <= 1
C605: + x56 + x125 <= 1
C606: + x4 + x11 <= 1
C607: + x25 + x134 <= 1
C608: + x159 + x408 <= 1
C609: + x35 + x213 <= 1
C610: + x66 + x147 <= 1
C611: + x20 + x483 <= 1
C612: + x95 + x107 <= 1
C613: + x141 + x146 <= 1
C614: + x34 + x74 <= 1
C615: + x15 + x86 <= 1
C616: + x42 + x127 <= 1
C617: + x28 + x457 <= 1
C618: + x119 + x125 <= 1
C619: + x233 + x326 <= 1
C620: + x4 + x156 <= 1
C621: + x40 + x219 <= 1
C622: + x42 + x309 <= 1
C623: + x35 + x169 <= 1
C624: + x80 + x94 <= 1
C625: + x55 + x318 <= 1
C626: + x37 + x324 <= 1
C627: + x50 + x475 <= 1
C628: + x124 + x192 <= 1
C629: + x205 + x363 <= 1
C630: + x54 + x217 <= 1
C631: + x147 + x395 <= 1
C632: + x20 + x105 <= 1
C633: + x39 + x133 <= 1
C634: + x77 + x80 <= 1
C635: + x222 + x253 <= 1
C636: + x138 + x214 <= 1
C637: + x185 + x316 <= 1
C638: + x20 + x379 <= 1
C639: + x5 + x239 <= 1
C640: + x15 + x174 <= 1
C641: + x62 + x439 <= 1
C642: + x246 + x394 <= 1
C643: + x214 + x262 <= 1
C644: + x40 + x299 <= 1
C645: + x5 + x473 <= 1
C646: + x33 + x256 <= 1
C647: + x13 + x428 <= 1
C648: + x176 + x435 <= 1
C649: + x20 + x53 <= 1
C650: + x3 + x5 <= 1
C651: + x44 + x264 <= 1
C652: + x172 + x331 <= 1
C653: + x10 + x79 <= 1
C654: + x11 + x69 <= 1
C655: + x6 + x173 <= 1
C656: + x33 + x263 <= 1
C657: + x97 + x396 <= 1
C658: + x24 + x33 <= 1
C659: + x7 + x25 <= 1
C660: + x77 + x248 <= 1
C661: + x4 + x274 <= 1
C662: + x23 + x32 <= 1
C663: + x5 + x162 <= 1
C664: + x73 + x176 <= 1
C665: + x10 + x59 <= 1
C666: + x111 + x157 <= 1
C667: + x41 + x57 <= 1
C668: + x13 + x34 <= 1
C669: + x451 + x468 <= 1
C670: + x369 + x465 <= 1
C671: + x153 + x317 <= 1
C672: + x2 + x273 <= 1
C673: + x33 + x136 <= 1
C674: + x6 + x79 <= 1
C675: + x68 + x71 <= 1
C676: + x232 + x370 <= 1
C677: + x14 + x63 <= 1
C678: + x34 + x491 <= 1
C679: + x205 + x497 <= 1
C680: + x18 + x188 <= 1
C681: + x128 + x161 <= 1
C682: + x296 + x381 <= 1
C683: + x293 + x460 <= 1
C684: + x6 + x226 <= 1
C685: + x26 + x310 <= 1
C686: + x42 + x206 <= 1
C687: + x228 + x485 <= 1
C688: + x69 + x75 <= 1
C689: + x15 + x395 <= 1
C690: + x13 + x264 <= 1
C691: + x40 + x391 <= 1
C692: + x47 + x461 <= 1
C693: + x98 + x231 <= 1
C694: + x87 + x104 <= 1
C695: + x10 + x211 <= 1
C696: + x193 + x223 <= 1
C697: + x4 + x37 <= 1
C698: + x196 + x316 <= 1
C699: + x73 + x122 <= 1
C700: + x19 + x40 + x48 <= 1
C701: + x32 + x42 <= 1
C702: + x14 + x68 <= 1
C703: + x145 + x255 <= 1
C704: + x145 + x324 <= 1
C705: + x246 + x344 <= 1
C706: + x20 + x284 <= 1
C707: + x184 + x227 <= 1
C708: + x40 + x90 <= 1
C709: + x5 + x78 <= 1
C710: + x24 + x175 <= 1
C711: + x59 + x168 <= 1
C712: + x42 + x166 <= 1
C713: + x267 + x312 <= 1
C714: + x111 + x478 <= 1
C715: + x55 + x447 <= 1
C716: + x5 + x221 <= 1
C717: + x216 + x401 <= 1
C718: + x100 + x260 <= 1
C719: + x27 + x98 <= 1
C720: + x54 + x348 <= 1
C721: + x10 + x240 <= 1
C722: + x188 + x269 <= 1
C723: + x24 + x99 <= 1
C724: + x317 + x489 <= 1
C725: + x10 + x331 <= 1
C726: + x110 + x423 <= 1
C727: + x52 + x470 <= 1
C728: + x94 + x286 <= 1
C729: + x4 + x46 <= 1
C730: + x69 + x102 <= 1
C731: + x161 + x271 <= 1
C732: + x16 + x470 <= 1
C733: + x29 + x36 <= 1
C734: + x60 + x168 <= 1
C735: + x61 + x304 <= 1
C736: + x106 + x350 <= 1
C737: + x15 + x123 <= 1
C738: + x40 + x87 <= 1
C739: + x34 + x268 <= 1
C740: + x24 + x168 <= 1
C741: + x9 + x16 <= 1
C742: + x134 + x361 <= 1
C743: + x65 + x445 <= 1
C744: + x247 + x484 <= 1
C745: + x213 + x237 <= 1
C746: + x50 + x244 <= 1
C747: + x163 + x435 <= 1
C748: + x28 + x409 <= 1
C749: + x11 + x14 <= 1
C750: + x420 + x450 <= 1
C751: + x14 + x49 <= 1
C752: + x52 + x271 <= 1
C753: + x363 + x467 <= 1
C754: + x10 + x17 <= 1
C755: + x11 + x239 <= 1
C756: + x56 + x65 <= 1
C757: + x488 + x492 <= 1
C758: + x18 + x81 <= 1
C759: + x4 + x5 + x6 + x7 <= 1
C760: + x267 + x355 <= 1
C761: + x422 + x447 <= 1
C762: + x81 + x172 <= 1
C763: + x8 + x257 <= 1
C764: + x158 + x255 <= 1
C765: + x106 + x182 <= 1
C766: + x5 + x16 <= 1
C767: + x15 + x264 <= 1
C768: + x15 + x417 <= 1
C769: + x7 + x14 <= 1
C770: + x9 + x424 <= 1
C771: + x23 + x33 <= 1
C772: + x362 + x410 <= 1
C773: + x197 + x479 <= 1
C774: + x163 + x347 <= 1
C775: + x10 + x46 <= 1
C776: + x111 + x178 <= 1
C777: + x39 + x72 <= 1
C778: + x40 + x80 <= 1
C779: + x15 + x340 <= 1
C780: + x289 + x442 <= 1
C781: + x28 + x243 <= 1
C782: + x37 + x197 <= 1
C783: + x191 + x202 <= 1
C784: + x49 + x94 <= 1
C785: + x77 + x116 <= 1
C786: + x59 + x170 <= 1
C787: + x135 + x354 <= 1
C788: + x79 + x301 <= 1
C789: + x62 + x205 <= 1
C790: + x50 + x245 <= 1
C791: + x52 + x280 <= 1
C792: + x278 + x306 <= 1
C793: + x10 + x26 <= 1
C794: + x39 + x52 <= 1
C795: + x73 + x419 <= 1
C796: + x92 + x463 <= 1
C797: + x57 + x93 <= 1
C798: + x91 + x469 <= 1
C799: + x21 + x67 <= 1
C800: + x107 + x404 <= 1
C801: + x15 + x57 <= 1
C802: + x14 + x30 <= 1
C803: + x24 + x315 <= 1
C804: + x4 + x28 <= 1
C805: + x46 + x88 <= 1
C806: + x40 + x482 <= 1
C807: + x9 + x268 <= 1
C808: + x10 + x388 <= 1
C809: + x19 + x431 <= 1
C810: + x375 + x390 <= 1
C811: + x257 + x328 <= 1
C812: + x16 + x73 <= 1
C813: + x27 + x204 <= 1
C814: + x193 + x256 <= 1
C815: + x29 + x161 <= 1
C816: + x30 + x47 <= 1
C817: + x33 + x164 <= 1
C818: + x216 + x217 <= 1
C819: + x262 + x382 <= 1
C820: + x420 + x464 <= 1
C821: + x123 + x470 <= 1
C822: + x31 + x443 <= 1
C823: + x90 + x210 <= 1
C824: + x102 + x210 <= 1
C825: + x29 + x216 <= 1
C826: + x4 + x85 <= 1
C827: + x44 + x62 <= 1
C828: + x6 + x308 <= 1
C829: + x91 + x480 <= 1
C830: + x211 + x222 <= 1
C831: + x67 + x375 <= 1
C832: + x2 + x265 <= 1
C833: + x68 + x180 <= 1
C834: + x35 + x368 <= 1
C835: + x62 + x154 <= 1
C836: + x65 + x228 <= 1
C837: + x27 + x305 <= 1
C838: + x393 + x465 <= 1
C839: + x167 + x207 <= 1
C840: + x14 + x23 <= 1
C841: + x71 + x403 <= 1
C842: + x1 + x54 <= 1
C843: + x136 + x432 <= 1
C844: + x103 + x286 <= 1
C845: + x37 + x263 <= 1
C846: + x76 + x415 <= 1
C847: + x60 + x112 <= 1
C848: + x290 + x335 <= 1
C849: + x54 + x158 <= 1
C850: + x156 + x263 <= 1
C851: + x20 + x38 <= 1
C852: + x131 + x225 <= 1
C853: + x22 + x453 <= 1
C854: + x5 + x141 <= 1
C855: + x6 + x27 <= 1
C856: + x260 + x458 <= 1
C857: + x198 + x475 <= 1
C858: + x126 + x483 <= 1
C859: + x200 + x491 <= 1
C860: + x38 + x354 <= 1
C861: + x5 + x34 <= 1
C862: + x15 + x233 <= 1
C863: + x46 + x226 <= 1
C864: + x12 + x82 <= 1
C865: + x7 + x44 <= 1
C866: + x128 + x340 <= 1
C867: + x18 + x342 <= 1
C868: + x9 + x180 <= 1
C869: + x10 + x12 <= 1
C870: + x120 + x161 <= 1
C871: + x83 + x359 <= 1
C872: + x31 + x223 <= 1
C873: + x252 + x416 <= 1
C874: + x29 + x116 <= 1
C875: + x222 + x231 <= 1
C876: + x323 + x337 <= 1
C877: + x31 + x461 <= 1
C878: + x115 + x481 <= 1
C879: + x91 + x124 <= 1
C880: + x19 + x493 <= 1
C881: + x301 + x321 <= 1
C882: + x17 + x382 <= 1
C883: + x226 + x498 <= 1
C884: + x15 + x281 <= 1
C885: + x8 + x90 <= 1
C886: + x66 + x499 <= 1
C887: + x30 + x237 <= 1
C888: + x124 + x293 <= 1
C889: + x13 + x434 <= 1
C890: + x16 + x42 <= 1
C891: + x10 + x339 <= 1
C892: + x25 + x480 <= 1
C893: + x24 + x442 <= 1
C894: + x19 + x417 <= 1
C895: + x13 + x252 <= 1
C896: + x234 + x341 <= 1
C897: + x40 + x123 <= 1
C898: + x35 + x73 <= 1
C899: + x24 + x285 <= 1
C900: + x8 + x14 <= 1
C901: + x174 + x347 <= 1
C902: + x48 + x139 <= 1
C903: + x115 + x155 <= 1
C904: + x42 + x139 <= 1
C905: + x17 + x28 <= 1
C906: + x35 + x174 <= 1
C907: + x5 + x192 <= 1
C908: + x15 + x99 <= 1
C909: + x352 + x438 <= 1
C910: + x19 + x34 <= 1
C911: + x5 + x93 <= 1
C912: + x117 + x183 <= 1
C913: + x213 + x288 <= 1
C914: + x39 + x130 <= 1
C915: + x88 + x163 <= 1
C916: + x7 + x95 <= 1
C917: + x80 + x194 <= 1
C918: + x28 + x433 <= 1
C919: + x4 + x212 <= 1
C920: + x5 + x228 <= 1
C921: + x85 + x338 <= 1
C922: + x38 + x131 <= 1
C923: + x76 + x397 <= 1
C924: + x97 + x120 <= 1
C925: + x187 + x250 <= 1
C926: + x29 + x460 <= 1
C927: + x97 + x282 <= 1
C928: + x1 + x334 <= 1
C929: + x10 + x74 <= 1
C930: + x22 + x42 <= 1
C931: + x90 + x188 <= 1
C932: + x90 + x367 <= 1
C933: + x8 + x11 <= 1
C934: + x84 + x430 <= 1
C935: + x106 + x121 <= 1
C936: + x52 + x213 <= 1
C937: + x44 + x148 <= 1
C938: + x193 + x471 <= 1
C939: + x50 + x116 <= 1
C940: + x87 + x217 <= 1
C941: + x2 + x241 <= 1
C942: + x140 + x349 <= 1
C943: + x68 + x437 <= 1
C944: + x117 + x190 <= 1
C945: + x246 + x485 <= 1
C946: + x12 + x60 <= 1
C947: + x340 + x407 <= 1
C948: + x5 + x310 <= 1
C949: + x44 + x336 <= 1
C950: + x1 + x265 <= 1
C951: + x321 + x446 <= 1
C952: + x20 + x383 <= 1
C953: + x122 + x317 <= 1
C954: + x40 + x53 <= 1
C955: + x5 + x235 <= 1
C956: + x6 + x229 <= 1
C957: + x80 + x110 <= 1
C958: + x56 + x114 <= 1
C959: + x3 + x307 <= 1
C960: + x293 + x457 <= 1
C961: + x31 + x330 <= 1
C962: + x35 + x236 <= 1
C963: + x18 + x98 <= 1
C964: + x36 + x204 <= 1
C965: + x71 + x289 <= 1
C966: + x81 + x286 <= 1
C967: + x121 + x133 <= 1
C968: + x48 + x359 <= 1
C969: + x169 + x297 <= 1
C970: + x33 + x81 <= 1
C971: + x63 + x436 <= 1
C972: + x106 + x199 <= 1
C973: + x13 + x234 <= 1
C974: + x104 + x169 <= 1
C975: + x15 + x254 <= 1
C976: + x270 + x385 <= 1
C977: + x19 + x129 <= 1
C978: + x21 + x26 <= 1
C979: + x158 + x435 <= 1
C980: + x24 + x61 <= 1
C981: + x7 + x29 <= 1
C982: + x57 + x145 <= 1
C983: + x124 + x494 <= 1
C984: + x17 + x439 <= 1
C985: + x9 + x276 <= 1
C986: + x19 + x20 <= 1
C987: + x233 + x381 <= 1
C988: + x25 + x204 <= 1
C989: + x6 + x280 <= 1
C990: + x23 + x290 <= 1
C991: + x15 + x323 <= 1
C992: + x18 + x47 <= 1
C993: + x147 + x386 <= 1
C994: + x12 + x49 <= 1
C995: + x20 + x118 <= 1
C996: + x13 + x464 <= 1
C997: + x40 + x335 <= 1
C998: + x15 + x32 <= 1
C999: + x24 + x497 <= 1
C1000: + x74 + x181 <= 1
C1001: + x420 + x472 <= 1
C1002: + x195 + x406 <= 1
C1003: + x80 + x107 <= 1
C1004: + x182 + x223 <= 1
C1005: + x369 + x385 <= 1
C1006: + x188 + x191 <= 1
C1007: + x18 + x91 <= 1
C1008: + x403 + x405 <= 1
C1009: + x410 + x465 <= 1
C1010: + x106 + x208 <= 1
C1011: + x15 + x314 <= 1
C1012: + x109 + x173 <= 1
C1013: + x6 + x365 <= 1
C1014: + x83 + x444 <= 1
C1015: + x241 + x312 <= 1
C1016: + x243 + x414 <= 1
C1017: + x14 + x285 <= 1
C1018: + x87 + x394 <= 1
C1019: + x10 + x306 <= 1
C1020: + x230 + x284 <= 1
C1021: + x69 + x160 <= 1
C1022: + x193 + x322 <= 1
C1023: + x315 + x437 <= 1
C1024: + x117 + x132 <= 1
C1025: + x15 + x326 <= 1
C1026: + x144 + x437 <= 1
C1027: + x183 + x301 <= 1
C1028: + x38 + x45 <= 1
C1029: + x239 + x314 <= 1
C1030: + x39 + x384 <= 1
C1031: + x17 + x61 <= 1
C1032: + x238 + x296 <= 1
C1033: + x50 + x90 <= 1
C1034: + x40 + x43 <= 1
C1035: + x22 + x113 <= 1
C1036: + x4 + x199 <= 1
C1037: + x82 + x174 <= 1
C1038: + x2 + x159 <= 1
C1039: + x148 + x364 <= 1
C1040: + x58 + x490 <= 1
C1041: + x124 + x158 <= 1
C1042: + x32 + x253 <= 1
C1043: + x40 + x138 <= 1
C1044: + x15 + x402 <= 1
C1045: + x327 + x488 <= 1
C1046: + x322 + x429 <= 1
C1047: + x42 + x86 <= 1
C1048: + x84 + x230 <= 1
C1049: + x32 + x142 <= 1
C1050: + x15 + x208 <= 1
C1051: + x126 + x174 <= 1
C1052: + x5 + x13 <= 1
C1053: + x10 + x224 <= 1
C1054: + x24 + x51 <= 1
C1055: + x119 + x260 <= 1
C1056: + x284 + x290 <= 1
C1057: + x13 + x367 <= 1
C1058: + x260 + x471 <= 1
C1059: + x29 + x266 <= 1
C1060: + x39 + x65 <= 1
C1061: + x21 + x159 <= 1
C1062: + x5 + x49 <= 1
C1063: + x116 + x281 <= 1
C1064: + x31 + x62 <= 1
C1065: + x32 + x178 <= 1
C1066: + x77 + x113 <= 1
C1067: + x61 + x155 <= 1
C1068: + x262 + x376 <= 1
C1069: + x65 + x222 <= 1
C1070: + x139 + x195 <= 1
C1071: + x295 + x357 <= 1
C1072: + x18 + x170 <= 1
C1073: + x218 + x498 <= 1
C1074: + x56 + x93 <= 1
C1075: + x14 + x144 <= 1
C1076: + x5 + x101 <= 1
C1077: + x60 + x229 <= 1
C1078: + x134 + x188 <= 1
C1079: + x143 + x239 <= 1
C1080: + x10 + x102 <= 1
C1081: + x1 + x159 <= 1
C1082: + x41 + x486 <= 1
C1083: + x5 + x12 <= 1
C1084: + x241 + x294 <= 1
C1085: + x67 + x404 <= 1
C1086: + x298 + x374 <= 1
C1087: + x97 + x370 <= 1
C1088: + x6 + x21 <= 1
C1089: + x81 + x220 <= 1
C1090: + x104 + x140 <= 1
C1091: + x6 + x184 <= 1
C1092: + x17 + x142 <= 1
C1093: + x237 + x420 <= 1
C1094: + x95 + x461 <= 1
C1095: + x215 + x216 <= 1
C1096: + x35 + x157 <= 1
C1097: + x36 + x279 <= 1
C1098: + x15 + x497 <= 1
C1099: + x256 + x357 <= 1
C1100: + x292 + x312 <= 1
C1101: + x82 + x160 <= 1
C1102: + x10 + x30 <= 1
C1103: + x246 + x362 <= 1
C1104: + x192 + x238 <= 1
C1105: + x222 + x387 <= 1
C1106: + x24 + x141 <= 1
C1107: + x155 + x462 <= 1
C1108: + x477 + x487 <= 1
C1109: + x59 + x250 <= 1
C1110: + x195 + x274 <= 1
C1111: + x272 + x408 <= 1
C1112: + x22 + x87 <= 1
C1113: + x15 + x275 <= 1
C1114: + x106 + x401 <= 1
C1115: + x17 + x118 <= 1
C1116: + x15 + x432 <= 1
C1117: + x173 + x460 <= 1
C1118: + x78 + x160 <= 1
C1119: + x15 + x73 <= 1
C1120: + x10 + x392 <= 1
C1121: + x28 + x33 <= 1
C1122: + x356 + x368 <= 1
C1123: + x90 + x165 <= 1
C1124: + x193 + x244 <= 1
C1125: + x256 + x399 <= 1
C1126: + x177 + x419 <= 1
C1127: + x106 + x477 <= 1
C1128: + x314 + x429 <= 1
C1129: + x6 + x431 <= 1
C1130: + x15 + x149 <= 1
C1131: + x262 + x413 <= 1
C1132: + x126 + x314 <= 1
C1133: + x270 + x490 <= 1
C1134: + x48 + x114 <= 1
C1135: + x195 + x361 <= 1
C1136: + x116 + x466 <= 1
C1137: + x6 + x83 <= 1
C1138: + x32 + x454 <= 1
C1139: + x55 + x111 <= 1
C1140: + x6 + x246 <= 1
C1141: + x24 + x251 <= 1
C1142: + x1 + x10 <= 1
C1143: + x21 + x197 <= 1
C1144: + x53 + x177 <= 1
C1145: + x308 + x425 <= 1
C1146: + x74 + x110 <= 1
C1147: + x136 + x207 <= 1
C1148: + x284 + x309 <= 1
C1149: + x4 + x375 <= 1
C1150: + x15 + x84 <= 1
C1151: + x251 + x322 <= 1
C1152: + x19 + x422 <= 1
C1153: + x24 + x445 <= 1
C1154: + x21 + x172 <= 1
C1155: + x106 + x216 <= 1
C1156: + x5 + x46 <= 1
C1157: + x10 + x191 <= 1
C1158: + x313 + x344 <= 1
C1159: + x277 + x326 <= 1
C1160: + x4 + x392 <= 1
C1161: + x150 + x365 <= 1
C1162: + x209 + x217 <= 1
C1163: + x79 + x259 <= 1
C1164: + x249 + x448 <= 1
C1165: + x11 + x35 <= 1
C1166: + x141 + x208 <= 1
C1167: + x426 + x463 <= 1
C1168: + x8 + x162 <= 1
C1169: + x101 + x201 <= 1
C1170: + x64 + x453 <= 1
C1171: + x76 + x96 <= 1
C1172: + x222 + x405 <= 1
C1173: + x10 + x15 + x20 + x39 <= 1
C1174: + x15 + x366 <= 1
C1175: + x10 + x363 <= 1
C1176: + x114 + x407 <= 1
C1177: + x14 + x425 <= 1
C1178: + x142 + x244 <= 1
C1179: + x354 + x451 <= 1
C1180: + x8 + x86 <= 1
C1181: + x50 + x413 <= 1
C1182: + x18 + x108 <= 1
C1183: + x200 + x313 <= 1
C1184: + x50 + x131 <= 1
C1185: + x4 + x384 <= 1
C1186: + x5 + x376 <= 1
C1187: + x23 + x458 <= 1
C1188: + x16 + x329 <= 1
C1189: + x28 + x63 <= 1
C1190: + x83 + x298 <= 1
C1191: + x303 + x373 <= 1
C1192: + x125 + x365 <= 1
C1193: + x24 + x200 <= 1
C1194: + x91 + x410 <= 1
C1195: + x128 + x226 <= 1
C1196: + x40 + x214 <= 1
C1197: + x225 + x449 <= 1
C1198: + x81 + x352 <= 1
C1199: + x37 + x83 <= 1
C1200: + x11 + x401 <= 1
C1201: + x50 + x127 <= 1
C1202: + x4 + x300 <= 1
C1203: + x6 + x52 <= 1
C1204: + x262 + x399 <= 1
C1205: + x181 + x350 <= 1
C1206: + x28 + x75 <= 1
C1207: + x107 + x155 <= 1
C1208: + x387 + x400 <= 1
C1209: + x150 + x487 <= 1
C1210: + x282 + x356 <= 1
C1211: + x57 + x118 <= 1
C1212: + x33 + x130 <= 1
C1213: + x6 + x69 <= 1
C1214: + x15 + x18 <= 1
C1215: + x344 + x486 <= 1
C1216: + x8 + x9 + x21 <= 1
C1217: + x29 + x337 <= 1
C1218: + x30 + x351 <= 1
C1219: + x59 + x120 <= 1
C1220: + x23 + x82 <= 1
C1221: + x1 + x8 <= 1
C1222: + x135 + x278 <= 1
C1223: + x94 + x375 <= 1
C1224: + x222 + x418 <= 1
C1225: + x85 + x350 <= 1
C1226: + x231 + x469 <= 1
C1227: + x13 + x32 <= 1
C1228: + x9 + x72 <= 1
C1229: + x20 + x56 <= 1
C1230: + x3 + x6 <= 1
C1231: + x106 + x295 <= 1
C1232: + x42 + x103 <= 1
C1233: + x343 + x438 <= 1
C1234: + x6 + x9 <= 1
C1235: + x255 + x316 <= 1
C1236: + x74 + x270 <= 1
C1237: + x81 + x200 <= 1
C1238: + x24 + x435 <= 1
C1239: + x87 + x110 <= 1
C1240: + x32 + x147 <= 1
C1241: + x44 + x105 <= 1
C1242: + x6 + x359 <= 1
C1243: + x11 + x295 <= 1
C1244: + x30 + x54 <= 1
C1245: + x13 + x84 <= 1
C1246: + x106 + x440 <= 1
C1247: + x63 + x203 <= 1
C1248: + x35 + x262 <= 1
C1249: + x7 + x187 <= 1
C1250: + x270 + x277 <= 1
C1251: + x18 + x143 <= 1
C1252: + x148 + x150 <= 1
C1253: + x12 + x64 <= 1
C1254: + x61 + x138 <= 1
C1255: + x15 + x25 <= 1
C1256: + x137 + x181 <= 1
C1257: + x214 + x427 <= 1
C1258: + x61 + x367 <= 1
C1259: + x19 + x201 <= 1
C1260: + x22 + x377 <= 1
C1261: + x124 + x132 <= 1
C1262: + x33 + x323 <= 1
C1263: + x10 + x321 <= 1
C1264: + x15 + x37 <= 1
C1265: + x172 + x323 <= 1
C1266: + x59 + x67 <= 1
C1267: + x171 + x214 <= 1
C1268: + x119 + x233 <= 1
C1269: + x2 + x349 <= 1
C1270: + x157 + x257 <= 1
C1271: + x31 + x378 <= 1
C1272: + x161 + x265 <= 1
C1273: + x60 + x67 <= 1
C1274: + x263 + x358 <= 1
C1275: + x55 + x63 <= 1
C1276: + x84 + x278 <= 1
C1277: + x169 + x345 <= 1
C1278: + x252 + x423 <= 1
C1279: + x16 + x125 <= 1
C1280: + x9 + x10 <= 1
C1281: + x46 + x253 <= 1
C1282: + x21 + x106 <= 1
C1283: + x52 + x238 <= 1
C1284: + x91 + x246 <= 1
C1285: + x109 + x304 <= 1
C1286: + x1 + x22 <= 1
C1287: + x143 + x427 <= 1
C1288: + x68 + x494 <= 1
C1289: + x5 + x115 <= 1
C1290: + x6 + x456 <= 1
C1291: + x9 + x118 <= 1
C1292: + x54 + x254 <= 1
C1293: + x58 + x328 <= 1
C1294: + x131 + x193 <= 1
C1295: + x31 + x466 <= 1
C1296: + x72 + x402 <= 1
C1297: + x2 + x11 <= 1
C1298: + x59 + x78 <= 1
C1299: + x69 + x373 <= 1
C1300: + x107 + x196 <= 1
C1301: + x81 + x83 <= 1
C1302: + x17 + x275 <= 1
C1303: + x13 + x66 <= 1
C1304: + x40 + x272 <= 1
C1305: + x199 + x332 <= 1
C1306: + x203 + x340 <= 1
C1307: + x21 + x319 <= 1
C1308: + x4 + x287 <= 1
C1309: + x198 + x495 <= 1
C1310: + x145 + x247 <= 1
C1311: + x155 + x294 <= 1
C1312: + x72 + x454 <= 1
C1313: + x46 + x339 <= 1
C1314: + x225 + x325 <= 1
C1315: + x5 + x54 <= 1
C1316: + x289 + x420 <= 1
C1317: + x27 + x199 <= 1
C1318: + x87 + x346 <= 1
C1319: + x335 + x416 <= 1
C1320: + x54 + x86 <= 1
C1321: + x106 + x137 <= 1
C1322: + x172 + x292 <= 1
C1323: + x10 + x24 <= 1
C1324: + x46 + x263 <= 1
C1325: + x308 + x398 <= 1
C1326: + x10 + x371 <= 1
C1327: + x8 + x477 <= 1
C1328: + x37 + x131 <= 1
C1329: + x15 + x55 <= 1
C1330: + x92 + x219 <= 1
C1331: + x4 + x247 <= 1
C1332: + x78 + x281 <= 1
C1333: + x33 + x464 <= 1
C1334: + x100 + x139 <= 1
C1335: + x91 + x382 <= 1
C1336: + x31 + x151 <= 1
C1337: + x124 + x238 <= 1
C1338: + x23 + x325 <= 1
C1339: + x110 + x467 <= 1
C1340: + x29 + x60 <= 1
C1341: + x257 + x421 <= 1
C1342: + x264 + x498 <= 1
C1343: + x22 + x434 <= 1
C1344: + x259 + x473 <= 1
C1345: + x12 + x409 <= 1
C1346: + x13 + x363 <= 1
C1347: + x359 + x493 <= 1
C1348: + x35 + x303 <= 1
C1349: + x20 + x136 <= 1
C1350: + x50 + x236 <= 1
C1351: + x40 + x377 <= 1
C1352: + x5 + x303 <= 1
C1353: + x79 + x302 <= 1
C1354: + x244 + x367 <= 1
C1355: + x17 + x56 <= 1
C1356: + x177 + x278 <= 1
C1357: + x13 + x351 <= 1
C1358: + x14 + x41 <= 1
C1359: + x15 + x143 <= 1
C1360: + x6 + x220 <= 1
C1361: + x47 + x120 <= 1
C1362: + x103 + x304 <= 1
C1363: + x5 + x97 <= 1
C1364: + x25 + x234 <= 1
C1365: + x170 + x379 <= 1
C1366: + x9 + x100 <= 1
C1367: + x6 + x458 <= 1
C1368: + x76 + x268 <= 1
C1369: + x68 + x206 <= 1
C1370: + x15 + x58 <= 1
C1371: + x91 + x119 <= 1
C1372: + x2 + x5 <= 1
C1373: + x56 + x458 <= 1
C1374: + x204 + x449 <= 1
C1375: + x29 + x329 <= 1
C1376: + x117 + x202 <= 1
C1377: + x1 + x64 <= 1
C1378: + x13 + x445 <= 1
C1379: + x14 + x267 <= 1
C1380: + x23 + x57 <= 1
C1381: + x15 + x70 <= 1
C1382: + x19 + x432 <= 1
C1383: + x92 + x240 <= 1
C1384: + x102 + x237 <= 1
C1385: + x46 + x325 <= 1
C1386: + x148 + x178 <= 1
C1387: + x39 + x128 <= 1
C1388: + x269 + x276 <= 1
C1389: + x97 + x211 <= 1
C1390: + x5 + x60 <= 1
C1391: + x18 + x22 <= 1
C1392: + x19 + x158 <= 1
C1393: + x37 + x205 <= 1
C1394: + x221 + x477 <= 1
C1395: + x151 + x500 <= 1
C1396: + x39 + x366 <= 1
C1397: + x184 + x475 <= 1
C1398: + x50 + x346 <= 1
C1399: + x126 + x317 <= 1
C1400: + x6 + x197 <= 1
C1401: + x9 + x142 <= 1
C1402: + x53 + x98 <= 1
C1403: + x227 + x373 <= 1
C1404: + x338 + x341 <= 1
C1405: + x211 + x219 <= 1
C1406: + x8 + x467 <= 1
C1407: + x57 + x101 <= 1
C1408: + x39 + x149 <= 1
C1409: + x111 + x452 <= 1
C1410: + x29 + x328 <= 1
C1411: + x284 + x387 <= 1
C1412: + x6 + x137 <= 1
C1413: + x171 + x202 <= 1
C1414: + x91 + x336 <= 1
C1415: + x76 + x402 <= 1
C1416: + x60 + x111 <= 1
C1417: + x5 + x142 <= 1
C1418: + x70 + x271 <= 1
C1419: + x173 + x178 <= 1
C1420: + x5 + x35 <= 1
C1421: + x162 + x193 <= 1
C1422: + x224 + x484 <= 1
C1423: + x9 + x38 <= 1
C1424: + x23 + x419 <= 1
C1425: + x17 + x38 <= 1
C1426: + x251 + x279 <= 1
C1427: + x24 + x376 <= 1
C1428: + x172 + x222 <= 1
C1429: + x40 + x177 <= 1
C1430: + x43 + x162 <= 1
C1431: + x12 + x13 <= 1
C1432: + x177 + x403 <= 1
C1433: + x6 + x95 <= 1
C1434: + x101 + x264 <= 1
C1435: + x299 + x455 <= 1
C1436: + x8 + x89 <= 1
C1437: + x193 + x307 <= 1
C1438: + x143 + x467 <= 1
C1439: + x4 + x9 <= 1
C1440: + x187 + x256 <= 1
C1441: + x17 + x97 <= 1
C1442: + x134 + x315 <= 1
C1443: + x20 + x46 <= 1
C1444: + x62 + x102 <= 1
C1445: + x101 + x129 <= 1
C1446: + x58 + x62 <= 1
C1447: + x175 + x242 <= 1
C1448: + x20 + x320 <= 1
C1449: + x22 + x48 <= 1
C1450: + x15 + x294 <= 1
C1451: + x128 + x229 <= 1
C1452: + x10 + x163 <= 1
C1453: + x4 + x396 <= 1
C1454: + x124 + x372 <= 1
C1455: + x153 + x389 <= 1
C1456: + x18 + x419 <= 1
C1457: + x54 + x170 <= 1
C1458: + x5 + x185 <= 1
C1459: + x216 + x333 <= 1
C1460: + x91 + x209 <= 1
C1461: + x6 + x55 <= 1
C1462: + x14 + x183 <= 1
C1463: + x116 + x320 <= 1
C1464: + x99 + x350 <= 1
C1465: + x109 + x117 <= 1
C1466: + x28 + x277 <= 1
C1467: + x56 + x203 <= 1
C1468: + x285 + x305 <= 1
C1469: + x412 + x441 <= 1
C1470: + x39 + x332 <= 1
C1471: + x14 + x421 <= 1
C1472: + x15 + x19 <= 1
C1473: + x315 + x382 <= 1
C1474: + x6 + x72 <= 1
C1475: + x375 + x468 <= 1
C1476: + x73 + x147 <= 1
C1477: + x9 + x232 <= 1
C1478: + x1 + x5 <= 1
C1479: + x176 + x433 <= 1
C1480: + x40 + x297 <= 1
C1481: + x299 + x355 <= 1
C1482: + x37 + x107 <= 1
C1483: + x66 + x150 <= 1
C1484: + x50 + x135 <= 1
C1485: + x60 + x220 <= 1
C1486: + x340 + x477 <= 1
C1487: + x52 + x167 <= 1
C1488: + x15 + x95 <= 1
C1489: + x35 + x307 <= 1
C1490: + x1 + x335 <= 1
C1491: + x29 + x362 <= 1
C1492: + x106 + x221 <= 1
C1493: + x14 + x252 <= 1
C1494: + x25 + x325 <= 1
C1495: + x6 + x175 <= 1
C1496: + x296 + x442 <= 1
C1497: + x68 + x295 <= 1
C1498: + x4 + x62 <= 1
C1499: + x42 + x320 <= 1
C1500: + x28 + x381 <= 1
C1501: + x54 + x179 <= 1
C1502: + x239 + x247 <= 1
C1503: + x60 + x152 <= 1
C1504: + x6 + x64 <= 1
C1505: + x7 + x200 <= 1
C1506: + x10 + x53 <= 1
C1507: + x295 + x482 <= 1
C1508: + x87 + x496 <= 1
C1509: + x54 + x292 <= 1
C1510: + x12 + x59 <= 1
C1511: + x50 + x196 <= 1
C1512: + x21 + x413 <= 1
C1513: + x61 + x143 <= 1
C1514: + x15 + x22 <= 1
C1515: + x5 + x311 <= 1
C1516: + x31 + x89 <= 1
C1517: + x5 + x236 <= 1
C1518: + x18 + x371 <= 1
C1519: + x136 + x406 <= 1
C1520: + x21 + x215 <= 1
C1521: + x40 + x155 <= 1
C1522: + x18 + x97 <= 1
C1523: + x37 + x146 <= 1
C1524: + x55 + x240 <= 1
C1525: + x121 + x134 <= 1
C1526: + x79 + x226 <= 1
C1527: + x28 + x453 <= 1
C1528: + x123 + x392 <= 1
C1529: + x33 + x447 <= 1
C1530: + x14 + x245 <= 1
C1531: + x15 + x195 <= 1
C1532: + x35 + x92 <= 1
C1533: + x52 + x459 <= 1
C1534: + x225 + x383 <= 1
C1535: + x2 + x352 <= 1
C1536: + x81 + x430 <= 1
C1537: + x172 + x180 <= 1
C1538: + x297 + x484 <= 1
C1539: + x315 + x316 <= 1
C1540: + x316 + x444 <= 1
C1541: + x7 + x30 <= 1
C1542: + x67 + x150 <= 1
C1543: + x50 + x108 <= 1
C1544: + x14 + x70 <= 1
C1545: + x18 + x131 <= 1
C1546: + x145 + x322 <= 1
C1547: + x71 + x452 <= 1
C1548: + x103 + x195 <= 1
C1549: + x30 + x163 <= 1
C1550: + x5 + x68 <= 1
C1551: + x10 + x153 <= 1
C1552: + x39 + x177 <= 1
C1553: + x40 + x330 <= 1
C1554: + x6 + x74 <= 1
C1555: + x143 + x210 <= 1
C1556: + x19 + x471 <= 1
C1557: + x129 + x315 <= 1
C1558: + x56 + x299 <= 1
C1559: + x220 + x380 <= 1
C1560: + x214 + x439 <= 1
C1561: + x224 + x276 <= 1
C1562: + x79 + x122 <= 1
C1563: + x63 + x297 <= 1
C1564: + x40 + x148 <= 1
C1565: + x34 + x329 <= 1
C1566: + x15 + x400 <= 1
C1567: + x318 + x473 <= 1
C1568: + x94 + x495 <= 1
C1569: + x87 + x288 <= 1
C1570: + x6 + x126 <= 1
C1571: + x15 + x41 <= 1
C1572: + x1 + x130 <= 1
C1573: + x229 + x331 <= 1
C1574: + x6 + x145 <= 1
C1575: + x15 + x319 <= 1
C1576: + x185 + x241 <= 1
C1577: + x31 + x169 <= 1
C1578: + x307 + x360 <= 1
C1579: + x47 + x144 <= 1
C1580: + x95 + x134 <= 1
C1581: + x60 + x166 <= 1
C1582: + x6 + x34 <= 1
C1583: + x50 + x464 <= 1
C1584: + x106 + x251 <= 1
C1585: + x24 + x166 <= 1
C1586: + x6 + x288 <= 1
C1587: + x10 + x130 <= 1
C1588: + x35 + x39 <= 1
C1589: + x198 + x224 <= 1
C1590: + x68 + x321 <= 1
C1591: + x340 + x424 <= 1
C1592: + x162 + x356 <= 1
C1593: + x77 + x123 <= 1
C1594: + x20 + x400 <= 1
C1595: + x23 + x104 <= 1
C1596: + x207 + x449 <= 1
C1597: + x9 + x157 <= 1
C1598: + x228 + x273 <= 1
C1599: + x300 + x313 <= 1
C1600: + x225 + x414 <= 1
C1601: + x20 + x74 <= 1
C1602: + x56 + x337 <= 1
C1603: + x42 + x85 <= 1
C1604: + x35 + x352 <= 1
C1605: + x255 + x298 <= 1
C1606: + x106 + x184 <= 1
C1607: + x15 + x205 <= 1
C1608: + x209 + x471 <= 1
C1609: + x8 + x113 <= 1
C1610: + x21 + x41 <= 1
C1611: + x186 + x240 <= 1
C1612: + x13 + x126 <= 1
C1613: + x244 + x290 <= 1
C1614: + x138 + x333 <= 1
C1615: + x10 + x405 <= 1
C1616: + x21 + x160 <= 1
C1617: + x43 + x308 <= 1
C1618: + x21 + x125 <= 1
C1619: + x68 + x157 <= 1
C1620: + x209 + x245 <= 1
C1621: + x18 + x443 <= 1
C1622: + x37 + x64 <= 1
C1623: + x42 + x461 <= 1
C1624: + x13 + x164 <= 1
C1625: + x125 + x441 <= 1
C1626: + x144 + x302 <= 1
C1627: + x115 + x195 <= 1
C1628: + x17 + x68 <= 1
C1629: + x154 + x468 <= 1
C1630: + x222 + x260 + x500 <= 1
C1631: + x303 + x391 <= 1
C1632: + x33 + x103 <= 1
C1633: + x364 + x373 <= 1
C1634: + x2 + x8 <= 1
C1635: + x17 + x270 <= 1
C1636: + x15 + x265 <= 1
C1637: + x108 + x276 <= 1
C1638: + x289 + x483 <= 1
C1639: + x9 + x208 <= 1
C1640: + x20 + x192 <= 1
C1641: + x186 + x241 <= 1
C1642: + x10 + x200 <= 1
C1643: + x69 + x106 <= 1
C1644: + x31 + x368 <= 1
C1645: + x62 + x244 <= 1
C1646: + x10 + x291 <= 1
C1647: + x336 + x469 <= 1
C1648: + x49 + x196 <= 1
C1649: + x71 + x199 <= 1
C1650: + x106 + x330 <= 1
C1651: + x31 + x393 <= 1
C1652: + x15 + x71 <= 1
C1653: + x97 + x371 <= 1
C1654: + x6 + x20 <= 1
C1655: + x261 + x465 <= 1
C1656: + x111 + x187 <= 1
C1657: + x10 + x414 <= 1
C1658: + x10 + x81 <= 1
C1659: + x338 + x438 <= 1
C1660: + x15 + x228 <= 1
C1661: + x6 + x258 <= 1
C1662: + x9 + x60 <= 1
C1663: + x35 + x57 <= 1
C1664: + x46 + x235 <= 1
C1665: + x267 + x291 <= 1
C1666: + x195 + x347 <= 1
C1667: + x78 + x119 <= 1
C1668: + x17 + x44 <= 1
C1669: + x96 + x364 <= 1
C1670: + x24 + x31 <= 1
C1671: + x6 + x421 <= 1
C1672: + x95 + x164 <= 1
C1673: + x90 + x212 <= 1
C1674: + x7 + x224 <= 1
C1675: + x100 + x309 <= 1
C1676: + x10 + x29 <= 1
C1677: + x65 + x296 <= 1
C1678: + x1 + x232 <= 1
C1679: + x74 + x349 <= 1
C1680: + x178 + x249 <= 1
C1681: + x33 + x364 <= 1
C1682: + x125 + x194 <= 1
C1683: + x56 + x85 <= 1
C1684: + x16 + x19 <= 1
C1685: + x5 + x109 <= 1
C1686: + x117 + x167 <= 1
C1687: + x10 + x384 <= 1
C1688: + x247 + x396 <= 1
C1689: + x156 + x457 <= 1
C1690: + x13 + x298 <= 1
C1691: + x6 + x105 <= 1
C1692: + x2 + x25 <= 1
C1693: + x113 + x369 <= 1
C1694: + x57 + x372 <= 1
C1695: + x233 + x459 <= 1
C1696: + x4 + x31 <= 1
C1697: + x25 + x186 <= 1
C1698: + x10 + x300 <= 1
C1699: + x74 + x108 <= 1
C1700: + x20 + x36 <= 1
C1701: + x56 + x144 <= 1
C1702: + x359 + x412 <= 1
C1703: + x97 + x266 <= 1
C1704: + x4 + x369 <= 1
C1705: + x16 + x326 <= 1
C1706: + x81 + x212 <= 1
C1707: + x338 + x431 <= 1
C1708: + x68 + x409 <= 1
C1709: + x5 + x40 <= 1
C1710: + x6 + x192 <= 1
C1711: + x44 + x434 <= 1
C1712: + x15 + x235 <= 1
C1713: + x35 + x52 <= 1
C1714: + x108 + x242 <= 1
C1715: + x2 + x376 <= 1
C1716: + x50 + x225 <= 1
C1717: + x292 + x320 <= 1
C1718: + x121 + x495 <= 1
C1719: + x13 + x338 <= 1
C1720: + x17 + x336 <= 1
C1721: + x120 + x167 <= 1
C1722: + x29 + x301 <= 1
C1723: + x193 + x356 <= 1
C1724: + x226 + x387 <= 1
C1725: + x16 + x28 <= 1
C1726: + x2 + x18 <= 1
C1727: + x33 + x466 <= 1
C1728: + x18 + x215 <= 1
C1729: + x38 + x55 + x343 <= 1
C1730: + x156 + x286 <= 1
C1731: + x47 + x172 <= 1
C1732: + x39 + x266 <= 1
C1733: + x5 + x138 <= 1
C1734: + x192 + x303 <= 1
C1735: + x222 + x480 <= 1
C1736: + x24 + x259 <= 1
C1737: + x55 + x138 <= 1
C1738: + x105 + x126 <= 1
C1739: + x312 + x481 <= 1
C1740: + x31 + x262 <= 1
C1741: + x19 + x310 <= 1
C1742: + x77 + x196 <= 1
C1743: + x5 + x190 <= 1
C1744: + x206 + x407 <= 1
C1745: + x172 + x267 <= 1
C1746: + x221 + x492 <= 1
C1747: + x42 + x323 <= 1
C1748: + x107 + x145 <= 1
C1749: + x57 + x112 <= 1
C1750: + x55 + x198 <= 1
C1751: + x203 + x243 <= 1
C1752: + x29 + x73 <= 1
C1753: + x15 + x16 <= 1
C1754: + x191 + x390 <= 1
C1755: + x10 + x453 <= 1
C1756: + x56 + x476 <= 1
C1757: + x106 + x148 <= 1
C1758: + x198 + x318 <= 1
C1759: + x57 + x479 <= 1
C1760: + x84 + x96 <= 1
C1761: + x4 + x13 <= 1
C1762: + x5 + x468 <= 1
C1763: + x20 + x50 <= 1
C1764: + x86 + x94 <= 1
C1765: + x141 + x148 <= 1
C1766: + x49 + x411 <= 1
C1767: + x15 + x298 <= 1
C1768: + x80 + x486 <= 1
C1769: + x20 + x159 <= 1
C1770: + x59 + x275 <= 1
C1771: + x31 + x269 <= 1
C1772: + x416 + x425 <= 1
C1773: + x46 + x121 <= 1
C1774: + x2 + x88 <= 1
C1775: + x21 + x291 <= 1
C1776: + x77 + x251 <= 1
C1777: + x106 + x361 <= 1
C1778: + x34 + x412 <= 1
C1779: + x154 + x218 <= 1
C1780: + x19 + x27 <= 1
C1781: + x120 + x181 <= 1
C1782: + x57 + x410 <= 1
C1783: + x56 + x420 <= 1
C1784: + x21 + x136 <= 1
C1785: + x469 + x487 <= 1
C1786: + x43 + x149 <= 1
C1787: + x8 + x61 <= 1
C1788: + x114 + x124 <= 1
C1789: + x222 + x272 <= 1
C1790: + x25 + x120 + x426 <= 1
C1791: + x170 + x397 <= 1
C1792: + x55 + x122 <= 1
C1793: + x238 + x312 <= 1
C1794: + x194 + x279 <= 1
C1795: + x38 + x299 <= 1
C1796: + x272 + x494 <= 1
C1797: + x34 + x472 <= 1
C1798: + x46 + x283 <= 1
C1799: + x379 + x451 <= 1
C1800: + x60 + x113 <= 1
C1801: + x42 + x203 <= 1
C1802: + x17 + x92 <= 1
C1803: + x326 + x496 <= 1
C1804: + x54 + x235 <= 1
C1805: + x15 + x35 <= 1
C1806: + x155 + x250 <= 1
C1807: + x20 + x329 <= 1
C1808: + x21 + x187 <= 1
C1809: + x348 + x353 <= 1
C1810: + x284 + x417 <= 1
C1811: + x12 + x232 <= 1
C1812: + x104 + x175 <= 1
C1813: + x33 + x444 <= 1
C1814: + x50 + x321 <= 1
C1815: + x61 + x183 <= 1
C1816: + x255 + x396 <= 1
C1817: + x183 + x421 <= 1
C1818: + x33 + x43 <= 1
C1819: + x35 + x259 <= 1
C1820: + x9 + x274 <= 1
C1821: + x174 + x224 <= 1
C1822: + x148 + x149 <= 1
C1823: + x68 + x444 <= 1
C1824: + x22 + x249 <= 1
C1825: + x188 + x318 <= 1
C1826: + x15 + x381 <= 1
C1827: + x76 + x300 <= 1
C1828: + x312 + x395 <= 1
C1829: + x131 + x179 <= 1
C1830: + x68 + x343 <= 1
C1831: + x6 + x77 <= 1
C1832: + x208 + x342 <= 1
C1833: + x15 + x26 <= 1
C1834: + x216 + x311 <= 1
C1835: + x23 + x106 <= 1
C1836: + x80 + x105 <= 1
C1837: + x136 + x402 <= 1
C1838: + x98 + x319 <= 1
C1839: + x243 + x428 <= 1
C1840: + x27 + x186 <= 1
C1841: + x6 + x478 <= 1
C1842: + x133 + x231 <= 1
C1843: + x15 + x38 <= 1
C1844: + x110 + x335 <= 1
C1845: + x137 + x311 <= 1
C1846: + x21 + x322 <= 1
C1847: + x4 + x140 <= 1
C1848: + x225 + x371 <= 1
C1849: + x81 + x93 <= 1
C1850: + x371 + x498 <= 1
C1851: + x154 + x366 <= 1
C1852: + x68 + x117 <= 1
C1853: + x286 + x470 <= 1
C1854: + x195 + x205 <= 1
C1855: + x39 + x249 <= 1
C1856: + x61 + x78 <= 1
C1857: + x79 + x277 <= 1
C1858: + x322 + x482 <= 1
C1859: + x67 + x146 <= 1
C1860: + x95 + x135 <= 1
C1861: + x240 + x242 <= 1
C1862: + x6 + x37 <= 1
C1863: + x24 + x415 <= 1
C1864: + x15 + x114 <= 1
C1865: + x39 + x76 <= 1
C1866: + x60 + x272 <= 1
C1867: + x370 + x478 <= 1
C1868: + x123 + x358 <= 1
C1869: + x17 + x59 <= 1
C1870: + x55 + x76 <= 1
C1871: + x31 + x72 <= 1
C1872: + x87 + x161 <= 1
C1873: + x216 + x403 <= 1
C1874: + x28 + x152 <= 1
C1875: + x183 + x218 <= 1
C1876: + x111 + x242 <= 1
C1877: + x41 + x110 <= 1
C1878: + x4 + x100 <= 1
C1879: + x98 + x141 <= 1
C1880: + x59 + x476 <= 1
C1881: + x11 + x230 <= 1
C1882: + x29 + x197 <= 1
C1883: + x231 + x456 <= 1
C1884: + x324 + x462 <= 1
C1885: + x13 + x313 <= 1
C1886: + x4 + x342 <= 1
C1887: + x54 + x459 <= 1
C1888: + x2 + x10 <= 1
C1889: + x203 + x450 <= 1
C1890: + x229 + x375 <= 1
C1891: + x308 + x309 <= 1
C1892: + x29 + x153 <= 1
C1893: + x76 + x494 <= 1
C1894: + x4 + x48 <= 1
C1895: + x7 + x9 <= 1
C1896: + x19 + x282 <= 1
C1897: + x86 + x189 <= 1
C1898: + x206 + x443 <= 1
C1899: + x364 + x439 <= 1
C1900: + x2 + x198 <= 1
C1901: + x47 + x418 <= 1
C1902: + x55 + x261 <= 1
C1903: + x16 + x69 <= 1
C1904: + x113 + x153 <= 1
C1905: + x39 + x176 <= 1
C1906: + x136 + x150 <= 1
C1907: + x174 + x408 <= 1
C1908: + x120 + x454 <= 1
C1909: + x5 + x198 <= 1
C1910: + x6 + x210 <= 1
C1911: + x10 + x23 <= 1
C1912: + x193 + x275 <= 1
C1913: + x58 + x493 <= 1
C1914: + x49 + x56 <= 1
C1915: + x214 + x287 <= 1
C1916: + x68 + x369 <= 1
C1917: + x196 + x411 <= 1
C1918: + x14 + x448 <= 1
C1919: + x9 + x475 <= 1
C1920: + x5 + x10 <= 1
C1921: + x209 + x459 <= 1
C1922: + x125 + x370 <= 1
C1923: + x17 + x267 <= 1
C1924: + x129 + x495 <= 1
C1925: + x49 + x100 <= 1
C1926: + x303 + x499 <= 1
C1927: + x131 + x287 <= 1
C1928: + x4 + x21 <= 1
C1929: + x203 + x348 <= 1
C1930: + x160 + x213 <= 1
C1931: + x62 + x90 <= 1
C1932: + x221 + x455 <= 1
C1933: + x242 + x261 <= 1
C1934: + x97 + x221 <= 1
C1935: + x77 + x324 <= 1
C1936: + x34 + x182 <= 1
C1937: + x30 + x84 <= 1
C1938: + x314 + x422 <= 1
C1939: + x17 + x41 <= 1
C1940: + x2 + x80 <= 1
C1941: + x39 + x469 <= 1
C1942: + x15 + x144 <= 1
C1943: + x363 + x476 <= 1
C1944: + x120 + x173 <= 1
C1945: + x76 + x432 <= 1
C1946: + x301 + x446 <= 1
C1947: + x14 + x441 <= 1
C1948: + x43 + x82 <= 1
C1949: + x6 + x108 <= 1
C1950: + x146 + x257 <= 1
C1951: + x11 + x103 <= 1
C1952: + x47 + x488 <= 1
C1953: + x83 + x423 <= 1
C1954: + x193 + x294 <= 1
C1955: + x2 + x167 <= 1
C1956: + x12 + x111 <= 1
C1957: + x151 + x258 <= 1
C1958: + x8 + x393 <= 1

binary
x1 x2 x3 x4 x5 x6 x7 x8 x9 x10 x11 x12 x13 x14 x15 x16 x17 x18 x19 x20 x21 x22 x23 x24 x25 x26 x27 x28 x29 x30 x31 x32 x33 x34 x35 x36 x37 x38 x39 x40 x41 x42 x43 x44 x45 x46 x47 x48 x49 x50 x51 x52 x53 x54 x55 x56 x57 x58 x59 x60 x61 x62 x63 x64 x65 x66 x67 x68 x69 x70 x71 x72 x73 x74 x75 x76 x77 x78 x79 x80 x81 x82 x83 x84 x85 x86 x87 x88 x89 x90 x91 x92 x93 x94 x95 x96 x97 x98 x99 x100 x101 x102 x103 x104 x105 x106 x107 x108 x109 x110 x111 x112 x113 x114 x115 x116 x117 x118 x119 x120 x121 x122 x123 x124 x125 x126 x127 x128 x129 x130 x131 x132 x133 x134 x135 x136 x137 x138 x139 x140 x141 x142 x143 x144 x145 x146 x147 x148 x149 x150 x151 x152 x153 x154 x155 x156 x157 x158 x159 x160 x161 x162 x163 x164 x165 x166 x167 x168 x169 x170 x171 x172 x173 x174 x175 x176 x177 x178 x179 x180 x181 x182 x183 x184 x185 x186 x187 x188 x189 x190 x191 x192 x193 x194 x195 x196 x197 x198 x199 x200 x201 x202 x203 x204 x205 x206 x207 x208 x209 x210 x211 x212 x213 x214 x215 x216 x217 x218 x219 x220 x221 x222 x223 x224 x225 x226 x227 x228 x229 x230 x231 x232 x233 x234 x235 x236 x237 x238 x239 x240 x241 x242 x243 x244 x245 x246 x247 x248 x249 x250 x251 x252 x253 x254 x255 x256 x257 x258 x259 x260 x261 x262 x263 x264 x265 x266 x267 x268 x269 x270 x271 x272 x273 x274 x275 x276 x277 x278 x279 x280 x281 x282 x283 x284 x285 x286 x287 x288 x289 x290 x291 x292 x293 x294 x295 x296 x297 x298 x299 x300 x301 x302 x303 x304 x305 x306 x307 x308 x309 x310 x311 x312 x313 x314 x315 x316 x317 x318 x319 x320 x321 x322 x323 x324 x325 x326 x327 x328 x329 x330 x331 x332 x333 x334 x335 x336 x337 x338 x339 x340 x341 x342 x343 x344 x345 x346 x347 x348 x349 x350 x351 x352 x353 x354 x355 x356 x357 x358 x359 x360 x361 x362 x363 x364 x365 x366 x367 x368 x369 x370 x371 x372 x373 x374 x375 x376 x377 x378 x379 x380 x381 x382 x383 x384 x385 x386 x387 x388 x389 x390 x391 x392 x393 x394 x395 x396 x397 x398 x399 x400 x401 x402 x403 x404 x405 x406 x407 x408 x409 x410 x411 x412 x413 x414 x415 x416 x417 x418 x419 x420 x421 x422 x423 x424 x425 x426 x427 x428 x429 x430 x431 x432 x433 x434 x435 x436 x437 x438 x439 x440 x441 x442 x443 x444 x445 x446 x447 x448 x449 x450 x451 x452 x453 x454 x455 x456 x457 x458 x459 x460 x461 x462 x463 x464 x465 x466 x467 x468 x469 x470 x471 x472 x473 x474 x475 x476 x477 x478 x479 x480 x481 x482 x483 x484 x485 x486 x487 x488 x489 x490 x491 x492 x493 x494 x495 x496 x497 x498 x499 x500
