maximize
OBJ: + 1 x1 + 1 x2 + 1 x3 + 1 x4 + 1 x5 + 1 x6 + 1 x7 + 1 x8 + 1 x9 + 1 x10 + 1 x11 + 1 x12 + 1 x13 + 1 x14 + 1 x15 + 1 x16 + 1 x17 + 1 x18 + 1 x19 + 1 x20 + 1 x21 + 1 x22 + 1 x23 + 1 x24 + 1 x25 + 1 x26 + 1 x27 + 1 x28 + 1 x29 + 1 x30 + 1 x31 + 1 x32 + 1 x33 + 1 x34 + 1 x35 + 1 x36 + 1 x37 + 1 x38 + 1 x39 + 1 x40 + 1 x41 + 1 x42 + 1 x43 + 1 x44 + 1 x45 + 1 x46 + 1 x47 + 1 x48 + 1 x49 + 1 x50 + 1 x51 + 1 x52 + 1 x53 + 1 x54 + 1 x55 + 1 x56 + 1 x57 + 1 x58 + 1 x59 + 1 x60 + 1 x61 + 1 x62 + 1 x63 + 1 x64 + 1 x65 + 1 x66 + 1 x67 + 1 x68 + 1 x69 + 1 x70 + 1 x71 + 1 x72 + 1 x73 + 1 x74 + 1 x75 + 1 x76 + 1 x77 + 1 x78 + 1 x79 + 1 x80 + 1 x81 + 1 x82 + 1 x83 + 1 x84 + 1 x85 + 1 x86 + 1 x87 + 1 x88 + 1 x89 + 1 x90 + 1 x91 + 1 x92 + 1 x93 + 1 x94 + 1 x95 + 1 x96 + 1 x97 + 1 x98 + 1 x99 + 1 x100 + 1 x101 + 1 x102 + 1 x103 + 1 x104 + 1 x105 + 1 x106 + 1 x107 + 1 x108 + 1 x109 + 1 x110 + 1 x111 + 1 x112 + 1 x113 + 1 x114 + 1 x115 + 1 x116 + 1 x117 + 1 x118 + 1 x119 + 1 x120 + 1 x121 + 1 x122 + 1 x123 + 1 x124 + 1 x125 + 1 x126 + 1 x127 + 1 x128 + 1 x129 + 1 x130 + 1 x131 + 1 x132 + 1 x133 + 1 x134 + 1 x135 + 1 x136 + 1 x137 + 1 x138 + 1 x139 + 1 x140 + 1 x141 + 1 x142 + 1 x143 + 1 x144 + 1 x145 + 1 x146 + 1 x147 + 1 x148 + 1 x149 + 1 x150 + 1 x151 + 1 x152 + 1 x153 + 1 x154 + 1 x155 + 1 x156 + 1 x157 + 1 x158 + 1 x159 + 1 x160 + 1 x161 + 1 x162 + 1 x163 + 1 x164 + 1 x165 + 1 x166 + 1 x167 + 1 x168 + 1 x169 + 1 x170 + 1 x171 + 1 x172 + 1 x173 + 1 x174 + 1 x175 + 1 x176 + 1 x177 + 1 x178 + 1 x179 + 1 x180 + 1 x181 + 1 x182 + 1 x183 + 1 x184 + 1 x185 + 1 x186 + 1 x187 + 1 x188 + 1 x189 + 1 x190 + 1 x191 + 1 x192 + 1 x193 + 1 x194 + 1 x195 + 1 x196 + 1 x197 + 1 x198 + 1 x199 + 1 x200 + 1 x201 + 1 x202 + 1 x203 + 1 x204 + 1 x205 + 1 x206 + 1 x207 + 1 x208 + 1 x209 + 1 x210 + 1 x211 + 1 x212 + 1 x213 + 1 x214 + 1 x215 + 1 x216 + 1 x217 + 1 x218 + 1 x219 + 1 x220 + 1 x221 + 1 x222 + 1 x223 + 1 x224 + 1 x225 + 1 x226 + 1 x227 + 1 x228 + 1 x229 + 1 x230 + 1 x231 + 1 x232 + 1 x233 + 1 x234 + 1 x235 + 1 x236 + 1 x237 + 1 x238 + 1 x239 + 1 x240 + 1 x241 + 1 x242 + 1 x243 + 1 x244 + 1 x245 + 1 x246 + 1 x247 + 1 x248 + 1 x249 + 1 x250 + 1 x251 + 1 x252 + 1 x253 + 1 x254 + 1 x255 + 1 x256 + 1 x257 + 1 x258 + 1 x259 + 1 x260 + 1 x261 + 1 x262 + 1 x263 + 1 x264 + 1 x265 + 1 x266 + 1 x267 + 1 x268 + 1 x269 + 1 x270 + 1 x271 + 1 x272 + 1 x273 + 1 x274 + 1 x275 + 1 x276 + 1 x277 + 1 x278 + 1 x279 + 1 x280 + 1 x281 + 1 x282 + 1 x283 + 1 x284 + 1 x285 + 1 x286 + 1 x287 + 1 x288 + 1 x289 + 1 x290 + 1 x291 + 1 x292 + 1 x293 + 1 x294 + 1 x295 + 1 x296 + 1 x297 + 1 x298 + 1 x299 + 1 x300 + 1 x301 + 1 x302 + 1 x303 + 1 x304 + 1 x305 + 1 x306 + 1 x307 + 1 x308 + 1 x309 + 1 x310 + 1 x311 + 1 x312 + 1 x313 + 1 x314 + 1 x315 + 1 x316 + 1 x317 + 1 x318 + 1 x319 + 1 x320 + 1 x321 + 1 x322 + 1 x323 + 1 x324 + 1 x325 + 1 x326 + 1 x327 + 1 x328 + 1 x329 + 1 x330 + 1 x331 + 1 x332 + 1 x333 + 1 x334 + 1 x335 + 1 x336 + 1 x337 + 1 x338 + 1 x339 + 1 x340 + 1 x341 + 1 x342 + 1 x343 + 1 x344 + 1 x345 + 1 x346 + 1 x347 + 1 x348 + 1 x349 + 1 x350 + 1 x351 + 1 x352 + 1 x353 + 1 x354 + 1 x355 + 1 x356 + 1 x357 + 1 x358 + 1 x359 + 1 x360 + 1 x361 + 1 x362 + 1 x363 + 1 x364 + 1 x365 + 1 x366 + 1 x367 + 1 x368 + 1 x369 + 1 x370 + 1 x371 + 1 x372 + 1 x373 + 1 x374 + 1 x375 + 1 x376 + 1 x377 + 1 x378 + 1 x379 + 1 x380 + 1 x381 + 1 x382 + 1 x383 + 1 x384 + 1 x385 + 1 x386 + 1 x387 + 1 x388 + 1 x389 + 1 x390 + 1 x391 + 1 x392 + 1 x393 + 1 x394 + 1 x395 + 1 x396 + 1 x397 + 1 x398 + 1 x399 + 1 x400 + 1 x401 + 1 x402 + 1 x403 + 1 x404 + 1 x405 + 1 x406 + 1 x407 + 1 x408 + 1 x409 + 1 x410 + 1 x411 + 1 x412 + 1 x413 + 1 x414 + 1 x415 + 1 x416 + 1 x417 + 1 x418 + 1 x419 + 1 x420 + 1 x421 + 1 x422 + 1 x423 + 1 x424 + 1 x425 + 1 x426 + 1 x427 + 1 x428 + 1 x429 + 1 x430 + 1 x431 + 1 x432 + 1 x433 + 1 x434 + 1 x435 + 1 x436 + 1 x437 + 1 x438 + 1 x439 + 1 x440 + 1 x441 + 1 x442 + 1 x443 + 1 x444 + 1 x445 + 1 x446 + 1 x447 + 1 x448 + 1 x449 + 1 x450 + 1 x451 + 1 x452 + 1 x453 + 1 x454 + 1 x455 + 1 x456 + 1 x457 + 1 x458 + 1 x459 + 1 x460 + 1 x461 + 1 x462 + 1 x463 + 1 x464 + 1 x465 + 1 x466 + 1 x467 + 1 x468 + 1 x469 + 1 x470 + 1 x471 + 1 x472 + 1 x473 + 1 x474 + 1 x475 + 1 x476 + 1 x477 + 1 x478 + 1 x479 + 1 x480 + 1 x481 + 1 x482 + 1 x483 + 1 x484 + 1 x485 + 1 x486 + 1 x487 + 1 x488 + 1 x489 + 1 x490 + 1 x491 + 1 x492 + 1 x493 + 1 x494 + 1 x495 + 1 x496 + 1 x497 + 1 x498 + 1 x499 + 1 x500

subject to
C1: + x186 + x267 <= 1
C2: + x5 + x136 <= 1
C3: + x6 + x32 <= 1
C4: + x74 + x194 <= 1
C5: + x165 + x233 <= 1
C6: + x39 + x125 <= 1
C7: + x81 + x126 <= 1
C8: + x7 + x406 <= 1
C9: + x84 + x409 <= 1
C10: + x3 + x353 <= 1
C11: + x25 + x67 <= 1
C12: + x99 + x474 <= 1
C13: + x57 + x300 <= 1
C14: + x429 + x477 <= 1
C15: + x69 + x191 <= 1
C16: + x32 + x75 <= 1
C17: + x15 + x151 <= 1
C18: + x7 + x293 <= 1
C19: + x13 + x60 <= 1
C20: + x371 + x387 <= 1
C21: + x17 + x191 <= 1
C22: + x7 + x450 <= 1
C23: + x239 + x281 <= 1
C24: + x12 + x23 <= 1
C25: + x59 + x131 <= 1
C26: + x249 + x387 <= 1
C27: + x253 + x378 <= 1
C28: + x24 + x249 <= 1
C29: + x8 + x99 <= 1
C30: + x272 + x306 <= 1
C31: + x84 + x86 <= 1
C32: + x186 + x254 <= 1
C33: + x168 + x449 <= 1
C34: + x15 + x433 <= 1
C35: + x16 + x35 <= 1
C36: + x218 + x293 <= 1
C37: + x73 + x408 <= 1
C38: + x38 + x114 <= 1
C39: + x97 + x270 <= 1
C40: + x74 + x203 <= 1
C41: + x19 + x113 <= 1
C42: + x29 + x277 <= 1
C43: + x167 + x185 <= 1
C44: + x5 + x36 <= 1
C45: + x108 + x313 <= 1
C46: + x78 + x108 <= 1
C47: + x96 + x349 <= 1
C48: + x63 + x219 <= 1
C49: + x3 + x74 <= 1
C50: + x62 + x64 <= 1
C51: + x27 + x68 <= 1
C52: + x1 + x243 <= 1
C53: + x292 + x415 <= 1
C54: + x12 + x161 <= 1
C55: + x52 + x122 <= 1
C56: + x17 + x182 <= 1
C57: + x18 + x58 <= 1
C58: + x38 + x55 <= 1
C59: + x222 + x229 <= 1
C60: + x54 + x116 <= 1
C61: + x164 + x262 <= 1
C62: + x12 + x306 <= 1
C63: + x51 + x388 <= 1
C64: + x353 + x475 <= 1
C65: + x15 + x166 <= 1
C66: + x4 + x12 <= 1
C67: + x25 + x133 <= 1
C68: + x62 + x258 <= 1
C69: + x56 + x129 <= 1
C70: + x3 + x13 <= 1
C71: + x50 + x141 <= 1
C72: + x104 + x338 <= 1
C73: + x52 + x161 <= 1
C74: + x167 + x343 <= 1
C75: + x351 + x500 <= 1
C76: + x292 + x348 <= 1
C77: + x3 + x210 <= 1
C78: + x112 + x242 <= 1
C79: + x32 + x172 <= 1
C80: + x316 + x322 <= 1
C81: + x8 + x16 <= 1
C82: + x37 + x244 <= 1
C83: + x4 + x56 <= 1
C84: + x22 + x317 <= 1
C85: + x277 + x323 <= 1
C86: + x37 + x81 <= 1
C87: + x11 + x48 <= 1
C88: + x22 + x416 <= 1
C89: + x27 + x402 <= 1
C90: + x55 + x317 <= 1
C91: + x185 + x332 <= 1
C92: + x18 + x51 <= 1
C93: + x200 + x260 <= 1
C94: + x8 + x452 <= 1
C95: + x30 + x115 <= 1
C96: + x142 + x239 <= 1
C97: + x270 + x367 <= 1
C98: + x83 + x166 <= 1
C99: + x19 + x32 + x176 <= 1
C100: + x11 + x20 <= 1
C101: + x123 + x426 <= 1
C102: + x269 + x454 <= 1
C103: + x6 + x250 <= 1
C104: + x214 + x263 <= 1
C105: + x35 + x239 <= 1
C106: + x9 + x70 <= 1
C107: + x45 + x234 <= 1
C108: + x314 + x337 <= 1
C109: + x89 + x361 <= 1
C110: + x6 + x11 <= 1
C111: + x73 + x227 <= 1
C112: + x9 + x291 <= 1
C113: + x189 + x498 <= 1
C114: + x30 + x149 <= 1
C115: + x22 + x56 <= 1
C116: + x5 + x18 <= 1
C117: + x17 + x248 <= 1
C118: + x36 + x86 <= 1
C119: + x54 + x287 <= 1
C120: + x3 + x334 <= 1
C121: + x22 + x139 <= 1
C122: + x40 + x288 <= 1
C123: + x34 + x61 <= 1
C124: + x18 + x411 <= 1
C125: + x172 + x473 <= 1
C126: + x47 + x312 <= 1
C127: + x21 + x303 <= 1
C128: + x18 + x44 <= 1
C129: + x30 + x76 <= 1
C130: + x66 + x253 <= 1
C131: + x11 + x27 <= 1
C132: + x140 + x176 <= 1
C133: + x343 + x352 <= 1
C134: + x270 + x459 <= 1
C135: + x36 + x111 <= 1
C136: + x219 + x275 <= 1
C137: + x143 + x478 <= 1
C138: + x9 + x240 <= 1
C139: + x105 + x164 <= 1
C140: + x22 + x208 <= 1
C141: + x37 + x147 <= 1
C142: + x3 + x470 <= 1
C143: + x29 + x477 <= 1
C144: + x123 + x292 <= 1
C145: + x15 + x39 <= 1
C146: + x113 + x342 <= 1
C147: + x40 + x107 <= 1
C148: + x126 + x367 <= 1
C149: + x65 + x489 <= 1
C150: + x11 + x292 <= 1
C151: + x235 + x262 <= 1
C152: + x45 + x74 + x85 <= 1
C153: + x26 + x500 <= 1
C154: + x27 + x93 <= 1
C155: + x11 + x179 <= 1
C156: + x12 + x216 <= 1
C157: + x31 + x50 <= 1
C158: + x3 + x409 <= 1
C159: + x342 + x398 <= 1
C160: + x15 + x30 <= 1
C161: + x71 + x143 <= 1
C162: + x1 + x258 <= 1
C163: + x55 + x442 <= 1
C164: + x51 + x429 <= 1
C165: + x60 + x380 <= 1
C166: + x35 + x467 <= 1
C167: + x8 + x71 <= 1
C168: + x3 + x268 <= 1
C169: + x239 + x424 <= 1
C170: + x31 + x468 <= 1
C171: + x53 + x304 <= 1
C172: + x17 + x500 <= 1
C173: + x44 + x371 <= 1
C174: + x83 + x277 <= 1
C175: + x2 + x53 <= 1
C176: + x140 + x145 <= 1
C177: + x69 + x267 <= 1
C178: + x30 + x359 <= 1
C179: + x76 + x489 <= 1
C180: + x7 + x22 <= 1
C181: + x188 + x492 <= 1
C182: + x173 + x203 <= 1
C183: + x1 + x223 <= 1
C184: + x240 + x337 <= 1
C185: + x89 + x96 <= 1
C186: + x125 + x249 <= 1
C187: + x18 + x38 <= 1
C188: + x8 + x47 <= 1
C189: + x167 + x391 <= 1
C190: + x196 + x366 <= 1
C191: + x398 + x421 <= 1
C192: + x83 + x143 <= 1
C193: + x64 + x177 <= 1
C194: + x15 + x130 <= 1
C195: + x189 + x304 <= 1
C196: + x1 + x235 <= 1
C197: + x37 + x292 <= 1
C198: + x10 + x18 <= 1
C199: + x47 + x111 <= 1
C200: + x22 + x210 <= 1
C201: + x24 + x121 <= 1
C202: + x9 + x123 <= 1
C203: + x7 + x465 <= 1
C204: + x325 + x450 <= 1
C205: + x29 + x102 <= 1
C206: + x47 + x204 <= 1
C207: + x50 + x169 <= 1
C208: + x105 + x388 <= 1
C209: + x18 + x82 <= 1
C210: + x3 + x17 <= 1
C211: + x54 + x471 <= 1
C212: + x5 + x15 <= 1
C213: + x6 + x153 <= 1
C214: + x116 + x156 <= 1
C215: + x260 + x332 <= 1
C216: + x299 + x496 <= 1
C217: + x108 + x215 <= 1
C218: + x47 + x59 <= 1
C219: + x166 + x368 <= 1
C220: + x51 + x381 <= 1
C221: + x205 + x319 <= 1
C222: + x15 + x420 <= 1
C223: + x7 + x13 <= 1
C224: + x11 + x439 <= 1
C225: + x321 + x457 <= 1
C226: + x20 + x460 <= 1
C227: + x60 + x190 <= 1
C228: + x5 + x158 <= 1
C229: + x6 + x42 <= 1
C230: + x110 + x376 <= 1
C231: + x1 + x214 <= 1
C232: + x95 + x303 <= 1
C233: + x18 + x31 <= 1
C234: + x54 + x318 <= 1
C235: + x8 + x40 <= 1
C236: + x3 + x363 <= 1
C237: + x7 + x57 <= 1
C238: + x27 + x357 <= 1
C239: + x71 + x249 <= 1
C240: + x67 + x185 <= 1
C241: + x73 + x144 <= 1
C242: + x154 + x253 <= 1
C243: + x27 + x115 <= 1
C244: + x269 + x335 <= 1
C245: + x107 + x370 <= 1
C246: + x6 + x460 <= 1
C247: + x218 + x275 <= 1
C248: + x3 + x447 <= 1
C249: + x65 + x236 <= 1
C250: + x219 + x415 <= 1
C251: + x2 + x7 <= 1
C252: + x55 + x456 <= 1
C253: + x101 + x173 <= 1
C254: + x11 + x124 <= 1
C255: + x5 + x246 <= 1
C256: + x410 + x417 <= 1
C257: + x15 + x266 <= 1
C258: + x183 + x225 <= 1
C259: + x202 + x346 <= 1
C260: + x55 + x353 <= 1
C261: + x31 + x156 <= 1
C262: + x4 + x25 <= 1
C263: + x22 + x175 <= 1
C264: + x1 + x475 <= 1
C265: + x172 + x453 <= 1
C266: + x95 + x117 <= 1
C267: + x21 + x451 <= 1
C268: + x171 + x322 <= 1
C269: + x8 + x29 <= 1
C270: + x37 + x195 <= 1
C271: + x122 + x201 <= 1
C272: + x52 + x255 <= 1
C273: + x11 + x486 <= 1
C274: + x2 + x409 <= 1
C275: + x130 + x183 <= 1
C276: + x123 + x469 <= 1
C277: + x167 + x286 <= 1
C278: + x162 + x187 <= 1
C279: + x44 + x457 <= 1
C280: + x193 + x366 <= 1
C281: + x3 + x277 <= 1
C282: + x29 + x215 <= 1
C283: + x90 + x289 <= 1
C284: + x28 + x261 <= 1
C285: + x23 + x482 <= 1
C286: + x81 + x153 <= 1
C287: + x109 + x426 <= 1
C288: + x221 + x390 <= 1
C289: + x29 + x326 <= 1
C290: + x354 + x439 <= 1
C291: + x6 + x326 <= 1
C292: + x326 + x337 <= 1
C293: + x8 + x98 <= 1
C294: + x222 + x341 <= 1
C295: + x95 + x394 <= 1
C296: + x221 + x309 <= 1
C297: + x123 + x268 <= 1
C298: + x5 + x132 <= 1
C299: + x7 + x156 <= 1
C300: + x18 + x283 <= 1
C301: + x8 + x247 <= 1
C302: + x11 + x87 <= 1
C303: + x59 + x429 <= 1
C304: + x5 + x33 <= 1
C305: + x162 + x195 <= 1
C306: + x307 + x481 <= 1
C307: + x65 + x385 <= 1
C308: + x55 + x184 <= 1
C309: + x131 + x298 <= 1
C310: + x42 + x131 <= 1
C311: + x195 + x234 <= 1
C312: + x325 + x432 <= 1
C313: + x54 + x163 <= 1
C314: + x12 + x321 <= 1
C315: + x105 + x362 <= 1
C316: + x91 + x204 <= 1
C317: + x36 + x52 <= 1
C318: + x243 + x460 <= 1
C319: + x14 + x331 <= 1
C320: + x17 + x179 <= 1
C321: + x11 + x384 <= 1
C322: + x21 + x88 <= 1
C323: + x195 + x359 <= 1
C324: + x3 + x159 <= 1
C325: + x42 + x490 <= 1
C326: + x261 + x305 <= 1
C327: + x108 + x257 <= 1
C328: + x36 + x128 <= 1
C329: + x8 + x95 <= 1
C330: + x135 + x282 <= 1
C331: + x22 + x364 <= 1
C332: + x26 + x54 <= 1
C333: + x220 + x221 <= 1
C334: + x84 + x309 <= 1
C335: + x13 + x278 <= 1
C336: + x180 + x403 <= 1
C337: + x152 + x230 <= 1
C338: + x8 + x240 <= 1
C339: + x202 + x469 <= 1
C340: + x8 + x19 <= 1
C341: + x29 + x182 <= 1
C342: + x14 + x499 <= 1
C343: + x15 + x449 <= 1
C344: + x66 + x171 <= 1
C345: + x37 + x86 <= 1
C346: + x3 + x70 <= 1
C347: + x41 + x401 <= 1
C348: + x11 + x15 + x91 <= 1
C349: + x15 + x158 <= 1
C350: + x6 + x201 <= 1
C351: + x91 + x272 <= 1
C352: + x172 + x270 <= 1
C353: + x10 + x14 <= 1
C354: + x25 + x264 <= 1
C355: + x198 + x231 <= 1
C356: + x8 + x455 <= 1
C357: + x47 + x232 <= 1
C358: + x3 + x396 <= 1
C359: + x21 + x396 <= 1
C360: + x161 + x434 <= 1
C361: + x401 + x481 <= 1
C362: + x75 + x284 <= 1
C363: + x221 + x412 <= 1
C364: + x167 + x252 <= 1
C365: + x9 + x230 <= 1
C366: + x192 + x194 <= 1
C367: + x105 + x186 <= 1
C368: + x31 + x141 <= 1
C369: + x341 + x376 <= 1
C370: + x20 + x214 <= 1
C371: + x3 + x315 <= 1
C372: + x94 + x380 <= 1
C373: + x26 + x63 <= 1
C374: + x29 + x30 <= 1
C375: + x3 + x9 <= 1
C376: + x6 + x14 <= 1
C377: + x406 + x446 <= 1
C378: + x309 + x318 <= 1
C379: + x197 + x343 <= 1
C380: + x81 + x112 <= 1
C381: + x117 + x308 <= 1
C382: + x19 + x137 <= 1
C383: + x214 + x334 <= 1
C384: + x31 + x270 <= 1
C385: + x10 + x257 <= 1
C386: + x11 + x415 <= 1
C387: + x95 + x150 <= 1
C388: + x26 + x486 <= 1
C389: + x7 + x267 <= 1
C390: + x166 + x217 <= 1
C391: + x3 + x226 <= 1
C392: + x240 + x322 <= 1
C393: + x32 + x220 <= 1
C394: + x125 + x291 <= 1
C395: + x207 + x344 <= 1
C396: + x103 + x165 <= 1
C397: + x96 + x169 <= 1
C398: + x6 + x230 <= 1
C399: + x61 + x338 <= 1
C400: + x95 + x355 <= 1
C401: + x141 + x410 <= 1
C402: + x3 + x471 <= 1
C403: + x48 + x360 <= 1
C404: + x15 + x36 <= 1
C405: + x8 + x222 <= 1
C406: + x3 + x165 <= 1
C407: + x39 + x102 <= 1
C408: + x22 + x52 <= 1
C409: + x21 + x188 <= 1
C410: + x153 + x191 <= 1
C411: + x17 + x236 <= 1
C412: + x116 + x411 <= 1
C413: + x325 + x389 <= 1
C414: + x73 + x118 <= 1
C415: + x101 + x463 <= 1
C416: + x64 + x219 <= 1
C417: + x103 + x479 <= 1
C418: + x76 + x350 <= 1
C419: + x48 + x428 <= 1
C420: + x69 + x152 <= 1
C421: + x3 + x491 <= 1
C422: + x53 + x362 <= 1
C423: + x188 + x466 <= 1
C424: + x82 + x250 <= 1
C425: + x8 + x146 <= 1
C426: + x11 + x184 <= 1
C427: + x76 + x80 <= 1
C428: + x31 + x51 <= 1
C429: + x5 + x66 <= 1
C430: + x162 + x341 <= 1
C431: + x480 + x482 <= 1
C432: + x8 + x53 <= 1
C433: + x11 + x361 <= 1
C434: + x21 + x109 <= 1
C435: + x175 + x480 <= 1
C436: + x15 + x31 <= 1
C437: + x140 + x164 <= 1
C438: + x54 + x352 <= 1
C439: + x29 + x207 <= 1
C440: + x371 + x416 <= 1
C441: + x5 + x451 <= 1
C442: + x289 + x356 <= 1
C443: + x128 + x257 <= 1
C444: + x256 + x480 <= 1
C445: + x123 + x385 <= 1
C446: + x176 + x255 <= 1
C447: + x48 + x452 <= 1
C448: + x59 + x65 <= 1
C449: + x27 + x42 <= 1
C450: + x57 + x58 <= 1
C451: + x39 + x250 <= 1
C452: + x244 + x343 <= 1
C453: + x27 + x331 <= 1
C454: + x66 + x190 <= 1
C455: + x4 + x284 <= 1
C456: + x8 + x143 <= 1
C457: + x20 + x285 <= 1
C458: + x197 + x198 <= 1
C459: + x6 + x274 <= 1
C460: + x227 + x278 <= 1
C461: + x64 + x81 <= 1
C462: + x48 + x290 <= 1
C463: + x129 + x203 <= 1
C464: + x156 + x191 <= 1
C465: + x3 + x99 <= 1
C466: + x47 + x271 <= 1
C467: + x31 + x69 <= 1
C468: + x15 + x131 <= 1
C469: + x17 + x345 <= 1
C470: + x18 + x367 <= 1
C471: + x1 + x24 <= 1
C472: + x2 + x160 <= 1
C473: + x31 + x226 <= 1
C474: + x28 + x310 <= 1
C475: + x60 + x237 <= 1
C476: + x25 + x59 <= 1
C477: + x44 + x375 <= 1
C478: + x85 + x221 <= 1
C479: + x59 + x76 <= 1
C480: + x52 + x471 <= 1
C481: + x116 + x151 <= 1
C482: + x99 + x227 <= 1
C483: + x206 + x297 <= 1
C484: + x1 + x36 <= 1
C485: + x12 + x116 <= 1
C486: + x7 + x10 <= 1
C487: + x73 + x100 <= 1
C488: + x19 + x279 <= 1
C489: + x11 + x186 <= 1
C490: + x96 + x119 <= 1
C491: + x287 + x498 <= 1
C492: + x18 + x26 <= 1
C493: + x147 + x499 <= 1
C494: + x81 + x371 <= 1
C495: + x136 + x149 <= 1
C496: + x21 + x269 <= 1
C497: + x177 + x273 <= 1
C498: + x15 + x134 <= 1
C499: + x7 + x231 <= 1
C500: + x16 + x245 <= 1
C501: + x21 + x226 <= 1
C502: + x15 + x412 <= 1
C503: + x207 + x220 <= 1
C504: + x202 + x204 <= 1
C505: + x48 + x200 <= 1
C506: + x44 + x368 <= 1
C507: + x301 + x343 <= 1
C508: + x67 + x114 <= 1
C509: + x6 + x133 <= 1
C510: + x27 + x60 <= 1
C511: + x9 + x206 <= 1
C512: + x47 + x63 <= 1
C513: + x22 + x162 <= 1
C514: + x25 + x177 <= 1
C515: + x5 + x485 <= 1
C516: + x18 + x386 <= 1
C517: + x12 + x21 + x441 <= 1
C518: + x84 + x294 <= 1
C519: + x169 + x329 <= 1
C520: + x345 + x451 <= 1
C521: + x18 + x301 <= 1
C522: + x74 + x224 <= 1
C523: + x6 + x22 <= 1
C524: + x62 + x89 <= 1
C525: + x155 + x299 <= 1
C526: + x10 + x83 <= 1
C527: + x31 + x40 <= 1
C528: + x23 + x129 <= 1
C529: + x52 + x95 <= 1
C530: + x126 + x252 <= 1
C531: + x72 + x356 <= 1
C532: + x127 + x341 <= 1
C533: + x7 + x61 <= 1
C534: + x175 + x334 <= 1
C535: + x122 + x181 <= 1
C536: + x5 + x99 <= 1
C537: + x15 + x355 <= 1
C538: + x18 + x79 <= 1
C539: + x135 + x145 <= 1
C540: + x7 + x105 <= 1
C541: + x101 + x276 <= 1
C542: + x10 + x112 <= 1
C543: + x63 + x431 <= 1
C544: + x20 + x360 <= 1
C545: + x104 + x206 <= 1
C546: + x108 + x196 <= 1
C547: + x16 + x130 <= 1
C548: + x373 + x382 <= 1
C549: + x120 + x228 <= 1
C550: + x33 + x294 <= 1
C551: + x5 + x484 <= 1
C552: + x9 + x82 <= 1
C553: + x289 + x325 <= 1
C554: + x317 + x462 <= 1
C555: + x162 + x392 <= 1
C556: + x54 + x146 <= 1
C557: + x19 + x265 <= 1
C558: + x73 + x402 <= 1
C559: + x60 + x183 <= 1
C560: + x7 + x165 <= 1
C561: + x74 + x284 <= 1
C562: + x283 + x476 <= 1
C563: + x185 + x371 <= 1
C564: + x203 + x421 <= 1
C565: + x70 + x423 <= 1
C566: + x108 + x256 <= 1
C567: + x250 + x333 <= 1
C568: + x12 + x94 <= 1
C569: + x48 + x130 <= 1
C570: + x34 + x41 <= 1
C571: + x306 + x377 <= 1
C572: + x2 + x72 <= 1
C573: + x11 + x59 <= 1
C574: + x39 + x461 <= 1
C575: + x140 + x208 <= 1
C576: + x51 + x86 <= 1
C577: + x18 + x165 <= 1
C578: + x47 + x125 <= 1
C579: + x86 + x373 <= 1
C580: + x141 + x437 <= 1
C581: + x231 + x490 <= 1
C582: + x16 + x26 <= 1
C583: + x7 + x455 <= 1
C584: + x43 + x90 <= 1
C585: + x216 + x298 <= 1
C586: + x66 + x340 <= 1
C587: + x202 + x492 <= 1
C588: + x340 + x356 <= 1
C589: + x59 + x101 <= 1
C590: + x4 + x231 <= 1
C591: + x108 + x272 <= 1
C592: + x8 + x94 <= 1
C593: + x4 + x6 <= 1
C594: + x32 + x364 <= 1
C595: + x62 + x264 <= 1
C596: + x127 + x155 <= 1
C597: + x105 + x418 <= 1
C598: + x177 + x458 <= 1
C599: + x197 + x464 <= 1
C600: + x271 + x392 <= 1
C601: + x237 + x372 <= 1
C602: + x8 + x243 <= 1
C603: + x20 + x313 <= 1
C604: + x17 + x251 <= 1
C605: + x8 + x18 <= 1
C606: + x64 + x117 <= 1
C607: + x49 + x79 <= 1
C608: + x252 + x292 <= 1
C609: + x17 + x40 <= 1
C610: + x44 + x167 <= 1
C611: + x7 + x47 <= 1
C612: + x8 + x437 <= 1
C613: + x20 + x426 <= 1
C614: + x308 + x328 <= 1
C615: + x11 + x135 <= 1
C616: + x95 + x329 <= 1
C617: + x197 + x238 <= 1
C618: + x12 + x15 <= 1
C619: + x140 + x399 <= 1
C620: + x42 + x179 <= 1
C621: + x167 + x412 <= 1
C622: + x44 + x339 <= 1
C623: + x45 + x349 <= 1
C624: + x104 + x413 <= 1
C625: + x36 + x370 <= 1
C626: + x376 + x453 <= 1
C627: + x42 + x494 <= 1
C628: + x216 + x390 <= 1
C629: + x180 + x221 <= 1
C630: + x1 + x16 <= 1
C631: + x72 + x283 <= 1
C632: + x233 + x311 <= 1
C633: + x4 + x11 <= 1
C634: + x167 + x491 <= 1
C635: + x65 + x109 <= 1
C636: + x29 + x464 <= 1
C637: + x203 + x374 <= 1
C638: + x420 + x435 <= 1
C639: + x142 + x169 <= 1
C640: + x207 + x278 <= 1
C641: + x1 + x330 <= 1
C642: + x3 + x175 <= 1
C643: + x33 + x419 <= 1
C644: + x32 + x171 <= 1
C645: + x73 + x495 <= 1
C646: + x29 + x178 <= 1
C647: + x133 + x134 <= 1
C648: + x5 + x262 <= 1
C649: + x102 + x467 <= 1
C650: + x44 + x45 <= 1
C651: + x27 + x237 <= 1
C652: + x1 + x408 <= 1
C653: + x123 + x153 <= 1
C654: + x15 + x17 <= 1
C655: + x249 + x402 <= 1
C656: + x136 + x380 <= 1
C657: + x29 + x344 <= 1
C658: + x2 + x110 <= 1
C659: + x31 + x88 <= 1
C660: + x70 + x366 <= 1
C661: + x64 + x439 <= 1
C662: + x253 + x494 <= 1
C663: + x18 + x110 <= 1
C664: + x173 + x440 <= 1
C665: + x76 + x365 <= 1
C666: + x47 + x361 <= 1
C667: + x6 + x10 <= 1
C668: + x81 + x199 <= 1
C669: + x37 + x391 <= 1
C670: + x58 + x69 <= 1
C671: + x105 + x205 <= 1
C672: + x69 + x443 <= 1
C673: + x32 + x398 <= 1
C674: + x133 + x141 <= 1
C675: + x127 + x369 <= 1
C676: + x7 + x25 <= 1
C677: + x390 + x417 <= 1
C678: + x29 + x46 <= 1
C679: + x3 + x89 <= 1
C680: + x257 + x479 <= 1
C681: + x74 + x379 <= 1
C682: + x49 + x460 <= 1
C683: + x166 + x197 <= 1
C684: + x368 + x377 <= 1
C685: + x52 + x71 <= 1
C686: + x5 + x71 <= 1
C687: + x68 + x442 <= 1
C688: + x116 + x263 <= 1
C689: + x203 + x231 <= 1
C690: + x59 + x356 <= 1
C691: + x186 + x346 <= 1
C692: + x22 + x265 <= 1
C693: + x43 + x51 <= 1
C694: + x323 + x418 <= 1
C695: + x335 + x397 <= 1
C696: + x161 + x461 <= 1
C697: + x271 + x333 <= 1
C698: + x3 + x109 <= 1
C699: + x332 + x424 <= 1
C700: + x7 + x488 <= 1
C701: + x5 + x357 <= 1
C702: + x6 + x115 <= 1
C703: + x210 + x379 <= 1
C704: + x72 + x317 <= 1
C705: + x60 + x68 <= 1
C706: + x96 + x331 <= 1
C707: + x24 + x58 <= 1
C708: + x7 + x20 <= 1
C709: + x23 + x438 <= 1
C710: + x29 + x37 <= 1
C711: + x76 + x229 <= 1
C712: + x248 + x358 <= 1
C713: + x60 + x175 <= 1
C714: + x70 + x300 <= 1
C715: + x6 + x39 <= 1
C716: + x217 + x317 <= 1
C717: + x444 + x499 <= 1
C718: + x25 + x207 <= 1
C719: + x26 + x193 <= 1
C720: + x91 + x447 <= 1
C721: + x1 + x102 <= 1
C722: + x219 + x364 <= 1
C723: + x189 + x240 <= 1
C724: + x39 + x183 <= 1
C725: + x77 + x126 <= 1
C726: + x59 + x168 <= 1
C727: + x27 + x255 <= 1
C728: + x7 + x80 <= 1
C729: + x2 + x128 <= 1
C730: + x105 + x271 <= 1
C731: + x31 + x66 <= 1
C732: + x12 + x296 <= 1
C733: + x209 + x422 <= 1
C734: + x27 + x98 <= 1
C735: + x47 + x101 <= 1
C736: + x21 + x224 <= 1
C737: + x33 + x345 <= 1
C738: + x14 + x294 <= 1
C739: + x128 + x269 <= 1
C740: + x55 + x229 <= 1
C741: + x20 + x67 <= 1
C742: + x1 + x434 <= 1
C743: + x176 + x296 <= 1
C744: + x107 + x418 <= 1
C745: + x292 + x370 <= 1
C746: + x84 + x226 <= 1
C747: + x60 + x311 <= 1
C748: + x116 + x150 <= 1
C749: + x52 + x470 <= 1
C750: + x45 + x112 <= 1
C751: + x8 + x118 <= 1
C752: + x1 + x33 <= 1
C753: + x29 + x159 <= 1
C754: + x4 + x46 <= 1
C755: + x22 + x156 <= 1
C756: + x81 + x324 <= 1
C757: + x73 + x97 <= 1
C758: + x7 + x11 <= 1
C759: + x62 + x256 <= 1
C760: + x136 + x232 <= 1
C761: + x47 + x327 <= 1
C762: + x65 + x288 <= 1
C763: + x40 + x87 <= 1
C764: + x4 + x187 <= 1
C765: + x14 + x363 <= 1
C766: + x8 + x42 <= 1
C767: + x50 + x297 <= 1
C768: + x137 + x162 <= 1
C769: + x11 + x497 <= 1
C770: + x214 + x446 <= 1
C771: + x209 + x413 <= 1
C772: + x80 + x125 <= 1
C773: + x77 + x319 <= 1
C774: + x371 + x403 <= 1
C775: + x45 + x216 <= 1
C776: + x139 + x170 <= 1
C777: + x408 + x433 <= 1
C778: + x211 + x474 <= 1
C779: + x5 + x16 <= 1
C780: + x116 + x155 <= 1
C781: + x188 + x371 <= 1
C782: + x44 + x394 <= 1
C783: + x4 + x19 <= 1
C784: + x33 + x209 <= 1
C785: + x31 + x363 <= 1
C786: + x153 + x483 <= 1
C787: + x229 + x424 <= 1
C788: + x3 + x199 <= 1
C789: + x105 + x238 <= 1
C790: + x40 + x80 <= 1
C791: + x91 + x385 <= 1
C792: + x45 + x155 <= 1
C793: + x62 + x75 + x122 <= 1
C794: + x88 + x324 <= 1
C795: + x73 + x84 <= 1
C796: + x325 + x443 <= 1
C797: + x264 + x427 <= 1
C798: + x123 + x459 <= 1
C799: + x7 + x304 <= 1
C800: + x76 + x430 <= 1
C801: + x105 + x154 <= 1
C802: + x188 + x194 <= 1
C803: + x25 + x233 <= 1
C804: + x89 + x425 <= 1
C805: + x15 + x416 <= 1
C806: + x12 + x32 <= 1
C807: + x106 + x260 <= 1
C808: + x17 + x483 <= 1
C809: + x209 + x291 <= 1
C810: + x8 + x378 <= 1
C811: + x2 + x6 <= 1
C812: + x3 + x142 <= 1
C813: + x18 + x22 + x43 <= 1
C814: + x14 + x30 <= 1
C815: + x432 + x456 <= 1
C816: + x6 + x348 <= 1
C817: + x73 + x306 <= 1
C818: + x68 + x261 <= 1
C819: + x22 + x345 <= 1
C820: + x61 + x89 <= 1
C821: + x150 + x247 <= 1
C822: + x207 + x261 <= 1
C823: + x62 + x85 <= 1
C824: + x44 + x288 <= 1
C825: + x3 + x194 <= 1
C826: + x69 + x302 <= 1
C827: + x162 + x201 <= 1
C828: + x198 + x208 <= 1
C829: + x15 + x347 <= 1
C830: + x219 + x325 <= 1
C831: + x6 + x181 <= 1
C832: + x171 + x335 <= 1
C833: + x276 + x321 <= 1
C834: + x119 + x137 <= 1
C835: + x85 + x265 <= 1
C836: + x7 + x49 <= 1
C837: + x11 + x483 <= 1
C838: + x16 + x259 <= 1
C839: + x7 + x222 <= 1
C840: + x9 + x141 <= 1
C841: + x129 + x431 <= 1
C842: + x65 + x314 <= 1
C843: + x21 + x245 <= 1
C844: + x48 + x118 <= 1
C845: + x69 + x466 <= 1
C846: + x65 + x71 <= 1
C847: + x54 + x202 <= 1
C848: + x123 + x325 <= 1
C849: + x140 + x405 <= 1
C850: + x21 + x74 <= 1
C851: + x415 + x468 <= 1
C852: + x62 + x154 <= 1
C853: + x27 + x305 <= 1
C854: + x3 + x133 <= 1
C855: + x69 + x353 <= 1
C856: + x133 + x382 <= 1
C857: + x70 + x383 <= 1
C858: + x432 + x461 <= 1
C859: + x137 + x398 <= 1
C860: + x74 + x399 <= 1
C861: + x202 + x322 <= 1
C862: + x123 + x251 <= 1
C863: + x59 + x315 <= 1
C864: + x51 + x185 <= 1
C865: + x125 + x152 <= 1
C866: + x31 + x341 <= 1
C867: + x289 + x345 <= 1
C868: + x2 + x453 <= 1
C869: + x56 + x138 <= 1
C870: + x46 + x81 <= 1
C871: + x141 + x160 <= 1
C872: + x117 + x394 <= 1
C873: + x118 + x262 <= 1
C874: + x160 + x217 <= 1
C875: + x101 + x153 <= 1
C876: + x94 + x154 <= 1
C877: + x5 + x34 <= 1
C878: + x189 + x327 <= 1
C879: + x15 + x350 <= 1
C880: + x16 + x82 <= 1
C881: + x8 + x21 <= 1
C882: + x20 + x147 <= 1
C883: + x242 + x404 <= 1
C884: + x213 + x333 <= 1
C885: + x190 + x351 <= 1
C886: + x8 + x444 <= 1
C887: + x3 + x76 <= 1
C888: + x32 + x50 <= 1
C889: + x6 + x207 <= 1
C890: + x10 + x12 <= 1
C891: + x95 + x326 <= 1
C892: + x13 + x49 <= 1
C893: + x54 + x211 <= 1
C894: + x12 + x14 <= 1
C895: + x48 + x210 <= 1
C896: + x33 + x119 <= 1
C897: + x150 + x309 <= 1
C898: + x6 + x96 <= 1
C899: + x338 + x490 <= 1
C900: + x330 + x469 <= 1
C901: + x166 + x167 <= 1
C902: + x140 + x192 <= 1
C903: + x26 + x295 <= 1
C904: + x44 + x68 <= 1
C905: + x108 + x189 <= 1
C906: + x8 + x90 <= 1
C907: + x283 + x448 <= 1
C908: + x15 + x281 <= 1
C909: + x18 + x213 <= 1
C910: + x194 + x396 <= 1
C911: + x376 + x377 <= 1
C912: + x33 + x67 <= 1
C913: + x45 + x406 <= 1
C914: + x18 + x275 <= 1
C915: + x19 + x110 <= 1
C916: + x175 + x241 <= 1
C917: + x22 + x33 <= 1
C918: + x277 + x484 <= 1
C919: + x158 + x417 <= 1
C920: + x22 + x319 <= 1
C921: + x51 + x73 <= 1
C922: + x7 + x273 <= 1
C923: + x74 + x333 <= 1
C924: + x157 + x166 <= 1
C925: + x9 + x24 <= 1
C926: + x147 + x254 <= 1
C927: + x118 + x359 <= 1
C928: + x346 + x419 <= 1
C929: + x20 + x213 <= 1
C930: + x59 + x461 <= 1
C931: + x115 + x363 <= 1
C932: + x44 + x232 <= 1
C933: + x9 + x68 <= 1
C934: + x121 + x126 <= 1
C935: + x67 + x202 <= 1
C936: + x396 + x416 <= 1
C937: + x6 + x13 <= 1
C938: + x74 + x247 <= 1
C939: + x98 + x233 <= 1
C940: + x8 + x11 <= 1
C941: + x11 + x315 <= 1
C942: + x321 + x325 <= 1
C943: + x131 + x313 <= 1
C944: + x30 + x58 <= 1
C945: + x69 + x117 <= 1
C946: + x81 + x339 <= 1
C947: + x7 + x38 <= 1
C948: + x235 + x285 <= 1
C949: + x54 + x180 <= 1
C950: + x50 + x116 <= 1
C951: + x60 + x149 <= 1
C952: + x70 + x294 <= 1
C953: + x108 + x127 <= 1
C954: + x99 + x344 <= 1
C955: + x126 + x215 <= 1
C956: + x18 + x54 <= 1
C957: + x138 + x428 <= 1
C958: + x30 + x78 <= 1
C959: + x59 + x357 <= 1
C960: + x61 + x142 <= 1
C961: + x15 + x21 <= 1
C962: + x71 + x146 <= 1
C963: + x228 + x242 <= 1
C964: + x102 + x387 <= 1
C965: + x140 + x174 <= 1
C966: + x12 + x302 <= 1
C967: + x159 + x173 <= 1
C968: + x69 + x350 <= 1
C969: + x7 + x243 <= 1
C970: + x27 + x28 <= 1
C971: + x336 + x427 <= 1
C972: + x485 + x494 <= 1
C973: + x15 + x33 <= 1
C974: + x8 + x274 <= 1
C975: + x246 + x263 <= 1
C976: + x296 + x440 <= 1
C977: + x80 + x493 <= 1
C978: + x1 + x87 <= 1
C979: + x12 + x69 <= 1
C980: + x22 + x150 <= 1
C981: + x18 + x414 <= 1
C982: + x138 + x324 <= 1
C983: + x331 + x378 <= 1
C984: + x36 + x403 <= 1
C985: + x274 + x282 <= 1
C986: + x129 + x395 <= 1
C987: + x131 + x419 <= 1
C988: + x32 + x196 <= 1
C989: + x32 + x287 <= 1
C990: + x16 + x113 <= 1
C991: + x11 + x362 <= 1
C992: + x140 + x433 <= 1
C993: + x7 + x73 <= 1
C994: + x2 + x123 <= 1
C995: + x3 + x105 <= 1
C996: + x121 + x466 <= 1
C997: + x22 + x120 <= 1
C998: + x26 + x314 <= 1
C999: + x54 + x351 <= 1
C1000: + x23 + x382 <= 1
C1001: + x18 + x91 <= 1
C1002: + x111 + x330 <= 1
C1003: + x139 + x279 <= 1
C1004: + x231 + x241 <= 1
C1005: + x33 + x88 <= 1
C1006: + x7 + x133 <= 1
C1007: + x8 + x271 <= 1
C1008: + x128 + x487 <= 1
C1009: + x12 + x287 <= 1
C1010: + x97 + x245 <= 1
C1011: + x81 + x95 <= 1
C1012: + x27 + x55 <= 1
C1013: + x1 + x46 <= 1
C1014: + x8 + x121 <= 1
C1015: + x303 + x487 <= 1
C1016: + x205 + x211 <= 1
C1017: + x170 + x305 <= 1
C1018: + x70 + x117 <= 1
C1019: + x16 + x457 <= 1
C1020: + x54 + x134 <= 1
C1021: + x3 + x483 <= 1
C1022: + x4 + x283 <= 1
C1023: + x154 + x170 <= 1
C1024: + x7 + x177 <= 1
C1025: + x101 + x225 <= 1
C1026: + x9 + x283 <= 1
C1027: + x1 + x122 <= 1
C1028: + x64 + x84 <= 1
C1029: + x29 + x88 <= 1
C1030: + x11 + x273 <= 1
C1031: + x55 + x173 <= 1
C1032: + x253 + x393 <= 1
C1033: + x71 + x132 <= 1
C1034: + x129 + x305 <= 1
C1035: + x140 + x220 <= 1
C1036: + x31 + x70 <= 1
C1037: + x73 + x348 <= 1
C1038: + x11 + x228 <= 1
C1039: + x211 + x332 <= 1
C1040: + x51 + x267 <= 1
C1041: + x33 + x349 <= 1
C1042: + x18 + x84 <= 1
C1043: + x152 + x422 <= 1
C1044: + x2 + x314 <= 1
C1045: + x12 + x425 <= 1
C1046: + x137 + x235 <= 1
C1047: + x173 + x327 <= 1
C1048: + x81 + x411 <= 1
C1049: + x118 + x241 <= 1
C1050: + x1 + x37 <= 1
C1051: + x47 + x53 <= 1
C1052: + x122 + x246 <= 1
C1053: + x15 + x478 <= 1
C1054: + x74 + x123 <= 1
C1055: + x133 + x276 <= 1
C1056: + x198 + x492 <= 1
C1057: + x7 + x172 <= 1
C1058: + x8 + x316 <= 1
C1059: + x91 + x390 <= 1
C1060: + x8 + x38 <= 1
C1061: + x38 + x214 <= 1
C1062: + x31 + x276 <= 1
C1063: + x25 + x119 <= 1
C1064: + x10 + x487 <= 1
C1065: + x233 + x250 <= 1
C1066: + x5 + x200 <= 1
C1067: + x192 + x229 <= 1
C1068: + x31 + x234 <= 1
C1069: + x4 + x107 <= 1
C1070: + x6 + x462 <= 1
C1071: + x1 + x397 <= 1
C1072: + x75 + x400 <= 1
C1073: + x323 + x324 <= 1
C1074: + x413 + x450 <= 1
C1075: + x185 + x289 <= 1
C1076: + x32 + x139 <= 1
C1077: + x26 + x139 <= 1
C1078: + x21 + x55 <= 1
C1079: + x70 + x103 <= 1
C1080: + x6 + x498 <= 1
C1081: + x73 + x108 <= 1
C1082: + x166 + x462 <= 1
C1083: + x29 + x484 <= 1
C1084: + x33 + x50 <= 1
C1085: + x158 + x271 <= 1
C1086: + x65 + x440 <= 1
C1087: + x11 + x259 <= 1
C1088: + x29 + x166 <= 1
C1089: + x140 + x424 <= 1
C1090: + x397 + x463 <= 1
C1091: + x7 + x62 <= 1
C1092: + x95 + x163 <= 1
C1093: + x21 + x277 <= 1
C1094: + x184 + x382 <= 1
C1095: + x13 + x346 <= 1
C1096: + x18 + x163 <= 1
C1097: + x163 + x216 <= 1
C1098: + x16 + x20 <= 1
C1099: + x57 + x97 <= 1
C1100: + x3 + x5 + x6 + x7 + x8 <= 1
C1101: + x14 + x439 <= 1
C1102: + x207 + x381 <= 1
C1103: + x92 + x213 <= 1
C1104: + x3 + x138 <= 1
C1105: + x32 + x116 <= 1
C1106: + x8 + x104 <= 1
C1107: + x158 + x407 <= 1
C1108: + x4 + x32 <= 1
C1109: + x96 + x430 <= 1
C1110: + x35 + x196 <= 1
C1111: + x135 + x206 <= 1
C1112: + x66 + x136 <= 1
C1113: + x339 + x403 <= 1
C1114: + x105 + x444 <= 1
C1115: + x283 + x473 <= 1
C1116: + x157 + x160 <= 1
C1117: + x105 + x217 <= 1
C1118: + x22 + x27 <= 1
C1119: + x197 + x359 <= 1
C1120: + x26 + x357 <= 1
C1121: + x9 + x34 <= 1
C1122: + x12 + x93 <= 1
C1123: + x349 + x407 <= 1
C1124: + x19 + x318 <= 1
C1125: + x101 + x472 <= 1
C1126: + x11 + x60 <= 1
C1127: + x260 + x497 <= 1
C1128: + x12 + x174 <= 1
C1129: + x140 + x302 <= 1
C1130: + x215 + x405 <= 1
C1131: + x451 + x456 <= 1
C1132: + x278 + x410 <= 1
C1133: + x16 + x25 <= 1
C1134: + x6 + x320 <= 1
C1135: + x66 + x77 <= 1
C1136: + x44 + x47 + x57 <= 1
C1137: + x294 + x327 <= 1
C1138: + x150 + x312 <= 1
C1139: + x6 + x83 <= 1
C1140: + x52 + x146 <= 1
C1141: + x14 + x432 <= 1
C1142: + x74 + x157 <= 1
C1143: + x2 + x19 <= 1
C1144: + x22 + x96 <= 1
C1145: + x16 + x138 <= 1
C1146: + x291 + x496 <= 1
C1147: + x55 + x381 <= 1
C1148: + x11 + x193 <= 1
C1149: + x4 + x5 <= 1
C1150: + x40 + x312 <= 1
C1151: + x31 + x136 <= 1
C1152: + x26 + x56 <= 1
C1153: + x226 + x352 <= 1
C1154: + x20 + x42 <= 1
C1155: + x96 + x202 <= 1
C1156: + x45 + x411 <= 1
C1157: + x355 + x425 <= 1
C1158: + x22 + x36 <= 1
C1159: + x6 + x373 <= 1
C1160: + x48 + x138 <= 1
C1161: + x4 + x49 <= 1
C1162: + x160 + x342 <= 1
C1163: + x24 + x46 <= 1
C1164: + x190 + x347 <= 1
C1165: + x337 + x430 <= 1
C1166: + x3 + x72 <= 1
C1167: + x64 + x354 <= 1
C1168: + x21 + x256 <= 1
C1169: + x22 + x248 <= 1
C1170: + x18 + x64 <= 1
C1171: + x119 + x340 <= 1
C1172: + x59 + x351 <= 1
C1173: + x342 + x497 <= 1
C1174: + x163 + x432 <= 1
C1175: + x26 + x299 <= 1
C1176: + x15 + x285 <= 1
C1177: + x72 + x278 <= 1
C1178: + x54 + x336 <= 1
C1179: + x205 + x289 <= 1
C1180: + x69 + x393 <= 1
C1181: + x342 + x354 <= 1
C1182: + x226 + x337 <= 1
C1183: + x7 + x491 <= 1
C1184: + x47 + x174 <= 1
C1185: + x230 + x244 <= 1
C1186: + x38 + x436 <= 1
C1187: + x132 + x256 <= 1
C1188: + x4 + x384 <= 1
C1189: + x44 + x258 <= 1
C1190: + x26 + x476 <= 1
C1191: + x72 + x96 <= 1
C1192: + x8 + x10 <= 1
C1193: + x84 + x425 <= 1
C1194: + x72 + x330 <= 1
C1195: + x123 + x214 <= 1
C1196: + x225 + x449 <= 1
C1197: + x70 + x134 <= 1
C1198: + x216 + x235 <= 1
C1199: + x26 + x69 <= 1
C1200: + x62 + x212 <= 1
C1201: + x3 + x95 <= 1
C1202: + x104 + x264 <= 1
C1203: + x5 + x188 <= 1
C1204: + x6 + x52 <= 1
C1205: + x18 + x323 <= 1
C1206: + x12 + x220 <= 1
C1207: + x31 + x198 <= 1
C1208: + x276 + x452 <= 1
C1209: + x9 + x28 <= 1
C1210: + x210 + x316 <= 1
C1211: + x158 + x497 <= 1
C1212: + x198 + x389 <= 1
C1213: + x18 + x468 <= 1
C1214: + x212 + x446 <= 1
C1215: + x6 + x232 <= 1
C1216: + x8 + x83 <= 1
C1217: + x317 + x375 <= 1
C1218: + x122 + x155 <= 1
C1219: + x253 + x495 <= 1
C1220: + x21 + x485 <= 1
C1221: + x42 + x103 <= 1
C1222: + x110 + x162 <= 1
C1223: + x67 + x103 <= 1
C1224: + x95 + x272 <= 1
C1225: + x60 + x316 <= 1
C1226: + x5 + x20 <= 1
C1227: + x52 + x64 + x473 <= 1
C1228: + x313 + x358 <= 1
C1229: + x4 + x63 <= 1
C1230: + x23 + x436 <= 1
C1231: + x7 + x26 <= 1
C1232: + x58 + x258 <= 1
C1233: + x3 + x90 <= 1
C1234: + x195 + x451 <= 1
C1235: + x150 + x210 <= 1
C1236: + x15 + x106 <= 1
C1237: + x73 + x358 <= 1
C1238: + x2 + x245 <= 1
C1239: + x3 + x251 <= 1
C1240: + x21 + x142 <= 1
C1241: + x25 + x201 <= 1
C1242: + x289 + x406 <= 1
C1243: + x16 + x120 <= 1
C1244: + x330 + x368 <= 1
C1245: + x114 + x126 <= 1
C1246: + x26 + x410 <= 1
C1247: + x74 + x184 <= 1
C1248: + x12 + x290 <= 1
C1249: + x16 + x298 <= 1
C1250: + x100 + x286 <= 1
C1251: + x47 + x99 <= 1
C1252: + x95 + x360 <= 1
C1253: + x13 + x23 <= 1
C1254: + x25 + x149 <= 1
C1255: + x7 + x485 <= 1
C1256: + x10 + x321 <= 1
C1257: + x73 + x399 <= 1
C1258: + x47 + x192 <= 1
C1259: + x269 + x307 <= 1
C1260: + x153 + x377 <= 1
C1261: + x7 + x376 <= 1
C1262: + x17 + x225 <= 1
C1263: + x11 + x290 <= 1
C1264: + x29 + x129 <= 1
C1265: + x33 + x287 <= 1
C1266: + x235 + x260 <= 1
C1267: + x7 + x17 <= 1
C1268: + x74 + x77 <= 1
C1269: + x37 + x65 <= 1
C1270: + x8 + x419 <= 1
C1271: + x5 + x170 <= 1
C1272: + x15 + x113 <= 1
C1273: + x198 + x486 <= 1
C1274: + x7 + x263 <= 1
C1275: + x274 + x286 <= 1
C1276: + x3 + x246 <= 1
C1277: + x12 + x202 <= 1
C1278: + x158 + x320 <= 1
C1279: + x18 + x35 <= 1
C1280: + x7 + x420 <= 1
C1281: + x3 + x407 <= 1
C1282: + x386 + x445 <= 1
C1283: + x32 + x442 <= 1
C1284: + x80 + x212 <= 1
C1285: + x27 + x273 <= 1
C1286: + x120 + x462 <= 1
C1287: + x238 + x299 <= 1
C1288: + x32 + x93 <= 1
C1289: + x18 + x180 <= 1
C1290: + x8 + x65 <= 1
C1291: + x220 + x412 <= 1
C1292: + x158 + x372 <= 1
C1293: + x9 + x118 <= 1
C1294: + x63 + x137 <= 1
C1295: + x121 + x144 <= 1
C1296: + x29 + x105 <= 1
C1297: + x11 + x346 <= 1
C1298: + x145 + x414 <= 1
C1299: + x107 + x431 <= 1
C1300: + x209 + x310 <= 1
C1301: + x292 + x369 <= 1
C1302: + x185 + x279 <= 1
C1303: + x12 + x275 <= 1
C1304: + x22 + x72 <= 1
C1305: + x278 + x499 <= 1
C1306: + x6 + x158 <= 1
C1307: + x7 + x367 <= 1
C1308: + x48 + x174 <= 1
C1309: + x60 + x92 <= 1
C1310: + x15 + x479 <= 1
C1311: + x18 + x395 <= 1
C1312: + x7 + x12 <= 1
C1313: + x47 + x147 <= 1
C1314: + x3 + x44 <= 1
C1315: + x94 + x107 <= 1
C1316: + x269 + x441 <= 1
C1317: + x6 + x47 <= 1
C1318: + x127 + x477 <= 1
C1319: + x144 + x167 <= 1
C1320: + x56 + x400 <= 1
C1321: + x59 + x402 <= 1
C1322: + x13 + x209 <= 1
C1323: + x96 + x452 <= 1
C1324: + x8 + x41 <= 1
C1325: + x465 + x494 <= 1
C1326: + x20 + x127 <= 1
C1327: + x47 + x254 <= 1
C1328: + x30 + x92 <= 1
C1329: + x195 + x328 <= 1
C1330: + x161 + x476 <= 1
C1331: + x79 + x299 <= 1
C1332: + x53 + x237 <= 1
C1333: + x66 + x205 <= 1
C1334: + x233 + x247 <= 1
C1335: + x105 + x375 <= 1
C1336: + x15 + x136 <= 1
C1337: + x16 + x320 <= 1
C1338: + x27 + x106 <= 1
C1339: + x7 + x310 <= 1
C1340: + x105 + x148 <= 1
C1341: + x14 + x147 <= 1
C1342: + x6 + x449 <= 1
C1343: + x9 + x125 <= 1
C1344: + x138 + x390 <= 1
C1345: + x123 + x135 <= 1
C1346: + x175 + x440 <= 1
C1347: + x413 + x455 <= 1
C1348: + x30 + x475 <= 1
C1349: + x90 + x120 <= 1
C1350: + x143 + x236 <= 1
C1351: + x60 + x228 <= 1
C1352: + x47 + x480 <= 1
C1353: + x5 + x9 <= 1
C1354: + x20 + x188 <= 1
C1355: + x370 + x384 <= 1
C1356: + x171 + x438 <= 1
C1357: + x18 + x388 <= 1
C1358: + x92 + x389 <= 1
C1359: + x153 + x484 <= 1
C1360: + x20 + x23 <= 1
C1361: + x56 + x354 <= 1
C1362: + x8 + x401 <= 1
C1363: + x167 + x301 <= 1
C1364: + x22 + x434 <= 1
C1365: + x6 + x24 <= 1
C1366: + x44 + x282 <= 1
C1367: + x220 + x478 <= 1
C1368: + x132 + x291 <= 1
C1369: + x5 + x61 <= 1
C1370: + x25 + x361 <= 1
C1371: + x127 + x246 <= 1
C1372: + x6 + x441 <= 1
C1373: + x82 + x128 <= 1
C1374: + x44 + x470 <= 1
C1375: + x71 + x493 <= 1
C1376: + x229 + x405 <= 1
C1377: + x77 + x311 <= 1
C1378: + x48 + x112 <= 1
C1379: + x7 + x458 <= 1
C1380: + x165 + x266 <= 1
C1381: + x76 + x268 <= 1
C1382: + x285 + x300 <= 1
C1383: + x7 + x107 <= 1
C1384: + x335 + x435 <= 1
C1385: + x164 + x172 <= 1
C1386: + x2 + x5 <= 1
C1387: + x20 + x358 <= 1
C1388: + x8 + x200 <= 1
C1389: + x12 + x257 <= 1
C1390: + x5 + x248 <= 1
C1391: + x171 + x284 <= 1
C1392: + x309 + x436 <= 1
C1393: + x2 + x168 <= 1
C1394: + x22 + x173 <= 1
C1395: + x52 + x53 <= 1
C1396: + x25 + x182 <= 1
C1397: + x64 + x253 <= 1
C1398: + x3 + x62 <= 1
C1399: + x56 + x383 <= 1
C1400: + x6 + x17 <= 1
C1401: + x151 + x238 <= 1
C1402: + x15 + x70 <= 1
C1403: + x39 + x128 <= 1
C1404: + x13 + x199 <= 1
C1405: + x25 + x368 <= 1
C1406: + x16 + x76 <= 1
C1407: + x7 + x405 <= 1
C1408: + x40 + x370 <= 1
C1409: + x70 + x151 <= 1
C1410: + x159 + x340 <= 1
C1411: + x7 + x50 <= 1
C1412: + x73 + x92 <= 1
C1413: + x14 + x34 <= 1
C1414: + x108 + x139 <= 1
C1415: + x150 + x186 <= 1
C1416: + x47 + x127 <= 1
C1417: + x112 + x181 <= 1
C1418: + x213 + x438 <= 1
C1419: + x52 + x443 <= 1
C1420: + x44 + x61 <= 1
C1421: + x204 + x216 <= 1
C1422: + x14 + x435 <= 1
C1423: + x198 + x406 <= 1
C1424: + x351 + x480 <= 1
C1425: + x238 + x255 <= 1
C1426: + x57 + x375 <= 1
C1427: + x29 + x328 <= 1
C1428: + x31 + x104 <= 1
C1429: + x12 + x101 <= 1
C1430: + x14 + x260 <= 1
C1431: + x259 + x266 <= 1
C1432: + x6 + x487 <= 1
C1433: + x11 + x423 <= 1
C1434: + x20 + x37 <= 1
C1435: + x15 + x77 <= 1
C1436: + x73 + x244 <= 1
C1437: + x96 + x100 <= 1
C1438: + x64 + x75 <= 1
C1439: + x11 + x266 <= 1
C1440: + x39 + x212 <= 1
C1441: + x8 + x443 <= 1
C1442: + x2 + x91 <= 1
C1443: + x257 + x463 <= 1
C1444: + x51 + x79 <= 1
C1445: + x350 + x448 <= 1
C1446: + x198 + x270 <= 1
C1447: + x288 + x400 <= 1
C1448: + x24 + x376 <= 1
C1449: + x20 + x259 <= 1
C1450: + x21 + x253 <= 1
C1451: + x14 + x190 <= 1
C1452: + x34 + x157 <= 1
C1453: + x44 + x54 <= 1
C1454: + x12 + x13 <= 1
C1455: + x412 + x420 <= 1
C1456: + x21 + x82 <= 1
C1457: + x9 + x463 <= 1
C1458: + x11 + x479 <= 1
C1459: + x12 + x319 <= 1
C1460: + x9 + x225 <= 1
C1461: + x1 + x14 <= 1
C1462: + x193 + x307 <= 1
C1463: + x85 + x332 <= 1
C1464: + x309 + x386 <= 1
C1465: + x31 + x140 <= 1
C1466: + x18 + x119 <= 1
C1467: + x148 + x430 <= 1
C1468: + x60 + x195 <= 1
C1469: + x13 + x280 <= 1
C1470: + x160 + x193 <= 1
C1471: + x2 + x35 <= 1
C1472: + x9 + x45 <= 1
C1473: + x382 + x383 <= 1
C1474: + x187 + x196 <= 1
C1475: + x40 + x217 <= 1
C1476: + x31 + x265 <= 1
C1477: + x306 + x373 <= 1
C1478: + x120 + x431 <= 1
C1479: + x57 + x132 <= 1
C1480: + x330 + x401 <= 1
C1481: + x51 + x74 <= 1
C1482: + x40 + x459 <= 1
C1483: + x6 + x55 <= 1
C1484: + x27 + x78 <= 1
C1485: + x246 + x328 <= 1
C1486: + x129 + x446 <= 1
C1487: + x122 + x330 <= 1
C1488: + x13 + x41 <= 1
C1489: + x45 + x181 <= 1
C1490: + x54 + x219 <= 1
C1491: + x94 + x457 <= 1
C1492: + x258 + x379 <= 1
C1493: + x15 + x19 <= 1
C1494: + x207 + x339 <= 1
C1495: + x37 + x465 <= 1
C1496: + x180 + x365 <= 1
C1497: + x444 + x447 <= 1
C1498: + x137 + x445 <= 1
C1499: + x1 + x5 <= 1
C1500: + x3 + x313 <= 1
C1501: + x450 + x481 <= 1
C1502: + x311 + x445 <= 1
C1503: + x4 + x114 <= 1
C1504: + x40 + x158 <= 1
C1505: + x171 + x426 <= 1
C1506: + x128 + x285 <= 1
C1507: + x10 + x347 <= 1
C1508: + x420 + x442 <= 1
C1509: + x43 + x114 <= 1
C1510: + x96 + x307 <= 1
C1511: + x82 + x203 <= 1
C1512: + x3 + x172 <= 1
C1513: + x39 + x97 <= 1
C1514: + x141 + x372 <= 1
C1515: + x17 + x290 <= 1
C1516: + x73 + x276 <= 1
C1517: + x201 + x297 <= 1
C1518: + x27 + x38 <= 1
C1519: + x174 + x339 <= 1
C1520: + x84 + x429 <= 1
C1521: + x12 + x79 <= 1
C1522: + x153 + x396 <= 1
C1523: + x7 + x27 <= 1
C1524: + x6 + x413 <= 1
C1525: + x109 + x477 <= 1
C1526: + x56 + x282 <= 1
C1527: + x141 + x195 <= 1
C1528: + x209 + x369 <= 1
C1529: + x80 + x89 <= 1
C1530: + x27 + x85 <= 1
C1531: + x9 + x366 <= 1
C1532: + x373 + x388 <= 1
C1533: + x299 + x389 <= 1
C1534: + x217 + x465 <= 1
C1535: + x74 + x472 <= 1
C1536: + x15 + x22 <= 1
C1537: + x18 + x472 <= 1
C1538: + x83 + x160 <= 1
C1539: + x102 + x386 <= 1
C1540: + x6 + x228 <= 1
C1541: + x9 + x239 <= 1
C1542: + x119 + x218 <= 1
C1543: + x18 + x198 <= 1
C1544: + x29 + x242 <= 1
C1545: + x12 + x140 <= 1
C1546: + x248 + x433 <= 1
C1547: + x57 + x489 <= 1
C1548: + x3 + x308 <= 1
C1549: + x5 + x454 <= 1
C1550: + x7 + x482 <= 1
C1551: + x20 + x60 <= 1
C1552: + x44 + x379 <= 1
C1553: + x7 + x131 <= 1
C1554: + x137 + x307 <= 1
C1555: + x120 + x123 <= 1
C1556: + x21 + x326 <= 1
C1557: + x53 + x453 <= 1
C1558: + x18 + x242 <= 1
C1559: + x137 + x496 <= 1
C1560: + x93 + x409 <= 1
C1561: + x46 + x204 <= 1
C1562: + x138 + x488 <= 1
C1563: + x205 + x272 <= 1
C1564: + x60 + x66 <= 1
C1565: + x259 + x295 <= 1
C1566: + x96 + x329 <= 1
C1567: + x7 + x30 <= 1
C1568: + x66 + x187 <= 1
C1569: + x166 + x466 <= 1
C1570: + x56 + x279 <= 1
C1571: + x3 + x489 <= 1
C1572: + x150 + x222 <= 1
C1573: + x6 + x57 <= 1
C1574: + x71 + x127 <= 1
C1575: + x163 + x331 <= 1
C1576: + x73 + x362 <= 1
C1577: + x260 + x492 <= 1
C1578: + x176 + x200 <= 1
C1579: + x161 + x192 <= 1
C1580: + x25 + x205 <= 1
C1581: + x27 + x241 <= 1
C1582: + x191 + x218 <= 1
C1583: + x231 + x369 <= 1
C1584: + x15 + x29 <= 1
C1585: + x81 + x135 <= 1
C1586: + x401 + x465 <= 1
C1587: + x203 + x274 <= 1
C1588: + x40 + x45 <= 1
C1589: + x36 + x450 <= 1
C1590: + x27 + x100 <= 1
C1591: + x9 + x150 <= 1
C1592: + x309 + x415 <= 1
C1593: + x40 + x148 <= 1
C1594: + x98 + x137 <= 1
C1595: + x18 + x90 <= 1
C1596: + x330 + x352 <= 1
C1597: + x3 + x432 <= 1
C1598: + x174 + x308 <= 1
C1599: + x349 + x456 <= 1
C1600: + x97 + x297 <= 1
C1601: + x15 + x41 <= 1
C1602: + x164 + x185 <= 1
C1603: + x58 + x81 <= 1
C1604: + x26 + x192 <= 1
C1605: + x48 + x161 <= 1
C1606: + x43 + x408 <= 1
C1607: + x7 + x178 <= 1
C1608: + x368 + x397 <= 1
C1609: + x8 + x48 <= 1
C1610: + x123 + x353 <= 1
C1611: + x39 + x381 <= 1
C1612: + x62 + x182 <= 1
C1613: + x39 + x474 <= 1
C1614: + x140 + x219 <= 1
C1615: + x30 + x301 <= 1
C1616: + x44 + x476 <= 1
C1617: + x9 + x157 <= 1
C1618: + x154 + x304 <= 1
C1619: + x3 + x423 <= 1
C1620: + x47 + x384 <= 1
C1621: + x15 + x52 <= 1
C1622: + x54 + x472 <= 1
C1623: + x138 + x183 <= 1
C1624: + x2 + x15 <= 1
C1625: + x20 + x348 <= 1
C1626: + x275 + x485 <= 1
C1627: + x83 + x436 <= 1
C1628: + x305 + x437 <= 1
C1629: + x31 + x148 <= 1
C1630: + x22 + x338 <= 1
C1631: + x206 + x213 <= 1
C1632: + x7 + x16 <= 1
C1633: + x56 + x186 <= 1
C1634: + x122 + x395 <= 1
C1635: + x58 + x280 <= 1
C1636: + x141 + x240 <= 1
C1637: + x185 + x394 <= 1
C1638: + x6 + x43 <= 1
C1639: + x7 + x169 <= 1
C1640: + x154 + x178 <= 1
C1641: + x8 + x130 <= 1
C1642: + x158 + x309 <= 1
C1643: + x260 + x373 <= 1
C1644: + x70 + x435 <= 1
C1645: + x15 + x495 <= 1
C1646: + x346 + x355 <= 1
C1647: + x55 + x66 <= 1
C1648: + x3 + x124 <= 1
C1649: + x4 + x207 <= 1
C1650: + x31 + x78 <= 1
C1651: + x29 + x223 <= 1
C1652: + x105 + x152 <= 1
C1653: + x195 + x280 <= 1
C1654: + x17 + x481 <= 1
C1655: + x92 + x223 <= 1
C1656: + x23 + x75 <= 1
C1657: + x108 + x205 <= 1
C1658: + x325 + x351 <= 1
C1659: + x145 + x296 <= 1
C1660: + x64 + x413 <= 1
C1661: + x34 + x218 <= 1
C1662: + x15 + x422 <= 1
C1663: + x40 + x488 <= 1
C1664: + x7 + x164 <= 1
C1665: + x336 + x364 <= 1
C1666: + x28 + x43 <= 1
C1667: + x11 + x175 <= 1
C1668: + x12 + x252 <= 1
C1669: + x99 + x208 <= 1
C1670: + x253 + x315 <= 1
C1671: + x10 + x180 <= 1
C1672: + x46 + x235 <= 1
C1673: + x67 + x421 <= 1
C1674: + x21 + x124 <= 1
C1675: + x59 + x179 <= 1
C1676: + x403 + x459 <= 1
C1677: + x17 + x44 <= 1
C1678: + x143 + x171 <= 1
C1679: + x6 + x421 <= 1
C1680: + x20 + x414 <= 1
C1681: + x439 + x444 <= 1
C1682: + x78 + x218 <= 1
C1683: + x133 + x336 <= 1
C1684: + x22 + x386 <= 1
C1685: + x427 + x468 <= 1
C1686: + x47 + x124 <= 1
C1687: + x12 + x184 <= 1
C1688: + x302 + x455 <= 1
C1689: + x6 + x310 <= 1
C1690: + x46 + x159 <= 1
C1691: + x59 + x334 <= 1
C1692: + x341 + x498 <= 1
C1693: + x6 + x140 <= 1
C1694: + x44 + x73 <= 1
C1695: + x20 + x197 <= 1
C1696: + x47 + x72 <= 1
C1697: + x4 + x31 <= 1
C1698: + x230 + x467 <= 1
C1699: + x23 + x340 <= 1
C1700: + x44 + x248 <= 1
C1701: + x299 + x374 <= 1
C1702: + x18 + x121 <= 1
C1703: + x219 + x223 <= 1
C1704: + x221 + x316 <= 1
C1705: + x176 + x261 <= 1
C1706: + x187 + x392 <= 1
C1707: + x373 + x495 <= 1
C1708: + x85 + x177 <= 1
C1709: + x60 + x280 <= 1
C1710: + x115 + x303 <= 1
C1711: + x52 + x197 <= 1
C1712: + x219 + x227 <= 1
C1713: + x1 + x493 <= 1
C1714: + x413 + x418 <= 1
C1715: + x154 + x259 <= 1
C1716: + x75 + x94 <= 1
C1717: + x113 + x281 <= 1
C1718: + x39 + x48 <= 1
C1719: + x277 + x303 <= 1
C1720: + x14 + x129 <= 1
C1721: + x5 + x108 <= 1
C1722: + x53 + x110 <= 1
C1723: + x185 + x321 <= 1
C1724: + x275 + x447 <= 1
C1725: + x302 + x355 <= 1
C1726: + x258 + x365 <= 1
C1727: + x52 + x145 <= 1
C1728: + x257 + x264 <= 1
C1729: + x14 + x18 <= 1
C1730: + x18 + x215 <= 1
C1731: + x7 + x344 <= 1
C1732: + x228 + x500 <= 1
C1733: + x115 + x374 <= 1
C1734: + x3 + x49 <= 1
C1735: + x145 + x224 <= 1
C1736: + x8 + x237 <= 1
C1737: + x135 + x428 <= 1
C1738: + x231 + x427 <= 1
C1739: + x296 + x392 <= 1
C1740: + x162 + x197 <= 1
C1741: + x60 + x63 <= 1
C1742: + x34 + x40 <= 1
C1743: + x52 + x206 <= 1
C1744: + x89 + x269 <= 1
C1745: + x26 + x67 <= 1
C1746: + x7 + x45 <= 1
C1747: + x129 + x286 <= 1
C1748: + x220 + x349 <= 1
C1749: + x17 + x25 + x106 <= 1
C1750: + x31 + x423 <= 1
C1751: + x5 + x190 <= 1
C1752: + x190 + x445 <= 1
C1753: + x163 + x318 <= 1
C1754: + x5 + x83 <= 1
C1755: + x310 + x393 <= 1
C1756: + x239 + x295 <= 1
C1757: + x131 + x161 <= 1
C1758: + x48 + x268 <= 1
C1759: + x138 + x211 <= 1
C1760: + x22 + x104 <= 1
C1761: + x125 + x410 <= 1
C1762: + x133 + x354 <= 1
C1763: + x7 + x335 <= 1
C1764: + x31 + x144 <= 1
C1765: + x10 + x342 <= 1
C1766: + x212 + x293 <= 1
C1767: + x3 + x12 <= 1
C1768: + x59 + x221 <= 1
C1769: + x36 + x448 <= 1
C1770: + x138 + x159 <= 1
C1771: + x56 + x496 <= 1
C1772: + x21 + x180 <= 1
C1773: + x78 + x372 <= 1
C1774: + x62 + x400 <= 1
C1775: + x8 + x9 <= 1
C1776: + x80 + x486 <= 1
C1777: + x67 + x434 <= 1
C1778: + x107 + x454 <= 1
C1779: + x63 + x193 <= 1
C1780: + x220 + x239 <= 1
C1781: + x23 + x27 <= 1
C1782: + x237 + x281 <= 1
C1783: + x105 + x244 <= 1
C1784: + x9 + x29 <= 1
C1785: + x6 + x289 <= 1
C1786: + x158 + x464 <= 1
C1787: + x15 + x23 <= 1
C1788: + x66 + x249 <= 1
C1789: + x156 + x162 <= 1
C1790: + x67 + x84 <= 1
C1791: + x358 + x422 <= 1
C1792: + x13 + x188 <= 1
C1793: + x57 + x212 <= 1
C1794: + x238 + x312 <= 1
C1795: + x37 + x306 <= 1
C1796: + x59 + x458 <= 1
C1797: + x40 + x154 <= 1
C1798: + x69 + x78 <= 1
C1799: + x34 + x230 <= 1
C1800: + x316 + x491 <= 1
C1801: + x145 + x417 <= 1
C1802: + x187 + x401 <= 1
C1803: + x6 + x120 <= 1
C1804: + x10 + x77 <= 1
C1805: + x26 + x383 <= 1
C1806: + x354 + x407 <= 1
C1807: + x27 + x34 <= 1
C1808: + x100 + x151 <= 1
C1809: + x270 + x387 <= 1
C1810: + x22 + x152 <= 1
C1811: + x70 + x142 <= 1
C1812: + x17 + x24 <= 1
C1813: + x171 + x474 <= 1
C1814: + x7 + x31 <= 1
C1815: + x3 + x87 <= 1
C1816: + x32 + x35 <= 1
C1817: + x14 + x73 <= 1
C1818: + x15 + x111 <= 1
C1819: + x163 + x336 <= 1
C1820: + x40 + x163 <= 1
C1821: + x162 + x342 <= 1
C1822: + x1 + x97 <= 1
C1823: + x8 + x54 <= 1
C1824: + x139 + x293 <= 1
C1825: + x123 + x347 <= 1
C1826: + x81 + x132 <= 1
C1827: + x55 + x113 <= 1
C1828: + x11 + x26 <= 1
C1829: + x139 + x211 <= 1
C1830: + x2 + x101 <= 1
C1831: + x130 + x176 <= 1
C1832: + x129 + x296 <= 1
C1833: + x330 + x458 <= 1
C1834: + x27 + x428 <= 1
C1835: + x463 + x470 <= 1
C1836: + x276 + x408 <= 1
C1837: + x297 + x444 <= 1
C1838: + x96 + x385 <= 1
C1839: + x16 + x59 <= 1
C1840: + x63 + x135 <= 1
C1841: + x8 + x490 <= 1
C1842: + x21 + x493 <= 1
C1843: + x25 + x51 <= 1
C1844: + x9 + x301 <= 1
C1845: + x229 + x336 <= 1
C1846: + x348 + x378 <= 1
C1847: + x22 + x62 <= 1
C1848: + x5 + x28 <= 1
C1849: + x6 + x148 <= 1
C1850: + x26 + x187 <= 1
C1851: + x87 + x102 <= 1
C1852: + x71 + x437 <= 1
C1853: + x27 + x29 + x168 <= 1
C1854: + x4 + x39 <= 1
C1855: + x22 + x145 <= 1
C1856: + x150 + x391 <= 1
C1857: + x155 + x391 <= 1
C1858: + x55 + x64 <= 1
C1859: + x8 + x414 <= 1
C1860: + x29 + x39 <= 1
C1861: + x167 + x308 <= 1
C1862: + x5 + x171 <= 1
C1863: + x6 + x37 <= 1
C1864: + x70 + x298 <= 1
C1865: + x8 + x144 <= 1
C1866: + x11 + x178 <= 1
C1867: + x280 + x448 <= 1
C1868: + x98 + x380 <= 1
C1869: + x12 + x56 <= 1
C1870: + x30 + x397 <= 1
C1871: + x116 + x429 <= 1
C1872: + x26 + x98 <= 1
C1873: + x151 + x329 <= 1
C1874: + x6 + x438 <= 1
C1875: + x221 + x360 <= 1
C1876: + x25 + x395 <= 1
C1877: + x108 + x167 <= 1
C1878: + x6 + x233 <= 1
C1879: + x78 + x398 <= 1
C1880: + x141 + x399 <= 1
C1881: + x389 + x467 <= 1
C1882: + x3 + x21 <= 1
C1883: + x33 + x109 <= 1
C1884: + x164 + x189 <= 1
C1885: + x2 + x10 <= 1
C1886: + x238 + x350 <= 1
C1887: + x8 + x209 <= 1
C1888: + x210 + x471 <= 1
C1889: + x14 + x234 <= 1
C1890: + x397 + x482 <= 1
C1891: + x7 + x9 <= 1
C1892: + x134 + x198 <= 1
C1893: + x46 + x100 <= 1
C1894: + x29 + x62 <= 1
C1895: + x13 + x365 <= 1
C1896: + x23 + x48 <= 1
C1897: + x25 + x454 <= 1
C1898: + x9 + x288 <= 1
C1899: + x8 + x314 <= 1
C1900: + x101 + x238 <= 1
C1901: + x73 + x224 <= 1
C1902: + x127 + x478 <= 1
C1903: + x146 + x323 <= 1
C1904: + x141 + x338 <= 1
C1905: + x14 + x222 <= 1
C1906: + x8 + x44 <= 1
C1907: + x105 + x475 <= 1
C1908: + x137 + x164 <= 1
C1909: + x8 + x335 <= 1
C1910: + x60 + x374 <= 1
C1911: + x288 + x404 <= 1
C1912: + x134 + x488 <= 1
C1913: + x65 + x302 <= 1
C1914: + x48 + x98 <= 1
C1915: + x26 + x28 <= 1
C1916: + x17 + x65 <= 1
C1917: + x55 + x254 <= 1
C1918: + x30 + x111 <= 1
C1919: + x1 + x157 <= 1
C1920: + x10 + x104 <= 1
C1921: + x157 + x243 <= 1
C1922: + x14 + x227 <= 1
C1923: + x92 + x121 <= 1
C1924: + x379 + x420 <= 1
C1925: + x206 + x209 <= 1
C1926: + x8 + x404 <= 1
C1927: + x150 + x236 <= 1
C1928: + x45 + x427 <= 1
C1929: + x8 + x311 <= 1
C1930: + x205 + x393 <= 1
C1931: + x17 + x140 <= 1
C1932: + x52 + x251 <= 1
C1933: + x74 + x170 <= 1
C1934: + x164 + x300 <= 1
C1935: + x51 + x94 <= 1
C1936: + x23 + x115 <= 1
C1937: + x56 + x92 <= 1
C1938: + x243 + x469 <= 1
C1939: + x32 + x320 <= 1
C1940: + x18 + x80 <= 1
C1941: + x83 + x105 + x189 <= 1
C1942: + x239 + x274 <= 1
C1943: + x86 + x464 <= 1
C1944: + x59 + x252 <= 1
C1945: + x7 + x108 <= 1
C1946: + x128 + x404 <= 1
C1947: + x8 + x199 <= 1
C1948: + x11 + x103 <= 1
C1949: + x59 + x93 <= 1
C1950: + x87 + x143 <= 1
C1951: + x15 + x269 <= 1
C1952: + x10 + x295 <= 1
C1953: + x203 + x323 <= 1

binary
x1 x2 x3 x4 x5 x6 x7 x8 x9 x10 x11 x12 x13 x14 x15 x16 x17 x18 x19 x20 x21 x22 x23 x24 x25 x26 x27 x28 x29 x30 x31 x32 x33 x34 x35 x36 x37 x38 x39 x40 x41 x42 x43 x44 x45 x46 x47 x48 x49 x50 x51 x52 x53 x54 x55 x56 x57 x58 x59 x60 x61 x62 x63 x64 x65 x66 x67 x68 x69 x70 x71 x72 x73 x74 x75 x76 x77 x78 x79 x80 x81 x82 x83 x84 x85 x86 x87 x88 x89 x90 x91 x92 x93 x94 x95 x96 x97 x98 x99 x100 x101 x102 x103 x104 x105 x106 x107 x108 x109 x110 x111 x112 x113 x114 x115 x116 x117 x118 x119 x120 x121 x122 x123 x124 x125 x126 x127 x128 x129 x130 x131 x132 x133 x134 x135 x136 x137 x138 x139 x140 x141 x142 x143 x144 x145 x146 x147 x148 x149 x150 x151 x152 x153 x154 x155 x156 x157 x158 x159 x160 x161 x162 x163 x164 x165 x166 x167 x168 x169 x170 x171 x172 x173 x174 x175 x176 x177 x178 x179 x180 x181 x182 x183 x184 x185 x186 x187 x188 x189 x190 x191 x192 x193 x194 x195 x196 x197 x198 x199 x200 x201 x202 x203 x204 x205 x206 x207 x208 x209 x210 x211 x212 x213 x214 x215 x216 x217 x218 x219 x220 x221 x222 x223 x224 x225 x226 x227 x228 x229 x230 x231 x232 x233 x234 x235 x236 x237 x238 x239 x240 x241 x242 x243 x244 x245 x246 x247 x248 x249 x250 x251 x252 x253 x254 x255 x256 x257 x258 x259 x260 x261 x262 x263 x264 x265 x266 x267 x268 x269 x270 x271 x272 x273 x274 x275 x276 x277 x278 x279 x280 x281 x282 x283 x284 x285 x286 x287 x288 x289 x290 x291 x292 x293 x294 x295 x296 x297 x298 x299 x300 x301 x302 x303 x304 x305 x306 x307 x308 x309 x310 x311 x312 x313 x314 x315 x316 x317 x318 x319 x320 x321 x322 x323 x324 x325 x326 x327 x328 x329 x330 x331 x332 x333 x334 x335 x336 x337 x338 x339 x340 x341 x342 x343 x344 x345 x346 x347 x348 x349 x350 x351 x352 x353 x354 x355 x356 x357 x358 x359 x360 x361 x362 x363 x364 x365 x366 x367 x368 x369 x370 x371 x372 x373 x374 x375 x376 x377 x378 x379 x380 x381 x382 x383 x384 x385 x386 x387 x388 x389 x390 x391 x392 x393 x394 x395 x396 x397 x398 x399 x400 x401 x402 x403 x404 x405 x406 x407 x408 x409 x410 x411 x412 x413 x414 x415 x416 x417 x418 x419 x420 x421 x422 x423 x424 x425 x426 x427 x428 x429 x430 x431 x432 x433 x434 x435 x436 x437 x438 x439 x440 x441 x442 x443 x444 x445 x446 x447 x448 x449 x450 x451 x452 x453 x454 x455 x456 x457 x458 x459 x460 x461 x462 x463 x464 x465 x466 x467 x468 x469 x470 x471 x472 x473 x474 x475 x476 x477 x478 x479 x480 x481 x482 x483 x484 x485 x486 x487 x488 x489 x490 x491 x492 x493 x494 x495 x496 x497 x498 x499 x500
