maximize
OBJ: + 1 x1 + 1 x2 + 1 x3 + 1 x4 + 1 x5 + 1 x6 + 1 x7 + 1 x8 + 1 x9 + 1 x10 + 1 x11 + 1 x12 + 1 x13 + 1 x14 + 1 x15 + 1 x16 + 1 x17 + 1 x18 + 1 x19 + 1 x20 + 1 x21 + 1 x22 + 1 x23 + 1 x24 + 1 x25 + 1 x26 + 1 x27 + 1 x28 + 1 x29 + 1 x30 + 1 x31 + 1 x32 + 1 x33 + 1 x34 + 1 x35 + 1 x36 + 1 x37 + 1 x38 + 1 x39 + 1 x40 + 1 x41 + 1 x42 + 1 x43 + 1 x44 + 1 x45 + 1 x46 + 1 x47 + 1 x48 + 1 x49 + 1 x50 + 1 x51 + 1 x52 + 1 x53 + 1 x54 + 1 x55 + 1 x56 + 1 x57 + 1 x58 + 1 x59 + 1 x60 + 1 x61 + 1 x62 + 1 x63 + 1 x64 + 1 x65 + 1 x66 + 1 x67 + 1 x68 + 1 x69 + 1 x70 + 1 x71 + 1 x72 + 1 x73 + 1 x74 + 1 x75 + 1 x76 + 1 x77 + 1 x78 + 1 x79 + 1 x80 + 1 x81 + 1 x82 + 1 x83 + 1 x84 + 1 x85 + 1 x86 + 1 x87 + 1 x88 + 1 x89 + 1 x90 + 1 x91 + 1 x92 + 1 x93 + 1 x94 + 1 x95 + 1 x96 + 1 x97 + 1 x98 + 1 x99 + 1 x100 + 1 x101 + 1 x102 + 1 x103 + 1 x104 + 1 x105 + 1 x106 + 1 x107 + 1 x108 + 1 x109 + 1 x110 + 1 x111 + 1 x112 + 1 x113 + 1 x114 + 1 x115 + 1 x116 + 1 x117 + 1 x118 + 1 x119 + 1 x120 + 1 x121 + 1 x122 + 1 x123 + 1 x124 + 1 x125 + 1 x126 + 1 x127 + 1 x128 + 1 x129 + 1 x130 + 1 x131 + 1 x132 + 1 x133 + 1 x134 + 1 x135 + 1 x136 + 1 x137 + 1 x138 + 1 x139 + 1 x140 + 1 x141 + 1 x142 + 1 x143 + 1 x144 + 1 x145 + 1 x146 + 1 x147 + 1 x148 + 1 x149 + 1 x150 + 1 x151 + 1 x152 + 1 x153 + 1 x154 + 1 x155 + 1 x156 + 1 x157 + 1 x158 + 1 x159 + 1 x160 + 1 x161 + 1 x162 + 1 x163 + 1 x164 + 1 x165 + 1 x166 + 1 x167 + 1 x168 + 1 x169 + 1 x170 + 1 x171 + 1 x172 + 1 x173 + 1 x174 + 1 x175 + 1 x176 + 1 x177 + 1 x178 + 1 x179 + 1 x180 + 1 x181 + 1 x182 + 1 x183 + 1 x184 + 1 x185 + 1 x186 + 1 x187 + 1 x188 + 1 x189 + 1 x190 + 1 x191 + 1 x192 + 1 x193 + 1 x194 + 1 x195 + 1 x196 + 1 x197 + 1 x198 + 1 x199 + 1 x200 + 1 x201 + 1 x202 + 1 x203 + 1 x204 + 1 x205 + 1 x206 + 1 x207 + 1 x208 + 1 x209 + 1 x210 + 1 x211 + 1 x212 + 1 x213 + 1 x214 + 1 x215 + 1 x216 + 1 x217 + 1 x218 + 1 x219 + 1 x220 + 1 x221 + 1 x222 + 1 x223 + 1 x224 + 1 x225 + 1 x226 + 1 x227 + 1 x228 + 1 x229 + 1 x230 + 1 x231 + 1 x232 + 1 x233 + 1 x234 + 1 x235 + 1 x236 + 1 x237 + 1 x238 + 1 x239 + 1 x240 + 1 x241 + 1 x242 + 1 x243 + 1 x244 + 1 x245 + 1 x246 + 1 x247 + 1 x248 + 1 x249 + 1 x250 + 1 x251 + 1 x252 + 1 x253 + 1 x254 + 1 x255 + 1 x256 + 1 x257 + 1 x258 + 1 x259 + 1 x260 + 1 x261 + 1 x262 + 1 x263 + 1 x264 + 1 x265 + 1 x266 + 1 x267 + 1 x268 + 1 x269 + 1 x270 + 1 x271 + 1 x272 + 1 x273 + 1 x274 + 1 x275 + 1 x276 + 1 x277 + 1 x278 + 1 x279 + 1 x280 + 1 x281 + 1 x282 + 1 x283 + 1 x284 + 1 x285 + 1 x286 + 1 x287 + 1 x288 + 1 x289 + 1 x290 + 1 x291 + 1 x292 + 1 x293 + 1 x294 + 1 x295 + 1 x296 + 1 x297 + 1 x298 + 1 x299 + 1 x300 + 1 x301 + 1 x302 + 1 x303 + 1 x304 + 1 x305 + 1 x306 + 1 x307 + 1 x308 + 1 x309 + 1 x310 + 1 x311 + 1 x312 + 1 x313 + 1 x314 + 1 x315 + 1 x316 + 1 x317 + 1 x318 + 1 x319 + 1 x320 + 1 x321 + 1 x322 + 1 x323 + 1 x324 + 1 x325 + 1 x326 + 1 x327 + 1 x328 + 1 x329 + 1 x330 + 1 x331 + 1 x332 + 1 x333 + 1 x334 + 1 x335 + 1 x336 + 1 x337 + 1 x338 + 1 x339 + 1 x340 + 1 x341 + 1 x342 + 1 x343 + 1 x344 + 1 x345 + 1 x346 + 1 x347 + 1 x348 + 1 x349 + 1 x350 + 1 x351 + 1 x352 + 1 x353 + 1 x354 + 1 x355 + 1 x356 + 1 x357 + 1 x358 + 1 x359 + 1 x360 + 1 x361 + 1 x362 + 1 x363 + 1 x364 + 1 x365 + 1 x366 + 1 x367 + 1 x368 + 1 x369 + 1 x370 + 1 x371 + 1 x372 + 1 x373 + 1 x374 + 1 x375 + 1 x376 + 1 x377 + 1 x378 + 1 x379 + 1 x380 + 1 x381 + 1 x382 + 1 x383 + 1 x384 + 1 x385 + 1 x386 + 1 x387 + 1 x388 + 1 x389 + 1 x390 + 1 x391 + 1 x392 + 1 x393 + 1 x394 + 1 x395 + 1 x396 + 1 x397 + 1 x398 + 1 x399 + 1 x400 + 1 x401 + 1 x402 + 1 x403 + 1 x404 + 1 x405 + 1 x406 + 1 x407 + 1 x408 + 1 x409 + 1 x410 + 1 x411 + 1 x412 + 1 x413 + 1 x414 + 1 x415 + 1 x416 + 1 x417 + 1 x418 + 1 x419 + 1 x420 + 1 x421 + 1 x422 + 1 x423 + 1 x424 + 1 x425 + 1 x426 + 1 x427 + 1 x428 + 1 x429 + 1 x430 + 1 x431 + 1 x432 + 1 x433 + 1 x434 + 1 x435 + 1 x436 + 1 x437 + 1 x438 + 1 x439 + 1 x440 + 1 x441 + 1 x442 + 1 x443 + 1 x444 + 1 x445 + 1 x446 + 1 x447 + 1 x448 + 1 x449 + 1 x450 + 1 x451 + 1 x452 + 1 x453 + 1 x454 + 1 x455 + 1 x456 + 1 x457 + 1 x458 + 1 x459 + 1 x460 + 1 x461 + 1 x462 + 1 x463 + 1 x464 + 1 x465 + 1 x466 + 1 x467 + 1 x468 + 1 x469 + 1 x470 + 1 x471 + 1 x472 + 1 x473 + 1 x474 + 1 x475 + 1 x476 + 1 x477 + 1 x478 + 1 x479 + 1 x480 + 1 x481 + 1 x482 + 1 x483 + 1 x484 + 1 x485 + 1 x486 + 1 x487 + 1 x488 + 1 x489 + 1 x490 + 1 x491 + 1 x492 + 1 x493 + 1 x494 + 1 x495 + 1 x496 + 1 x497 + 1 x498 + 1 x499 + 1 x500

subject to
C1: + x225 + x247 <= 1
C2: + x17 + x401 <= 1
C3: + x6 + x32 <= 1
C4: + x3 + x18 + x42 <= 1
C5: + x39 + x125 <= 1
C6: + x22 + x29 <= 1
C7: + x5 + x37 <= 1
C8: + x81 + x126 <= 1
C9: + x35 + x53 <= 1
C10: + x17 + x131 <= 1
C11: + x28 + x206 <= 1
C12: + x11 + x481 <= 1
C13: + x11 + x62 <= 1
C14: + x3 + x79 <= 1
C15: + x9 + x378 <= 1
C16: + x16 + x252 <= 1
C17: + x40 + x187 <= 1
C18: + x329 + x353 <= 1
C19: + x33 + x114 <= 1
C20: + x104 + x357 <= 1
C21: + x279 + x298 <= 1
C22: + x19 + x500 <= 1
C23: + x174 + x446 <= 1
C24: + x30 + x335 <= 1
C25: + x186 + x419 <= 1
C26: + x153 + x342 <= 1
C27: + x100 + x188 <= 1
C28: + x121 + x277 <= 1
C29: + x68 + x272 <= 1
C30: + x53 + x183 <= 1
C31: + x88 + x288 <= 1
C32: + x93 + x286 <= 1
C33: + x12 + x394 <= 1
C34: + x33 + x78 <= 1
C35: + x52 + x348 <= 1
C36: + x23 + x49 <= 1
C37: + x6 + x25 <= 1
C38: + x92 + x305 <= 1
C39: + x86 + x299 <= 1
C40: + x5 + x36 <= 1
C41: + x26 + x163 <= 1
C42: + x227 + x313 <= 1
C43: + x16 + x84 <= 1
C44: + x93 + x397 <= 1
C45: + x131 + x293 <= 1
C46: + x51 + x235 <= 1
C47: + x81 + x359 <= 1
C48: + x11 + x37 <= 1
C49: + x3 + x74 <= 1
C50: + x284 + x335 <= 1
C51: + x132 + x161 <= 1
C52: + x357 + x500 <= 1
C53: + x118 + x131 <= 1
C54: + x172 + x221 <= 1
C55: + x51 + x305 <= 1
C56: + x34 + x361 <= 1
C57: + x87 + x467 <= 1
C58: + x177 + x404 <= 1
C59: + x176 + x454 <= 1
C60: + x44 + x340 <= 1
C61: + x10 + x456 <= 1
C62: + x69 + x362 <= 1
C63: + x4 + x237 <= 1
C64: + x6 + x241 <= 1
C65: + x1 + x15 <= 1
C66: + x46 + x293 <= 1
C67: + x3 + x319 <= 1
C68: + x77 + x282 <= 1
C69: + x97 + x115 <= 1
C70: + x158 + x363 <= 1
C71: + x34 + x240 <= 1
C72: + x44 + x225 <= 1
C73: + x82 + x438 <= 1
C74: + x385 + x454 <= 1
C75: + x67 + x205 <= 1
C76: + x95 + x102 <= 1
C77: + x364 + x403 <= 1
C78: + x92 + x266 <= 1
C79: + x10 + x436 <= 1
C80: + x138 + x154 <= 1
C81: + x116 + x192 <= 1
C82: + x81 + x108 <= 1
C83: + x24 + x198 <= 1
C84: + x36 + x173 <= 1
C85: + x8 + x16 <= 1
C86: + x54 + x278 <= 1
C87: + x20 + x158 <= 1
C88: + x7 + x33 <= 1
C89: + x182 + x297 <= 1
C90: + x37 + x494 <= 1
C91: + x11 + x48 <= 1
C92: + x41 + x404 <= 1
C93: + x49 + x375 <= 1
C94: + x30 + x269 <= 1
C95: + x24 + x400 <= 1
C96: + x281 + x461 <= 1
C97: + x51 + x71 <= 1
C98: + x382 + x495 <= 1
C99: + x368 + x369 <= 1
C100: + x20 + x106 <= 1
C101: + x41 + x238 <= 1
C102: + x198 + x391 <= 1
C103: + x266 + x490 <= 1
C104: + x6 + x250 <= 1
C105: + x18 + x196 <= 1
C106: + x1 + x6 <= 1
C107: + x45 + x69 <= 1
C108: + x245 + x285 <= 1
C109: + x102 + x182 <= 1
C110: + x16 + x23 + x274 <= 1
C111: + x4 + x456 <= 1
C112: + x5 + x480 <= 1
C113: + x33 + x255 <= 1
C114: + x289 + x361 <= 1
C115: + x10 + x346 <= 1
C116: + x36 + x197 <= 1
C117: + x239 + x375 <= 1
C118: + x3 + x8 <= 1
C119: + x76 + x177 <= 1
C120: + x14 + x408 <= 1
C121: + x25 + x41 <= 1
C122: + x6 + x11 <= 1
C123: + x152 + x256 <= 1
C124: + x19 + x99 <= 1
C125: + x9 + x291 <= 1
C126: + x10 + x437 <= 1
C127: + x11 + x72 <= 1
C128: + x194 + x302 <= 1
C129: + x5 + x18 <= 1
C130: + x179 + x426 <= 1
C131: + x17 + x21 <= 1
C132: + x73 + x114 <= 1
C133: + x289 + x293 <= 1
C134: + x6 + x412 <= 1
C135: + x40 + x451 <= 1
C136: + x23 + x31 <= 1
C137: + x6 + x63 <= 1
C138: + x409 + x415 <= 1
C139: + x27 + x86 <= 1
C140: + x17 + x434 <= 1
C141: + x46 + x355 <= 1
C142: + x73 + x356 <= 1
C143: + x13 + x33 <= 1
C144: + x297 + x397 <= 1
C145: + x53 + x128 <= 1
C146: + x1 + x110 <= 1
C147: + x246 + x483 <= 1
C148: + x5 + x312 <= 1
C149: + x318 + x366 <= 1
C150: + x1 + x267 <= 1
C151: + x139 + x216 <= 1
C152: + x5 + x6 + x7 + x9 + x10 <= 1
C153: + x6 + x227 <= 1
C154: + x114 + x201 <= 1
C155: + x69 + x74 <= 1
C156: + x244 + x263 <= 1
C157: + x239 + x378 <= 1
C158: + x5 + x380 <= 1
C159: + x237 + x352 <= 1
C160: + x11 + x79 <= 1
C161: + x128 + x253 + x421 <= 1
C162: + x5 + x25 <= 1
C163: + x15 + x196 <= 1
C164: + x245 + x304 <= 1
C165: + x38 + x254 <= 1
C166: + x4 + x38 <= 1
C167: + x225 + x477 <= 1
C168: + x7 + x192 <= 1
C169: + x134 + x462 <= 1
C170: + x107 + x348 <= 1
C171: + x11 + x280 <= 1
C172: + x67 + x345 <= 1
C173: + x167 + x400 <= 1
C174: + x177 + x358 <= 1
C175: + x51 + x429 <= 1
C176: + x80 + x117 <= 1
C177: + x86 + x350 <= 1
C178: + x61 + x457 <= 1
C179: + x32 + x242 <= 1
C180: + x32 + x484 <= 1
C181: + x134 + x184 <= 1
C182: + x1 + x350 <= 1
C183: + x93 + x244 <= 1
C184: + x140 + x145 <= 1
C185: + x106 + x206 <= 1
C186: + x206 + x301 <= 1
C187: + x32 + x135 <= 1
C188: + x17 + x273 <= 1
C189: + x281 + x435 <= 1
C190: + x68 + x280 <= 1
C191: + x116 + x357 <= 1
C192: + x263 + x351 <= 1
C193: + x249 + x474 <= 1
C194: + x34 + x426 <= 1
C195: + x6 + x33 <= 1
C196: + x7 + x183 <= 1
C197: + x120 + x135 <= 1
C198: + x301 + x408 <= 1
C199: + x232 + x280 <= 1
C200: + x17 + x146 <= 1
C201: + x126 + x231 <= 1
C202: + x1 + x124 <= 1
C203: + x9 + x15 <= 1
C204: + x96 + x357 <= 1
C205: + x11 + x13 <= 1
C206: + x41 + x437 <= 1
C207: + x379 + x384 <= 1
C208: + x87 + x165 <= 1
C209: + x34 + x486 <= 1
C210: + x73 + x137 <= 1
C211: + x54 + x422 <= 1
C212: + x10 + x18 <= 1
C213: + x47 + x111 <= 1
C214: + x5 + x128 <= 1
C215: + x317 + x487 <= 1
C216: + x101 + x396 <= 1
C217: + x58 + x331 <= 1
C218: + x85 + x123 <= 1
C219: + x3 + x17 <= 1
C220: + x22 + x496 <= 1
C221: + x8 + x258 <= 1
C222: + x10 + x99 <= 1
C223: + x155 + x216 <= 1
C224: + x58 + x89 <= 1
C225: + x3 + x182 <= 1
C226: + x10 + x432 <= 1
C227: + x158 + x256 <= 1
C228: + x24 + x291 <= 1
C229: + x48 + x470 <= 1
C230: + x107 + x205 <= 1
C231: + x11 + x214 <= 1
C232: + x69 + x407 <= 1
C233: + x134 + x194 <= 1
C234: + x3 + x37 <= 1
C235: + x212 + x268 <= 1
C236: + x49 + x275 <= 1
C237: + x33 + x61 <= 1
C238: + x151 + x213 <= 1
C239: + x144 + x174 <= 1
C240: + x282 + x479 <= 1
C241: + x14 + x218 <= 1
C242: + x80 + x257 <= 1
C243: + x321 + x360 <= 1
C244: + x116 + x442 <= 1
C245: + x17 + x54 <= 1
C246: + x208 + x296 <= 1
C247: + x73 + x83 <= 1
C248: + x235 + x316 <= 1
C249: + x278 + x307 <= 1
C250: + x36 + x463 <= 1
C251: + x83 + x376 <= 1
C252: + x55 + x341 <= 1
C253: + x47 + x114 <= 1
C254: + x39 + x51 <= 1
C255: + x4 + x109 <= 1
C256: + x60 + x469 <= 1
C257: + x79 + x351 <= 1
C258: + x11 + x334 <= 1
C259: + x131 + x213 <= 1
C260: + x107 + x403 <= 1
C261: + x32 + x466 <= 1
C262: + x61 + x233 <= 1
C263: + x262 + x314 <= 1
C264: + x68 + x103 <= 1
C265: + x141 + x273 <= 1
C266: + x14 + x31 <= 1
C267: + x17 + x271 <= 1
C268: + x267 + x450 <= 1
C269: + x74 + x391 <= 1
C270: + x58 + x445 <= 1
C271: + x42 + x238 <= 1
C272: + x32 + x359 <= 1
C273: + x88 + x262 <= 1
C274: + x43 + x230 <= 1
C275: + x85 + x86 <= 1
C276: + x68 + x248 <= 1
C277: + x5 + x133 <= 1
C278: + x146 + x245 <= 1
C279: + x3 + x193 <= 1
C280: + x456 + x468 <= 1
C281: + x268 + x386 <= 1
C282: + x5 + x58 <= 1
C283: + x426 + x434 <= 1
C284: + x9 + x61 <= 1
C285: + x10 + x179 <= 1
C286: + x31 + x281 <= 1
C287: + x52 + x255 <= 1
C288: + x24 + x26 <= 1
C289: + x50 + x74 <= 1
C290: + x6 + x199 <= 1
C291: + x100 + x312 <= 1
C292: + x11 + x148 <= 1
C293: + x30 + x193 <= 1
C294: + x10 + x383 <= 1
C295: + x49 + x144 <= 1
C296: + x53 + x261 <= 1
C297: + x24 + x494 <= 1
C298: + x57 + x373 <= 1
C299: + x13 + x144 <= 1
C300: + x131 + x278 <= 1
C301: + x132 + x386 <= 1
C302: + x69 + x82 <= 1
C303: + x17 + x120 <= 1
C304: + x134 + x308 <= 1
C305: + x37 + x123 <= 1
C306: + x47 + x347 <= 1
C307: + x50 + x151 <= 1
C308: + x33 + x75 <= 1
C309: + x68 + x253 <= 1
C310: + x6 + x28 <= 1
C311: + x208 + x389 <= 1
C312: + x10 + x89 <= 1
C313: + x37 + x405 <= 1
C314: + x40 + x67 <= 1
C315: + x132 + x303 <= 1
C316: + x216 + x453 <= 1
C317: + x81 + x114 <= 1
C318: + x24 + x180 <= 1
C319: + x7 + x394 <= 1
C320: + x167 + x428 <= 1
C321: + x35 + x150 <= 1
C322: + x155 + x420 <= 1
C323: + x18 + x343 <= 1
C324: + x144 + x307 <= 1
C325: + x22 + x237 <= 1
C326: + x234 + x409 <= 1
C327: + x6 + x318 <= 1
C328: + x30 + x125 <= 1
C329: + x267 + x287 <= 1
C330: + x242 + x457 <= 1
C331: + x70 + x198 <= 1
C332: + x127 + x271 <= 1
C333: + x11 + x110 <= 1
C334: + x431 + x473 <= 1
C335: + x23 + x70 <= 1
C336: + x153 + x229 <= 1
C337: + x1 + x12 <= 1
C338: + x4 + x7 <= 1
C339: + x17 + x111 <= 1
C340: + x1 + x425 <= 1
C341: + x84 + x309 <= 1
C342: + x123 + x275 <= 1
C343: + x42 + x123 <= 1
C344: + x33 + x66 <= 1
C345: + x63 + x80 <= 1
C346: + x86 + x311 <= 1
C347: + x5 + x48 <= 1
C348: + x126 + x139 <= 1
C349: + x22 + x133 <= 1
C350: + x23 + x424 <= 1
C351: + x34 + x39 <= 1
C352: + x17 + x27 <= 1
C353: + x61 + x263 <= 1
C354: + x79 + x94 <= 1
C355: + x21 + x250 <= 1
C356: + x95 + x336 <= 1
C357: + x69 + x455 <= 1
C358: + x66 + x92 <= 1
C359: + x293 + x370 <= 1
C360: + x267 + x282 <= 1
C361: + x12 + x471 <= 1
C362: + x6 + x90 <= 1
C363: + x410 + x444 <= 1
C364: + x95 + x223 <= 1
C365: + x61 + x347 <= 1
C366: + x35 + x454 <= 1
C367: + x9 + x337 <= 1
C368: + x9 + x230 <= 1
C369: + x16 + x294 <= 1
C370: + x383 + x398 <= 1
C371: + x85 + x337 <= 1
C372: + x78 + x482 <= 1
C373: + x395 + x422 <= 1
C374: + x208 + x248 <= 1
C375: + x134 + x294 <= 1
C376: + x7 + x489 <= 1
C377: + x85 + x99 <= 1
C378: + x32 + x497 <= 1
C379: + x6 + x14 <= 1
C380: + x215 + x489 <= 1
C381: + x15 + x303 <= 1
C382: + x117 + x233 <= 1
C383: + x7 + x380 <= 1
C384: + x281 + x418 <= 1
C385: + x59 + x276 <= 1
C386: + x4 + x60 <= 1
C387: + x42 + x314 <= 1
C388: + x40 + x355 <= 1
C389: + x116 + x406 <= 1
C390: + x30 + x59 <= 1
C391: + x34 + x64 <= 1
C392: + x11 + x44 <= 1
C393: + x60 + x150 <= 1
C394: + x23 + x28 <= 1
C395: + x80 + x95 <= 1
C396: + x21 + x129 <= 1
C397: + x12 + x222 <= 1
C398: + x107 + x153 <= 1
C399: + x160 + x494 <= 1
C400: + x67 + x323 <= 1
C401: + x68 + x168 <= 1
C402: + x23 + x395 <= 1
C403: + x6 + x67 <= 1
C404: + x117 + x466 <= 1
C405: + x11 + x32 <= 1
C406: + x59 + x118 <= 1
C407: + x349 + x352 <= 1
C408: + x13 + x181 <= 1
C409: + x15 + x177 <= 1
C410: + x126 + x286 <= 1
C411: + x245 + x281 <= 1
C412: + x74 + x419 <= 1
C413: + x276 + x402 <= 1
C414: + x69 + x79 <= 1
C415: + x4 + x460 <= 1
C416: + x61 + x100 <= 1
C417: + x81 + x285 <= 1
C418: + x1 + x423 <= 1
C419: + x101 + x411 <= 1
C420: + x139 + x367 <= 1
C421: + x42 + x101 <= 1
C422: + x6 + x119 <= 1
C423: + x235 + x248 <= 1
C424: + x17 + x236 <= 1
C425: + x24 + x223 <= 1
C426: + x82 + x308 <= 1
C427: + x10 + x175 <= 1
C428: + x124 + x272 <= 1
C429: + x34 + x49 <= 1
C430: + x244 + x338 <= 1
C431: + x46 + x113 <= 1
C432: + x11 + x410 <= 1
C433: + x58 + x264 <= 1
C434: + x69 + x152 <= 1
C435: + x89 + x185 <= 1
C436: + x159 + x473 <= 1
C437: + x153 + x320 <= 1
C438: + x53 + x124 <= 1
C439: + x63 + x348 <= 1
C440: + x143 + x311 <= 1
C441: + x29 + x96 <= 1
C442: + x235 + x426 <= 1
C443: + x55 + x213 <= 1
C444: + x22 + x278 <= 1
C445: + x107 + x498 <= 1
C446: + x126 + x436 <= 1
C447: + x33 + x488 <= 1
C448: + x5 + x209 <= 1
C449: + x32 + x82 <= 1
C450: + x73 + x340 <= 1
C451: + x34 + x331 <= 1
C452: + x32 + x324 <= 1
C453: + x224 + x437 <= 1
C454: + x412 + x449 <= 1
C455: + x160 + x190 <= 1
C456: + x10 + x117 <= 1
C457: + x1 + x45 <= 1
C458: + x13 + x69 <= 1
C459: + x153 + x408 <= 1
C460: + x3 + x47 <= 1
C461: + x48 + x433 <= 1
C462: + x58 + x196 <= 1
C463: + x14 + x65 <= 1
C464: + x152 + x372 <= 1
C465: + x5 + x73 <= 1
C466: + x14 + x164 <= 1
C467: + x14 + x367 <= 1
C468: + x9 + x12 <= 1
C469: + x10 + x132 <= 1
C470: + x7 + x418 <= 1
C471: + x17 + x159 <= 1
C472: + x1 + x121 <= 1
C473: + x48 + x290 <= 1
C474: + x3 + x405 <= 1
C475: + x21 + x108 <= 1
C476: + x91 + x95 <= 1
C477: + x92 + x325 <= 1
C478: + x319 + x369 <= 1
C479: + x23 + x98 <= 1
C480: + x102 + x164 <= 1
C481: + x68 + x496 <= 1
C482: + x23 + x195 <= 1
C483: + x70 + x75 <= 1
C484: + x6 + x121 <= 1
C485: + x55 + x458 <= 1
C486: + x59 + x76 <= 1
C487: + x289 + x490 <= 1
C488: + x244 + x385 <= 1
C489: + x100 + x136 <= 1
C490: + x10 + x217 <= 1
C491: + x38 + x227 <= 1
C492: + x46 + x320 <= 1
C493: + x98 + x259 <= 1
C494: + x18 + x393 <= 1
C495: + x398 + x493 <= 1
C496: + x5 + x147 <= 1
C497: + x10 + x42 <= 1
C498: + x65 + x275 <= 1
C499: + x66 + x389 <= 1
C500: + x63 + x489 <= 1
C501: + x17 + x51 <= 1
C502: + x36 + x367 <= 1
C503: + x153 + x427 <= 1
C504: + x84 + x160 <= 1
C505: + x184 + x358 <= 1
C506: + x13 + x162 <= 1
C507: + x10 + x22 <= 1
C508: + x11 + x238 <= 1
C509: + x3 + x287 <= 1
C510: + x95 + x344 <= 1
C511: + x23 + x271 <= 1
C512: + x66 + x116 <= 1
C513: + x185 + x288 <= 1
C514: + x132 + x377 <= 1
C515: + x32 + x140 <= 1
C516: + x162 + x292 <= 1
C517: + x11 + x210 <= 1
C518: + x12 + x105 <= 1
C519: + x285 + x350 <= 1
C520: + x11 + x435 <= 1
C521: + x6 + x22 <= 1
C522: + x145 + x240 <= 1
C523: + x357 + x384 <= 1
C524: + x176 + x209 <= 1
C525: + x5 + x63 <= 1
C526: + x52 + x95 <= 1
C527: + x305 + x486 <= 1
C528: + x23 + x407 <= 1
C529: + x17 + x42 <= 1
C530: + x73 + x180 <= 1
C531: + x10 + x31 <= 1
C532: + x9 + x102 <= 1
C533: + x11 + x330 <= 1
C534: + x148 + x470 <= 1
C535: + x195 + x273 <= 1
C536: + x33 + x124 <= 1
C537: + x30 + x466 <= 1
C538: + x1 + x149 <= 1
C539: + x95 + x234 <= 1
C540: + x117 + x287 <= 1
C541: + x126 + x161 <= 1
C542: + x10 + x203 <= 1
C543: + x113 + x220 <= 1
C544: + x50 + x356 <= 1
C545: + x22 + x171 <= 1
C546: + x24 + x66 <= 1
C547: + x153 + x493 <= 1
C548: + x59 + x205 <= 1
C549: + x331 + x413 <= 1
C550: + x17 + x402 <= 1
C551: + x205 + x385 <= 1
C552: + x126 + x330 <= 1
C553: + x300 + x413 <= 1
C554: + x54 + x259 <= 1
C555: + x68 + x137 <= 1
C556: + x9 + x414 <= 1
C557: + x11 + x482 <= 1
C558: + x2 + x72 <= 1
C559: + x46 + x468 <= 1
C560: + x95 + x165 <= 1
C561: + x107 + x119 <= 1
C562: + x15 + x152 <= 1
C563: + x16 + x272 <= 1
C564: + x439 + x445 <= 1
C565: + x116 + x253 <= 1
C566: + x134 + x268 <= 1
C567: + x120 + x332 <= 1
C568: + x261 + x401 <= 1
C569: + x157 + x194 <= 1
C570: + x295 + x334 <= 1
C571: + x216 + x397 <= 1
C572: + x171 + x184 <= 1
C573: + x106 + x411 <= 1
C574: + x43 + x233 <= 1
C575: + x168 + x452 <= 1
C576: + x7 + x499 <= 1
C577: + x16 + x46 <= 1
C578: + x64 + x232 <= 1
C579: + x147 + x333 <= 1
C580: + x68 + x225 <= 1
C581: + x269 + x424 <= 1
C582: + x6 + x8 <= 1
C583: + x91 + x132 <= 1
C584: + x72 + x104 <= 1
C585: + x9 + x310 <= 1
C586: + x138 + x152 <= 1
C587: + x250 + x251 <= 1
C588: + x121 + x389 <= 1
C589: + x33 + x428 <= 1
C590: + x5 + x45 <= 1
C591: + x6 + x187 <= 1
C592: + x134 + x321 <= 1
C593: + x111 + x292 <= 1
C594: + x2 + x331 <= 1
C595: + x13 + x490 <= 1
C596: + x208 + x306 <= 1
C597: + x28 + x353 <= 1
C598: + x37 + x43 <= 1
C599: + x37 + x488 <= 1
C600: + x46 + x461 <= 1
C601: + x341 + x407 <= 1
C602: + x73 + x162 <= 1
C603: + x5 + x81 <= 1
C604: + x44 + x56 <= 1
C605: + x154 + x417 <= 1
C606: + x178 + x283 <= 1
C607: + x251 + x392 <= 1
C608: + x20 + x374 <= 1
C609: + x59 + x112 <= 1
C610: + x69 + x363 <= 1
C611: + x5 + x232 <= 1
C612: + x44 + x498 <= 1
C613: + x41 + x119 <= 1
C614: + x4 + x11 <= 1
C615: + x460 + x483 <= 1
C616: + x305 + x351 <= 1
C617: + x14 + x315 <= 1
C618: + x62 + x257 <= 1
C619: + x85 + x104 <= 1
C620: + x33 + x70 <= 1
C621: + x167 + x344 <= 1
C622: + x36 + x446 <= 1
C623: + x10 + x70 <= 1
C624: + x156 + x227 <= 1
C625: + x4 + x156 <= 1
C626: + x33 + x419 <= 1
C627: + x81 + x109 <= 1
C628: + x194 + x247 <= 1
C629: + x76 + x453 <= 1
C630: + x4 + x55 <= 1
C631: + x102 + x110 <= 1
C632: + x16 + x201 <= 1
C633: + x41 + x50 <= 1
C634: + x79 + x440 <= 1
C635: + x9 + x27 <= 1
C636: + x134 + x382 <= 1
C637: + x149 + x475 <= 1
C638: + x213 + x283 <= 1
C639: + x68 + x163 <= 1
C640: + x25 + x30 <= 1
C641: + x81 + x139 <= 1
C642: + x17 + x459 <= 1
C643: + x398 + x441 <= 1
C644: + x11 + x456 <= 1
C645: + x75 + x209 <= 1
C646: + x3 + x150 <= 1
C647: + x141 + x314 <= 1
C648: + x56 + x471 <= 1
C649: + x6 + x249 <= 1
C650: + x78 + x414 <= 1
C651: + x17 + x90 <= 1
C652: + x397 + x446 <= 1
C653: + x157 + x410 <= 1
C654: + x76 + x365 <= 1
C655: + x50 + x133 <= 1
C656: + x3 + x5 <= 1
C657: + x44 + x264 <= 1
C658: + x69 + x262 <= 1
C659: + x5 + x19 <= 1
C660: + x116 + x136 <= 1
C661: + x431 + x436 <= 1
C662: + x33 + x204 <= 1
C663: + x167 + x474 <= 1
C664: + x17 + x22 <= 1
C665: + x19 + x298 <= 1
C666: + x57 + x141 <= 1
C667: + x38 + x87 <= 1
C668: + x50 + x113 <= 1
C669: + x33 + x41 <= 1
C670: + x269 + x394 <= 1
C671: + x424 + x472 <= 1
C672: + x109 + x260 <= 1
C673: + x1 + x194 <= 1
C674: + x369 + x465 <= 1
C675: + x162 + x344 <= 1
C676: + x18 + x43 <= 1
C677: + x16 + x117 <= 1
C678: + x110 + x122 <= 1
C679: + x11 + x366 <= 1
C680: + x4 + x447 <= 1
C681: + x7 + x85 <= 1
C682: + x127 + x317 <= 1
C683: + x111 + x475 <= 1
C684: + x3 + x109 <= 1
C685: + x340 + x375 <= 1
C686: + x149 + x244 <= 1
C687: + x22 + x207 <= 1
C688: + x60 + x120 <= 1
C689: + x23 + x378 <= 1
C690: + x395 + x425 <= 1
C691: + x16 + x57 <= 1
C692: + x406 + x451 <= 1
C693: + x10 + x120 <= 1
C694: + x140 + x155 <= 1
C695: + x205 + x215 <= 1
C696: + x167 + x465 <= 1
C697: + x235 + x259 <= 1
C698: + x6 + x388 <= 1
C699: + x29 + x402 <= 1
C700: + x149 + x183 <= 1
C701: + x30 + x286 <= 1
C702: + x6 + x39 <= 1
C703: + x2 + x207 <= 1
C704: + x68 + x447 <= 1
C705: + x4 + x182 <= 1
C706: + x14 + x167 <= 1
C707: + x132 + x310 <= 1
C708: + x253 + x304 <= 1
C709: + x36 + x138 <= 1
C710: + x14 + x469 <= 1
C711: + x35 + x143 <= 1
C712: + x68 + x80 <= 1
C713: + x106 + x129 <= 1
C714: + x6 + x235 <= 1
C715: + x16 + x227 <= 1
C716: + x118 + x161 <= 1
C717: + x56 + x76 <= 1
C718: + x230 + x240 <= 1
C719: + x33 + x107 <= 1
C720: + x342 + x465 <= 1
C721: + x126 + x388 <= 1
C722: + x36 + x337 <= 1
C723: + x128 + x484 <= 1
C724: + x19 + x86 <= 1
C725: + x266 + x455 <= 1
C726: + x17 + x274 <= 1
C727: + x180 + x256 <= 1
C728: + x36 + x290 <= 1
C729: + x10 + x311 <= 1
C730: + x111 + x409 <= 1
C731: + x166 + x473 <= 1
C732: + x320 + x411 <= 1
C733: + x88 + x214 <= 1
C734: + x78 + x341 <= 1
C735: + x107 + x247 <= 1
C736: + x34 + x191 <= 1
C737: + x98 + x204 <= 1
C738: + x18 + x37 <= 1
C739: + x199 + x230 <= 1
C740: + x9 + x16 <= 1
C741: + x204 + x306 <= 1
C742: + x39 + x371 <= 1
C743: + x35 + x138 <= 1
C744: + x54 + x87 <= 1
C745: + x11 + x497 <= 1
C746: + x11 + x14 <= 1
C747: + x21 + x258 <= 1
C748: + x367 + x392 <= 1
C749: + x42 + x458 <= 1
C750: + x7 + x309 <= 1
C751: + x10 + x17 <= 1
C752: + x113 + x246 <= 1
C753: + x5 + x438 <= 1
C754: + x6 + x450 <= 1
C755: + x46 + x171 <= 1
C756: + x267 + x355 <= 1
C757: + x141 + x182 <= 1
C758: + x209 + x300 <= 1
C759: + x16 + x430 <= 1
C760: + x7 + x115 <= 1
C761: + x19 + x77 <= 1
C762: + x10 + x98 <= 1
C763: + x133 + x400 <= 1
C764: + x107 + x206 <= 1
C765: + x1 + x40 <= 1
C766: + x11 + x211 <= 1
C767: + x47 + x60 <= 1
C768: + x219 + x298 <= 1
C769: + x53 + x167 <= 1
C770: + x81 + x315 <= 1
C771: + x45 + x268 <= 1
C772: + x260 + x476 <= 1
C773: + x19 + x34 + x45 <= 1
C774: + x28 + x88 <= 1
C775: + x1 + x215 <= 1
C776: + x94 + x136 <= 1
C777: + x12 + x197 <= 1
C778: + x69 + x295 <= 1
C779: + x42 + x418 <= 1
C780: + x199 + x221 <= 1
C781: + x19 + x166 <= 1
C782: + x20 + x133 <= 1
C783: + x94 + x299 <= 1
C784: + x32 + x81 + x218 <= 1
C785: + x73 + x84 <= 1
C786: + x102 + x443 <= 1
C787: + x176 + x325 <= 1
C788: + x413 + x430 <= 1
C789: + x17 + x340 <= 1
C790: + x240 + x301 <= 1
C791: + x4 + x112 <= 1
C792: + x23 + x218 <= 1
C793: + x12 + x177 <= 1
C794: + x140 + x305 <= 1
C795: + x268 + x328 <= 1
C796: + x10 + x373 <= 1
C797: + x33 + x121 <= 1
C798: + x31 + x451 <= 1
C799: + x81 + x163 <= 1
C800: + x137 + x298 <= 1
C801: + x2 + x6 <= 1
C802: + x3 + x142 <= 1
C803: + x68 + x106 <= 1
C804: + x117 + x276 <= 1
C805: + x244 + x398 <= 1
C806: + x126 + x377 <= 1
C807: + x73 + x306 <= 1
C808: + x202 + x345 <= 1
C809: + x131 + x284 <= 1
C810: + x4 + x495 <= 1
C811: + x244 + x297 <= 1
C812: + x256 + x318 <= 1
C813: + x4 + x270 <= 1
C814: + x106 + x336 <= 1
C815: + x1 + x377 <= 1
C816: + x282 + x423 <= 1
C817: + x435 + x478 <= 1
C818: + x35 + x55 <= 1
C819: + x53 + x93 <= 1
C820: + x17 + x129 <= 1
C821: + x100 + x125 <= 1
C822: + x191 + x241 <= 1
C823: + x259 + x326 <= 1
C824: + x23 + x120 <= 1
C825: + x15 + x145 <= 1
C826: + x7 + x222 <= 1
C827: + x51 + x316 <= 1
C828: + x16 + x29 <= 1
C829: + x390 + x474 <= 1
C830: + x54 + x202 <= 1
C831: + x81 + x154 <= 1
C832: + x59 + x90 <= 1
C833: + x17 + x204 <= 1
C834: + x245 + x269 <= 1
C835: + x8 + x97 <= 1
C836: + x11 + x197 <= 1
C837: + x157 + x364 <= 1
C838: + x18 + x127 <= 1
C839: + x275 + x360 <= 1
C840: + x13 + x288 <= 1
C841: + x70 + x272 <= 1
C842: + x7 + x153 <= 1
C843: + x16 + x328 <= 1
C844: + x11 + x88 <= 1
C845: + x202 + x467 <= 1
C846: + x177 + x180 <= 1
C847: + x286 + x464 <= 1
C848: + x55 + x492 <= 1
C849: + x160 + x459 <= 1
C850: + x6 + x265 <= 1
C851: + x185 + x212 <= 1
C852: + x146 + x467 <= 1
C853: + x131 + x148 <= 1
C854: + x46 + x226 <= 1
C855: + x149 + x397 <= 1
C856: + x6 + x428 <= 1
C857: + x45 + x302 <= 1
C858: + x32 + x403 <= 1
C859: + x36 + x257 <= 1
C860: + x128 + x340 <= 1
C861: + x2 + x92 <= 1
C862: + x56 + x265 <= 1
C863: + x91 + x201 <= 1
C864: + x155 + x191 <= 1
C865: + x179 + x256 <= 1
C866: + x34 + x158 <= 1
C867: + x18 + x60 <= 1
C868: + x20 + x95 <= 1
C869: + x78 + x162 <= 1
C870: + x199 + x296 <= 1
C871: + x37 + x425 <= 1
C872: + x32 + x102 <= 1
C873: + x24 + x329 <= 1
C874: + x270 + x475 <= 1
C875: + x47 + x77 <= 1
C876: + x41 + x116 <= 1
C877: + x9 + x93 <= 1
C878: + x255 + x468 <= 1
C879: + x10 + x339 <= 1
C880: + x139 + x183 <= 1
C881: + x50 + x143 <= 1
C882: + x79 + x151 <= 1
C883: + x409 + x458 <= 1
C884: + x22 + x33 <= 1
C885: + x132 + x279 <= 1
C886: + x180 + x232 <= 1
C887: + x126 + x138 <= 1
C888: + x79 + x485 <= 1
C889: + x9 + x44 <= 1
C890: + x10 + x164 <= 1
C891: + x193 + x206 <= 1
C892: + x11 + x308 <= 1
C893: + x4 + x393 <= 1
C894: + x32 + x412 <= 1
C895: + x83 + x116 <= 1
C896: + x74 + x333 <= 1
C897: + x26 + x242 <= 1
C898: + x9 + x24 <= 1
C899: + x6 + x294 <= 1
C900: + x134 + x369 <= 1
C901: + x17 + x171 <= 1
C902: + x56 + x204 <= 1
C903: + x148 + x488 <= 1
C904: + x167 + x416 <= 1
C905: + x17 + x472 <= 1
C906: + x18 + x480 <= 1
C907: + x60 + x364 <= 1
C908: + x80 + x101 <= 1
C909: + x100 + x273 <= 1
C910: + x9 + x338 <= 1
C911: + x116 + x329 <= 1
C912: + x17 + x103 <= 1
C913: + x9 + x68 <= 1
C914: + x65 + x97 <= 1
C915: + x139 + x178 <= 1
C916: + x47 + x358 <= 1
C917: + x4 + x353 <= 1
C918: + x23 + x461 <= 1
C919: + x172 + x330 <= 1
C920: + x10 + x439 <= 1
C921: + x214 + x490 <= 1
C922: + x5 + x24 <= 1
C923: + x23 + x170 <= 1
C924: + x108 + x309 <= 1
C925: + x37 + x249 <= 1
C926: + x157 + x270 <= 1
C927: + x22 + x141 <= 1
C928: + x69 + x448 <= 1
C929: + x170 + x455 <= 1
C930: + x153 + x395 <= 1
C931: + x107 + x452 <= 1
C932: + x18 + x421 <= 1
C933: + x42 + x47 <= 1
C934: + x32 + x40 <= 1
C935: + x17 + x448 <= 1
C936: + x73 + x173 <= 1
C937: + x19 + x25 <= 1
C938: + x201 + x439 <= 1
C939: + x187 + x189 <= 1
C940: + x5 + x92 <= 1
C941: + x34 + x176 <= 1
C942: + x117 + x190 <= 1
C943: + x9 + x31 <= 1
C944: + x28 + x235 <= 1
C945: + x19 + x190 <= 1
C946: + x202 + x236 <= 1
C947: + x6 + x66 <= 1
C948: + x279 + x317 <= 1
C949: + x174 + x427 <= 1
C950: + x3 + x146 <= 1
C951: + x258 + x416 <= 1
C952: + x368 + x493 <= 1
C953: + x23 + x85 <= 1
C954: + x6 + x229 <= 1
C955: + x85 + x252 <= 1
C956: + x1 + x27 <= 1
C957: + x12 + x137 <= 1
C958: + x24 + x105 <= 1
C959: + x187 + x415 <= 1
C960: + x148 + x203 <= 1
C961: + x348 + x355 <= 1
C962: + x167 + x176 <= 1
C963: + x3 + x327 <= 1
C964: + x32 + x394 <= 1
C965: + x35 + x192 <= 1
C966: + x85 + x386 <= 1
C967: + x221 + x234 <= 1
C968: + x167 + x319 <= 1
C969: + x19 + x20 <= 1
C970: + x10 + x63 <= 1
C971: + x228 + x317 <= 1
C972: + x14 + x170 <= 1
C973: + x12 + x49 <= 1
C974: + x126 + x435 <= 1
C975: + x199 + x265 <= 1
C976: + x7 + x73 <= 1
C977: + x11 + x459 <= 1
C978: + x214 + x440 <= 1
C979: + x5 + x210 <= 1
C980: + x32 + x323 <= 1
C981: + x17 + x85 <= 1
C982: + x55 + x226 <= 1
C983: + x76 + x282 <= 1
C984: + x2 + x289 <= 1
C985: + x293 + x341 <= 1
C986: + x241 + x473 <= 1
C987: + x243 + x267 <= 1
C988: + x261 + x446 <= 1
C989: + x391 + x498 <= 1
C990: + x47 + x376 <= 1
C991: + x178 + x453 <= 1
C992: + x11 + x76 <= 1
C993: + x3 + x189 <= 1
C994: + x68 + x119 <= 1
C995: + x30 + x361 <= 1
C996: + x17 + x287 <= 1
C997: + x17 + x228 <= 1
C998: + x100 + x130 <= 1
C999: + x317 + x349 <= 1
C1000: + x281 + x433 <= 1
C1001: + x29 + x132 <= 1
C1002: + x12 + x126 <= 1
C1003: + x250 + x365 <= 1
C1004: + x90 + x412 <= 1
C1005: + x92 + x396 <= 1
C1006: + x3 + x48 <= 1
C1007: + x44 + x301 <= 1
C1008: + x82 + x242 <= 1
C1009: + x272 + x333 <= 1
C1010: + x86 + x277 <= 1
C1011: + x189 + x236 <= 1
C1012: + x9 + x13 <= 1
C1013: + x17 + x160 <= 1
C1014: + x90 + x261 <= 1
C1015: + x157 + x472 <= 1
C1016: + x50 + x300 <= 1
C1017: + x89 + x304 <= 1
C1018: + x7 + x68 <= 1
C1019: + x21 + x263 <= 1
C1020: + x40 + x43 <= 1
C1021: + x17 + x346 <= 1
C1022: + x11 + x17 + x24 <= 1
C1023: + x70 + x74 <= 1
C1024: + x24 + x127 <= 1
C1025: + x317 + x485 <= 1
C1026: + x20 + x71 <= 1
C1027: + x3 + x19 <= 1
C1028: + x6 + x104 <= 1
C1029: + x22 + x69 <= 1
C1030: + x160 + x408 <= 1
C1031: + x236 + x495 <= 1
C1032: + x79 + x449 <= 1
C1033: + x7 + x366 <= 1
C1034: + x166 + x354 <= 1
C1035: + x187 + x231 <= 1
C1036: + x60 + x93 <= 1
C1037: + x190 + x380 <= 1
C1038: + x10 + x315 <= 1
C1039: + x11 + x393 <= 1
C1040: + x393 + x399 <= 1
C1041: + x155 + x400 <= 1
C1042: + x6 + x44 <= 1
C1043: + x10 + x406 <= 1
C1044: + x191 + x469 <= 1
C1045: + x37 + x357 <= 1
C1046: + x174 + x208 <= 1
C1047: + x116 + x166 <= 1
C1048: + x9 + x52 <= 1
C1049: + x157 + x303 <= 1
C1050: + x41 + x285 <= 1
C1051: + x89 + x311 <= 1
C1052: + x20 + x406 <= 1
C1053: + x95 + x188 <= 1
C1054: + x100 + x269 <= 1
C1055: + x215 + x411 <= 1
C1056: + x70 + x488 <= 1
C1057: + x35 + x245 <= 1
C1058: + x81 + x259 <= 1
C1059: + x6 + x97 <= 1
C1060: + x10 + x102 <= 1
C1061: + x155 + x209 <= 1
C1062: + x58 + x100 <= 1
C1063: + x4 + x252 <= 1
C1064: + x160 + x413 <= 1
C1065: + x308 + x320 <= 1
C1066: + x19 + x238 <= 1
C1067: + x220 + x418 <= 1
C1068: + x152 + x276 <= 1
C1069: + x174 + x184 <= 1
C1070: + x316 + x451 <= 1
C1071: + x289 + x335 <= 1
C1072: + x398 + x485 <= 1
C1073: + x54 + x152 <= 1
C1074: + x261 + x472 <= 1
C1075: + x76 + x118 <= 1
C1076: + x20 + x302 <= 1
C1077: + x6 + x184 <= 1
C1078: + x9 + x59 <= 1
C1079: + x27 + x354 <= 1
C1080: + x6 + x217 <= 1
C1081: + x80 + x445 <= 1
C1082: + x165 + x216 <= 1
C1083: + x39 + x56 <= 1
C1084: + x23 + x222 <= 1
C1085: + x24 + x141 <= 1
C1086: + x9 + x103 <= 1
C1087: + x200 + x279 <= 1
C1088: + x117 + x166 <= 1
C1089: + x59 + x333 <= 1
C1090: + x367 + x382 <= 1
C1091: + x6 + x106 <= 1
C1092: + x209 + x295 <= 1
C1093: + x9 + x452 <= 1
C1094: + x10 + x111 <= 1
C1095: + x15 + x61 <= 1
C1096: + x20 + x359 <= 1
C1097: + x153 + x156 <= 1
C1098: + x253 + x381 <= 1
C1099: + x134 + x403 <= 1
C1100: + x39 + x228 <= 1
C1101: + x132 + x416 <= 1
C1102: + x60 + x424 <= 1
C1103: + x285 + x342 <= 1
C1104: + x14 + x264 <= 1
C1105: + x160 + x313 <= 1
C1106: + x16 + x40 <= 1
C1107: + x18 + x122 <= 1
C1108: + x6 + x30 <= 1
C1109: + x128 + x450 <= 1
C1110: + x237 + x374 <= 1
C1111: + x10 + x91 <= 1
C1112: + x117 + x153 <= 1
C1113: + x9 + x34 <= 1
C1114: + x68 + x309 <= 1
C1115: + x258 + x338 <= 1
C1116: + x108 + x481 <= 1
C1117: + x6 + x431 <= 1
C1118: + x42 + x64 <= 1
C1119: + x60 + x134 <= 1
C1120: + x152 + x167 <= 1
C1121: + x7 + x283 <= 1
C1122: + x36 + x50 <= 1
C1123: + x59 + x499 <= 1
C1124: + x227 + x372 <= 1
C1125: + x147 + x410 <= 1
C1126: + x4 + x331 <= 1
C1127: + x170 + x388 <= 1
C1128: + x6 + x83 <= 1
C1129: + x7 + x97 <= 1
C1130: + x93 + x361 <= 1
C1131: + x11 + x112 <= 1
C1132: + x2 + x432 <= 1
C1133: + x3 + x129 <= 1
C1134: + x295 + x323 <= 1
C1135: + x36 + x73 + x91 <= 1
C1136: + x24 + x251 <= 1
C1137: + x7 + x343 <= 1
C1138: + x11 + x193 <= 1
C1139: + x139 + x414 <= 1
C1140: + x213 + x389 <= 1
C1141: + x4 + x5 <= 1
C1142: + x136 + x428 <= 1
C1143: + x191 + x365 <= 1
C1144: + x85 + x429 <= 1
C1145: + x167 + x350 <= 1
C1146: + x1 + x185 <= 1
C1147: + x243 + x374 <= 1
C1148: + x351 + x410 <= 1
C1149: + x36 + x261 <= 1
C1150: + x54 + x174 <= 1
C1151: + x63 + x217 <= 1
C1152: + x11 + x35 <= 1
C1153: + x58 + x171 <= 1
C1154: + x29 + x390 <= 1
C1155: + x61 + x261 <= 1
C1156: + x17 + x326 <= 1
C1157: + x80 + x88 <= 1
C1158: + x109 + x220 <= 1
C1159: + x10 + x16 <= 1
C1160: + x221 + x491 <= 1
C1161: + x51 + x303 <= 1
C1162: + x205 + x365 <= 1
C1163: + x23 + x240 <= 1
C1164: + x6 + x313 <= 1
C1165: + x33 + x139 <= 1
C1166: + x7 + x92 <= 1
C1167: + x24 + x244 <= 1
C1168: + x73 + x292 <= 1
C1169: + x4 + x14 <= 1
C1170: + x60 + x438 <= 1
C1171: + x25 + x135 <= 1
C1172: + x6 + x493 <= 1
C1173: + x10 + x343 <= 1
C1174: + x239 + x366 <= 1
C1175: + x412 + x497 <= 1
C1176: + x43 + x118 <= 1
C1177: + x17 + x385 <= 1
C1178: + x4 + x30 <= 1
C1179: + x220 + x294 <= 1
C1180: + x240 + x372 <= 1
C1181: + x5 + x21 <= 1
C1182: + x22 + x144 <= 1
C1183: + x89 + x275 <= 1
C1184: + x6 + x401 <= 1
C1185: + x163 + x467 <= 1
C1186: + x6 + x52 <= 1
C1187: + x7 + x196 <= 1
C1188: + x9 + x362 <= 1
C1189: + x282 + x449 <= 1
C1190: + x199 + x388 <= 1
C1191: + x91 + x265 <= 1
C1192: + x233 + x371 <= 1
C1193: + x205 + x364 <= 1
C1194: + x32 + x277 <= 1
C1195: + x9 + x28 <= 1
C1196: + x134 + x381 <= 1
C1197: + x57 + x118 <= 1
C1198: + x203 + x253 <= 1
C1199: + x148 + x492 <= 1
C1200: + x53 + x280 <= 1
C1201: + x97 + x175 <= 1
C1202: + x96 + x175 <= 1
C1203: + x425 + x492 <= 1
C1204: + x18 + x383 <= 1
C1205: + x9 + x342 <= 1
C1206: + x1 + x8 <= 1
C1207: + x45 + x71 <= 1
C1208: + x119 + x198 <= 1
C1209: + x41 + x127 <= 1
C1210: + x69 + x77 <= 1
C1211: + x10 + x352 <= 1
C1212: + x174 + x319 <= 1
C1213: + x56 + x156 <= 1
C1214: + x3 + x6 <= 1
C1215: + x17 + x392 <= 1
C1216: + x5 + x20 <= 1
C1217: + x6 + x172 <= 1
C1218: + x45 + x123 <= 1
C1219: + x193 + x217 <= 1
C1220: + x31 + x190 <= 1
C1221: + x34 + x51 <= 1
C1222: + x24 + x36 <= 1
C1223: + x35 + x262 <= 1
C1224: + x245 + x338 <= 1
C1225: + x18 + x143 <= 1
C1226: + x13 + x35 <= 1
C1227: + x126 + x211 <= 1
C1228: + x6 + x299 <= 1
C1229: + x227 + x285 <= 1
C1230: + x66 + x88 <= 1
C1231: + x231 + x381 <= 1
C1232: + x32 + x433 <= 1
C1233: + x6 + x78 <= 1
C1234: + x36 + x383 <= 1
C1235: + x319 + x332 <= 1
C1236: + x360 + x448 <= 1
C1237: + x17 + x368 <= 1
C1238: + x6 + x225 <= 1
C1239: + x172 + x310 <= 1
C1240: + x276 + x405 <= 1
C1241: + x4 + x124 <= 1
C1242: + x59 + x468 <= 1
C1243: + x43 + x195 <= 1
C1244: + x23 + x383 <= 1
C1245: + x9 + x79 <= 1
C1246: + x63 + x130 <= 1
C1247: + x53 + x142 <= 1
C1248: + x38 + x107 <= 1
C1249: + x157 + x228 <= 1
C1250: + x44 + x98 <= 1
C1251: + x6 + x368 <= 1
C1252: + x282 + x290 <= 1
C1253: + x143 + x496 <= 1
C1254: + x86 + x423 <= 1
C1255: + x132 + x424 <= 1
C1256: + x7 + x17 <= 1
C1257: + x400 + x498 <= 1
C1258: + x385 + x482 <= 1
C1259: + x178 + x436 <= 1
C1260: + x6 + x38 <= 1
C1261: + x36 + x46 <= 1
C1262: + x31 + x56 <= 1
C1263: + x35 + x43 <= 1
C1264: + x91 + x448 <= 1
C1265: + x10 + x158 <= 1
C1266: + x76 + x290 <= 1
C1267: + x13 + x460 <= 1
C1268: + x133 + x185 <= 1
C1269: + x253 + x398 <= 1
C1270: + x18 + x462 <= 1
C1271: + x357 + x479 <= 1
C1272: + x9 + x324 <= 1
C1273: + x23 + x370 <= 1
C1274: + x17 + x73 <= 1
C1275: + x339 + x370 <= 1
C1276: + x49 + x157 <= 1
C1277: + x185 + x442 <= 1
C1278: + x132 + x211 <= 1
C1279: + x107 + x431 <= 1
C1280: + x43 + x111 <= 1
C1281: + x65 + x160 <= 1
C1282: + x10 + x128 <= 1
C1283: + x22 + x72 <= 1
C1284: + x98 + x255 <= 1
C1285: + x24 + x296 <= 1
C1286: + x126 + x145 <= 1
C1287: + x11 + x297 <= 1
C1288: + x20 + x179 <= 1
C1289: + x39 + x243 <= 1
C1290: + x13 + x66 <= 1
C1291: + x22 + x155 <= 1
C1292: + x42 + x226 <= 1
C1293: + x5 + x500 <= 1
C1294: + x7 + x12 <= 1
C1295: + x47 + x147 <= 1
C1296: + x194 + x431 <= 1
C1297: + x50 + x98 <= 1
C1298: + x33 + x40 <= 1
C1299: + x23 + x47 <= 1
C1300: + x7 + x181 <= 1
C1301: + x82 + x246 <= 1
C1302: + x91 + x169 <= 1
C1303: + x2 + x199 <= 1
C1304: + x233 + x360 <= 1
C1305: + x5 + x54 <= 1
C1306: + x35 + x38 <= 1
C1307: + x36 + x178 <= 1
C1308: + x389 + x405 <= 1
C1309: + x41 + x282 <= 1
C1310: + x187 + x345 <= 1
C1311: + x68 + x153 <= 1
C1312: + x123 + x368 <= 1
C1313: + x53 + x237 <= 1
C1314: + x37 + x52 <= 1
C1315: + x238 + x292 <= 1
C1316: + x50 + x94 <= 1
C1317: + x176 + x191 <= 1
C1318: + x133 + x325 <= 1
C1319: + x39 + x58 <= 1
C1320: + x5 + x122 <= 1
C1321: + x110 + x415 <= 1
C1322: + x11 + x321 <= 1
C1323: + x29 + x104 <= 1
C1324: + x41 + x326 <= 1
C1325: + x51 + x53 <= 1
C1326: + x160 + x162 <= 1
C1327: + x410 + x478 <= 1
C1328: + x17 + x266 <= 1
C1329: + x33 + x210 <= 1
C1330: + x13 + x390 <= 1
C1331: + x142 + x349 <= 1
C1332: + x58 + x277 <= 1
C1333: + x3 + x35 <= 1
C1334: + x148 + x407 <= 1
C1335: + x115 + x425 <= 1
C1336: + x105 + x434 <= 1
C1337: + x7 + x176 <= 1
C1338: + x127 + x456 <= 1
C1339: + x110 + x374 <= 1
C1340: + x148 + x169 <= 1
C1341: + x12 + x200 <= 1
C1342: + x106 + x225 <= 1
C1343: + x303 + x349 <= 1
C1344: + x242 + x262 <= 1
C1345: + x5 + x61 <= 1
C1346: + x18 + x29 <= 1
C1347: + x16 + x67 <= 1
C1348: + x23 + x131 <= 1
C1349: + x187 + x356 <= 1
C1350: + x133 + x175 <= 1
C1351: + x401 + x450 <= 1
C1352: + x57 + x239 <= 1
C1353: + x11 + x54 <= 1
C1354: + x267 + x412 <= 1
C1355: + x376 + x417 <= 1
C1356: + x40 + x480 <= 1
C1357: + x23 + x126 <= 1
C1358: + x10 + x25 <= 1
C1359: + x248 + x409 <= 1
C1360: + x41 + x91 <= 1
C1361: + x53 + x155 <= 1
C1362: + x310 + x443 <= 1
C1363: + x15 + x58 <= 1
C1364: + x80 + x246 <= 1
C1365: + x54 + x99 <= 1
C1366: + x4 + x15 + x68 <= 1
C1367: + x2 + x5 <= 1
C1368: + x11 + x122 <= 1
C1369: + x59 + x96 <= 1
C1370: + x44 + x386 <= 1
C1371: + x17 + x214 <= 1
C1372: + x73 + x307 <= 1
C1373: + x54 + x369 <= 1
C1374: + x237 + x492 <= 1
C1375: + x35 + x197 <= 1
C1376: + x148 + x416 <= 1
C1377: + x79 + x134 <= 1
C1378: + x118 + x316 <= 1
C1379: + x10 + x387 <= 1
C1380: + x88 + x235 <= 1
C1381: + x343 + x430 <= 1
C1382: + x264 + x270 <= 1
C1383: + x3 + x223 <= 1
C1384: + x43 + x314 <= 1
C1385: + x17 + x130 <= 1
C1386: + x90 + x283 <= 1
C1387: + x273 + x284 <= 1
C1388: + x30 + x46 <= 1
C1389: + x131 + x154 <= 1
C1390: + x48 + x307 <= 1
C1391: + x53 + x243 <= 1
C1392: + x136 + x344 <= 1
C1393: + x147 + x213 <= 1
C1394: + x132 + x185 <= 1
C1395: + x217 + x351 <= 1
C1396: + x27 + x399 <= 1
C1397: + x9 + x142 <= 1
C1398: + x87 + x181 <= 1
C1399: + x134 + x491 <= 1
C1400: + x239 + x447 <= 1
C1401: + x446 + x457 <= 1
C1402: + x320 + x362 <= 1
C1403: + x141 + x443 <= 1
C1404: + x174 + x284 <= 1
C1405: + x47 + x220 <= 1
C1406: + x20 + x89 <= 1
C1407: + x3 + x440 <= 1
C1408: + x349 + x432 <= 1
C1409: + x79 + x193 <= 1
C1410: + x134 + x161 <= 1
C1411: + x2 + x427 <= 1
C1412: + x84 + x248 <= 1
C1413: + x15 + x279 <= 1
C1414: + x18 + x211 <= 1
C1415: + x201 + x335 <= 1
C1416: + x38 + x160 <= 1
C1417: + x55 + x378 <= 1
C1418: + x268 + x300 <= 1
C1419: + x253 + x478 <= 1
C1420: + x16 + x36 <= 1
C1421: + x24 + x93 <= 1
C1422: + x9 + x87 <= 1
C1423: + x38 + x115 <= 1
C1424: + x263 + x322 <= 1
C1425: + x50 + x149 <= 1
C1426: + x341 + x449 <= 1
C1427: + x181 + x264 <= 1
C1428: + x16 + x327 <= 1
C1429: + x268 + x441 <= 1
C1430: + x17 + x249 <= 1
C1431: + x10 + x186 <= 1
C1432: + x285 + x358 <= 1
C1433: + x4 + x387 <= 1
C1434: + x133 + x157 <= 1
C1435: + x9 + x387 <= 1
C1436: + x165 + x219 <= 1
C1437: + x149 + x381 <= 1
C1438: + x44 + x80 + x83 <= 1
C1439: + x5 + x87 <= 1
C1440: + x6 + x316 <= 1
C1441: + x11 + x382 <= 1
C1442: + x55 + x194 <= 1
C1443: + x12 + x13 <= 1
C1444: + x87 + x319 <= 1
C1445: + x2 + x23 <= 1
C1446: + x11 + x108 <= 1
C1447: + x73 + x289 <= 1
C1448: + x11 + x205 <= 1
C1449: + x4 + x9 <= 1
C1450: + x306 + x441 <= 1
C1451: + x23 + x362 <= 1
C1452: + x9 + x94 <= 1
C1453: + x355 + x421 <= 1
C1454: + x119 + x127 <= 1
C1455: + x155 + x243 <= 1
C1456: + x13 + x245 <= 1
C1457: + x24 + x288 <= 1
C1458: + x63 + x356 <= 1
C1459: + x11 + x305 <= 1
C1460: + x167 + x417 <= 1
C1461: + x136 + x326 <= 1
C1462: + x75 + x239 <= 1
C1463: + x430 + x478 <= 1
C1464: + x25 + x172 + x231 <= 1
C1465: + x15 + x100 <= 1
C1466: + x18 + x334 <= 1
C1467: + x36 + x59 <= 1
C1468: + x44 + x313 <= 1
C1469: + x9 + x188 <= 1
C1470: + x245 + x336 <= 1
C1471: + x23 + x228 <= 1
C1472: + x5 + x427 <= 1
C1473: + x32 + x221 <= 1
C1474: + x190 + x200 <= 1
C1475: + x65 + x86 <= 1
C1476: + x215 + x420 <= 1
C1477: + x116 + x475 <= 1
C1478: + x11 + x19 <= 1
C1479: + x266 + x491 <= 1
C1480: + x431 + x482 <= 1
C1481: + x96 + x174 <= 1
C1482: + x32 + x110 <= 1
C1483: + x45 + x76 <= 1
C1484: + x134 + x385 <= 1
C1485: + x1 + x5 <= 1
C1486: + x47 + x85 <= 1
C1487: + x51 + x172 <= 1
C1488: + x5 + x479 <= 1
C1489: + x207 + x254 <= 1
C1490: + x37 + x107 <= 1
C1491: + x84 + x320 <= 1
C1492: + x3 + x7 <= 1
C1493: + x139 + x191 <= 1
C1494: + x267 + x332 <= 1
C1495: + x23 + x462 <= 1
C1496: + x6 + x12 <= 1
C1497: + x45 + x398 <= 1
C1498: + x10 + x438 <= 1
C1499: + x116 + x487 <= 1
C1500: + x11 + x71 <= 1
C1501: + x340 + x477 <= 1
C1502: + x110 + x165 <= 1
C1503: + x35 + x65 <= 1
C1504: + x100 + x147 <= 1
C1505: + x228 + x426 <= 1
C1506: + x222 + x377 <= 1
C1507: + x61 + x187 <= 1
C1508: + x96 + x324 <= 1
C1509: + x102 + x105 <= 1
C1510: + x93 + x148 <= 1
C1511: + x430 + x471 <= 1
C1512: + x32 + x39 <= 1
C1513: + x23 + x26 <= 1
C1514: + x10 + x53 <= 1
C1515: + x18 + x53 <= 1
C1516: + x165 + x302 <= 1
C1517: + x213 + x221 <= 1
C1518: + x6 + x65 <= 1
C1519: + x45 + x337 <= 1
C1520: + x1 + x266 <= 1
C1521: + x93 + x379 <= 1
C1522: + x419 + x454 <= 1
C1523: + x10 + x499 <= 1
C1524: + x59 + x116 <= 1
C1525: + x84 + x139 <= 1
C1526: + x254 + x370 <= 1
C1527: + x58 + x479 <= 1
C1528: + x10 + x324 <= 1
C1529: + x121 + x134 <= 1
C1530: + x24 + x463 <= 1
C1531: + x65 + x134 <= 1
C1532: + x3 + x163 <= 1
C1533: + x53 + x453 <= 1
C1534: + x207 + x387 <= 1
C1535: + x11 + x291 <= 1
C1536: + x31 + x379 <= 1
C1537: + x133 + x138 <= 1
C1538: + x5 + x266 <= 1
C1539: + x6 + x390 <= 1
C1540: + x109 + x476 <= 1
C1541: + x174 + x495 <= 1
C1542: + x17 + x440 <= 1
C1543: + x86 + x267 <= 1
C1544: + x23 + x254 <= 1
C1545: + x116 + x270 <= 1
C1546: + x6 + x279 <= 1
C1547: + x44 + x328 <= 1
C1548: + x54 + x80 <= 1
C1549: + x408 + x486 <= 1
C1550: + x76 + x223 <= 1
C1551: + x267 + x491 <= 1
C1552: + x44 + x483 <= 1
C1553: + x57 + x496 <= 1
C1554: + x302 + x476 <= 1
C1555: + x38 + x180 <= 1
C1556: + x3 + x267 <= 1
C1557: + x42 + x382 <= 1
C1558: + x43 + x207 <= 1
C1559: + x5 + x461 <= 1
C1560: + x54 + x241 <= 1
C1561: + x58 + x323 <= 1
C1562: + x5 + x354 <= 1
C1563: + x48 + x462 <= 1
C1564: + x53 + x57 <= 1
C1565: + x20 + x178 <= 1
C1566: + x103 + x363 <= 1
C1567: + x43 + x243 <= 1
C1568: + x7 + x21 <= 1
C1569: + x190 + x354 <= 1
C1570: + x247 + x371 <= 1
C1571: + x140 + x239 <= 1
C1572: + x10 + x404 <= 1
C1573: + x238 + x406 <= 1
C1574: + x3 + x242 <= 1
C1575: + x68 + x422 <= 1
C1576: + x60 + x257 <= 1
C1577: + x17 + x62 <= 1
C1578: + x28 + x391 <= 1
C1579: + x11 + x16 <= 1
C1580: + x14 + x51 <= 1
C1581: + x299 + x443 <= 1
C1582: + x10 + x19 <= 1
C1583: + x113 + x244 <= 1
C1584: + x5 + x460 <= 1
C1585: + x35 + x251 <= 1
C1586: + x148 + x458 <= 1
C1587: + x33 + x112 <= 1
C1588: + x10 + x100 <= 1
C1589: + x129 + x334 <= 1
C1590: + x30 + x353 <= 1
C1591: + x70 + x399 <= 1
C1592: + x5 + x14 <= 1
C1593: + x94 + x281 <= 1
C1594: + x22 + x167 <= 1
C1595: + x23 + x35 <= 1
C1596: + x15 + x128 <= 1
C1597: + x17 + x422 <= 1
C1598: + x154 + x178 <= 1
C1599: + x11 + x168 <= 1
C1600: + x221 + x459 <= 1
C1601: + x14 + x219 <= 1
C1602: + x18 + x32 <= 1
C1603: + x68 + x157 <= 1
C1604: + x50 + x247 <= 1
C1605: + x6 + x444 <= 1
C1606: + x16 + x485 <= 1
C1607: + x93 + x141 <= 1
C1608: + x58 + x151 <= 1
C1609: + x225 + x312 <= 1
C1610: + x217 + x341 <= 1
C1611: + x190 + x402 <= 1
C1612: + x10 + x28 <= 1
C1613: + x81 + x260 <= 1
C1614: + x299 + x327 <= 1
C1615: + x167 + x373 <= 1
C1616: + x17 + x481 <= 1
C1617: + x10 + x101 <= 1
C1618: + x66 + x328 <= 1
C1619: + x264 + x349 <= 1
C1620: + x192 + x373 <= 1
C1621: + x241 + x250 <= 1
C1622: + x21 + x339 <= 1
C1623: + x97 + x132 <= 1
C1624: + x23 + x75 <= 1
C1625: + x18 + x229 <= 1
C1626: + x5 + x245 <= 1
C1627: + x49 + x103 <= 1
C1628: + x4 + x26 <= 1
C1629: + x43 + x229 <= 1
C1630: + x244 + x295 <= 1
C1631: + x23 + x345 <= 1
C1632: + x143 + x159 <= 1
C1633: + x4 + x268 <= 1
C1634: + x23 + x38 <= 1
C1635: + x6 + x20 <= 1
C1636: + x335 + x380 <= 1
C1637: + x10 + x81 <= 1
C1638: + x32 + x186 <= 1
C1639: + x17 + x143 <= 1
C1640: + x65 + x393 <= 1
C1641: + x156 + x445 <= 1
C1642: + x194 + x226 <= 1
C1643: + x186 + x376 <= 1
C1644: + x17 + x44 <= 1
C1645: + x79 + x306 <= 1
C1646: + x337 + x433 <= 1
C1647: + x3 + x115 <= 1
C1648: + x20 + x414 <= 1
C1649: + x50 + x75 <= 1
C1650: + x6 + x200 <= 1
C1651: + x19 + x50 <= 1
C1652: + x3 + x441 <= 1
C1653: + x32 + x480 <= 1
C1654: + x118 + x500 <= 1
C1655: + x68 + x109 <= 1
C1656: + x217 + x360 <= 1
C1657: + x269 + x476 <= 1
C1658: + x117 + x214 <= 1
C1659: + x46 + x304 <= 1
C1660: + x283 + x439 <= 1
C1661: + x22 + x169 <= 1
C1662: + x69 + x81 <= 1
C1663: + x96 + x429 <= 1
C1664: + x9 + x84 <= 1
C1665: + x135 + x195 <= 1
C1666: + x3 + x58 <= 1
C1667: + x258 + x296 <= 1
C1668: + x60 + x201 <= 1
C1669: + x70 + x258 <= 1
C1670: + x137 + x198 <= 1
C1671: + x11 + x170 <= 1
C1672: + x35 + x52 <= 1
C1673: + x10 + x181 <= 1
C1674: + x34 + x47 <= 1
C1675: + x35 + x149 <= 1
C1676: + x7 + x54 <= 1
C1677: + x42 + x63 <= 1
C1678: + x32 + x56 <= 1
C1679: + x70 + x310 <= 1
C1680: + x154 + x208 <= 1
C1681: + x381 + x494 <= 1
C1682: + x47 + x158 <= 1
C1683: + x2 + x260 <= 1
C1684: + x111 + x363 <= 1
C1685: + x413 + x465 <= 1
C1686: + x6 + x82 <= 1
C1687: + x264 + x339 <= 1
C1688: + x50 + x64 <= 1
C1689: + x23 + x69 <= 1
C1690: + x168 + x212 <= 1
C1691: + x6 + x336 <= 1
C1692: + x152 + x289 <= 1
C1693: + x1 + x11 <= 1
C1694: + x133 + x379 <= 1
C1695: + x3 + x291 <= 1
C1696: + x122 + x144 <= 1
C1697: + x4 + x8 <= 1
C1698: + x97 + x420 <= 1
C1699: + x85 + x329 <= 1
C1700: + x56 + x372 <= 1
C1701: + x22 + x464 <= 1
C1702: + x9 + x312 <= 1
C1703: + x173 + x174 <= 1
C1704: + x228 + x321 <= 1
C1705: + x94 + x149 <= 1
C1706: + x148 + x187 <= 1
C1707: + x20 + x315 <= 1
C1708: + x12 + x234 <= 1
C1709: + x126 + x140 <= 1
C1710: + x108 + x318 <= 1
C1711: + x3 + x375 <= 1
C1712: + x78 + x105 <= 1
C1713: + x17 + x26 <= 1
C1714: + x15 + x452 <= 1
C1715: + x113 + x435 <= 1
C1716: + x91 + x271 <= 1
C1717: + x10 + x15 <= 1
C1718: + x94 + x169 <= 1
C1719: + x3 + x234 <= 1
C1720: + x32 + x212 <= 1
C1721: + x9 + x22 <= 1
C1722: + x113 + x125 <= 1
C1723: + x3 + x395 <= 1
C1724: + x23 + x499 <= 1
C1725: + x23 + x96 <= 1
C1726: + x16 + x146 <= 1
C1727: + x18 + x208 <= 1
C1728: + x91 + x339 <= 1
C1729: + x10 + x251 <= 1
C1730: + x47 + x82 <= 1
C1731: + x4 + x13 <= 1
C1732: + x25 + x136 <= 1
C1733: + x11 + x430 <= 1
C1734: + x148 + x434 <= 1
C1735: + x68 + x236 <= 1
C1736: + x23 + x172 <= 1
C1737: + x282 + x343 <= 1
C1738: + x149 + x401 <= 1
C1739: + x4 + x57 <= 1
C1740: + x218 + x255 <= 1
C1741: + x37 + x489 <= 1
C1742: + x3 + x96 <= 1
C1743: + x130 + x155 <= 1
C1744: + x102 + x108 <= 1
C1745: + x19 + x27 <= 1
C1746: + x309 + x321 <= 1
C1747: + x38 + x346 <= 1
C1748: + x51 + x295 <= 1
C1749: + x14 + x179 <= 1
C1750: + x25 + x195 <= 1
C1751: + x23 + x297 <= 1
C1752: + x9 + x29 <= 1
C1753: + x3 + x390 <= 1
C1754: + x68 + x165 <= 1
C1755: + x5 + x332 <= 1
C1756: + x34 + x117 <= 1
C1757: + x52 + x159 <= 1
C1758: + x126 + x444 <= 1
C1759: + x167 + x254 <= 1
C1760: + x32 + x106 <= 1
C1761: + x96 + x170 <= 1
C1762: + x47 + x89 <= 1
C1763: + x4 + x457 <= 1
C1764: + x1 + x20 + x55 <= 1
C1765: + x130 + x200 <= 1
C1766: + x30 + x463 <= 1
C1767: + x40 + x396 <= 1
C1768: + x5 + x384 <= 1
C1769: + x30 + x148 + x215 <= 1
C1770: + x219 + x442 <= 1
C1771: + x437 + x497 <= 1
C1772: + x10 + x77 <= 1
C1773: + x11 + x67 <= 1
C1774: + x4 + x131 <= 1
C1775: + x24 + x224 <= 1
C1776: + x201 + x301 <= 1
C1777: + x111 + x308 <= 1
C1778: + x68 + x299 <= 1
C1779: + x285 + x376 <= 1
C1780: + x78 + x464 <= 1
C1781: + x47 + x130 <= 1
C1782: + x87 + x222 <= 1
C1783: + x6 + x60 <= 1
C1784: + x9 + x274 <= 1
C1785: + x216 + x322 <= 1
C1786: + x17 + x437 <= 1
C1787: + x415 + x447 <= 1
C1788: + x68 + x444 <= 1
C1789: + x13 + x36 <= 1
C1790: + x114 + x146 <= 1
C1791: + x25 + x202 <= 1
C1792: + x97 + x474 <= 1
C1793: + x52 + x232 <= 1
C1794: + x179 + x409 <= 1
C1795: + x4 + x224 <= 1
C1796: + x18 + x186 <= 1
C1797: + x19 + x202 <= 1
C1798: + x91 + x293 <= 1
C1799: + x27 + x101 <= 1
C1800: + x100 + x212 <= 1
C1801: + x23 + x203 <= 1
C1802: + x23 + x384 <= 1
C1803: + x397 + x439 <= 1
C1804: + x256 + x477 <= 1
C1805: + x359 + x392 <= 1
C1806: + x6 + x113 <= 1
C1807: + x117 + x484 <= 1
C1808: + x11 + x78 <= 1
C1809: + x113 + x329 <= 1
C1810: + x22 + x62 <= 1
C1811: + x4 + x140 <= 1
C1812: + x104 + x168 <= 1
C1813: + x106 + x202 <= 1
C1814: + x15 + x199 <= 1
C1815: + x126 + x151 <= 1
C1816: + x47 + x48 <= 1
C1817: + x41 + x147 <= 1
C1818: + x31 + x166 <= 1
C1819: + x46 + x107 <= 1
C1820: + x4 + x281 <= 1
C1821: + x22 + x431 <= 1
C1822: + x33 + x34 <= 1
C1823: + x35 + x286 <= 1
C1824: + x18 + x135 <= 1
C1825: + x1 + x219 <= 1
C1826: + x179 + x230 <= 1
C1827: + x34 + x188 <= 1
C1828: + x18 + x34 <= 1
C1829: + x74 + x477 <= 1
C1830: + x9 + x11 <= 1
C1831: + x10 + x157 <= 1
C1832: + x154 + x442 <= 1
C1833: + x230 + x367 <= 1
C1834: + x68 + x352 <= 1
C1835: + x214 + x224 <= 1
C1836: + x17 + x59 <= 1
C1837: + x71 + x142 <= 1
C1838: + x40 + x41 <= 1
C1839: + x25 + x395 <= 1
C1840: + x6 + x233 <= 1
C1841: + x18 + x368 <= 1
C1842: + x73 + x346 <= 1
C1843: + x9 + x325 <= 1
C1844: + x65 + x471 <= 1
C1845: + x18 + x94 <= 1
C1846: + x121 + x145 <= 1
C1847: + x3 + x21 <= 1
C1848: + x130 + x210 <= 1
C1849: + x19 + x84 <= 1
C1850: + x121 + x419 <= 1
C1851: + x12 + x278 <= 1
C1852: + x4 + x241 <= 1
C1853: + x193 + x216 <= 1
C1854: + x55 + x150 <= 1
C1855: + x50 + x371 <= 1
C1856: + x3 + x347 <= 1
C1857: + x29 + x62 <= 1
C1858: + x3 + x41 <= 1
C1859: + x86 + x189 <= 1
C1860: + x60 + x186 <= 1
C1861: + x33 + x57 <= 1
C1862: + x6 + x46 <= 1
C1863: + x182 + x420 <= 1
C1864: + x129 + x391 <= 1
C1865: + x85 + x168 <= 1
C1866: + x140 + x322 <= 1
C1867: + x212 + x483 <= 1
C1868: + x184 + x246 <= 1
C1869: + x4 + x189 <= 1
C1870: + x81 + x469 <= 1
C1871: + x17 + x50 <= 1
C1872: + x416 + x460 <= 1
C1873: + x10 + x481 <= 1
C1874: + x138 + x207 <= 1
C1875: + x10 + x23 <= 1
C1876: + x274 + x322 <= 1
C1877: + x20 + x239 <= 1
C1878: + x11 + x237 <= 1
C1879: + x32 + x252 <= 1
C1880: + x207 + x219 <= 1
C1881: + x171 + x399 <= 1
C1882: + x17 + x65 <= 1
C1883: + x2 + x317 <= 1
C1884: + x331 + x417 <= 1
C1885: + x36 + x348 <= 1
C1886: + x329 + x432 <= 1
C1887: + x7 + x113 <= 1
C1888: + x262 + x318 <= 1
C1889: + x3 + x177 <= 1
C1890: + x4 + x250 <= 1
C1891: + x44 + x396 <= 1
C1892: + x253 + x364 <= 1
C1893: + x7 + x359 <= 1
C1894: + x181 + x249 <= 1
C1895: + x70 + x121 <= 1
C1896: + x35 + x203 <= 1
C1897: + x74 + x126 <= 1
C1898: + x110 + x466 <= 1
C1899: + x58 + x284 <= 1
C1900: + x113 + x470 <= 1
C1901: + x6 + x23 <= 1
C1902: + x7 + x173 <= 1
C1903: + x63 + x90 <= 1
C1904: + x11 + x164 <= 1
C1905: + x406 + x423 <= 1
C1906: + x12 + x199 <= 1
C1907: + x31 + x39 <= 1
C1908: + x140 + x327 <= 1
C1909: + x33 + x413 <= 1
C1910: + x20 + x300 <= 1
C1911: + x16 + x78 <= 1
C1912: + x291 + x404 <= 1
C1913: + x74 + x463 <= 1
C1914: + x85 + x260 <= 1
C1915: + x24 + x30 <= 1
C1916: + x7 + x64 <= 1
C1917: + x151 + x347 <= 1
C1918: + x256 + x379 <= 1
C1919: + x129 + x269 <= 1
C1920: + x93 + x137 <= 1
C1921: + x258 + x486 <= 1
C1922: + x42 + x49 <= 1
C1923: + x17 + x342 <= 1
C1924: + x117 + x330 <= 1
C1925: + x18 + x173 <= 1
C1926: + x207 + x464 <= 1
C1927: + x10 + x32 <= 1
C1928: + x98 + x159 <= 1
C1929: + x23 + x224 <= 1
C1930: + x17 + x72 <= 1
C1931: + x53 + x156 <= 1
C1932: + x263 + x276 <= 1
C1933: + x318 + x487 <= 1
C1934: + x12 + x18 <= 1
C1935: + x106 + x258 <= 1
C1936: + x281 + x289 <= 1
C1937: + x19 + x70 <= 1
C1938: + x3 + x140 <= 1
C1939: + x166 + x179 <= 1
C1940: + x103 + x192 <= 1
C1941: + x153 + x154 <= 1
C1942: + x80 + x455 <= 1
C1943: + x299 + x470 <= 1
C1944: + x11 + x220 <= 1
C1945: + x66 + x487 <= 1
C1946: + x68 + x263 <= 1
C1947: + x111 + x208 <= 1
C1948: + x242 + x429 <= 1
C1949: + x53 + x176 <= 1
C1950: + x154 + x484 <= 1
C1951: + x148 + x415 <= 1

binary
x1 x2 x3 x4 x5 x6 x7 x8 x9 x10 x11 x12 x13 x14 x15 x16 x17 x18 x19 x20 x21 x22 x23 x24 x25 x26 x27 x28 x29 x30 x31 x32 x33 x34 x35 x36 x37 x38 x39 x40 x41 x42 x43 x44 x45 x46 x47 x48 x49 x50 x51 x52 x53 x54 x55 x56 x57 x58 x59 x60 x61 x62 x63 x64 x65 x66 x67 x68 x69 x70 x71 x72 x73 x74 x75 x76 x77 x78 x79 x80 x81 x82 x83 x84 x85 x86 x87 x88 x89 x90 x91 x92 x93 x94 x95 x96 x97 x98 x99 x100 x101 x102 x103 x104 x105 x106 x107 x108 x109 x110 x111 x112 x113 x114 x115 x116 x117 x118 x119 x120 x121 x122 x123 x124 x125 x126 x127 x128 x129 x130 x131 x132 x133 x134 x135 x136 x137 x138 x139 x140 x141 x142 x143 x144 x145 x146 x147 x148 x149 x150 x151 x152 x153 x154 x155 x156 x157 x158 x159 x160 x161 x162 x163 x164 x165 x166 x167 x168 x169 x170 x171 x172 x173 x174 x175 x176 x177 x178 x179 x180 x181 x182 x183 x184 x185 x186 x187 x188 x189 x190 x191 x192 x193 x194 x195 x196 x197 x198 x199 x200 x201 x202 x203 x204 x205 x206 x207 x208 x209 x210 x211 x212 x213 x214 x215 x216 x217 x218 x219 x220 x221 x222 x223 x224 x225 x226 x227 x228 x229 x230 x231 x232 x233 x234 x235 x236 x237 x238 x239 x240 x241 x242 x243 x244 x245 x246 x247 x248 x249 x250 x251 x252 x253 x254 x255 x256 x257 x258 x259 x260 x261 x262 x263 x264 x265 x266 x267 x268 x269 x270 x271 x272 x273 x274 x275 x276 x277 x278 x279 x280 x281 x282 x283 x284 x285 x286 x287 x288 x289 x290 x291 x292 x293 x294 x295 x296 x297 x298 x299 x300 x301 x302 x303 x304 x305 x306 x307 x308 x309 x310 x311 x312 x313 x314 x315 x316 x317 x318 x319 x320 x321 x322 x323 x324 x325 x326 x327 x328 x329 x330 x331 x332 x333 x334 x335 x336 x337 x338 x339 x340 x341 x342 x343 x344 x345 x346 x347 x348 x349 x350 x351 x352 x353 x354 x355 x356 x357 x358 x359 x360 x361 x362 x363 x364 x365 x366 x367 x368 x369 x370 x371 x372 x373 x374 x375 x376 x377 x378 x379 x380 x381 x382 x383 x384 x385 x386 x387 x388 x389 x390 x391 x392 x393 x394 x395 x396 x397 x398 x399 x400 x401 x402 x403 x404 x405 x406 x407 x408 x409 x410 x411 x412 x413 x414 x415 x416 x417 x418 x419 x420 x421 x422 x423 x424 x425 x426 x427 x428 x429 x430 x431 x432 x433 x434 x435 x436 x437 x438 x439 x440 x441 x442 x443 x444 x445 x446 x447 x448 x449 x450 x451 x452 x453 x454 x455 x456 x457 x458 x459 x460 x461 x462 x463 x464 x465 x466 x467 x468 x469 x470 x471 x472 x473 x474 x475 x476 x477 x478 x479 x480 x481 x482 x483 x484 x485 x486 x487 x488 x489 x490 x491 x492 x493 x494 x495 x496 x497 x498 x499 x500
