maximize
OBJ: + 1 x1 + 1 x2 + 1 x3 + 1 x4 + 1 x5 + 1 x6 + 1 x7 + 1 x8 + 1 x9 + 1 x10 + 1 x11 + 1 x12 + 1 x13 + 1 x14 + 1 x15 + 1 x16 + 1 x17 + 1 x18 + 1 x19 + 1 x20 + 1 x21 + 1 x22 + 1 x23 + 1 x24 + 1 x25 + 1 x26 + 1 x27 + 1 x28 + 1 x29 + 1 x30 + 1 x31 + 1 x32 + 1 x33 + 1 x34 + 1 x35 + 1 x36 + 1 x37 + 1 x38 + 1 x39 + 1 x40 + 1 x41 + 1 x42 + 1 x43 + 1 x44 + 1 x45 + 1 x46 + 1 x47 + 1 x48 + 1 x49 + 1 x50 + 1 x51 + 1 x52 + 1 x53 + 1 x54 + 1 x55 + 1 x56 + 1 x57 + 1 x58 + 1 x59 + 1 x60 + 1 x61 + 1 x62 + 1 x63 + 1 x64 + 1 x65 + 1 x66 + 1 x67 + 1 x68 + 1 x69 + 1 x70 + 1 x71 + 1 x72 + 1 x73 + 1 x74 + 1 x75 + 1 x76 + 1 x77 + 1 x78 + 1 x79 + 1 x80 + 1 x81 + 1 x82 + 1 x83 + 1 x84 + 1 x85 + 1 x86 + 1 x87 + 1 x88 + 1 x89 + 1 x90 + 1 x91 + 1 x92 + 1 x93 + 1 x94 + 1 x95 + 1 x96 + 1 x97 + 1 x98 + 1 x99 + 1 x100 + 1 x101 + 1 x102 + 1 x103 + 1 x104 + 1 x105 + 1 x106 + 1 x107 + 1 x108 + 1 x109 + 1 x110 + 1 x111 + 1 x112 + 1 x113 + 1 x114 + 1 x115 + 1 x116 + 1 x117 + 1 x118 + 1 x119 + 1 x120 + 1 x121 + 1 x122 + 1 x123 + 1 x124 + 1 x125 + 1 x126 + 1 x127 + 1 x128 + 1 x129 + 1 x130 + 1 x131 + 1 x132 + 1 x133 + 1 x134 + 1 x135 + 1 x136 + 1 x137 + 1 x138 + 1 x139 + 1 x140 + 1 x141 + 1 x142 + 1 x143 + 1 x144 + 1 x145 + 1 x146 + 1 x147 + 1 x148 + 1 x149 + 1 x150 + 1 x151 + 1 x152 + 1 x153 + 1 x154 + 1 x155 + 1 x156 + 1 x157 + 1 x158 + 1 x159 + 1 x160 + 1 x161 + 1 x162 + 1 x163 + 1 x164 + 1 x165 + 1 x166 + 1 x167 + 1 x168 + 1 x169 + 1 x170 + 1 x171 + 1 x172 + 1 x173 + 1 x174 + 1 x175 + 1 x176 + 1 x177 + 1 x178 + 1 x179 + 1 x180 + 1 x181 + 1 x182 + 1 x183 + 1 x184 + 1 x185 + 1 x186 + 1 x187 + 1 x188 + 1 x189 + 1 x190 + 1 x191 + 1 x192 + 1 x193 + 1 x194 + 1 x195 + 1 x196 + 1 x197 + 1 x198 + 1 x199 + 1 x200 + 1 x201 + 1 x202 + 1 x203 + 1 x204 + 1 x205 + 1 x206 + 1 x207 + 1 x208 + 1 x209 + 1 x210 + 1 x211 + 1 x212 + 1 x213 + 1 x214 + 1 x215 + 1 x216 + 1 x217 + 1 x218 + 1 x219 + 1 x220 + 1 x221 + 1 x222 + 1 x223 + 1 x224 + 1 x225 + 1 x226 + 1 x227 + 1 x228 + 1 x229 + 1 x230 + 1 x231 + 1 x232 + 1 x233 + 1 x234 + 1 x235 + 1 x236 + 1 x237 + 1 x238 + 1 x239 + 1 x240 + 1 x241 + 1 x242 + 1 x243 + 1 x244 + 1 x245 + 1 x246 + 1 x247 + 1 x248 + 1 x249 + 1 x250 + 1 x251 + 1 x252 + 1 x253 + 1 x254 + 1 x255 + 1 x256 + 1 x257 + 1 x258 + 1 x259 + 1 x260 + 1 x261 + 1 x262 + 1 x263 + 1 x264 + 1 x265 + 1 x266 + 1 x267 + 1 x268 + 1 x269 + 1 x270 + 1 x271 + 1 x272 + 1 x273 + 1 x274 + 1 x275 + 1 x276 + 1 x277 + 1 x278 + 1 x279 + 1 x280 + 1 x281 + 1 x282 + 1 x283 + 1 x284 + 1 x285 + 1 x286 + 1 x287 + 1 x288 + 1 x289 + 1 x290 + 1 x291 + 1 x292 + 1 x293 + 1 x294 + 1 x295 + 1 x296 + 1 x297 + 1 x298 + 1 x299 + 1 x300 + 1 x301 + 1 x302 + 1 x303 + 1 x304 + 1 x305 + 1 x306 + 1 x307 + 1 x308 + 1 x309 + 1 x310 + 1 x311 + 1 x312 + 1 x313 + 1 x314 + 1 x315 + 1 x316 + 1 x317 + 1 x318 + 1 x319 + 1 x320 + 1 x321 + 1 x322 + 1 x323 + 1 x324 + 1 x325 + 1 x326 + 1 x327 + 1 x328 + 1 x329 + 1 x330 + 1 x331 + 1 x332 + 1 x333 + 1 x334 + 1 x335 + 1 x336 + 1 x337 + 1 x338 + 1 x339 + 1 x340 + 1 x341 + 1 x342 + 1 x343 + 1 x344 + 1 x345 + 1 x346 + 1 x347 + 1 x348 + 1 x349 + 1 x350 + 1 x351 + 1 x352 + 1 x353 + 1 x354 + 1 x355 + 1 x356 + 1 x357 + 1 x358 + 1 x359 + 1 x360 + 1 x361 + 1 x362 + 1 x363 + 1 x364 + 1 x365 + 1 x366 + 1 x367 + 1 x368 + 1 x369 + 1 x370 + 1 x371 + 1 x372 + 1 x373 + 1 x374 + 1 x375 + 1 x376 + 1 x377 + 1 x378 + 1 x379 + 1 x380 + 1 x381 + 1 x382 + 1 x383 + 1 x384 + 1 x385 + 1 x386 + 1 x387 + 1 x388 + 1 x389 + 1 x390 + 1 x391 + 1 x392 + 1 x393 + 1 x394 + 1 x395 + 1 x396 + 1 x397 + 1 x398 + 1 x399 + 1 x400 + 1 x401 + 1 x402 + 1 x403 + 1 x404 + 1 x405 + 1 x406 + 1 x407 + 1 x408 + 1 x409 + 1 x410 + 1 x411 + 1 x412 + 1 x413 + 1 x414 + 1 x415 + 1 x416 + 1 x417 + 1 x418 + 1 x419 + 1 x420 + 1 x421 + 1 x422 + 1 x423 + 1 x424 + 1 x425 + 1 x426 + 1 x427 + 1 x428 + 1 x429 + 1 x430 + 1 x431 + 1 x432 + 1 x433 + 1 x434 + 1 x435 + 1 x436 + 1 x437 + 1 x438 + 1 x439 + 1 x440 + 1 x441 + 1 x442 + 1 x443 + 1 x444 + 1 x445 + 1 x446 + 1 x447 + 1 x448 + 1 x449 + 1 x450 + 1 x451 + 1 x452 + 1 x453 + 1 x454 + 1 x455 + 1 x456 + 1 x457 + 1 x458 + 1 x459 + 1 x460 + 1 x461 + 1 x462 + 1 x463 + 1 x464 + 1 x465 + 1 x466 + 1 x467 + 1 x468 + 1 x469 + 1 x470 + 1 x471 + 1 x472 + 1 x473 + 1 x474 + 1 x475 + 1 x476 + 1 x477 + 1 x478 + 1 x479 + 1 x480 + 1 x481 + 1 x482 + 1 x483 + 1 x484 + 1 x485 + 1 x486 + 1 x487 + 1 x488 + 1 x489 + 1 x490 + 1 x491 + 1 x492 + 1 x493 + 1 x494 + 1 x495 + 1 x496 + 1 x497 + 1 x498 + 1 x499 + 1 x500

subject to
C1: + x196 + x464 <= 1
C2: + x10 + x386 <= 1
C3: + x356 + x366 <= 1
C4: + x312 + x332 <= 1
C5: + x40 + x71 <= 1
C6: + x14 + x208 <= 1
C7: + x358 + x368 <= 1
C8: + x131 + x302 <= 1
C9: + x34 + x42 <= 1
C10: + x95 + x434 <= 1
C11: + x6 + x417 <= 1
C12: + x66 + x257 <= 1
C13: + x76 + x250 <= 1
C14: + x175 + x344 <= 1
C15: + x141 + x215 <= 1
C16: + x117 + x337 <= 1
C17: + x9 + x378 <= 1
C18: + x105 + x131 <= 1
C19: + x21 + x247 <= 1
C20: + x170 + x176 <= 1
C21: + x387 + x448 <= 1
C22: + x162 + x334 <= 1
C23: + x37 + x178 <= 1
C24: + x136 + x192 <= 1
C25: + x214 + x402 <= 1
C26: + x17 + x377 <= 1
C27: + x90 + x343 <= 1
C28: + x119 + x246 <= 1
C29: + x157 + x395 <= 1
C30: + x50 + x140 <= 1
C31: + x278 + x382 <= 1
C32: + x15 + x49 + x155 <= 1
C33: + x101 + x155 <= 1
C34: + x11 + x86 <= 1
C35: + x103 + x227 <= 1
C36: + x295 + x313 <= 1
C37: + x126 + x143 <= 1
C38: + x16 + x84 <= 1
C39: + x158 + x422 <= 1
C40: + x33 + x189 <= 1
C41: + x252 + x289 <= 1
C42: + x142 + x258 <= 1
C43: + x18 + x425 <= 1
C44: + x244 + x384 <= 1
C45: + x55 + x88 <= 1
C46: + x7 + x42 <= 1
C47: + x20 + x423 <= 1
C48: + x21 + x281 <= 1
C49: + x140 + x198 <= 1
C50: + x32 + x52 <= 1
C51: + x36 + x482 <= 1
C52: + x111 + x142 <= 1
C53: + x116 + x314 <= 1
C54: + x171 + x380 <= 1
C55: + x174 + x276 <= 1
C56: + x21 + x83 <= 1
C57: + x68 + x360 <= 1
C58: + x22 + x264 <= 1
C59: + x7 + x102 <= 1
C60: + x156 + x353 <= 1
C61: + x11 + x480 <= 1
C62: + x112 + x302 <= 1
C63: + x15 + x166 <= 1
C64: + x7 + x332 <= 1
C65: + x1 + x15 <= 1
C66: + x11 + x206 <= 1
C67: + x248 + x446 <= 1
C68: + x42 + x266 <= 1
C69: + x34 + x240 <= 1
C70: + x26 + x59 <= 1
C71: + x24 + x85 <= 1
C72: + x175 + x406 <= 1
C73: + x13 + x273 <= 1
C74: + x159 + x308 <= 1
C75: + x17 + x399 <= 1
C76: + x155 + x263 <= 1
C77: + x228 + x325 <= 1
C78: + x375 + x406 <= 1
C79: + x48 + x50 <= 1
C80: + x12 + x238 <= 1
C81: + x22 + x130 <= 1
C82: + x13 + x488 <= 1
C83: + x46 + x124 <= 1
C84: + x26 + x482 <= 1
C85: + x15 + x97 <= 1
C86: + x281 + x461 <= 1
C87: + x193 + x383 <= 1
C88: + x205 + x362 <= 1
C89: + x34 + x149 <= 1
C90: + x160 + x482 <= 1
C91: + x20 + x106 <= 1
C92: + x68 + x365 <= 1
C93: + x33 + x144 <= 1
C94: + x20 + x380 <= 1
C95: + x31 + x87 <= 1
C96: + x87 + x148 <= 1
C97: + x7 + x323 <= 1
C98: + x297 + x434 <= 1
C99: + x156 + x279 <= 1
C100: + x47 + x183 <= 1
C101: + x49 + x306 <= 1
C102: + x11 + x426 <= 1
C103: + x20 + x54 <= 1
C104: + x3 + x8 <= 1
C105: + x26 + x479 <= 1
C106: + x145 + x203 <= 1
C107: + x7 + x137 <= 1
C108: + x11 + x72 <= 1
C109: + x184 + x215 <= 1
C110: + x6 + x377 <= 1
C111: + x9 + x213 <= 1
C112: + x95 + x427 <= 1
C113: + x33 + x203 <= 1
C114: + x20 + x437 <= 1
C115: + x167 + x262 <= 1
C116: + x6 + x63 <= 1
C117: + x344 + x372 <= 1
C118: + x19 + x23 <= 1
C119: + x34 + x174 <= 1
C120: + x12 + x62 <= 1
C121: + x7 + x88 <= 1
C122: + x16 + x393 <= 1
C123: + x11 + x27 <= 1
C124: + x2 + x104 <= 1
C125: + x439 + x477 <= 1
C126: + x150 + x168 <= 1
C127: + x79 + x120 <= 1
C128: + x6 + x227 <= 1
C129: + x7 + x241 <= 1
C130: + x7 + x326 <= 1
C131: + x55 + x324 <= 1
C132: + x352 + x353 <= 1
C133: + x95 + x354 <= 1
C134: + x4 + x461 <= 1
C135: + x377 + x479 <= 1
C136: + x6 + x465 <= 1
C137: + x125 + x191 <= 1
C138: + x71 + x295 <= 1
C139: + x326 + x492 <= 1
C140: + x49 + x297 <= 1
C141: + x160 + x178 <= 1
C142: + x346 + x475 <= 1
C143: + x19 + x94 <= 1
C144: + x11 + x79 <= 1
C145: + x356 + x394 <= 1
C146: + x105 + x307 <= 1
C147: + x51 + x490 <= 1
C148: + x161 + x229 <= 1
C149: + x46 + x203 <= 1
C150: + x21 + x28 <= 1
C151: + x13 + x73 <= 1
C152: + x159 + x333 <= 1
C153: + x5 + x267 <= 1
C154: + x7 + x19 <= 1
C155: + x63 + x208 <= 1
C156: + x93 + x319 <= 1
C157: + x4 + x280 <= 1
C158: + x68 + x448 <= 1
C159: + x14 + x168 <= 1
C160: + x252 + x421 <= 1
C161: + x8 + x50 <= 1
C162: + x165 + x342 <= 1
C163: + x63 + x351 <= 1
C164: + x41 + x220 <= 1
C165: + x204 + x314 <= 1
C166: + x2 + x438 <= 1
C167: + x3 + x103 <= 1
C168: + x26 + x320 <= 1
C169: + x33 + x328 <= 1
C170: + x108 + x408 <= 1
C171: + x134 + x277 <= 1
C172: + x20 + x68 <= 1
C173: + x3 + x26 <= 1
C174: + x180 + x491 <= 1
C175: + x164 + x357 <= 1
C176: + x1 + x131 <= 1
C177: + x19 + x396 <= 1
C178: + x37 + x396 <= 1
C179: + x12 + x273 <= 1
C180: + x232 + x292 <= 1
C181: + x161 + x252 <= 1
C182: + x361 + x399 <= 1
C183: + x44 + x101 <= 1
C184: + x380 + x443 <= 1
C185: + x64 + x106 <= 1
C186: + x103 + x364 <= 1
C187: + x115 + x134 <= 1
C188: + x40 + x199 <= 1
C189: + x7 + x22 <= 1
C190: + x96 + x216 <= 1
C191: + x355 + x387 <= 1
C192: + x257 + x329 <= 1
C193: + x361 + x443 <= 1
C194: + x32 + x258 <= 1
C195: + x152 + x468 <= 1
C196: + x219 + x374 <= 1
C197: + x50 + x298 <= 1
C198: + x5 + x294 <= 1
C199: + x36 + x363 <= 1
C200: + x12 + x350 <= 1
C201: + x96 + x156 <= 1
C202: + x10 + x18 <= 1
C203: + x155 + x165 <= 1
C204: + x83 + x381 <= 1
C205: + x33 + x351 <= 1
C206: + x5 + x128 <= 1
C207: + x114 + x489 <= 1
C208: + x60 + x226 <= 1
C209: + x141 + x181 <= 1
C210: + x19 + x387 <= 1
C211: + x103 + x130 <= 1
C212: + x122 + x281 <= 1
C213: + x106 + x183 <= 1
C214: + x126 + x172 <= 1
C215: + x100 + x137 <= 1
C216: + x19 + x241 <= 1
C217: + x148 + x314 <= 1
C218: + x151 + x268 <= 1
C219: + x7 + x13 <= 1
C220: + x1 + x452 <= 1
C221: + x135 + x210 <= 1
C222: + x20 + x21 <= 1
C223: + x10 + x313 <= 1
C224: + x167 + x303 <= 1
C225: + x96 + x221 <= 1
C226: + x6 + x42 <= 1
C227: + x7 + x170 <= 1
C228: + x63 + x91 <= 1
C229: + x28 + x482 <= 1
C230: + x1 + x214 <= 1
C231: + x30 + x180 <= 1
C232: + x14 + x218 <= 1
C233: + x126 + x256 <= 1
C234: + x19 + x165 <= 1
C235: + x122 + x200 <= 1
C236: + x283 + x328 <= 1
C237: + x193 + x458 <= 1
C238: + x146 + x371 <= 1
C239: + x48 + x110 <= 1
C240: + x4 + x109 <= 1
C241: + x286 + x307 <= 1
C242: + x213 + x429 <= 1
C243: + x70 + x486 <= 1
C244: + x2 + x305 <= 1
C245: + x12 + x29 <= 1
C246: + x40 + x435 <= 1
C247: + x327 + x378 <= 1
C248: + x2 + x7 <= 1
C249: + x121 + x430 <= 1
C250: + x10 + x199 <= 1
C251: + x350 + x370 <= 1
C252: + x89 + x500 <= 1
C253: + x71 + x200 <= 1
C254: + x7 + x8 <= 1
C255: + x70 + x264 <= 1
C256: + x6 + x19 <= 1
C257: + x81 + x222 <= 1
C258: + x13 + x16 + x90 <= 1
C259: + x37 + x366 <= 1
C260: + x90 + x162 <= 1
C261: + x6 + x257 <= 1
C262: + x16 + x74 <= 1
C263: + x100 + x126 <= 1
C264: + x24 + x26 <= 1
C265: + x28 + x408 <= 1
C266: + x136 + x143 <= 1
C267: + x11 + x63 <= 1
C268: + x165 + x424 <= 1
C269: + x73 + x332 <= 1
C270: + x20 + x252 <= 1
C271: + x450 + x453 <= 1
C272: + x98 + x147 <= 1
C273: + x125 + x195 <= 1
C274: + x44 + x59 <= 1
C275: + x68 + x382 <= 1
C276: + x33 + x127 <= 1
C277: + x36 + x325 <= 1
C278: + x7 + x112 <= 1
C279: + x92 + x215 <= 1
C280: + x41 + x495 <= 1
C281: + x23 + x56 + x125 <= 1
C282: + x291 + x467 <= 1
C283: + x130 + x494 <= 1
C284: + x33 + x238 <= 1
C285: + x23 + x337 <= 1
C286: + x18 + x128 <= 1
C287: + x63 + x236 <= 1
C288: + x323 + x365 <= 1
C289: + x6 + x28 <= 1
C290: + x62 + x111 <= 1
C291: + x44 + x278 <= 1
C292: + x1 + x164 <= 1
C293: + x74 + x281 <= 1
C294: + x68 + x412 <= 1
C295: + x200 + x214 <= 1
C296: + x3 + x381 <= 1
C297: + x139 + x453 <= 1
C298: + x30 + x41 <= 1
C299: + x26 + x121 <= 1
C300: + x7 + x43 <= 1
C301: + x346 + x372 <= 1
C302: + x264 + x410 <= 1
C303: + x40 + x468 <= 1
C304: + x70 + x309 <= 1
C305: + x63 + x454 <= 1
C306: + x129 + x421 <= 1
C307: + x43 + x343 <= 1
C308: + x32 + x214 <= 1
C309: + x34 + x364 <= 1
C310: + x18 + x69 <= 1
C311: + x68 + x355 <= 1
C312: + x34 + x122 <= 1
C313: + x91 + x123 <= 1
C314: + x71 + x167 <= 1
C315: + x3 + x159 <= 1
C316: + x31 + x105 <= 1
C317: + x14 + x17 <= 1
C318: + x79 + x103 <= 1
C319: + x6 + x335 <= 1
C320: + x13 + x135 <= 1
C321: + x119 + x202 <= 1
C322: + x90 + x232 <= 1
C323: + x36 + x128 <= 1
C324: + x12 + x156 <= 1
C325: + x231 + x473 <= 1
C326: + x96 + x405 <= 1
C327: + x3 + x50 <= 1
C328: + x94 + x113 <= 1
C329: + x39 + x271 <= 1
C330: + x73 + x249 <= 1
C331: + x74 + x207 <= 1
C332: + x10 + x66 <= 1
C333: + x357 + x361 <= 1
C334: + x12 + x233 <= 1
C335: + x81 + x105 <= 1
C336: + x62 + x374 <= 1
C337: + x113 + x130 <= 1
C338: + x232 + x415 <= 1
C339: + x395 + x495 <= 1
C340: + x63 + x223 <= 1
C341: + x17 + x328 <= 1
C342: + x6 + x201 <= 1
C343: + x120 + x191 <= 1
C344: + x3 + x231 <= 1
C345: + x30 + x211 <= 1
C346: + x69 + x455 <= 1
C347: + x24 + x157 <= 1
C348: + x16 + x100 <= 1
C349: + x109 + x123 <= 1
C350: + x16 + x391 <= 1
C351: + x7 + x90 <= 1
C352: + x46 + x51 <= 1
C353: + x125 + x411 <= 1
C354: + x16 + x145 <= 1
C355: + x85 + x337 <= 1
C356: + x13 + x99 <= 1
C357: + x4 + x16 <= 1
C358: + x61 + x101 <= 1
C359: + x84 + x318 <= 1
C360: + x20 + x49 <= 1
C361: + x56 + x157 <= 1
C362: + x105 + x428 <= 1
C363: + x209 + x323 <= 1
C364: + x7 + x150 <= 1
C365: + x16 + x331 <= 1
C366: + x39 + x99 <= 1
C367: + x260 + x340 <= 1
C368: + x26 + x373 <= 1
C369: + x26 + x176 <= 1
C370: + x27 + x40 <= 1
C371: + x119 + x157 <= 1
C372: + x149 + x402 <= 1
C373: + x51 + x226 <= 1
C374: + x31 + x270 <= 1
C375: + x108 + x465 <= 1
C376: + x71 + x229 <= 1
C377: + x114 + x317 <= 1
C378: + x367 + x422 <= 1
C379: + x70 + x295 <= 1
C380: + x142 + x154 <= 1
C381: + x9 + x161 <= 1
C382: + x1 + x206 <= 1
C383: + x51 + x296 <= 1
C384: + x81 + x481 <= 1
C385: + x9 + x30 <= 1
C386: + x6 + x67 <= 1
C387: + x7 + x81 <= 1
C388: + x26 + x407 <= 1
C389: + x11 + x451 <= 1
C390: + x20 + x384 <= 1
C391: + x12 + x299 <= 1
C392: + x22 + x112 <= 1
C393: + x225 + x289 <= 1
C394: + x30 + x349 <= 1
C395: + x8 + x77 <= 1
C396: + x122 + x153 <= 1
C397: + x3 + x310 <= 1
C398: + x222 + x448 <= 1
C399: + x70 + x89 <= 1
C400: + x17 + x93 <= 1
C401: + x81 + x285 <= 1
C402: + x153 + x453 <= 1
C403: + x37 + x152 <= 1
C404: + x20 + x493 <= 1
C405: + x189 + x398 <= 1
C406: + x127 + x485 <= 1
C407: + x10 + x441 <= 1
C408: + x10 + x116 <= 1
C409: + x92 + x202 <= 1
C410: + x47 + x457 <= 1
C411: + x232 + x298 <= 1
C412: + x6 + x357 <= 1
C413: + x118 + x240 <= 1
C414: + x101 + x106 <= 1
C415: + x80 + x494 <= 1
C416: + x20 + x167 <= 1
C417: + x150 + x381 <= 1
C418: + x44 + x138 <= 1
C419: + x7 + x32 <= 1
C420: + x10 + x266 <= 1
C421: + x138 + x349 <= 1
C422: + x1 + x499 <= 1
C423: + x37 + x92 <= 1
C424: + x38 + x84 <= 1
C425: + x43 + x431 <= 1
C426: + x283 + x456 <= 1
C427: + x40 + x94 <= 1
C428: + x5 + x66 <= 1
C429: + x387 + x389 <= 1
C430: + x32 + x288 <= 1
C431: + x27 + x243 <= 1
C432: + x108 + x359 <= 1
C433: + x19 + x184 <= 1
C434: + x15 + x31 <= 1
C435: + x24 + x341 <= 1
C436: + x109 + x256 <= 1
C437: + x63 + x299 <= 1
C438: + x1 + x17 <= 1
C439: + x145 + x380 <= 1
C440: + x3 + x269 <= 1
C441: + x95 + x358 <= 1
C442: + x81 + x276 <= 1
C443: + x135 + x176 <= 1
C444: + x10 + x327 <= 1
C445: + x175 + x428 <= 1
C446: + x24 + x454 <= 1
C447: + x154 + x159 <= 1
C448: + x142 + x216 <= 1
C449: + x16 + x345 <= 1
C450: + x146 + x285 <= 1
C451: + x221 + x446 <= 1
C452: + x13 + x232 <= 1
C453: + x33 + x436 <= 1
C454: + x216 + x489 <= 1
C455: + x21 + x40 <= 1
C456: + x151 + x382 <= 1
C457: + x55 + x61 <= 1
C458: + x108 + x110 <= 1
C459: + x6 + x36 <= 1
C460: + x11 + x191 <= 1
C461: + x30 + x190 <= 1
C462: + x98 + x184 <= 1
C463: + x3 + x10 + x11 + x14 <= 1
C464: + x26 + x198 <= 1
C465: + x18 + x33 <= 1
C466: + x8 + x46 <= 1
C467: + x16 + x127 <= 1
C468: + x33 + x146 <= 1
C469: + x351 + x445 <= 1
C470: + x420 + x478 <= 1
C471: + x106 + x134 <= 1
C472: + x13 + x171 <= 1
C473: + x219 + x282 <= 1
C474: + x166 + x319 <= 1
C475: + x114 + x198 <= 1
C476: + x70 + x75 <= 1
C477: + x15 + x401 <= 1
C478: + x65 + x117 <= 1
C479: + x20 + x72 <= 1
C480: + x33 + x110 <= 1
C481: + x251 + x356 <= 1
C482: + x164 + x192 <= 1
C483: + x371 + x490 <= 1
C484: + x46 + x320 <= 1
C485: + x148 + x309 <= 1
C486: + x38 + x401 <= 1
C487: + x267 + x427 <= 1
C488: + x33 + x58 <= 1
C489: + x14 + x122 <= 1
C490: + x6 + x45 <= 1
C491: + x71 + x107 <= 1
C492: + x110 + x379 <= 1
C493: + x78 + x338 <= 1
C494: + x116 + x163 <= 1
C495: + x35 + x36 <= 1
C496: + x108 + x341 <= 1
C497: + x21 + x432 <= 1
C498: + x33 + x169 <= 1
C499: + x159 + x360 <= 1
C500: + x243 + x332 <= 1
C501: + x2 + x118 <= 1
C502: + x93 + x179 <= 1
C503: + x22 + x123 <= 1
C504: + x209 + x416 <= 1
C505: + x108 + x159 <= 1
C506: + x63 + x469 <= 1
C507: + x383 + x426 <= 1
C508: + x192 + x230 <= 1
C509: + x56 + x94 <= 1
C510: + x19 + x76 <= 1
C511: + x136 + x280 <= 1
C512: + x1 + x158 <= 1
C513: + x114 + x336 <= 1
C514: + x5 + x11 <= 1
C515: + x6 + x133 <= 1
C516: + x181 + x250 <= 1
C517: + x8 + x112 <= 1
C518: + x303 + x500 <= 1
C519: + x4 + x24 <= 1
C520: + x60 + x83 <= 1
C521: + x33 + x212 <= 1
C522: + x26 + x39 <= 1
C523: + x252 + x474 <= 1
C524: + x178 + x420 <= 1
C525: + x23 + x40 <= 1
C526: + x5 + x154 <= 1
C527: + x284 + x451 <= 1
C528: + x69 + x290 <= 1
C529: + x15 + x343 <= 1
C530: + x152 + x485 <= 1
C531: + x108 + x489 <= 1
C532: + x334 + x463 <= 1
C533: + x84 + x370 <= 1
C534: + x202 + x439 <= 1
C535: + x1 + x478 <= 1
C536: + x11 + x52 <= 1
C537: + x14 + x39 <= 1
C538: + x19 + x52 <= 1
C539: + x241 + x368 <= 1
C540: + x37 + x140 <= 1
C541: + x11 + x330 <= 1
C542: + x49 + x141 <= 1
C543: + x63 + x431 <= 1
C544: + x194 + x270 <= 1
C545: + x97 + x153 <= 1
C546: + x223 + x419 <= 1
C547: + x383 + x413 <= 1
C548: + x122 + x129 <= 1
C549: + x97 + x102 <= 1
C550: + x9 + x82 <= 1
C551: + x16 + x37 <= 1
C552: + x46 + x85 <= 1
C553: + x20 + x34 <= 1
C554: + x76 + x141 <= 1
C555: + x48 + x336 <= 1
C556: + x6 + x31 <= 1
C557: + x154 + x190 <= 1
C558: + x26 + x459 <= 1
C559: + x3 + x221 <= 1
C560: + x166 + x230 <= 1
C561: + x22 + x28 <= 1
C562: + x35 + x54 <= 1
C563: + x195 + x235 <= 1
C564: + x231 + x287 <= 1
C565: + x251 + x425 <= 1
C566: + x13 + x499 <= 1
C567: + x6 + x432 <= 1
C568: + x7 + x56 <= 1
C569: + x9 + x414 <= 1
C570: + x93 + x348 <= 1
C571: + x45 + x471 <= 1
C572: + x16 + x251 <= 1
C573: + x237 + x297 <= 1
C574: + x51 + x311 <= 1
C575: + x260 + x301 <= 1
C576: + x34 + x154 <= 1
C577: + x7 + x455 <= 1
C578: + x29 + x120 <= 1
C579: + x86 + x472 <= 1
C580: + x21 + x386 <= 1
C581: + x167 + x353 <= 1
C582: + x96 + x283 <= 1
C583: + x6 + x84 <= 1
C584: + x7 + x100 <= 1
C585: + x57 + x196 <= 1
C586: + x2 + x20 <= 1
C587: + x79 + x100 <= 1
C588: + x44 + x80 <= 1
C589: + x6 + x247 <= 1
C590: + x219 + x263 <= 1
C591: + x1 + x470 <= 1
C592: + x49 + x261 <= 1
C593: + x6 + x8 <= 1
C594: + x222 + x450 <= 1
C595: + x71 + x334 <= 1
C596: + x49 + x79 <= 1
C597: + x30 + x37 <= 1
C598: + x69 + x437 <= 1
C599: + x35 + x146 <= 1
C600: + x376 + x433 <= 1
C601: + x125 + x460 <= 1
C602: + x360 + x475 <= 1
C603: + x7 + x204 <= 1
C604: + x35 + x499 <= 1
C605: + x228 + x267 <= 1
C606: + x197 + x500 <= 1
C607: + x30 + x121 <= 1
C608: + x22 + x263 <= 1
C609: + x133 + x195 <= 1
C610: + x6 + x93 <= 1
C611: + x24 + x487 <= 1
C612: + x2 + x418 <= 1
C613: + x104 + x494 <= 1
C614: + x70 + x83 <= 1
C615: + x56 + x335 <= 1
C616: + x22 + x459 <= 1
C617: + x181 + x265 <= 1
C618: + x262 + x476 <= 1
C619: + x49 + x409 <= 1
C620: + x231 + x432 <= 1
C621: + x108 + x305 <= 1
C622: + x1 + x92 <= 1
C623: + x93 + x389 <= 1
C624: + x31 + x271 <= 1
C625: + x168 + x301 <= 1
C626: + x153 + x391 <= 1
C627: + x147 + x197 <= 1
C628: + x264 + x403 <= 1
C629: + x60 + x145 <= 1
C630: + x6 + x53 <= 1
C631: + x9 + x361 <= 1
C632: + x137 + x371 <= 1
C633: + x11 + x130 <= 1
C634: + x19 + x29 <= 1
C635: + x9 + x27 <= 1
C636: + x2 + x288 <= 1
C637: + x21 + x91 <= 1
C638: + x113 + x114 <= 1
C639: + x6 + x70 <= 1
C640: + x355 + x362 <= 1
C641: + x41 + x93 + x239 <= 1
C642: + x249 + x402 <= 1
C643: + x11 + x17 <= 1
C644: + x90 + x237 <= 1
C645: + x17 + x376 <= 1
C646: + x163 + x184 <= 1
C647: + x207 + x494 <= 1
C648: + x301 + x480 <= 1
C649: + x34 + x232 <= 1
C650: + x7 + x493 <= 1
C651: + x91 + x497 <= 1
C652: + x75 + x407 <= 1
C653: + x230 + x254 <= 1
C654: + x3 + x5 <= 1
C655: + x21 + x476 <= 1
C656: + x42 + x104 <= 1
C657: + x6 + x10 <= 1
C658: + x175 + x255 <= 1
C659: + x22 + x55 <= 1
C660: + x23 + x173 <= 1
C661: + x6 + x173 <= 1
C662: + x68 + x398 <= 1
C663: + x34 + x302 <= 1
C664: + x246 + x478 <= 1
C665: + x88 + x414 <= 1
C666: + x113 + x189 <= 1
C667: + x12 + x65 <= 1
C668: + x3 + x331 <= 1
C669: + x24 + x33 <= 1
C670: + x7 + x25 <= 1
C671: + x321 + x485 <= 1
C672: + x38 + x87 <= 1
C673: + x385 + x490 <= 1
C674: + x206 + x395 <= 1
C675: + x11 + x137 <= 1
C676: + x21 + x141 <= 1
C677: + x187 + x188 <= 1
C678: + x14 + x377 <= 1
C679: + x25 + x200 <= 1
C680: + x16 + x117 <= 1
C681: + x12 + x61 <= 1
C682: + x77 + x172 <= 1
C683: + x106 + x160 <= 1
C684: + x7 + x315 <= 1
C685: + x84 + x108 <= 1
C686: + x87 + x442 <= 1
C687: + x16 + x57 <= 1
C688: + x3 + x161 <= 1
C689: + x376 + x495 <= 1
C690: + x98 + x231 <= 1
C691: + x11 + x289 <= 1
C692: + x84 + x440 <= 1
C693: + x41 + x145 <= 1
C694: + x13 + x74 <= 1
C695: + x7 + x20 <= 1
C696: + x18 + x318 <= 1
C697: + x27 + x303 + x450 <= 1
C698: + x56 + x440 <= 1
C699: + x63 + x352 <= 1
C700: + x135 + x376 <= 1
C701: + x105 + x466 <= 1
C702: + x253 + x397 <= 1
C703: + x19 + x469 <= 1
C704: + x29 + x422 <= 1
C705: + x3 + x104 <= 1
C706: + x6 + x235 <= 1
C707: + x146 + x392 <= 1
C708: + x11 + x232 <= 1
C709: + x302 + x474 <= 1
C710: + x17 + x88 <= 1
C711: + x20 + x67 <= 1
C712: + x47 + x379 <= 1
C713: + x176 + x296 <= 1
C714: + x315 + x338 <= 1
C715: + x35 + x323 <= 1
C716: + x271 + x356 <= 1
C717: + x9 + x466 <= 1
C718: + x135 + x402 <= 1
C719: + x156 + x202 <= 1
C720: + x64 + x310 <= 1
C721: + x192 + x321 <= 1
C722: + x121 + x417 <= 1
C723: + x14 + x236 <= 1
C724: + x17 + x274 <= 1
C725: + x373 + x464 <= 1
C726: + x11 + x300 <= 1
C727: + x47 + x49 <= 1
C728: + x29 + x159 <= 1
C729: + x69 + x425 <= 1
C730: + x60 + x89 <= 1
C731: + x36 + x290 <= 1
C732: + x85 + x396 <= 1
C733: + x6 + x48 <= 1
C734: + x110 + x201 <= 1
C735: + x148 + x161 <= 1
C736: + x33 + x150 <= 1
C737: + x25 + x115 <= 1
C738: + x251 + x412 <= 1
C739: + x17 + x64 <= 1
C740: + x32 + x424 <= 1
C741: + x143 + x223 <= 1
C742: + x37 + x51 <= 1
C743: + x57 + x284 <= 1
C744: + x180 + x326 <= 1
C745: + x24 + x362 <= 1
C746: + x254 + x258 <= 1
C747: + x19 + x62 <= 1
C748: + x210 + x441 <= 1
C749: + x441 + x483 <= 1
C750: + x48 + x68 + x245 <= 1
C751: + x18 + x81 <= 1
C752: + x218 + x265 <= 1
C753: + x408 + x433 <= 1
C754: + x9 + x473 <= 1
C755: + x5 + x16 <= 1
C756: + x33 + x300 <= 1
C757: + x225 + x492 <= 1
C758: + x61 + x66 <= 1
C759: + x142 + x350 <= 1
C760: + x190 + x377 <= 1
C761: + x49 + x207 <= 1
C762: + x3 + x38 <= 1
C763: + x68 + x242 <= 1
C764: + x70 + x286 <= 1
C765: + x9 + x261 <= 1
C766: + x257 + x321 <= 1
C767: + x176 + x216 <= 1
C768: + x4 + x164 <= 1
C769: + x161 + x373 <= 1
C770: + x168 + x418 <= 1
C771: + x471 + x493 <= 1
C772: + x165 + x325 <= 1
C773: + x3 + x364 <= 1
C774: + x81 + x375 <= 1
C775: + x153 + x431 <= 1
C776: + x6 + x442 <= 1
C777: + x17 + x55 <= 1
C778: + x11 + x53 <= 1
C779: + x73 + x84 <= 1
C780: + x48 + x394 <= 1
C781: + x344 + x399 <= 1
C782: + x90 + x430 <= 1
C783: + x93 + x143 <= 1
C784: + x238 + x286 <= 1
C785: + x41 + x445 <= 1
C786: + x5 + x195 <= 1
C787: + x3 + x283 <= 1
C788: + x22 + x218 <= 1
C789: + x5 + x104 <= 1
C790: + x63 + x182 <= 1
C791: + x20 + x81 <= 1
C792: + x412 + x467 <= 1
C793: + x61 + x234 <= 1
C794: + x5 + x338 <= 1
C795: + x7 + x118 <= 1
C796: + x26 + x442 <= 1
C797: + x1 + x146 <= 1
C798: + x2 + x6 <= 1
C799: + x437 + x459 <= 1
C800: + x25 + x228 + x385 <= 1
C801: + x18 + x219 <= 1
C802: + x122 + x132 <= 1
C803: + x98 + x288 <= 1
C804: + x5 + x481 <= 1
C805: + x54 + x149 <= 1
C806: + x318 + x445 <= 1
C807: + x95 + x118 <= 1
C808: + x33 + x53 <= 1
C809: + x23 + x60 <= 1
C810: + x5 + x134 <= 1
C811: + x81 + x223 <= 1
C812: + x19 + x124 <= 1
C813: + x46 + x326 <= 1
C814: + x22 + x31 <= 1
C815: + x32 + x188 <= 1
C816: + x26 + x220 <= 1
C817: + x27 + x204 <= 1
C818: + x6 + x272 <= 1
C819: + x68 + x136 <= 1
C820: + x30 + x410 <= 1
C821: + x26 + x119 <= 1
C822: + x44 + x173 <= 1
C823: + x190 + x326 <= 1
C824: + x21 + x280 <= 1
C825: + x22 + x400 <= 1
C826: + x87 + x184 <= 1
C827: + x108 + x140 <= 1
C828: + x25 + x414 <= 1
C829: + x18 + x168 <= 1
C830: + x6 + x198 <= 1
C831: + x154 + x197 <= 1
C832: + x20 + x251 <= 1
C833: + x40 + x185 <= 1
C834: + x214 + x291 <= 1
C835: + x161 + x421 <= 1
C836: + x79 + x196 <= 1
C837: + x7 + x109 <= 1
C838: + x1 + x292 <= 1
C839: + x51 + x395 <= 1
C840: + x99 + x318 <= 1
C841: + x118 + x208 <= 1
C842: + x8 + x97 <= 1
C843: + x228 + x461 <= 1
C844: + x449 + x496 <= 1
C845: + x219 + x316 <= 1
C846: + x51 + x368 <= 1
C847: + x124 + x304 <= 1
C848: + x14 + x261 <= 1
C849: + x39 + x231 <= 1
C850: + x81 + x297 <= 1
C851: + x9 + x86 <= 1
C852: + x135 + x193 <= 1
C853: + x61 + x309 <= 1
C854: + x63 + x70 <= 1
C855: + x1 + x165 <= 1
C856: + x2 + x43 <= 1
C857: + x24 + x179 <= 1
C858: + x6 + x265 <= 1
C859: + x219 + x336 <= 1
C860: + x2 + x374 <= 1
C861: + x50 + x340 <= 1
C862: + x23 + x430 <= 1
C863: + x7 + x44 <= 1
C864: + x80 + x181 <= 1
C865: + x62 + x223 <= 1
C866: + x9 + x386 <= 1
C867: + x421 + x463 <= 1
C868: + x7 + x213 <= 1
C869: + x154 + x257 <= 1
C870: + x21 + x244 <= 1
C871: + x69 + x473 <= 1
C872: + x119 + x352 <= 1
C873: + x57 + x107 <= 1
C874: + x49 + x136 <= 1
C875: + x67 + x370 <= 1
C876: + x161 + x444 <= 1
C877: + x6 + x96 <= 1
C878: + x2 + x24 <= 1
C879: + x192 + x357 <= 1
C880: + x4 + x235 <= 1
C881: + x52 + x306 <= 1
C882: + x80 + x459 <= 1
C883: + x280 + x362 <= 1
C884: + x1 + x13 <= 1
C885: + x110 + x447 <= 1
C886: + x3 + x15 <= 1
C887: + x139 + x183 <= 1
C888: + x230 + x248 <= 1
C889: + x141 + x151 <= 1
C890: + x69 + x255 <= 1
C891: + x7 + x148 <= 1
C892: + x63 + x77 <= 1
C893: + x10 + x65 <= 1
C894: + x8 + x239 <= 1
C895: + x437 + x493 <= 1
C896: + x114 + x170 <= 1
C897: + x112 + x248 <= 1
C898: + x35 + x73 <= 1
C899: + x90 + x358 <= 1
C900: + x1 + x89 <= 1
C901: + x471 + x498 <= 1
C902: + x7 + x386 <= 1
C903: + x60 + x398 <= 1
C904: + x332 + x481 <= 1
C905: + x214 + x324 <= 1
C906: + x34 + x38 <= 1
C907: + x15 + x99 <= 1
C908: + x73 + x166 <= 1
C909: + x36 + x60 <= 1
C910: + x110 + x225 <= 1
C911: + x74 + x333 <= 1
C912: + x6 + x56 <= 1
C913: + x140 + x296 <= 1
C914: + x22 + x245 <= 1
C915: + x108 + x364 <= 1
C916: + x57 + x114 <= 1
C917: + x103 + x445 <= 1
C918: + x213 + x288 <= 1
C919: + x2 + x283 <= 1
C920: + x21 + x96 <= 1
C921: + x52 + x156 <= 1
C922: + x126 + x417 <= 1
C923: + x312 + x439 <= 1
C924: + x80 + x194 <= 1
C925: + x11 + x22 <= 1
C926: + x22 + x102 <= 1
C927: + x96 + x163 <= 1
C928: + x159 + x166 <= 1
C929: + x362 + x485 <= 1
C930: + x71 + x397 <= 1
C931: + x135 + x274 <= 1
C932: + x84 + x98 <= 1
C933: + x122 + x151 <= 1
C934: + x31 + x142 <= 1
C935: + x33 + x312 <= 1
C936: + x65 + x97 <= 1
C937: + x47 + x177 <= 1
C938: + x12 + x390 <= 1
C939: + x69 + x230 <= 1
C940: + x31 + x484 <= 1
C941: + x37 + x412 <= 1
C942: + x12 + x225 <= 1
C943: + x161 + x236 <= 1
C944: + x380 + x427 <= 1
C945: + x6 + x176 <= 1
C946: + x49 + x122 <= 1
C947: + x31 + x186 <= 1
C948: + x80 + x187 <= 1
C949: + x19 + x299 <= 1
C950: + x11 + x41 <= 1
C951: + x3 + x94 <= 1
C952: + x23 + x25 <= 1
C953: + x154 + x224 <= 1
C954: + x117 + x190 <= 1
C955: + x36 + x160 <= 1
C956: + x300 + x443 <= 1
C957: + x46 + x136 <= 1
C958: + x49 + x182 <= 1
C959: + x1 + x108 <= 1
C960: + x33 + x133 <= 1
C961: + x32 + x437 <= 1
C962: + x61 + x142 <= 1
C963: + x168 + x285 <= 1
C964: + x356 + x476 <= 1
C965: + x149 + x241 <= 1
C966: + x26 + x305 <= 1
C967: + x15 + x178 <= 1
C968: + x228 + x484 <= 1
C969: + x136 + x411 <= 1
C970: + x19 + x205 <= 1
C971: + x146 + x394 <= 1
C972: + x176 + x447 <= 1
C973: + x19 + x370 <= 1
C974: + x243 + x276 <= 1
C975: + x7 + x142 <= 1
C976: + x52 + x460 <= 1
C977: + x109 + x182 <= 1
C978: + x135 + x325 <= 1
C979: + x20 + x170 <= 1
C980: + x49 + x113 <= 1
C981: + x69 + x116 <= 1
C982: + x342 + x444 <= 1
C983: + x172 + x480 <= 1
C984: + x411 + x413 <= 1
C985: + x21 + x300 <= 1
C986: + x14 + x71 <= 1
C987: + x5 + x174 <= 1
C988: + x7 + x186 <= 1
C989: + x299 + x399 <= 1
C990: + x20 + x279 <= 1
C991: + x353 + x383 <= 1
C992: + x32 + x287 <= 1
C993: + x18 + x47 <= 1
C994: + x119 + x161 <= 1
C995: + x95 + x476 <= 1
C996: + x175 + x477 <= 1
C997: + x51 + x206 <= 1
C998: + x396 + x466 <= 1
C999: + x90 + x95 <= 1
C1000: + x6 + x75 <= 1
C1001: + x139 + x209 <= 1
C1002: + x370 + x428 <= 1
C1003: + x23 + x112 <= 1
C1004: + x274 + x342 <= 1
C1005: + x47 + x98 <= 1
C1006: + x59 + x479 <= 1
C1007: + x108 + x406 <= 1
C1008: + x65 + x127 <= 1
C1009: + x11 + x350 <= 1
C1010: + x176 + x283 <= 1
C1011: + x96 + x290 <= 1
C1012: + x72 + x79 <= 1
C1013: + x2 + x55 <= 1
C1014: + x6 + x365 <= 1
C1015: + x219 + x292 <= 1
C1016: + x20 + x175 <= 1
C1017: + x285 + x329 <= 1
C1018: + x205 + x211 <= 1
C1019: + x61 + x80 <= 1
C1020: + x150 + x389 <= 1
C1021: + x7 + x24 <= 1
C1022: + x8 + x416 <= 1
C1023: + x90 + x412 <= 1
C1024: + x6 + x35 <= 1
C1025: + x3 + x241 <= 1
C1026: + x112 + x215 <= 1
C1027: + x31 + x59 <= 1
C1028: + x5 + x74 <= 1
C1029: + x16 + x122 <= 1
C1030: + x165 + x339 <= 1
C1031: + x14 + x465 <= 1
C1032: + x61 + x132 <= 1
C1033: + x255 + x381 <= 1
C1034: + x147 + x231 <= 1
C1035: + x12 + x348 <= 1
C1036: + x167 + x238 <= 1
C1037: + x26 + x259 <= 1
C1038: + x7 + x237 <= 1
C1039: + x102 + x163 <= 1
C1040: + x5 + x126 <= 1
C1041: + x14 + x290 <= 1
C1042: + x7 + x467 <= 1
C1043: + x390 + x491 <= 1
C1044: + x76 + x287 <= 1
C1045: + x85 + x452 <= 1
C1046: + x357 + x425 <= 1
C1047: + x243 + x262 <= 1
C1048: + x11 + x115 <= 1
C1049: + x20 + x345 <= 1
C1050: + x21 + x331 <= 1
C1051: + x5 + x13 <= 1
C1052: + x6 + x155 <= 1
C1053: + x16 + x179 <= 1
C1054: + x1 + x37 <= 1
C1055: + x194 + x222 <= 1
C1056: + x59 + x302 <= 1
C1057: + x86 + x429 <= 1
C1058: + x13 + x125 <= 1
C1059: + x398 + x492 <= 1
C1060: + x6 + x44 <= 1
C1061: + x109 + x366 <= 1
C1062: + x10 + x406 <= 1
C1063: + x97 + x200 <= 1
C1064: + x146 + x484 <= 1
C1065: + x29 + x175 <= 1
C1066: + x12 + x47 <= 1
C1067: + x68 + x327 <= 1
C1068: + x199 + x379 <= 1
C1069: + x134 + x248 <= 1
C1070: + x228 + x229 <= 1
C1071: + x18 + x359 <= 1
C1072: + x27 + x117 <= 1
C1073: + x144 + x291 <= 1
C1074: + x56 + x93 <= 1
C1075: + x25 + x230 <= 1
C1076: + x7 + x470 <= 1
C1077: + x385 + x423 <= 1
C1078: + x204 + x219 <= 1
C1079: + x211 + x470 <= 1
C1080: + x105 + x294 <= 1
C1081: + x5 + x12 <= 1
C1082: + x36 + x80 <= 1
C1083: + x1 + x60 <= 1
C1084: + x55 + x355 <= 1
C1085: + x67 + x404 <= 1
C1086: + x213 + x375 <= 1
C1087: + x24 + x76 <= 1
C1088: + x9 + x428 <= 1
C1089: + x3 + x34 <= 1
C1090: + x14 + x114 <= 1
C1091: + x23 + x37 <= 1
C1092: + x6 + x21 <= 1
C1093: + x19 + x436 <= 1
C1094: + x146 + x314 <= 1
C1095: + x7 + x163 <= 1
C1096: + x65 + x166 <= 1
C1097: + x25 + x463 <= 1
C1098: + x47 + x431 <= 1
C1099: + x5 + x64 <= 1
C1100: + x6 + x259 <= 1
C1101: + x140 + x424 <= 1
C1102: + x2 + x78 <= 1
C1103: + x64 + x372 <= 1
C1104: + x154 + x315 <= 1
C1105: + x16 + x253 <= 1
C1106: + x92 + x168 <= 1
C1107: + x116 + x247 <= 1
C1108: + x43 + x187 <= 1
C1109: + x6 + x311 <= 1
C1110: + x72 + x151 <= 1
C1111: + x1 + x388 <= 1
C1112: + x269 + x475 <= 1
C1113: + x5 + x243 <= 1
C1114: + x171 + x206 <= 1
C1115: + x80 + x449 <= 1
C1116: + x182 + x254 <= 1
C1117: + x268 + x312 <= 1
C1118: + x400 + x458 <= 1
C1119: + x20 + x33 <= 1
C1120: + x3 + x57 <= 1
C1121: + x76 + x144 <= 1
C1122: + x22 + x456 <= 1
C1123: + x6 + x30 <= 1
C1124: + x9 + x272 <= 1
C1125: + x24 + x424 <= 1
C1126: + x10 + x91 <= 1
C1127: + x11 + x169 <= 1
C1128: + x9 + x34 <= 1
C1129: + x77 + x103 <= 1
C1130: + x31 + x286 <= 1
C1131: + x70 + x148 <= 1
C1132: + x134 + x250 <= 1
C1133: + x164 + x467 <= 1
C1134: + x20 + x420 <= 1
C1135: + x413 + x417 <= 1
C1136: + x6 + x194 <= 1
C1137: + x117 + x173 <= 1
C1138: + x97 + x308 <= 1
C1139: + x40 + x423 <= 1
C1140: + x161 + x441 <= 1
C1141: + x172 + x420 <= 1
C1142: + x194 + x262 <= 1
C1143: + x31 + x107 <= 1
C1144: + x6 + x321 <= 1
C1145: + x1 + x10 <= 1
C1146: + x128 + x181 <= 1
C1147: + x76 + x403 <= 1
C1148: + x135 + x284 <= 1
C1149: + x4 + x5 <= 1
C1150: + x11 + x193 <= 1
C1151: + x15 + x439 <= 1
C1152: + x175 + x401 <= 1
C1153: + x160 + x197 <= 1
C1154: + x63 + x387 <= 1
C1155: + x3 + x213 <= 1
C1156: + x189 + x323 <= 1
C1157: + x180 + x304 <= 1
C1158: + x51 + x233 <= 1
C1159: + x17 + x25 <= 1
C1160: + x209 + x217 <= 1
C1161: + x6 + x408 <= 1
C1162: + x57 + x256 <= 1
C1163: + x64 + x354 <= 1
C1164: + x51 + x78 <= 1
C1165: + x99 + x180 <= 1
C1166: + x9 + x355 <= 1
C1167: + x7 + x286 <= 1
C1168: + x101 + x201 <= 1
C1169: + x157 + x171 <= 1
C1170: + x34 + x146 <= 1
C1171: + x108 + x375 <= 1
C1172: + x38 + x53 <= 1
C1173: + x113 + x124 <= 1
C1174: + x50 + x260 <= 1
C1175: + x161 + x448 <= 1
C1176: + x26 + x400 <= 1
C1177: + x88 + x162 <= 1
C1178: + x36 + x369 <= 1
C1179: + x86 + x238 <= 1
C1180: + x95 + x217 <= 1
C1181: + x6 + x255 <= 1
C1182: + x354 + x451 <= 1
C1183: + x18 + x201 <= 1
C1184: + x48 + x67 <= 1
C1185: + x24 + x87 <= 1
C1186: + x38 + x121 <= 1
C1187: + x49 + x317 <= 1
C1188: + x10 + x69 <= 1
C1189: + x37 + x409 <= 1
C1190: + x86 + x306 <= 1
C1191: + x15 + x248 <= 1
C1192: + x7 + x390 <= 1
C1193: + x218 + x349 <= 1
C1194: + x11 + x320 <= 1
C1195: + x17 + x32 <= 1
C1196: + x199 + x359 <= 1
C1197: + x15 + x454 <= 1
C1198: + x5 + x188 <= 1
C1199: + x146 + x345 <= 1
C1200: + x2 + x244 <= 1
C1201: + x2 + x8 + x9 <= 1
C1202: + x17 + x175 <= 1
C1203: + x299 + x318 <= 1
C1204: + x1 + x105 <= 1
C1205: + x82 + x497 <= 1
C1206: + x319 + x488 <= 1
C1207: + x12 + x462 <= 1
C1208: + x6 + x69 <= 1
C1209: + x83 + x164 <= 1
C1210: + x11 + x18 <= 1
C1211: + x360 + x391 <= 1
C1212: + x15 + x179 <= 1
C1213: + x23 + x82 <= 1
C1214: + x16 + x160 <= 1
C1215: + x19 + x210 <= 1
C1216: + x76 + x385 <= 1
C1217: + x21 + x203 <= 1
C1218: + x320 + x333 <= 1
C1219: + x167 + x483 <= 1
C1220: + x5 + x474 <= 1
C1221: + x17 + x91 <= 1
C1222: + x3 + x6 <= 1
C1223: + x113 + x500 <= 1
C1224: + x196 + x421 <= 1
C1225: + x115 + x460 <= 1
C1226: + x6 + x9 <= 1
C1227: + x8 + x277 <= 1
C1228: + x63 + x397 <= 1
C1229: + x147 + x174 <= 1
C1230: + x136 + x303 <= 1
C1231: + x22 + x54 <= 1
C1232: + x5 + x20 <= 1
C1233: + x44 + x105 <= 1
C1234: + x36 + x88 <= 1
C1235: + x146 + x449 <= 1
C1236: + x29 + x138 <= 1
C1237: + x142 + x306 <= 1
C1238: + x44 + x152 <= 1
C1239: + x19 + x295 <= 1
C1240: + x79 + x269 <= 1
C1241: + x385 + x491 <= 1
C1242: + x8 + x422 <= 1
C1243: + x167 + x316 <= 1
C1244: + x69 + x150 <= 1
C1245: + x141 + x254 <= 1
C1246: + x16 + x358 <= 1
C1247: + x101 + x255 <= 1
C1248: + x228 + x316 <= 1
C1249: + x264 + x298 <= 1
C1250: + x447 + x455 <= 1
C1251: + x19 + x21 <= 1
C1252: + x3 + x251 <= 1
C1253: + x90 + x319 <= 1
C1254: + x127 + x193 <= 1
C1255: + x3 + x416 <= 1
C1256: + x339 + x488 <= 1
C1257: + x11 + x25 <= 1
C1258: + x31 + x96 <= 1
C1259: + x14 + x62 <= 1
C1260: + x440 + x449 <= 1
C1261: + x154 + x240 <= 1
C1262: + x11 + x254 <= 1
C1263: + x60 + x119 <= 1
C1264: + x5 + x449 <= 1
C1265: + x31 + x334 <= 1
C1266: + x9 + x79 <= 1
C1267: + x106 + x397 <= 1
C1268: + x19 + x366 <= 1
C1269: + x55 + x227 <= 1
C1270: + x165 + x285 <= 1
C1271: + x3 + x29 <= 1
C1272: + x1 + x444 <= 1
C1273: + x200 + x462 <= 1
C1274: + x6 + x149 <= 1
C1275: + x16 + x169 <= 1
C1276: + x228 + x468 <= 1
C1277: + x146 + x442 <= 1
C1278: + x24 + x57 <= 1
C1279: + x6 + x387 <= 1
C1280: + x182 + x313 <= 1
C1281: + x6 + x38 <= 1
C1282: + x79 + x177 <= 1
C1283: + x164 + x225 <= 1
C1284: + x131 + x447 <= 1
C1285: + x31 + x56 <= 1
C1286: + x38 + x48 <= 1
C1287: + x27 + x273 <= 1
C1288: + x54 + x77 <= 1
C1289: + x319 + x371 <= 1
C1290: + x84 + x149 <= 1
C1291: + x1 + x260 <= 1
C1292: + x140 + x167 <= 1
C1293: + x31 + x71 <= 1
C1294: + x401 + x468 <= 1
C1295: + x3 + x101 <= 1
C1296: + x111 + x483 <= 1
C1297: + x91 + x303 <= 1
C1298: + x7 + x234 <= 1
C1299: + x9 + x153 <= 1
C1300: + x85 + x356 <= 1
C1301: + x115 + x208 <= 1
C1302: + x24 + x126 <= 1
C1303: + x255 + x457 <= 1
C1304: + x71 + x185 <= 1
C1305: + x20 + x344 <= 1
C1306: + x59 + x78 <= 1
C1307: + x108 + x212 <= 1
C1308: + x11 + x297 <= 1
C1309: + x37 + x235 <= 1
C1310: + x225 + x470 <= 1
C1311: + x7 + x12 <= 1
C1312: + x30 + x278 <= 1
C1313: + x362 + x408 <= 1
C1314: + x6 + x47 <= 1
C1315: + x194 + x330 <= 1
C1316: + x76 + x124 <= 1
C1317: + x324 + x392 <= 1
C1318: + x48 + x242 <= 1
C1319: + x4 + x432 <= 1
C1320: + x26 + x108 <= 1
C1321: + x7 + x72 <= 1
C1322: + x83 + x141 <= 1
C1323: + x397 + x469 <= 1
C1324: + x64 + x330 <= 1
C1325: + x92 + x174 <= 1
C1326: + x105 + x148 <= 1
C1327: + x268 + x322 <= 1
C1328: + x17 + x80 <= 1
C1329: + x14 + x385 <= 1
C1330: + x98 + x405 <= 1
C1331: + x109 + x438 <= 1
C1332: + x10 + x97 <= 1
C1333: + x32 + x138 <= 1
C1334: + x6 + x135 <= 1
C1335: + x219 + x311 <= 1
C1336: + x377 + x443 <= 1
C1337: + x31 + x151 <= 1
C1338: + x4 + x22 <= 1
C1339: + x10 + x45 <= 1
C1340: + x54 + x409 <= 1
C1341: + x375 + x388 <= 1
C1342: + x90 + x274 <= 1
C1343: + x100 + x119 <= 1
C1344: + x39 + x162 <= 1
C1345: + x77 + x109 <= 1
C1346: + x68 + x331 <= 1
C1347: + x5 + x196 <= 1
C1348: + x91 + x305 <= 1
C1349: + x382 + x453 <= 1
C1350: + x111 + x131 <= 1
C1351: + x101 + x224 <= 1
C1352: + x17 + x71 <= 1
C1353: + x143 + x338 <= 1
C1354: + x19 + x343 <= 1
C1355: + x313 + x403 <= 1
C1356: + x12 + x31 <= 1
C1357: + x6 + x109 <= 1
C1358: + x7 + x107 <= 1
C1359: + x10 + x471 <= 1
C1360: + x2 + x5 <= 1
C1361: + x365 + x404 <= 1
C1362: + x64 + x315 <= 1
C1363: + x33 + x455 <= 1
C1364: + x6 + x347 <= 1
C1365: + x83 + x426 <= 1
C1366: + x64 + x410 <= 1
C1367: + x13 + x120 <= 1
C1368: + x31 + x154 <= 1
C1369: + x31 + x339 <= 1
C1370: + x94 + x125 <= 1
C1371: + x95 + x123 <= 1
C1372: + x6 + x17 <= 1
C1373: + x154 + x192 <= 1
C1374: + x63 + x68 <= 1
C1375: + x31 + x41 <= 1
C1376: + x13 + x199 <= 1
C1377: + x42 + x426 <= 1
C1378: + x253 + x310 <= 1
C1379: + x6 + x271 <= 1
C1380: + x19 + x63 + x75 <= 1
C1381: + x108 + x496 <= 1
C1382: + x11 + x61 <= 1
C1383: + x29 + x436 <= 1
C1384: + x75 + x253 <= 1
C1385: + x19 + x45 <= 1
C1386: + x1 + x251 <= 1
C1387: + x41 + x66 <= 1
C1388: + x90 + x295 <= 1
C1389: + x326 + x462 <= 1
C1390: + x1 + x392 <= 1
C1391: + x48 + x263 <= 1
C1392: + x106 + x268 <= 1
C1393: + x170 + x415 <= 1
C1394: + x6 + x86 <= 1
C1395: + x238 + x330 <= 1
C1396: + x42 + x487 <= 1
C1397: + x126 + x188 <= 1
C1398: + x17 + x205 <= 1
C1399: + x1 + x55 <= 1
C1400: + x205 + x252 <= 1
C1401: + x26 + x51 <= 1
C1402: + x218 + x294 <= 1
C1403: + x164 + x491 <= 1
C1404: + x156 + x282 <= 1
C1405: + x49 + x259 <= 1
C1406: + x6 + x26 <= 1
C1407: + x180 + x400 <= 1
C1408: + x18 + x281 <= 1
C1409: + x374 + x486 <= 1
C1410: + x2 + x42 <= 1
C1411: + x214 + x487 <= 1
C1412: + x199 + x474 <= 1
C1413: + x81 + x116 <= 1
C1414: + x309 + x463 <= 1
C1415: + x56 + x58 <= 1
C1416: + x30 + x39 <= 1
C1417: + x12 + x81 <= 1
C1418: + x48 + x316 <= 1
C1419: + x6 + x427 <= 1
C1420: + x7 + x41 <= 1
C1421: + x121 + x498 <= 1
C1422: + x37 + x486 <= 1
C1423: + x76 + x256 <= 1
C1424: + x104 + x270 <= 1
C1425: + x95 + x170 <= 1
C1426: + x108 + x132 <= 1
C1427: + x90 + x218 <= 1
C1428: + x154 + x205 <= 1
C1429: + x92 + x177 <= 1
C1430: + x11 + x153 <= 1
C1431: + x83 + x360 <= 1
C1432: + x303 + x315 <= 1
C1433: + x154 + x419 <= 1
C1434: + x73 + x466 <= 1
C1435: + x174 + x277 <= 1
C1436: + x12 + x13 <= 1
C1437: + x6 + x95 <= 1
C1438: + x74 + x129 <= 1
C1439: + x11 + x479 <= 1
C1440: + x2 + x23 <= 1
C1441: + x126 + x266 <= 1
C1442: + x1 + x14 <= 1
C1443: + x60 + x433 <= 1
C1444: + x46 + x73 <= 1
C1445: + x3 + x16 <= 1
C1446: + x131 + x249 <= 1
C1447: + x411 + x456 <= 1
C1448: + x25 + x33 <= 1
C1449: + x43 + x119 <= 1
C1450: + x356 + x409 <= 1
C1451: + x20 + x320 <= 1
C1452: + x111 + x293 <= 1
C1453: + x51 + x229 <= 1
C1454: + x5 + x284 <= 1
C1455: + x17 + x29 <= 1
C1456: + x7 + x36 <= 1
C1457: + x84 + x186 <= 1
C1458: + x66 + x276 <= 1
C1459: + x88 + x205 <= 1
C1460: + x18 + x145 <= 1
C1461: + x16 + x207 <= 1
C1462: + x11 + x132 <= 1
C1463: + x46 + x363 <= 1
C1464: + x112 + x187 <= 1
C1465: + x6 + x293 <= 1
C1466: + x7 + x435 <= 1
C1467: + x49 + x192 <= 1
C1468: + x231 + x327 <= 1
C1469: + x113 + x128 <= 1
C1470: + x3 + x394 <= 1
C1471: + x5 + x336 <= 1
C1472: + x7 + x96 <= 1
C1473: + x134 + x147 <= 1
C1474: + x328 + x371 <= 1
C1475: + x172 + x413 <= 1
C1476: + x339 + x498 <= 1
C1477: + x22 + x101 <= 1
C1478: + x232 + x383 <= 1
C1479: + x7 + x334 <= 1
C1480: + x12 + x147 <= 1
C1481: + x31 + x243 <= 1
C1482: + x268 + x346 <= 1
C1483: + x32 + x352 <= 1
C1484: + x182 + x367 <= 1
C1485: + x19 + x376 <= 1
C1486: + x64 + x236 <= 1
C1487: + x50 + x135 <= 1
C1488: + x43 + x114 <= 1
C1489: + x6 + x12 <= 1
C1490: + x24 + x434 <= 1
C1491: + x32 + x499 <= 1
C1492: + x38 + x275 <= 1
C1493: + x285 + x471 <= 1
C1494: + x17 + x247 <= 1
C1495: + x18 + x249 <= 1
C1496: + x63 + x363 <= 1
C1497: + x3 + x333 <= 1
C1498: + x149 + x404 <= 1
C1499: + x4 + x62 <= 1
C1500: + x205 + x222 <= 1
C1501: + x302 + x414 <= 1
C1502: + x31 + x191 <= 1
C1503: + x7 + x27 <= 1
C1504: + x262 + x344 <= 1
C1505: + x37 + x95 <= 1
C1506: + x57 + x139 <= 1
C1507: + x113 + x429 <= 1
C1508: + x31 + x429 <= 1
C1509: + x60 + x152 <= 1
C1510: + x103 + x204 <= 1
C1511: + x70 + x456 <= 1
C1512: + x74 + x472 <= 1
C1513: + x14 + x478 <= 1
C1514: + x270 + x361 <= 1
C1515: + x61 + x143 <= 1
C1516: + x128 + x437 <= 1
C1517: + x28 + x393 <= 1
C1518: + x24 + x346 <= 1
C1519: + x7 + x244 <= 1
C1520: + x16 + x63 <= 1
C1521: + x47 + x185 <= 1
C1522: + x33 + x82 <= 1
C1523: + x5 + x379 <= 1
C1524: + x6 + x117 <= 1
C1525: + x15 + x34 <= 1
C1526: + x65 + x134 <= 1
C1527: + x155 + x197 <= 1
C1528: + x300 + x348 <= 1
C1529: + x93 + x252 <= 1
C1530: + x5 + x32 <= 1
C1531: + x126 + x368 <= 1
C1532: + x27 + x45 <= 1
C1533: + x4 + x35 <= 1
C1534: + x70 + x139 <= 1
C1535: + x6 + x390 <= 1
C1536: + x7 + x30 <= 1
C1537: + x10 + x272 <= 1
C1538: + x241 + x415 <= 1
C1539: + x48 + x438 <= 1
C1540: + x146 + x342 <= 1
C1541: + x52 + x78 <= 1
C1542: + x35 + x48 <= 1
C1543: + x273 + x308 <= 1
C1544: + x68 + x348 <= 1
C1545: + x270 + x354 <= 1
C1546: + x16 + x407 <= 1
C1547: + x6 + x74 <= 1
C1548: + x100 + x419 <= 1
C1549: + x268 + x489 <= 1
C1550: + x14 + x58 <= 1
C1551: + x100 + x258 <= 1
C1552: + x16 + x225 <= 1
C1553: + x228 + x492 <= 1
C1554: + x1 + x19 <= 1
C1555: + x179 + x222 <= 1
C1556: + x324 + x458 <= 1
C1557: + x20 + x65 <= 1
C1558: + x47 + x196 <= 1
C1559: + x25 + x54 <= 1
C1560: + x62 + x113 <= 1
C1561: + x63 + x103 <= 1
C1562: + x23 + x185 <= 1
C1563: + x99 + x234 <= 1
C1564: + x16 + x181 <= 1
C1565: + x9 + x194 <= 1
C1566: + x64 + x111 <= 1
C1567: + x131 + x268 <= 1
C1568: + x187 + x221 <= 1
C1569: + x40 + x275 <= 1
C1570: + x149 + x418 <= 1
C1571: + x78 + x454 <= 1
C1572: + x7 + x21 <= 1
C1573: + x3 + x484 <= 1
C1574: + x259 + x451 <= 1
C1575: + x109 + x376 <= 1
C1576: + x74 + x212 <= 1
C1577: + x36 + x411 <= 1
C1578: + x10 + x404 <= 1
C1579: + x3 + x242 <= 1
C1580: + x5 + x392 <= 1
C1581: + x26 + x204 <= 1
C1582: + x18 + x39 <= 1
C1583: + x135 + x361 <= 1
C1584: + x302 + x324 <= 1
C1585: + x396 + x458 <= 1
C1586: + x74 + x189 <= 1
C1587: + x327 + x342 <= 1
C1588: + x33 + x497 <= 1
C1589: + x15 + x129 <= 1
C1590: + x91 + x242 <= 1
C1591: + x16 + x234 <= 1
C1592: + x10 + x19 <= 1
C1593: + x38 + x189 <= 1
C1594: + x108 + x398 <= 1
C1595: + x55 + x250 <= 1
C1596: + x76 + x274 <= 1
C1597: + x3 + x20 <= 1
C1598: + x112 + x440 <= 1
C1599: + x42 + x85 <= 1
C1600: + x150 + x284 <= 1
C1601: + x97 + x304 <= 1
C1602: + x67 + x359 <= 1
C1603: + x164 + x363 <= 1
C1604: + x219 + x407 <= 1
C1605: + x2 + x15 <= 1
C1606: + x122 + x282 <= 1
C1607: + x47 + x473 <= 1
C1608: + x19 + x244 <= 1
C1609: + x66 + x490 <= 1
C1610: + x351 + x378 <= 1
C1611: + x79 + x355 <= 1
C1612: + x136 + x227 <= 1
C1613: + x56 + x357 <= 1
C1614: + x60 + x187 <= 1
C1615: + x224 + x350 <= 1
C1616: + x160 + x233 <= 1
C1617: + x6 + x43 <= 1
C1618: + x152 + x224 <= 1
C1619: + x111 + x180 <= 1
C1620: + x2 + x219 <= 1
C1621: + x77 + x328 <= 1
C1622: + x22 + x24 <= 1
C1623: + x5 + x50 <= 1
C1624: + x303 + x346 <= 1
C1625: + x32 + x177 <= 1
C1626: + x159 + x457 <= 1
C1627: + x36 + x182 <= 1
C1628: + x84 + x400 <= 1
C1629: + x68 + x157 <= 1
C1630: + x92 + x352 <= 1
C1631: + x318 + x378 <= 1
C1632: + x2 + x76 <= 1
C1633: + x25 + x405 <= 1
C1634: + x105 + x152 <= 1
C1635: + x31 + x239 <= 1
C1636: + x4 + x110 <= 1
C1637: + x23 + x220 <= 1
C1638: + x111 + x345 <= 1
C1639: + x101 + x279 <= 1
C1640: + x225 + x260 <= 1
C1641: + x24 + x313 <= 1
C1642: + x325 + x351 <= 1
C1643: + x99 + x293 <= 1
C1644: + x169 + x430 <= 1
C1645: + x33 + x214 <= 1
C1646: + x6 + x497 <= 1
C1647: + x124 + x277 <= 1
C1648: + x157 + x440 <= 1
C1649: + x167 + x289 <= 1
C1650: + x296 + x307 <= 1
C1651: + x43 + x410 <= 1
C1652: + x100 + x329 <= 1
C1653: + x1 + x172 <= 1
C1654: + x33 + x416 <= 1
C1655: + x34 + x264 <= 1
C1656: + x244 + x472 <= 1
C1657: + x154 + x393 <= 1
C1658: + x10 + x180 <= 1
C1659: + x90 + x278 <= 1
C1660: + x85 + x271 <= 1
C1661: + x1 + x73 <= 1
C1662: + x15 + x498 <= 1
C1663: + x127 + x347 <= 1
C1664: + x110 + x259 <= 1
C1665: + x7 + x51 <= 1
C1666: + x228 + x237 <= 1
C1667: + x3 + x115 <= 1
C1668: + x12 + x329 <= 1
C1669: + x60 + x144 <= 1
C1670: + x78 + x218 <= 1
C1671: + x89 + x220 <= 1
C1672: + x152 + x169 <= 1
C1673: + x9 + x139 <= 1
C1674: + x216 + x446 <= 1
C1675: + x237 + x308 <= 1
C1676: + x56 + x85 <= 1
C1677: + x31 + x210 <= 1
C1678: + x171 + x373 <= 1
C1679: + x1 + x389 <= 1
C1680: + x102 + x311 <= 1
C1681: + x33 + x126 <= 1
C1682: + x126 + x401 <= 1
C1683: + x7 + x111 <= 1
C1684: + x19 + x65 <= 1
C1685: + x85 + x237 <= 1
C1686: + x286 + x446 <= 1
C1687: + x189 + x369 <= 1
C1688: + x33 + x296 <= 1
C1689: + x26 + x46 <= 1
C1690: + x49 + x272 <= 1
C1691: + x114 + x472 <= 1
C1692: + x196 + x433 <= 1
C1693: + x353 + x447 <= 1
C1694: + x81 + x212 <= 1
C1695: + x92 + x228 <= 1
C1696: + x66 + x405 <= 1
C1697: + x5 + x40 <= 1
C1698: + x56 + x61 <= 1
C1699: + x3 + x384 <= 1
C1700: + x190 + x321 <= 1
C1701: + x120 + x469 <= 1
C1702: + x126 + x199 <= 1
C1703: + x18 + x70 <= 1
C1704: + x65 + x92 <= 1
C1705: + x2 + x18 <= 1
C1706: + x31 + x108 <= 1
C1707: + x23 + x69 <= 1
C1708: + x1 + x11 <= 1
C1709: + x19 + x221 <= 1
C1710: + x28 + x140 <= 1
C1711: + x122 + x144 <= 1
C1712: + x42 + x262 <= 1
C1713: + x33 + x319 <= 1
C1714: + x10 + x301 <= 1
C1715: + x130 + x246 <= 1
C1716: + x221 + x307 <= 1
C1717: + x7 + x158 <= 1
C1718: + x1 + x373 <= 1
C1719: + x1 + x186 <= 1
C1720: + x214 + x483 <= 1
C1721: + x7 + x388 <= 1
C1722: + x3 + x375 <= 1
C1723: + x30 + x35 <= 1
C1724: + x4 + x52 <= 1
C1725: + x99 + x496 <= 1
C1726: + x139 + x253 <= 1
C1727: + x24 + x372 <= 1
C1728: + x16 + x279 <= 1
C1729: + x62 + x488 <= 1
C1730: + x10 + x15 <= 1
C1731: + x1 + x246 <= 1
C1732: + x192 + x275 <= 1
C1733: + x76 + x95 <= 1
C1734: + x13 + x46 <= 1
C1735: + x5 + x83 <= 1
C1736: + x43 + x337 <= 1
C1737: + x152 + x457 <= 1
C1738: + x355 + x365 <= 1
C1739: + x5 + x226 <= 1
C1740: + x36 + x102 <= 1
C1741: + x144 + x461 <= 1
C1742: + x292 + x464 <= 1
C1743: + x56 + x127 <= 1
C1744: + x13 + x98 <= 1
C1745: + x125 + x172 <= 1
C1746: + x24 + x82 <= 1
C1747: + x79 + x383 <= 1
C1748: + x5 + x369 <= 1
C1749: + x35 + x312 <= 1
C1750: + x146 + x217 <= 1
C1751: + x110 + x349 <= 1
C1752: + x144 + x382 <= 1
C1753: + x8 + x287 <= 1
C1754: + x22 + x44 <= 1
C1755: + x5 + x22 <= 1
C1756: + x10 + x76 <= 1
C1757: + x141 + x369 <= 1
C1758: + x108 + x240 <= 1
C1759: + x74 + x268 <= 1
C1760: + x193 + x195 <= 1
C1761: + x4 + x57 <= 1
C1762: + x31 + x269 <= 1
C1763: + x178 + x294 <= 1
C1764: + x19 + x301 <= 1
C1765: + x12 + x384 <= 1
C1766: + x48 + x420 <= 1
C1767: + x32 + x38 <= 1
C1768: + x73 + x171 <= 1
C1769: + x118 + x137 <= 1
C1770: + x19 + x27 <= 1
C1771: + x2 + x243 <= 1
C1772: + x303 + x322 <= 1
C1773: + x5 + x90 <= 1
C1774: + x159 + x465 <= 1
C1775: + x108 + x367 <= 1
C1776: + x73 + x477 <= 1
C1777: + x29 + x72 <= 1
C1778: + x22 + x270 <= 1
C1779: + x6 + x68 <= 1
C1780: + x257 + x278 <= 1
C1781: + x77 + x175 <= 1
C1782: + x69 + x340 <= 1
C1783: + x421 + x423 <= 1
C1784: + x377 + x475 <= 1
C1785: + x24 + x111 <= 1
C1786: + x17 + x92 <= 1
C1787: + x474 + x495 <= 1
C1788: + x11 + x341 <= 1
C1789: + x1 + x5 + x6 + x7 <= 1
C1790: + x32 + x158 <= 1
C1791: + x6 + x171 <= 1
C1792: + x171 + x293 <= 1
C1793: + x24 + x273 <= 1
C1794: + x6 + x358 <= 1
C1795: + x181 + x228 <= 1
C1796: + x195 + x246 <= 1
C1797: + x13 + x77 <= 1
C1798: + x51 + x156 <= 1
C1799: + x51 + x335 <= 1
C1800: + x42 + x292 <= 1
C1801: + x33 + x43 <= 1
C1802: + x150 + x209 <= 1
C1803: + x6 + x60 <= 1
C1804: + x44 + x310 <= 1
C1805: + x245 + x339 <= 1
C1806: + x126 + x452 <= 1
C1807: + x11 + x183 <= 1
C1808: + x72 + x471 <= 1
C1809: + x55 + x267 <= 1
C1810: + x41 + x59 <= 1
C1811: + x116 + x265 <= 1
C1812: + x127 + x194 <= 1
C1813: + x330 + x367 <= 1
C1814: + x147 + x388 <= 1
C1815: + x13 + x462 <= 1
C1816: + x15 + x26 <= 1
C1817: + x64 + x347 <= 1
C1818: + x2 + x136 <= 1
C1819: + x148 + x353 <= 1
C1820: + x193 + x261 <= 1
C1821: + x268 + x339 <= 1
C1822: + x150 + x435 <= 1
C1823: + x7 + x486 <= 1
C1824: + x63 + x135 <= 1
C1825: + x156 + x481 <= 1
C1826: + x2 + x291 <= 1
C1827: + x29 + x480 <= 1
C1828: + x33 + x86 <= 1
C1829: + x31 + x496 <= 1
C1830: + x19 + x89 <= 1
C1831: + x65 + x335 <= 1
C1832: + x384 + x390 <= 1
C1833: + x6 + x367 <= 1
C1834: + x100 + x160 <= 1
C1835: + x1 + x44 <= 1
C1836: + x47 + x48 <= 1
C1837: + x3 + x324 <= 1
C1838: + x60 + x70 <= 1
C1839: + x25 + x162 <= 1
C1840: + x7 + x18 <= 1
C1841: + x119 + x267 <= 1
C1842: + x118 + x304 <= 1
C1843: + x7 + x264 <= 1
C1844: + x16 + x217 <= 1
C1845: + x11 + x178 <= 1
C1846: + x21 + x150 <= 1
C1847: + x112 + x213 <= 1
C1848: + x14 + x165 <= 1
C1849: + x210 + x309 <= 1
C1850: + x102 + x340 <= 1
C1851: + x38 + x47 <= 1
C1852: + x214 + x224 <= 1
C1853: + x26 + x98 <= 1
C1854: + x80 + x211 <= 1
C1855: + x90 + x418 <= 1
C1856: + x109 + x396 <= 1
C1857: + x16 + x403 <= 1
C1858: + x6 + x233 <= 1
C1859: + x261 + x300 <= 1
C1860: + x19 + x193 <= 1
C1861: + x84 + x115 <= 1
C1862: + x12 + x133 <= 1
C1863: + x5 + x116 <= 1
C1864: + x243 + x419 <= 1
C1865: + x27 + x129 <= 1
C1866: + x144 + x158 <= 1
C1867: + x110 + x147 <= 1
C1868: + x185 + x280 <= 1
C1869: + x158 + x228 <= 1
C1870: + x97 + x138 <= 1
C1871: + x105 + x317 <= 1
C1872: + x30 + x356 <= 1
C1873: + x108 + x211 <= 1
C1874: + x1 + x35 <= 1
C1875: + x11 + x298 <= 1
C1876: + x3 + x347 <= 1
C1877: + x158 + x391 <= 1
C1878: + x31 + x354 <= 1
C1879: + x24 + x49 <= 1
C1880: + x7 + x9 <= 1
C1881: + x19 + x282 <= 1
C1882: + x27 + x341 <= 1
C1883: + x6 + x395 <= 1
C1884: + x49 + x202 <= 1
C1885: + x167 + x299 <= 1
C1886: + x159 + x216 <= 1
C1887: + x6 + x46 <= 1
C1888: + x70 + x275 <= 1
C1889: + x63 + x87 <= 1
C1890: + x36 + x415 <= 1
C1891: + x75 + x121 <= 1
C1892: + x20 + x291 <= 1
C1893: + x50 + x452 <= 1
C1894: + x31 + x64 <= 1
C1895: + x34 + x266 <= 1
C1896: + x107 + x322 <= 1
C1897: + x416 + x460 <= 1
C1898: + x28 + x411 <= 1
C1899: + x11 + x12 <= 1
C1900: + x60 + x374 <= 1
C1901: + x6 + x210 <= 1
C1902: + x10 + x23 <= 1
C1903: + x56 + x67 <= 1
C1904: + x76 + x439 <= 1
C1905: + x52 + x99 <= 1
C1906: + x164 + x436 <= 1
C1907: + x2 + x317 <= 1
C1908: + x1 + x344 <= 1
C1909: + x95 + x226 <= 1
C1910: + x5 + x10 <= 1
C1911: + x1 + x58 <= 1
C1912: + x11 + x209 <= 1
C1913: + x49 + x100 <= 1
C1914: + x128 + x133 <= 1
C1915: + x76 + x322 <= 1
C1916: + x3 + x36 <= 1
C1917: + x95 + x113 <= 1
C1918: + x166 + x464 <= 1
C1919: + x212 + x269 <= 1
C1920: + x6 + x23 <= 1
C1921: + x266 + x351 <= 1
C1922: + x51 + x106 <= 1
C1923: + x11 + x164 <= 1
C1924: + x57 + x438 <= 1
C1925: + x126 + x253 <= 1
C1926: + x27 + x207 <= 1
C1927: + x1 + x118 <= 1
C1928: + x85 + x260 <= 1
C1929: + x51 + x249 <= 1
C1930: + x7 + x64 <= 1
C1931: + x344 + x393 <= 1
C1932: + x156 + x327 <= 1
C1933: + x165 + x444 <= 1
C1934: + x147 + x219 <= 1
C1935: + x3 + x120 <= 1
C1936: + x31 + x434 <= 1
C1937: + x60 + x139 <= 1
C1938: + x80 + x435 <= 1
C1939: + x10 + x32 <= 1
C1940: + x40 + x190 <= 1
C1941: + x90 + x477 <= 1
C1942: + x55 + x245 <= 1
C1943: + x114 + x487 <= 1
C1944: + x70 + x209 <= 1
C1945: + x14 + x441 <= 1
C1946: + x27 + x312 <= 1
C1947: + x9 + x450 <= 1
C1948: + x146 + x257 <= 1
C1949: + x2 + x28 <= 1
C1950: + x191 + x360 <= 1
C1951: + x69 + x380 <= 1
C1952: + x6 + x346 <= 1
C1953: + x2 + x167 <= 1
C1954: + x4 + x30 <= 1
C1955: + x92 + x413 <= 1
C1956: + x129 + x131 <= 1

binary
x1 x2 x3 x4 x5 x6 x7 x8 x9 x10 x11 x12 x13 x14 x15 x16 x17 x18 x19 x20 x21 x22 x23 x24 x25 x26 x27 x28 x29 x30 x31 x32 x33 x34 x35 x36 x37 x38 x39 x40 x41 x42 x43 x44 x45 x46 x47 x48 x49 x50 x51 x52 x53 x54 x55 x56 x57 x58 x59 x60 x61 x62 x63 x64 x65 x66 x67 x68 x69 x70 x71 x72 x73 x74 x75 x76 x77 x78 x79 x80 x81 x82 x83 x84 x85 x86 x87 x88 x89 x90 x91 x92 x93 x94 x95 x96 x97 x98 x99 x100 x101 x102 x103 x104 x105 x106 x107 x108 x109 x110 x111 x112 x113 x114 x115 x116 x117 x118 x119 x120 x121 x122 x123 x124 x125 x126 x127 x128 x129 x130 x131 x132 x133 x134 x135 x136 x137 x138 x139 x140 x141 x142 x143 x144 x145 x146 x147 x148 x149 x150 x151 x152 x153 x154 x155 x156 x157 x158 x159 x160 x161 x162 x163 x164 x165 x166 x167 x168 x169 x170 x171 x172 x173 x174 x175 x176 x177 x178 x179 x180 x181 x182 x183 x184 x185 x186 x187 x188 x189 x190 x191 x192 x193 x194 x195 x196 x197 x198 x199 x200 x201 x202 x203 x204 x205 x206 x207 x208 x209 x210 x211 x212 x213 x214 x215 x216 x217 x218 x219 x220 x221 x222 x223 x224 x225 x226 x227 x228 x229 x230 x231 x232 x233 x234 x235 x236 x237 x238 x239 x240 x241 x242 x243 x244 x245 x246 x247 x248 x249 x250 x251 x252 x253 x254 x255 x256 x257 x258 x259 x260 x261 x262 x263 x264 x265 x266 x267 x268 x269 x270 x271 x272 x273 x274 x275 x276 x277 x278 x279 x280 x281 x282 x283 x284 x285 x286 x287 x288 x289 x290 x291 x292 x293 x294 x295 x296 x297 x298 x299 x300 x301 x302 x303 x304 x305 x306 x307 x308 x309 x310 x311 x312 x313 x314 x315 x316 x317 x318 x319 x320 x321 x322 x323 x324 x325 x326 x327 x328 x329 x330 x331 x332 x333 x334 x335 x336 x337 x338 x339 x340 x341 x342 x343 x344 x345 x346 x347 x348 x349 x350 x351 x352 x353 x354 x355 x356 x357 x358 x359 x360 x361 x362 x363 x364 x365 x366 x367 x368 x369 x370 x371 x372 x373 x374 x375 x376 x377 x378 x379 x380 x381 x382 x383 x384 x385 x386 x387 x388 x389 x390 x391 x392 x393 x394 x395 x396 x397 x398 x399 x400 x401 x402 x403 x404 x405 x406 x407 x408 x409 x410 x411 x412 x413 x414 x415 x416 x417 x418 x419 x420 x421 x422 x423 x424 x425 x426 x427 x428 x429 x430 x431 x432 x433 x434 x435 x436 x437 x438 x439 x440 x441 x442 x443 x444 x445 x446 x447 x448 x449 x450 x451 x452 x453 x454 x455 x456 x457 x458 x459 x460 x461 x462 x463 x464 x465 x466 x467 x468 x469 x470 x471 x472 x473 x474 x475 x476 x477 x478 x479 x480 x481 x482 x483 x484 x485 x486 x487 x488 x489 x490 x491 x492 x493 x494 x495 x496 x497 x498 x499 x500
