maximize
OBJ: + 1 x1 + 1 x2 + 1 x3 + 1 x4 + 1 x5 + 1 x6 + 1 x7 + 1 x8 + 1 x9 + 1 x10 + 1 x11 + 1 x12 + 1 x13 + 1 x14 + 1 x15 + 1 x16 + 1 x17 + 1 x18 + 1 x19 + 1 x20 + 1 x21 + 1 x22 + 1 x23 + 1 x24 + 1 x25 + 1 x26 + 1 x27 + 1 x28 + 1 x29 + 1 x30 + 1 x31 + 1 x32 + 1 x33 + 1 x34 + 1 x35 + 1 x36 + 1 x37 + 1 x38 + 1 x39 + 1 x40 + 1 x41 + 1 x42 + 1 x43 + 1 x44 + 1 x45 + 1 x46 + 1 x47 + 1 x48 + 1 x49 + 1 x50 + 1 x51 + 1 x52 + 1 x53 + 1 x54 + 1 x55 + 1 x56 + 1 x57 + 1 x58 + 1 x59 + 1 x60 + 1 x61 + 1 x62 + 1 x63 + 1 x64 + 1 x65 + 1 x66 + 1 x67 + 1 x68 + 1 x69 + 1 x70 + 1 x71 + 1 x72 + 1 x73 + 1 x74 + 1 x75 + 1 x76 + 1 x77 + 1 x78 + 1 x79 + 1 x80 + 1 x81 + 1 x82 + 1 x83 + 1 x84 + 1 x85 + 1 x86 + 1 x87 + 1 x88 + 1 x89 + 1 x90 + 1 x91 + 1 x92 + 1 x93 + 1 x94 + 1 x95 + 1 x96 + 1 x97 + 1 x98 + 1 x99 + 1 x100 + 1 x101 + 1 x102 + 1 x103 + 1 x104 + 1 x105 + 1 x106 + 1 x107 + 1 x108 + 1 x109 + 1 x110 + 1 x111 + 1 x112 + 1 x113 + 1 x114 + 1 x115 + 1 x116 + 1 x117 + 1 x118 + 1 x119 + 1 x120 + 1 x121 + 1 x122 + 1 x123 + 1 x124 + 1 x125 + 1 x126 + 1 x127 + 1 x128 + 1 x129 + 1 x130 + 1 x131 + 1 x132 + 1 x133 + 1 x134 + 1 x135 + 1 x136 + 1 x137 + 1 x138 + 1 x139 + 1 x140 + 1 x141 + 1 x142 + 1 x143 + 1 x144 + 1 x145 + 1 x146 + 1 x147 + 1 x148 + 1 x149 + 1 x150 + 1 x151 + 1 x152 + 1 x153 + 1 x154 + 1 x155 + 1 x156 + 1 x157 + 1 x158 + 1 x159 + 1 x160 + 1 x161 + 1 x162 + 1 x163 + 1 x164 + 1 x165 + 1 x166 + 1 x167 + 1 x168 + 1 x169 + 1 x170 + 1 x171 + 1 x172 + 1 x173 + 1 x174 + 1 x175 + 1 x176 + 1 x177 + 1 x178 + 1 x179 + 1 x180 + 1 x181 + 1 x182 + 1 x183 + 1 x184 + 1 x185 + 1 x186 + 1 x187 + 1 x188 + 1 x189 + 1 x190 + 1 x191 + 1 x192 + 1 x193 + 1 x194 + 1 x195 + 1 x196 + 1 x197 + 1 x198 + 1 x199 + 1 x200 + 1 x201 + 1 x202 + 1 x203 + 1 x204 + 1 x205 + 1 x206 + 1 x207 + 1 x208 + 1 x209 + 1 x210 + 1 x211 + 1 x212 + 1 x213 + 1 x214 + 1 x215 + 1 x216 + 1 x217 + 1 x218 + 1 x219 + 1 x220 + 1 x221 + 1 x222 + 1 x223 + 1 x224 + 1 x225 + 1 x226 + 1 x227 + 1 x228 + 1 x229 + 1 x230 + 1 x231 + 1 x232 + 1 x233 + 1 x234 + 1 x235 + 1 x236 + 1 x237 + 1 x238 + 1 x239 + 1 x240 + 1 x241 + 1 x242 + 1 x243 + 1 x244 + 1 x245 + 1 x246 + 1 x247 + 1 x248 + 1 x249 + 1 x250 + 1 x251 + 1 x252 + 1 x253 + 1 x254 + 1 x255 + 1 x256 + 1 x257 + 1 x258 + 1 x259 + 1 x260 + 1 x261 + 1 x262 + 1 x263 + 1 x264 + 1 x265 + 1 x266 + 1 x267 + 1 x268 + 1 x269 + 1 x270 + 1 x271 + 1 x272 + 1 x273 + 1 x274 + 1 x275 + 1 x276 + 1 x277 + 1 x278 + 1 x279 + 1 x280 + 1 x281 + 1 x282 + 1 x283 + 1 x284 + 1 x285 + 1 x286 + 1 x287 + 1 x288 + 1 x289 + 1 x290 + 1 x291 + 1 x292 + 1 x293 + 1 x294 + 1 x295 + 1 x296 + 1 x297 + 1 x298 + 1 x299 + 1 x300 + 1 x301 + 1 x302 + 1 x303 + 1 x304 + 1 x305 + 1 x306 + 1 x307 + 1 x308 + 1 x309 + 1 x310 + 1 x311 + 1 x312 + 1 x313 + 1 x314 + 1 x315 + 1 x316 + 1 x317 + 1 x318 + 1 x319 + 1 x320 + 1 x321 + 1 x322 + 1 x323 + 1 x324 + 1 x325 + 1 x326 + 1 x327 + 1 x328 + 1 x329 + 1 x330 + 1 x331 + 1 x332 + 1 x333 + 1 x334 + 1 x335 + 1 x336 + 1 x337 + 1 x338 + 1 x339 + 1 x340 + 1 x341 + 1 x342 + 1 x343 + 1 x344 + 1 x345 + 1 x346 + 1 x347 + 1 x348 + 1 x349 + 1 x350 + 1 x351 + 1 x352 + 1 x353 + 1 x354 + 1 x355 + 1 x356 + 1 x357 + 1 x358 + 1 x359 + 1 x360 + 1 x361 + 1 x362 + 1 x363 + 1 x364 + 1 x365 + 1 x366 + 1 x367 + 1 x368 + 1 x369 + 1 x370 + 1 x371 + 1 x372 + 1 x373 + 1 x374 + 1 x375 + 1 x376 + 1 x377 + 1 x378 + 1 x379 + 1 x380 + 1 x381 + 1 x382 + 1 x383 + 1 x384 + 1 x385 + 1 x386 + 1 x387 + 1 x388 + 1 x389 + 1 x390 + 1 x391 + 1 x392 + 1 x393 + 1 x394 + 1 x395 + 1 x396 + 1 x397 + 1 x398 + 1 x399 + 1 x400 + 1 x401 + 1 x402 + 1 x403 + 1 x404 + 1 x405 + 1 x406 + 1 x407 + 1 x408 + 1 x409 + 1 x410 + 1 x411 + 1 x412 + 1 x413 + 1 x414 + 1 x415 + 1 x416 + 1 x417 + 1 x418 + 1 x419 + 1 x420 + 1 x421 + 1 x422 + 1 x423 + 1 x424 + 1 x425 + 1 x426 + 1 x427 + 1 x428 + 1 x429 + 1 x430 + 1 x431 + 1 x432 + 1 x433 + 1 x434 + 1 x435 + 1 x436 + 1 x437 + 1 x438 + 1 x439 + 1 x440 + 1 x441 + 1 x442 + 1 x443 + 1 x444 + 1 x445 + 1 x446 + 1 x447 + 1 x448 + 1 x449 + 1 x450 + 1 x451 + 1 x452 + 1 x453 + 1 x454 + 1 x455 + 1 x456 + 1 x457 + 1 x458 + 1 x459 + 1 x460 + 1 x461 + 1 x462 + 1 x463 + 1 x464 + 1 x465 + 1 x466 + 1 x467 + 1 x468 + 1 x469 + 1 x470 + 1 x471 + 1 x472 + 1 x473 + 1 x474 + 1 x475 + 1 x476 + 1 x477 + 1 x478 + 1 x479 + 1 x480 + 1 x481 + 1 x482 + 1 x483 + 1 x484 + 1 x485 + 1 x486 + 1 x487 + 1 x488 + 1 x489 + 1 x490 + 1 x491 + 1 x492 + 1 x493 + 1 x494 + 1 x495 + 1 x496 + 1 x497 + 1 x498 + 1 x499 + 1 x500

subject to
C1: + x178 + x422 <= 1
C2: + x5 + x136 <= 1
C3: + x6 + x32 <= 1
C4: + x1 + x176 <= 1
C5: + x66 + x408 <= 1
C6: + x266 + x419 <= 1
C7: + x5 + x37 <= 1
C8: + x71 + x342 <= 1
C9: + x8 + x26 <= 1
C10: + x11 + x272 <= 1
C11: + x49 + x87 <= 1
C12: + x5 + x279 <= 1
C13: + x41 + x67 <= 1
C14: + x13 + x60 <= 1
C15: + x260 + x302 <= 1
C16: + x8 + x369 <= 1
C17: + x57 + x195 <= 1
C18: + x185 + x301 <= 1
C19: + x15 + x163 <= 1
C20: + x160 + x385 <= 1
C21: + x79 + x99 <= 1
C22: + x1 + x56 <= 1
C23: + x24 + x334 <= 1
C24: + x116 + x381 <= 1
C25: + x207 + x241 <= 1
C26: + x388 + x484 <= 1
C27: + x101 + x489 <= 1
C28: + x90 + x498 <= 1
C29: + x16 + x35 <= 1
C30: + x71 + x318 <= 1
C31: + x60 + x205 <= 1
C32: + x17 + x408 <= 1
C33: + x16 + x322 <= 1
C34: + x65 + x178 <= 1
C35: + x11 + x86 <= 1
C36: + x66 + x361 <= 1
C37: + x40 + x128 <= 1
C38: + x5 + x36 <= 1
C39: + x35 + x80 <= 1
C40: + x8 + x23 <= 1
C41: + x52 + x201 <= 1
C42: + x7 + x42 <= 1
C43: + x92 + x418 <= 1
C44: + x55 + x88 <= 1
C45: + x63 + x219 <= 1
C46: + x71 + x156 <= 1
C47: + x16 + x278 <= 1
C48: + x29 + x297 <= 1
C49: + x3 + x235 <= 1
C50: + x125 + x213 <= 1
C51: + x43 + x175 <= 1
C52: + x9 + x19 <= 1
C53: + x20 + x97 <= 1
C54: + x89 + x342 <= 1
C55: + x6 + x94 <= 1
C56: + x7 + x102 <= 1
C57: + x44 + x340 <= 1
C58: + x16 + x443 <= 1
C59: + x1 + x15 <= 1
C60: + x13 + x103 <= 1
C61: + x23 + x367 <= 1
C62: + x117 + x126 <= 1
C63: + x157 + x386 <= 1
C64: + x56 + x336 <= 1
C65: + x13 + x273 <= 1
C66: + x160 + x196 <= 1
C67: + x424 + x492 <= 1
C68: + x44 + x114 <= 1
C69: + x9 + x46 <= 1
C70: + x90 + x364 <= 1
C71: + x128 + x232 <= 1
C72: + x194 + x248 <= 1
C73: + x250 + x352 <= 1
C74: + x41 + x162 <= 1
C75: + x4 + x395 <= 1
C76: + x27 + x381 <= 1
C77: + x184 + x335 <= 1
C78: + x73 + x168 <= 1
C79: + x166 + x221 <= 1
C80: + x221 + x488 <= 1
C81: + x51 + x300 <= 1
C82: + x14 + x182 <= 1
C83: + x451 + x476 <= 1
C84: + x353 + x355 <= 1
C85: + x24 + x154 <= 1
C86: + x62 + x327 <= 1
C87: + x22 + x257 <= 1
C88: + x51 + x218 <= 1
C89: + x117 + x470 <= 1
C90: + x7 + x93 <= 1
C91: + x97 + x173 <= 1
C92: + x1 + x6 <= 1
C93: + x41 + x125 <= 1
C94: + x13 + x30 <= 1
C95: + x51 + x288 <= 1
C96: + x61 + x104 <= 1
C97: + x72 + x487 <= 1
C98: + x2 + x469 <= 1
C99: + x241 + x429 <= 1
C100: + x3 + x8 <= 1
C101: + x115 + x462 <= 1
C102: + x23 + x451 <= 1
C103: + x81 + x198 <= 1
C104: + x121 + x402 <= 1
C105: + x22 + x56 <= 1
C106: + x18 + x256 <= 1
C107: + x196 + x253 <= 1
C108: + x7 + x28 <= 1
C109: + x3 + x495 <= 1
C110: + x41 + x411 <= 1
C111: + x5 + x161 <= 1
C112: + x217 + x309 <= 1
C113: + x53 + x366 <= 1
C114: + x308 + x339 <= 1
C115: + x292 + x397 <= 1
C116: + x29 + x319 <= 1
C117: + x447 + x449 <= 1
C118: + x23 + x301 <= 1
C119: + x117 + x192 <= 1
C120: + x66 + x82 <= 1
C121: + x6 + x80 <= 1
C122: + x7 + x88 <= 1
C123: + x284 + x361 <= 1
C124: + x264 + x445 <= 1
C125: + x31 + x90 <= 1
C126: + x87 + x171 <= 1
C127: + x71 + x390 <= 1
C128: + x1 + x29 <= 1
C129: + x7 + x326 <= 1
C130: + x65 + x477 <= 1
C131: + x140 + x267 <= 1
C132: + x6 + x465 <= 1
C133: + x71 + x295 <= 1
C134: + x124 + x404 <= 1
C135: + x14 + x401 <= 1
C136: + x15 + x39 <= 1
C137: + x1 + x140 <= 1
C138: + x105 + x307 <= 1
C139: + x22 + x49 <= 1
C140: + x5 + x25 <= 1
C141: + x8 + x126 <= 1
C142: + x49 + x115 <= 1
C143: + x248 + x456 <= 1
C144: + x13 + x73 <= 1
C145: + x185 + x235 <= 1
C146: + x22 + x148 <= 1
C147: + x7 + x19 <= 1
C148: + x55 + x57 <= 1
C149: + x3 + x83 <= 1
C150: + x376 + x413 <= 1
C151: + x7 + x257 <= 1
C152: + x85 + x158 <= 1
C153: + x3 + x248 <= 1
C154: + x41 + x63 <= 1
C155: + x1 + x101 <= 1
C156: + x250 + x438 <= 1
C157: + x12 + x51 <= 1
C158: + x232 + x368 <= 1
C159: + x51 + x429 <= 1
C160: + x73 + x343 <= 1
C161: + x2 + x156 <= 1
C162: + x217 + x485 <= 1
C163: + x89 + x474 <= 1
C164: + x99 + x417 <= 1
C165: + x27 + x134 <= 1
C166: + x63 + x139 <= 1
C167: + x7 + x474 <= 1
C168: + x388 + x480 <= 1
C169: + x212 + x311 <= 1
C170: + x126 + x389 <= 1
C171: + x209 + x308 <= 1
C172: + x335 + x419 <= 1
C173: + x19 + x85 <= 1
C174: + x3 + x187 <= 1
C175: + x77 + x150 <= 1
C176: + x22 + x58 <= 1
C177: + x5 + x8 <= 1
C178: + x116 + x147 <= 1
C179: + x171 + x223 <= 1
C180: + x27 + x53 <= 1
C181: + x134 + x422 <= 1
C182: + x68 + x121 <= 1
C183: + x197 + x328 <= 1
C184: + x16 + x184 <= 1
C185: + x2 + x344 <= 1
C186: + x7 + x22 <= 1
C187: + x190 + x353 <= 1
C188: + x94 + x418 <= 1
C189: + x3 + x46 <= 1
C190: + x132 + x157 <= 1
C191: + x11 + x190 <= 1
C192: + x202 + x313 <= 1
C193: + x20 + x290 <= 1
C194: + x57 + x428 <= 1
C195: + x1 + x124 <= 1
C196: + x213 + x228 <= 1
C197: + x100 + x221 <= 1
C198: + x65 + x299 <= 1
C199: + x5 + x128 <= 1
C200: + x5 + x437 <= 1
C201: + x8 + x483 <= 1
C202: + x385 + x418 <= 1
C203: + x51 + x55 <= 1
C204: + x232 + x246 <= 1
C205: + x186 + x404 <= 1
C206: + x132 + x373 <= 1
C207: + x99 + x226 <= 1
C208: + x1 + x39 <= 1
C209: + x230 + x432 <= 1
C210: + x186 + x239 <= 1
C211: + x51 + x138 <= 1
C212: + x88 + x269 <= 1
C213: + x7 + x13 <= 1
C214: + x92 + x387 <= 1
C215: + x256 + x310 <= 1
C216: + x11 + x439 <= 1
C217: + x164 + x237 <= 1
C218: + x55 + x281 <= 1
C219: + x57 + x435 <= 1
C220: + x41 + x45 <= 1
C221: + x294 + x396 <= 1
C222: + x222 + x500 <= 1
C223: + x43 + x142 <= 1
C224: + x18 + x31 <= 1
C225: + x55 + x166 <= 1
C226: + x113 + x157 <= 1
C227: + x64 + x91 <= 1
C228: + x184 + x452 <= 1
C229: + x29 + x169 <= 1
C230: + x178 + x313 <= 1
C231: + x124 + x363 <= 1
C232: + x67 + x185 <= 1
C233: + x39 + x466 <= 1
C234: + x167 + x283 <= 1
C235: + x150 + x179 <= 1
C236: + x435 + x437 <= 1
C237: + x7 + x230 <= 1
C238: + x55 + x341 <= 1
C239: + x41 + x89 <= 1
C240: + x4 + x109 <= 1
C241: + x179 + x205 <= 1
C242: + x87 + x462 <= 1
C243: + x160 + x266 <= 1
C244: + x90 + x480 <= 1
C245: + x65 + x79 <= 1
C246: + x54 + x194 <= 1
C247: + x158 + x491 <= 1
C248: + x195 + x277 <= 1
C249: + x71 + x181 <= 1
C250: + x62 + x130 <= 1
C251: + x296 + x349 <= 1
C252: + x217 + x354 <= 1
C253: + x10 + x199 <= 1
C254: + x128 + x129 <= 1
C255: + x41 + x133 <= 1
C256: + x370 + x371 <= 1
C257: + x70 + x101 <= 1
C258: + x7 + x8 <= 1
C259: + x1 + x475 <= 1
C260: + x113 + x458 <= 1
C261: + x41 + x375 <= 1
C262: + x132 + x139 <= 1
C263: + x60 + x179 <= 1
C264: + x24 + x425 <= 1
C265: + x16 + x384 <= 1
C266: + x38 + x378 <= 1
C267: + x21 + x168 <= 1
C268: + x95 + x274 <= 1
C269: + x125 + x322 <= 1
C270: + x5 + x58 <= 1
C271: + x456 + x468 <= 1
C272: + x18 + x24 <= 1
C273: + x1 + x74 <= 1
C274: + x53 + x241 <= 1
C275: + x3 + x24 + x48 <= 1
C276: + x77 + x207 <= 1
C277: + x1 + x249 <= 1
C278: + x228 + x258 <= 1
C279: + x27 + x159 <= 1
C280: + x7 + x451 <= 1
C281: + x41 + x306 <= 1
C282: + x144 + x240 <= 1
C283: + x1 + x152 <= 1
C284: + x92 + x356 <= 1
C285: + x69 + x360 <= 1
C286: + x5 + x253 <= 1
C287: + x15 + x224 <= 1
C288: + x15 + x273 <= 1
C289: + x118 + x193 <= 1
C290: + x90 + x338 <= 1
C291: + x11 + x200 <= 1
C292: + x21 + x64 <= 1
C293: + x112 + x127 <= 1
C294: + x42 + x215 <= 1
C295: + x40 + x313 <= 1
C296: + x24 + x67 <= 1
C297: + x92 + x401 <= 1
C298: + x2 + x454 <= 1
C299: + x42 + x114 <= 1
C300: + x63 + x69 <= 1
C301: + x10 + x390 <= 1
C302: + x29 + x282 <= 1
C303: + x122 + x375 <= 1
C304: + x113 + x302 <= 1
C305: + x80 + x279 <= 1
C306: + x7 + x394 <= 1
C307: + x258 + x344 <= 1
C308: + x358 + x364 <= 1
C309: + x23 + x429 <= 1
C310: + x252 + x304 <= 1
C311: + x9 + x385 <= 1
C312: + x24 + x374 <= 1
C313: + x9 + x382 <= 1
C314: + x43 + x164 <= 1
C315: + x99 + x325 <= 1
C316: + x16 + x27 <= 1
C317: + x65 + x93 <= 1
C318: + x73 + x432 <= 1
C319: + x5 + x327 <= 1
C320: + x329 + x450 <= 1
C321: + x191 + x388 <= 1
C322: + x41 + x470 <= 1
C323: + x8 + x95 <= 1
C324: + x1 + x12 <= 1
C325: + x22 + x177 <= 1
C326: + x91 + x494 <= 1
C327: + x227 + x326 <= 1
C328: + x17 + x396 <= 1
C329: + x118 + x272 <= 1
C330: + x20 + x318 <= 1
C331: + x22 + x34 <= 1
C332: + x65 + x392 <= 1
C333: + x313 + x346 <= 1
C334: + x123 + x201 <= 1
C335: + x96 + x345 <= 1
C336: + x118 + x433 <= 1
C337: + x398 + x457 <= 1
C338: + x11 + x33 <= 1
C339: + x21 + x293 <= 1
C340: + x154 + x216 <= 1
C341: + x19 + x33 <= 1
C342: + x10 + x14 <= 1
C343: + x225 + x443 <= 1
C344: + x23 + x279 <= 1
C345: + x15 + x372 <= 1
C346: + x16 + x100 <= 1
C347: + x330 + x356 <= 1
C348: + x21 + x95 <= 1
C349: + x51 + x219 <= 1
C350: + x43 + x481 <= 1
C351: + x15 + x170 <= 1
C352: + x7 + x336 <= 1
C353: + x236 + x461 <= 1
C354: + x33 + x252 <= 1
C355: + x11 + x427 <= 1
C356: + x38 + x434 <= 1
C357: + x71 + x86 <= 1
C358: + x29 + x368 <= 1
C359: + x38 + x277 <= 1
C360: + x20 + x323 <= 1
C361: + x170 + x210 <= 1
C362: + x16 + x165 <= 1
C363: + x91 + x360 <= 1
C364: + x41 + x166 <= 1
C365: + x31 + x185 <= 1
C366: + x23 + x447 <= 1
C367: + x118 + x442 <= 1
C368: + x11 + x44 <= 1
C369: + x122 + x498 <= 1
C370: + x292 + x301 <= 1
C371: + x169 + x365 <= 1
C372: + x23 + x28 <= 1
C373: + x237 + x282 <= 1
C374: + x8 + x153 <= 1
C375: + x30 + x172 <= 1
C376: + x13 + x38 <= 1
C377: + x98 + x166 <= 1
C378: + x168 + x447 <= 1
C379: + x8 + x64 <= 1
C380: + x65 + x427 <= 1
C381: + x29 + x65 <= 1
C382: + x86 + x487 <= 1
C383: + x19 + x189 <= 1
C384: + x76 + x310 <= 1
C385: + x52 + x226 <= 1
C386: + x51 + x439 <= 1
C387: + x108 + x172 <= 1
C388: + x128 + x165 <= 1
C389: + x111 + x229 <= 1
C390: + x176 + x448 <= 1
C391: + x23 + x358 <= 1
C392: + x18 + x99 <= 1
C393: + x55 + x234 <= 1
C394: + x139 + x188 <= 1
C395: + x88 + x141 <= 1
C396: + x52 + x457 <= 1
C397: + x2 + x346 <= 1
C398: + x20 + x167 <= 1
C399: + x78 + x463 <= 1
C400: + x25 + x92 <= 1
C401: + x27 + x324 <= 1
C402: + x18 + x415 <= 1
C403: + x343 + x392 <= 1
C404: + x27 + x82 <= 1
C405: + x68 + x443 <= 1
C406: + x98 + x191 <= 1
C407: + x5 + x415 <= 1
C408: + x45 + x169 <= 1
C409: + x176 + x472 <= 1
C410: + x17 + x453 <= 1
C411: + x66 + x316 <= 1
C412: + x40 + x51 <= 1
C413: + x225 + x296 <= 1
C414: + x32 + x82 <= 1
C415: + x17 + x354 <= 1
C416: + x11 + x252 <= 1
C417: + x248 + x400 <= 1
C418: + x111 + x329 <= 1
C419: + x248 + x339 <= 1
C420: + x131 + x200 <= 1
C421: + x189 + x389 <= 1
C422: + x37 + x393 <= 1
C423: + x51 + x486 <= 1
C424: + x22 + x61 <= 1
C425: + x61 + x445 <= 1
C426: + x17 + x227 <= 1
C427: + x81 + x94 <= 1
C428: + x8 + x122 <= 1
C429: + x57 + x58 <= 1
C430: + x63 + x279 <= 1
C431: + x49 + x119 <= 1
C432: + x305 + x444 <= 1
C433: + x24 + x59 <= 1
C434: + x337 + x405 <= 1
C435: + x385 + x484 <= 1
C436: + x32 + x43 <= 1
C437: + x1 + x220 <= 1
C438: + x47 + x416 <= 1
C439: + x176 + x195 <= 1
C440: + x5 + x73 <= 1
C441: + x10 + x132 <= 1
C442: + x61 + x131 <= 1
C443: + x53 + x232 <= 1
C444: + x253 + x400 <= 1
C445: + x44 + x187 <= 1
C446: + x22 + x359 <= 1
C447: + x13 + x171 <= 1
C448: + x7 + x305 <= 1
C449: + x241 + x370 <= 1
C450: + x105 + x175 <= 1
C451: + x89 + x105 <= 1
C452: + x32 + x254 <= 1
C453: + x17 + x75 <= 1
C454: + x387 + x468 <= 1
C455: + x56 + x343 <= 1
C456: + x1 + x135 <= 1
C457: + x37 + x440 <= 1
C458: + x4 + x244 <= 1
C459: + x171 + x219 <= 1
C460: + x7 + x365 <= 1
C461: + x97 + x413 <= 1
C462: + x7 + x10 <= 1
C463: + x136 + x225 <= 1
C464: + x67 + x234 <= 1
C465: + x58 + x197 <= 1
C466: + x21 + x313 <= 1
C467: + x35 + x278 <= 1
C468: + x11 + x186 <= 1
C469: + x38 + x372 <= 1
C470: + x12 + x193 <= 1
C471: + x119 + x190 <= 1
C472: + x84 + x398 <= 1
C473: + x68 + x155 <= 1
C474: + x51 + x255 <= 1
C475: + x7 + x70 <= 1
C476: + x32 + x72 <= 1
C477: + x89 + x211 <= 1
C478: + x52 + x276 <= 1
C479: + x9 + x130 <= 1
C480: + x10 + x22 <= 1
C481: + x155 + x161 <= 1
C482: + x102 + x173 <= 1
C483: + x16 + x245 <= 1
C484: + x286 + x310 <= 1
C485: + x20 + x242 <= 1
C486: + x14 + x348 <= 1
C487: + x39 + x64 <= 1
C488: + x24 + x117 <= 1
C489: + x316 + x497 <= 1
C490: + x95 + x497 <= 1
C491: + x81 + x175 <= 1
C492: + x8 + x201 <= 1
C493: + x64 + x320 <= 1
C494: + x103 + x134 <= 1
C495: + x13 + x150 <= 1
C496: + x15 + x210 <= 1
C497: + x188 + x376 <= 1
C498: + x9 + x206 <= 1
C499: + x1 + x59 <= 1
C500: + x92 + x124 <= 1
C501: + x19 + x237 <= 1
C502: + x8 + x403 <= 1
C503: + x57 + x165 <= 1
C504: + x53 + x327 <= 1
C505: + x7 + x174 <= 1
C506: + x111 + x181 <= 1
C507: + x389 + x414 <= 1
C508: + x72 + x356 <= 1
C509: + x241 + x273 <= 1
C510: + x331 + x485 <= 1
C511: + x178 + x317 <= 1
C512: + x5 + x297 <= 1
C513: + x50 + x85 <= 1
C514: + x16 + x263 <= 1
C515: + x1 + x230 <= 1
C516: + x158 + x324 <= 1
C517: + x441 + x493 <= 1
C518: + x14 + x138 <= 1
C519: + x132 + x465 <= 1
C520: + x98 + x321 <= 1
C521: + x170 + x377 <= 1
C522: + x45 + x202 <= 1
C523: + x66 + x117 <= 1
C524: + x77 + x406 <= 1
C525: + x38 + x306 <= 1
C526: + x195 + x438 <= 1
C527: + x4 + x29 <= 1
C528: + x69 + x87 <= 1
C529: + x70 + x97 <= 1
C530: + x73 + x402 <= 1
C531: + x20 + x34 <= 1
C532: + x160 + x221 <= 1
C533: + x119 + x442 <= 1
C534: + x165 + x234 <= 1
C535: + x192 + x296 <= 1
C536: + x22 + x28 <= 1
C537: + x34 + x283 <= 1
C538: + x216 + x460 <= 1
C539: + x7 + x395 <= 1
C540: + x8 + x25 <= 1
C541: + x176 + x492 <= 1
C542: + x6 + x432 <= 1
C543: + x100 + x477 <= 1
C544: + x86 + x146 <= 1
C545: + x7 + x209 <= 1
C546: + x16 + x272 <= 1
C547: + x121 + x330 <= 1
C548: + x185 + x191 <= 1
C549: + x41 + x68 <= 1
C550: + x20 + x256 <= 1
C551: + x90 + x293 <= 1
C552: + x9 + x109 <= 1
C553: + x165 + x307 <= 1
C554: + x20 + x91 <= 1
C555: + x3 + x438 <= 1
C556: + x77 + x90 <= 1
C557: + x46 + x61 <= 1
C558: + x46 + x392 <= 1
C559: + x193 + x401 <= 1
C560: + x3 + x132 <= 1
C561: + x99 + x144 <= 1
C562: + x1 + x9 <= 1
C563: + x4 + x6 <= 1
C564: + x87 + x405 <= 1
C565: + x325 + x488 <= 1
C566: + x16 + x46 <= 1
C567: + x36 + x218 <= 1
C568: + x20 + x39 <= 1
C569: + x97 + x271 <= 1
C570: + x5 + x144 <= 1
C571: + x65 + x360 <= 1
C572: + x8 + x18 <= 1
C573: + x466 + x475 <= 1
C574: + x55 + x140 <= 1
C575: + x31 + x179 <= 1
C576: + x4 + x50 <= 1
C577: + x42 + x135 <= 1
C578: + x17 + x40 <= 1
C579: + x153 + x448 <= 1
C580: + x133 + x308 <= 1
C581: + x7 + x285 <= 1
C582: + x174 + x240 <= 1
C583: + x164 + x203 <= 1
C584: + x48 + x128 <= 1
C585: + x178 + x245 <= 1
C586: + x20 + x261 <= 1
C587: + x55 + x315 <= 1
C588: + x95 + x329 <= 1
C589: + x218 + x353 <= 1
C590: + x254 + x397 <= 1
C591: + x9 + x20 <= 1
C592: + x66 + x71 <= 1
C593: + x174 + x275 <= 1
C594: + x4 + x433 <= 1
C595: + x26 + x393 <= 1
C596: + x98 + x446 <= 1
C597: + x9 + x497 <= 1
C598: + x74 + x135 <= 1
C599: + x93 + x212 <= 1
C600: + x19 + x218 <= 1
C601: + x70 + x83 <= 1
C602: + x65 + x109 <= 1
C603: + x66 + x147 <= 1
C604: + x119 + x367 <= 1
C605: + x67 + x206 <= 1
C606: + x50 + x132 <= 1
C607: + x347 + x456 <= 1
C608: + x8 + x236 <= 1
C609: + x193 + x420 <= 1
C610: + x210 + x494 <= 1
C611: + x143 + x285 <= 1
C612: + x8 + x15 <= 1
C613: + x119 + x154 <= 1
C614: + x19 + x142 <= 1
C615: + x4 + x55 <= 1
C616: + x6 + x402 <= 1
C617: + x136 + x328 <= 1
C618: + x105 + x341 <= 1
C619: + x42 + x43 <= 1
C620: + x25 + x495 <= 1
C621: + x53 + x360 <= 1
C622: + x91 + x268 <= 1
C623: + x11 + x130 <= 1
C624: + x211 + x298 <= 1
C625: + x22 + x242 <= 1
C626: + x295 + x493 <= 1
C627: + x9 + x27 <= 1
C628: + x65 + x245 <= 1
C629: + x55 + x124 <= 1
C630: + x16 + x290 <= 1
C631: + x201 + x383 <= 1
C632: + x121 + x292 <= 1
C633: + x22 + x198 <= 1
C634: + x25 + x141 <= 1
C635: + x17 + x90 <= 1
C636: + x20 + x53 <= 1
C637: + x3 + x5 <= 1
C638: + x22 + x468 <= 1
C639: + x89 + x362 <= 1
C640: + x5 + x19 <= 1
C641: + x97 + x250 <= 1
C642: + x17 + x233 <= 1
C643: + x27 + x36 <= 1
C644: + x33 + x204 <= 1
C645: + x22 + x325 <= 1
C646: + x25 + x89 <= 1
C647: + x53 + x71 + x145 <= 1
C648: + x41 + x412 <= 1
C649: + x51 + x127 <= 1
C650: + x269 + x394 <= 1
C651: + x15 + x105 <= 1
C652: + x11 + x137 <= 1
C653: + x41 + x57 <= 1
C654: + x369 + x465 <= 1
C655: + x353 + x379 <= 1
C656: + x179 + x314 <= 1
C657: + x7 + x428 <= 1
C658: + x8 + x60 <= 1
C659: + x66 + x81 <= 1
C660: + x41 + x214 <= 1
C661: + x42 + x189 <= 1
C662: + x27 + x265 <= 1
C663: + x191 + x434 <= 1
C664: + x55 + x115 <= 1
C665: + x147 + x295 <= 1
C666: + x4 + x222 <= 1
C667: + x7 + x242 <= 1
C668: + x18 + x188 <= 1
C669: + x28 + x157 <= 1
C670: + x223 + x316 <= 1
C671: + x22 + x378 <= 1
C672: + x3 + x467 <= 1
C673: + x3 + x32 <= 1
C674: + x7 + x129 <= 1
C675: + x182 + x393 <= 1
C676: + x376 + x495 <= 1
C677: + x5 + x26 <= 1
C678: + x53 + x455 <= 1
C679: + x35 + x90 <= 1
C680: + x27 + x43 <= 1
C681: + x181 + x233 <= 1
C682: + x113 + x180 <= 1
C683: + x13 + x74 <= 1
C684: + x4 + x37 <= 1
C685: + x71 + x212 <= 1
C686: + x7 + x20 <= 1
C687: + x66 + x399 <= 1
C688: + x14 + x370 <= 1
C689: + x5 + x411 <= 1
C690: + x7 + x419 <= 1
C691: + x10 + x159 <= 1
C692: + x28 + x229 <= 1
C693: + x39 + x380 <= 1
C694: + x223 + x229 <= 1
C695: + x195 + x336 <= 1
C696: + x6 + x440 <= 1
C697: + x8 + x344 <= 1
C698: + x64 + x139 <= 1
C699: + x123 + x441 <= 1
C700: + x5 + x221 <= 1
C701: + x16 + x312 <= 1
C702: + x8 + x66 <= 1
C703: + x232 + x462 <= 1
C704: + x25 + x294 <= 1
C705: + x5 + x463 <= 1
C706: + x17 + x88 <= 1
C707: + x236 + x350 <= 1
C708: + x3 + x23 <= 1
C709: + x324 + x359 <= 1
C710: + x189 + x385 <= 1
C711: + x181 + x486 <= 1
C712: + x66 + x332 <= 1
C713: + x257 + x318 <= 1
C714: + x48 + x464 <= 1
C715: + x71 + x426 <= 1
C716: + x63 + x283 <= 1
C717: + x1 + x33 <= 1
C718: + x165 + x362 <= 1
C719: + x35 + x182 <= 1
C720: + x225 + x231 <= 1
C721: + x37 + x377 <= 1
C722: + x158 + x314 <= 1
C723: + x13 + x216 <= 1
C724: + x107 + x247 <= 1
C725: + x5 + x53 <= 1
C726: + x9 + x16 <= 1
C727: + x103 + x421 <= 1
C728: + x68 + x154 <= 1
C729: + x7 + x71 <= 1
C730: + x8 + x333 <= 1
C731: + x55 + x77 <= 1
C732: + x11 + x14 <= 1
C733: + x93 + x184 <= 1
C734: + x35 + x491 <= 1
C735: + x28 + x107 <= 1
C736: + x223 + x294 <= 1
C737: + x14 + x351 <= 1
C738: + x17 + x79 <= 1
C739: + x53 + x147 <= 1
C740: + x35 + x249 <= 1
C741: + x391 + x496 <= 1
C742: + x3 + x18 <= 1
C743: + x199 + x307 <= 1
C744: + x21 + x42 + x67 <= 1
C745: + x19 + x77 <= 1
C746: + x103 + x135 <= 1
C747: + x43 + x65 + x416 <= 1
C748: + x5 + x16 <= 1
C749: + x1 + x40 <= 1
C750: + x211 + x379 <= 1
C751: + x219 + x298 <= 1
C752: + x12 + x120 <= 1
C753: + x147 + x352 <= 1
C754: + x11 + x440 <= 1
C755: + x27 + x45 + x89 <= 1
C756: + x184 + x430 <= 1
C757: + x4 + x261 <= 1
C758: + x22 + x435 <= 1
C759: + x8 + x309 <= 1
C760: + x57 + x436 <= 1
C761: + x294 + x395 <= 1
C762: + x268 + x396 <= 1
C763: + x97 + x219 <= 1
C764: + x5 + x393 <= 1
C765: + x308 + x456 <= 1
C766: + x74 + x457 <= 1
C767: + x45 + x155 <= 1
C768: + x38 + x211 <= 1
C769: + x41 + x203 <= 1
C770: + x48 + x299 <= 1
C771: + x26 + x110 <= 1
C772: + x7 + x58 <= 1
C773: + x55 + x72 <= 1
C774: + x84 + x164 <= 1
C775: + x66 + x266 <= 1
C776: + x193 + x459 <= 1
C777: + x402 + x471 <= 1
C778: + x3 + x122 <= 1
C779: + x113 + x400 <= 1
C780: + x12 + x177 <= 1
C781: + x5 + x104 <= 1
C782: + x296 + x463 <= 1
C783: + x179 + x206 <= 1
C784: + x111 + x351 <= 1
C785: + x49 + x138 <= 1
C786: + x20 + x81 <= 1
C787: + x168 + x224 <= 1
C788: + x21 + x50 <= 1
C789: + x171 + x448 <= 1
C790: + x73 + x111 <= 1
C791: + x128 + x359 <= 1
C792: + x56 + x177 <= 1
C793: + x195 + x298 <= 1
C794: + x7 + x162 <= 1
C795: + x427 + x430 <= 1
C796: + x71 + x98 <= 1
C797: + x257 + x328 <= 1
C798: + x5 + x59 <= 1
C799: + x53 + x488 <= 1
C800: + x15 + x347 <= 1
C801: + x24 + x182 <= 1
C802: + x1 + x75 <= 1
C803: + x8 + x32 <= 1
C804: + x459 + x472 <= 1
C805: + x394 + x486 <= 1
C806: + x24 + x25 <= 1
C807: + x190 + x326 <= 1
C808: + x9 + x411 <= 1
C809: + x100 + x476 <= 1
C810: + x24 + x384 <= 1
C811: + x9 + x376 <= 1
C812: + x365 + x379 <= 1
C813: + x113 + x228 <= 1
C814: + x20 + x251 <= 1
C815: + x22 + x227 <= 1
C816: + x28 + x264 <= 1
C817: + x102 + x309 <= 1
C818: + x103 + x387 <= 1
C819: + x12 + x21 <= 1
C820: + x183 + x330 <= 1
C821: + x56 + x246 <= 1
C822: + x52 + x142 <= 1
C823: + x327 + x370 <= 1
C824: + x408 + x455 <= 1
C825: + x272 + x401 <= 1
C826: + x66 + x236 <= 1
C827: + x105 + x304 <= 1
C828: + x89 + x234 <= 1
C829: + x345 + x351 <= 1
C830: + x24 + x255 <= 1
C831: + x435 + x481 <= 1
C832: + x236 + x466 <= 1
C833: + x1 + x54 <= 1
C834: + x32 + x35 + x427 <= 1
C835: + x42 + x259 <= 1
C836: + x37 + x185 + x270 <= 1
C837: + x38 + x116 <= 1
C838: + x3 + x56 <= 1
C839: + x63 + x70 <= 1
C840: + x5 + x34 <= 1
C841: + x9 + x37 <= 1
C842: + x38 + x197 <= 1
C843: + x105 + x121 <= 1
C844: + x359 + x361 <= 1
C845: + x9 + x386 <= 1
C846: + x66 + x209 <= 1
C847: + x374 + x408 <= 1
C848: + x227 + x430 <= 1
C849: + x10 + x12 <= 1
C850: + x212 + x452 <= 1
C851: + x151 + x450 <= 1
C852: + x11 + x381 <= 1
C853: + x57 + x107 <= 1
C854: + x12 + x14 <= 1
C855: + x180 + x458 <= 1
C856: + x80 + x249 <= 1
C857: + x1 + x315 <= 1
C858: + x32 + x102 <= 1
C859: + x46 + x295 <= 1
C860: + x1 + x13 <= 1
C861: + x12 + x155 <= 1
C862: + x137 + x437 <= 1
C863: + x9 + x93 <= 1
C864: + x63 + x148 <= 1
C865: + x41 + x358 <= 1
C866: + x9 + x41 + x123 <= 1
C867: + x61 + x308 <= 1
C868: + x25 + x480 <= 1
C869: + x7 + x148 <= 1
C870: + x384 + x489 <= 1
C871: + x21 + x183 <= 1
C872: + x22 + x33 <= 1
C873: + x99 + x224 <= 1
C874: + x148 + x284 <= 1
C875: + x66 + x170 <= 1
C876: + x48 + x421 <= 1
C877: + x15 + x99 <= 1
C878: + x9 + x187 <= 1
C879: + x172 + x212 <= 1
C880: + x165 + x193 <= 1
C881: + x22 + x245 <= 1
C882: + x14 + x323 <= 1
C883: + x7 + x446 <= 1
C884: + x71 + x382 <= 1
C885: + x73 + x472 <= 1
C886: + x308 + x487 <= 1
C887: + x41 + x289 <= 1
C888: + x44 + x343 <= 1
C889: + x10 + x459 <= 1
C890: + x57 + x207 <= 1
C891: + x75 + x214 <= 1
C892: + x2 + x422 <= 1
C893: + x9 + x231 <= 1
C894: + x201 + x380 <= 1
C895: + x48 + x80 <= 1
C896: + x150 + x431 <= 1
C897: + x17 + x103 <= 1
C898: + x71 + x298 <= 1
C899: + x24 + x84 <= 1
C900: + x45 + x240 <= 1
C901: + x71 + x75 <= 1
C902: + x18 + x268 <= 1
C903: + x28 + x52 <= 1
C904: + x84 + x207 <= 1
C905: + x42 + x414 <= 1
C906: + x99 + x260 <= 1
C907: + x27 + x37 <= 1
C908: + x144 + x403 <= 1
C909: + x148 + x289 <= 1
C910: + x303 + x469 <= 1
C911: + x31 + x186 <= 1
C912: + x5 + x258 <= 1
C913: + x27 + x378 <= 1
C914: + x119 + x319 <= 1
C915: + x398 + x449 <= 1
C916: + x11 + x41 <= 1
C917: + x66 + x278 <= 1
C918: + x105 + x345 <= 1
C919: + x5 + x167 <= 1
C920: + x345 + x488 <= 1
C921: + x150 + x214 <= 1
C922: + x185 + x337 <= 1
C923: + x315 + x419 <= 1
C924: + x9 + x31 <= 1
C925: + x8 + x63 <= 1
C926: + x16 + x108 <= 1
C927: + x29 + x66 <= 1
C928: + x203 + x252 <= 1
C929: + x25 + x98 <= 1
C930: + x138 + x263 <= 1
C931: + x11 + x29 <= 1
C932: + x29 + x340 <= 1
C933: + x4 + x217 <= 1
C934: + x370 + x435 <= 1
C935: + x108 + x171 <= 1
C936: + x67 + x499 <= 1
C937: + x231 + x460 <= 1
C938: + x45 + x231 <= 1
C939: + x200 + x307 <= 1
C940: + x66 + x112 <= 1
C941: + x50 + x185 <= 1
C942: + x123 + x294 <= 1
C943: + x87 + x264 <= 1
C944: + x6 + x118 <= 1
C945: + x36 + x423 <= 1
C946: + x8 + x274 <= 1
C947: + x265 + x455 <= 1
C948: + x176 + x241 <= 1
C949: + x260 + x348 <= 1
C950: + x117 + x316 <= 1
C951: + x145 + x306 <= 1
C952: + x144 + x412 <= 1
C953: + x146 + x454 <= 1
C954: + x38 + x256 <= 1
C955: + x30 + x51 <= 1
C956: + x22 + x321 <= 1
C957: + x33 + x208 <= 1
C958: + x24 + x61 <= 1
C959: + x7 + x29 <= 1
C960: + x165 + x453 <= 1
C961: + x159 + x236 <= 1
C962: + x24 + x388 <= 1
C963: + x2 + x202 <= 1
C964: + x212 + x471 <= 1
C965: + x77 + x337 <= 1
C966: + x98 + x190 <= 1
C967: + x170 + x345 <= 1
C968: + x124 + x347 <= 1
C969: + x61 + x133 <= 1
C970: + x101 + x308 <= 1
C971: + x57 + x274 <= 1
C972: + x129 + x314 <= 1
C973: + x51 + x431 <= 1
C974: + x360 + x441 <= 1
C975: + x51 + x276 <= 1
C976: + x4 + x125 <= 1
C977: + x5 + x119 <= 1
C978: + x128 + x260 <= 1
C979: + x256 + x479 <= 1
C980: + x203 + x215 <= 1
C981: + x58 + x247 <= 1
C982: + x76 + x282 <= 1
C983: + x19 + x398 <= 1
C984: + x11 + x76 <= 1
C985: + x5 + x6 <= 1
C986: + x207 + x389 <= 1
C987: + x227 + x479 <= 1
C988: + x147 + x453 <= 1
C989: + x113 + x184 <= 1
C990: + x39 + x255 <= 1
C991: + x7 + x24 <= 1
C992: + x66 + x189 <= 1
C993: + x339 + x426 <= 1
C994: + x51 + x118 <= 1
C995: + x71 + x113 <= 1
C996: + x82 + x242 <= 1
C997: + x72 + x458 <= 1
C998: + x297 + x377 <= 1
C999: + x13 + x213 <= 1
C1000: + x45 + x161 <= 1
C1001: + x303 + x435 <= 1
C1002: + x21 + x117 <= 1
C1003: + x208 + x349 <= 1
C1004: + x229 + x269 <= 1
C1005: + x52 + x270 <= 1
C1006: + x70 + x348 <= 1
C1007: + x73 + x348 <= 1
C1008: + x173 + x253 <= 1
C1009: + x373 + x421 <= 1
C1010: + x237 + x317 <= 1
C1011: + x31 + x231 <= 1
C1012: + x217 + x490 <= 1
C1013: + x41 + x112 <= 1
C1014: + x53 + x152 <= 1
C1015: + x21 + x220 <= 1
C1016: + x128 + x265 <= 1
C1017: + x264 + x450 <= 1
C1018: + x132 + x216 <= 1
C1019: + x1 + x339 <= 1
C1020: + x284 + x433 <= 1
C1021: + x48 + x460 <= 1
C1022: + x21 + x331 <= 1
C1023: + x78 + x285 <= 1
C1024: + x5 + x13 <= 1
C1025: + x117 + x199 <= 1
C1026: + x7 + x366 <= 1
C1027: + x313 + x375 <= 1
C1028: + x49 + x111 <= 1
C1029: + x13 + x125 <= 1
C1030: + x7 + x15 <= 1
C1031: + x103 + x458 <= 1
C1032: + x94 + x104 <= 1
C1033: + x30 + x275 <= 1
C1034: + x167 + x297 <= 1
C1035: + x129 + x409 <= 1
C1036: + x12 + x196 <= 1
C1037: + x25 + x218 <= 1
C1038: + x5 + x398 <= 1
C1039: + x226 + x422 <= 1
C1040: + x10 + x140 <= 1
C1041: + x162 + x358 <= 1
C1042: + x41 + x200 <= 1
C1043: + x68 + x158 <= 1
C1044: + x176 + x485 <= 1
C1045: + x52 + x248 <= 1
C1046: + x26 + x105 <= 1
C1047: + x112 + x333 <= 1
C1048: + x14 + x45 <= 1
C1049: + x9 + x334 <= 1
C1050: + x27 + x444 <= 1
C1051: + x181 + x183 <= 1
C1052: + x38 + x167 <= 1
C1053: + x51 + x262 <= 1
C1054: + x15 + x409 <= 1
C1055: + x19 + x347 <= 1
C1056: + x247 + x436 <= 1
C1057: + x203 + x217 <= 1
C1058: + x58 + x334 <= 1
C1059: + x42 + x95 <= 1
C1060: + x216 + x283 <= 1
C1061: + x45 + x369 <= 1
C1062: + x51 + x405 <= 1
C1063: + x14 + x225 <= 1
C1064: + x223 + x441 <= 1
C1065: + x17 + x210 <= 1
C1066: + x19 + x238 <= 1
C1067: + x146 + x425 <= 1
C1068: + x237 + x496 <= 1
C1069: + x29 + x146 <= 1
C1070: + x14 + x271 <= 1
C1071: + x4 + x265 <= 1
C1072: + x89 + x143 <= 1
C1073: + x199 + x483 <= 1
C1074: + x82 + x228 <= 1
C1075: + x11 + x162 <= 1
C1076: + x44 + x172 <= 1
C1077: + x7 + x62 <= 1
C1078: + x20 + x250 <= 1
C1079: + x105 + x158 <= 1
C1080: + x41 + x251 <= 1
C1081: + x341 + x497 <= 1
C1082: + x142 + x194 <= 1
C1083: + x7 + x106 <= 1
C1084: + x45 + x368 <= 1
C1085: + x129 + x347 <= 1
C1086: + x38 + x305 <= 1
C1087: + x177 + x325 <= 1
C1088: + x51 + x400 <= 1
C1089: + x14 + x26 <= 1
C1090: + x37 + x423 <= 1
C1091: + x133 + x371 <= 1
C1092: + x25 + x423 <= 1
C1093: + x7 + x352 <= 1
C1094: + x134 + x403 <= 1
C1095: + x12 + x97 <= 1
C1096: + x9 + x83 <= 1
C1097: + x36 + x212 <= 1
C1098: + x6 + x30 <= 1
C1099: + x71 + x102 <= 1
C1100: + x63 + x71 <= 1
C1101: + x83 + x312 <= 1
C1102: + x234 + x367 <= 1
C1103: + x17 + x133 <= 1
C1104: + x138 + x457 <= 1
C1105: + x49 + x73 <= 1
C1106: + x20 + x146 <= 1
C1107: + x25 + x69 <= 1
C1108: + x168 + x314 <= 1
C1109: + x55 + x392 <= 1
C1110: + x42 + x64 <= 1
C1111: + x15 + x149 <= 1
C1112: + x36 + x50 <= 1
C1113: + x193 + x355 <= 1
C1114: + x67 + x466 <= 1
C1115: + x170 + x174 <= 1
C1116: + x89 + x436 <= 1
C1117: + x25 + x319 <= 1
C1118: + x71 + x264 <= 1
C1119: + x9 + x110 <= 1
C1120: + x45 + x194 <= 1
C1121: + x28 + x284 <= 1
C1122: + x302 + x356 <= 1
C1123: + x50 + x267 <= 1
C1124: + x103 + x391 <= 1
C1125: + x13 + x296 <= 1
C1126: + x374 + x479 <= 1
C1127: + x85 + x235 <= 1
C1128: + x129 + x338 <= 1
C1129: + x77 + x192 <= 1
C1130: + x5 + x250 <= 1
C1131: + x15 + x161 <= 1
C1132: + x1 + x10 <= 1
C1133: + x246 + x391 <= 1
C1134: + x41 + x113 <= 1
C1135: + x4 + x5 <= 1
C1136: + x4 + x476 <= 1
C1137: + x51 + x181 <= 1
C1138: + x125 + x148 <= 1
C1139: + x7 + x500 <= 1
C1140: + x10 + x302 <= 1
C1141: + x15 + x439 <= 1
C1142: + x13 + x439 <= 1
C1143: + x3 + x52 <= 1
C1144: + x87 + x247 <= 1
C1145: + x6 + x7 <= 1
C1146: + x27 + x449 <= 1
C1147: + x40 + x122 <= 1
C1148: + x5 + x46 <= 1
C1149: + x8 + x17 <= 1
C1150: + x10 + x191 <= 1
C1151: + x16 + x94 <= 1
C1152: + x5 + x288 <= 1
C1153: + x143 + x184 <= 1
C1154: + x147 + x258 <= 1
C1155: + x66 + x288 <= 1
C1156: + x19 + x38 + x63 <= 1
C1157: + x39 + x453 <= 1
C1158: + x158 + x178 <= 1
C1159: + x15 + x160 <= 1
C1160: + x9 + x355 <= 1
C1161: + x157 + x171 <= 1
C1162: + x177 + x228 <= 1
C1163: + x161 + x174 <= 1
C1164: + x9 + x21 <= 1
C1165: + x27 + x227 <= 1
C1166: + x53 + x265 <= 1
C1167: + x407 + x492 <= 1
C1168: + x7 + x92 <= 1
C1169: + x65 + x255 <= 1
C1170: + x190 + x303 <= 1
C1171: + x11 + x23 <= 1
C1172: + x67 + x92 <= 1
C1173: + x66 + x300 <= 1
C1174: + x45 + x350 <= 1
C1175: + x69 + x364 <= 1
C1176: + x337 + x474 <= 1
C1177: + x180 + x224 <= 1
C1178: + x93 + x173 <= 1
C1179: + x167 + x198 <= 1
C1180: + x13 + x97 <= 1
C1181: + x17 + x100 <= 1
C1182: + x127 + x131 <= 1
C1183: + x19 + x380 <= 1
C1184: + x49 + x317 <= 1
C1185: + x132 + x256 <= 1
C1186: + x5 + x376 <= 1
C1187: + x6 + x16 <= 1
C1188: + x303 + x373 <= 1
C1189: + x5 + x21 <= 1
C1190: + x24 + x200 <= 1
C1191: + x9 + x48 <= 1
C1192: + x8 + x10 <= 1
C1193: + x7 + x390 <= 1
C1194: + x55 + x132 <= 1
C1195: + x12 + x75 <= 1
C1196: + x13 + x85 <= 1
C1197: + x31 + x187 <= 1
C1198: + x53 + x196 <= 1
C1199: + x24 + x43 <= 1
C1200: + x19 + x304 <= 1
C1201: + x55 + x402 <= 1
C1202: + x29 + x413 <= 1
C1203: + x142 + x156 <= 1
C1204: + x1 + x204 <= 1
C1205: + x76 + x85 <= 1
C1206: + x269 + x369 <= 1
C1207: + x227 + x262 <= 1
C1208: + x72 + x382 <= 1
C1209: + x20 + x108 <= 1
C1210: + x78 + x87 <= 1
C1211: + x6 + x69 <= 1
C1212: + x45 + x341 <= 1
C1213: + x158 + x223 <= 1
C1214: + x77 + x174 <= 1
C1215: + x25 + x444 <= 1
C1216: + x372 + x434 <= 1
C1217: + x280 + x355 <= 1
C1218: + x129 + x461 <= 1
C1219: + x66 + x464 <= 1
C1220: + x48 + x76 <= 1
C1221: + x32 + x345 <= 1
C1222: + x151 + x297 <= 1
C1223: + x62 + x281 <= 1
C1224: + x65 + x101 <= 1
C1225: + x3 + x6 <= 1
C1226: + x6 + x9 <= 1
C1227: + x71 + x79 <= 1
C1228: + x355 + x443 <= 1
C1229: + x65 + x130 <= 1
C1230: + x10 + x78 <= 1
C1231: + x48 + x57 <= 1
C1232: + x81 + x101 <= 1
C1233: + x280 + x311 <= 1
C1234: + x11 + x295 <= 1
C1235: + x303 + x473 <= 1
C1236: + x13 + x84 <= 1
C1237: + x214 + x329 <= 1
C1238: + x45 + x288 <= 1
C1239: + x69 + x150 <= 1
C1240: + x176 + x357 <= 1
C1241: + x45 + x445 <= 1
C1242: + x8 + x152 <= 1
C1243: + x231 + x404 <= 1
C1244: + x312 + x357 <= 1
C1245: + x5 + x72 <= 1
C1246: + x121 + x189 <= 1
C1247: + x21 + x99 <= 1
C1248: + x68 + x344 <= 1
C1249: + x75 + x272 <= 1
C1250: + x93 + x374 <= 1
C1251: + x12 + x290 <= 1
C1252: + x31 + x96 <= 1
C1253: + x15 + x182 <= 1
C1254: + x1 + x31 <= 1
C1255: + x165 + x192 <= 1
C1256: + x29 + x205 <= 1
C1257: + x23 + x383 <= 1
C1258: + x28 + x315 <= 1
C1259: + x55 + x227 <= 1
C1260: + x18 + x257 <= 1
C1261: + x92 + x282 <= 1
C1262: + x10 + x119 <= 1
C1263: + x12 + x286 <= 1
C1264: + x5 + x27 <= 1
C1265: + x27 + x44 <= 1
C1266: + x24 + x57 <= 1
C1267: + x7 + x17 <= 1
C1268: + x6 + x38 <= 1
C1269: + x15 + x113 <= 1
C1270: + x71 + x126 <= 1
C1271: + x95 + x291 <= 1
C1272: + x12 + x16 + x66 <= 1
C1273: + x19 + x177 <= 1
C1274: + x55 + x170 <= 1
C1275: + x38 + x48 <= 1
C1276: + x3 + x407 <= 1
C1277: + x48 + x233 <= 1
C1278: + x7 + x77 <= 1
C1279: + x1 + x260 <= 1
C1280: + x121 + x470 <= 1
C1281: + x13 + x169 <= 1
C1282: + x4 + x198 <= 1
C1283: + x16 + x311 <= 1
C1284: + x1 + x22 <= 1
C1285: + x210 + x327 <= 1
C1286: + x94 + x329 <= 1
C1287: + x5 + x464 <= 1
C1288: + x9 + x118 <= 1
C1289: + x174 + x305 <= 1
C1290: + x20 + x70 <= 1
C1291: + x313 + x389 <= 1
C1292: + x2 + x11 <= 1
C1293: + x116 + x149 <= 1
C1294: + x117 + x271 <= 1
C1295: + x17 + x275 <= 1
C1296: + x8 + x117 <= 1
C1297: + x185 + x244 <= 1
C1298: + x41 + x153 <= 1
C1299: + x232 + x385 <= 1
C1300: + x87 + x398 <= 1
C1301: + x7 + x12 <= 1
C1302: + x93 + x312 <= 1
C1303: + x86 + x190 <= 1
C1304: + x23 + x47 <= 1
C1305: + x7 + x181 <= 1
C1306: + x5 + x387 <= 1
C1307: + x201 + x396 <= 1
C1308: + x128 + x193 <= 1
C1309: + x246 + x499 <= 1
C1310: + x223 + x237 <= 1
C1311: + x5 + x296 <= 1
C1312: + x209 + x241 <= 1
C1313: + x134 + x139 <= 1
C1314: + x100 + x429 <= 1
C1315: + x388 + x442 <= 1
C1316: + x15 + x491 <= 1
C1317: + x105 + x375 <= 1
C1318: + x13 + x168 <= 1
C1319: + x125 + x445 <= 1
C1320: + x27 + x106 <= 1
C1321: + x28 + x110 <= 1
C1322: + x9 + x160 <= 1
C1323: + x82 + x373 <= 1
C1324: + x41 + x84 <= 1
C1325: + x116 + x292 <= 1
C1326: + x147 + x151 <= 1
C1327: + x22 + x65 <= 1
C1328: + x5 + x9 <= 1
C1329: + x27 + x62 <= 1
C1330: + x8 + x110 <= 1
C1331: + x92 + x122 <= 1
C1332: + x31 + x151 <= 1
C1333: + x51 + x136 <= 1
C1334: + x124 + x238 <= 1
C1335: + x88 + x271 <= 1
C1336: + x16 + x478 <= 1
C1337: + x20 + x23 <= 1
C1338: + x3 + x35 <= 1
C1339: + x186 + x259 <= 1
C1340: + x132 + x136 <= 1
C1341: + x41 + x370 <= 1
C1342: + x25 + x460 <= 1
C1343: + x7 + x176 <= 1
C1344: + x29 + x481 <= 1
C1345: + x16 + x369 <= 1
C1346: + x11 + x163 <= 1
C1347: + x5 + x394 <= 1
C1348: + x67 + x425 <= 1
C1349: + x131 + x159 <= 1
C1350: + x340 + x434 <= 1
C1351: + x87 + x337 <= 1
C1352: + x38 + x464 <= 1
C1353: + x17 + x341 <= 1
C1354: + x19 + x54 <= 1
C1355: + x211 + x319 <= 1
C1356: + x12 + x180 <= 1
C1357: + x4 + x111 <= 1
C1358: + x179 + x280 <= 1
C1359: + x142 + x354 <= 1
C1360: + x76 + x268 <= 1
C1361: + x241 + x459 <= 1
C1362: + x78 + x175 <= 1
C1363: + x143 + x243 <= 1
C1364: + x2 + x5 <= 1
C1365: + x22 + x74 <= 1
C1366: + x133 + x376 <= 1
C1367: + x9 + x243 <= 1
C1368: + x16 + x136 <= 1
C1369: + x134 + x201 <= 1
C1370: + x310 + x335 <= 1
C1371: + x196 + x461 <= 1
C1372: + x40 + x72 <= 1
C1373: + x35 + x56 <= 1
C1374: + x244 + x473 <= 1
C1375: + x8 + x31 <= 1
C1376: + x76 + x469 <= 1
C1377: + x149 + x391 <= 1
C1378: + x17 + x47 <= 1
C1379: + x7 + x50 <= 1
C1380: + x143 + x170 <= 1
C1381: + x216 + x220 <= 1
C1382: + x11 + x61 <= 1
C1383: + x105 + x357 <= 1
C1384: + x20 + x254 <= 1
C1385: + x4 + x88 <= 1
C1386: + x11 + x371 <= 1
C1387: + x13 + x293 <= 1
C1388: + x45 + x364 <= 1
C1389: + x74 + x160 <= 1
C1390: + x318 + x324 <= 1
C1391: + x52 + x300 <= 1
C1392: + x216 + x499 <= 1
C1393: + x117 + x209 <= 1
C1394: + x6 + x324 <= 1
C1395: + x8 + x100 <= 1
C1396: + x182 + x285 <= 1
C1397: + x50 + x149 <= 1
C1398: + x78 + x156 <= 1
C1399: + x189 + x483 <= 1
C1400: + x106 + x211 <= 1
C1401: + x160 + x438 <= 1
C1402: + x16 + x81 <= 1
C1403: + x19 + x149 <= 1
C1404: + x26 + x164 <= 1
C1405: + x113 + x141 <= 1
C1406: + x46 + x225 <= 1
C1407: + x2 + x91 <= 1
C1408: + x49 + x383 <= 1
C1409: + x341 + x405 <= 1
C1410: + x87 + x208 <= 1
C1411: + x208 + x459 <= 1
C1412: + x172 + x222 <= 1
C1413: + x74 + x331 <= 1
C1414: + x9 + x18 <= 1
C1415: + x63 + x165 <= 1
C1416: + x182 + x338 <= 1
C1417: + x12 + x13 <= 1
C1418: + x21 + x82 <= 1
C1419: + x187 + x442 <= 1
C1420: + x164 + x259 <= 1
C1421: + x256 + x350 <= 1
C1422: + x129 + x342 <= 1
C1423: + x3 + x157 <= 1
C1424: + x37 + x426 <= 1
C1425: + x8 + x367 <= 1
C1426: + x5 + x230 <= 1
C1427: + x66 + x343 <= 1
C1428: + x160 + x399 <= 1
C1429: + x16 + x150 <= 1
C1430: + x143 + x467 <= 1
C1431: + x13 + x17 + x20 <= 1
C1432: + x4 + x9 <= 1
C1433: + x63 + x145 <= 1
C1434: + x336 + x424 <= 1
C1435: + x250 + x496 <= 1
C1436: + x43 + x119 <= 1
C1437: + x34 + x76 <= 1
C1438: + x83 + x299 <= 1
C1439: + x11 + x96 <= 1
C1440: + x63 + x391 <= 1
C1441: + x12 + x235 <= 1
C1442: + x2 + x35 <= 1
C1443: + x5 + x42 <= 1
C1444: + x17 + x299 <= 1
C1445: + x158 + x448 <= 1
C1446: + x7 + x36 <= 1
C1447: + x66 + x276 <= 1
C1448: + x56 + x257 <= 1
C1449: + x211 + x300 <= 1
C1450: + x56 + x424 <= 1
C1451: + x122 + x330 <= 1
C1452: + x188 + x289 <= 1
C1453: + x133 + x478 <= 1
C1454: + x53 + x120 <= 1
C1455: + x156 + x476 <= 1
C1456: + x67 + x330 <= 1
C1457: + x50 + x264 <= 1
C1458: + x3 + x394 <= 1
C1459: + x33 + x143 <= 1
C1460: + x51 + x217 <= 1
C1461: + x294 + x332 <= 1
C1462: + x77 + x78 <= 1
C1463: + x136 + x378 <= 1
C1464: + x105 + x287 <= 1
C1465: + x87 + x147 <= 1
C1466: + x171 + x188 <= 1
C1467: + x27 + x421 <= 1
C1468: + x11 + x248 <= 1
C1469: + x55 + x332 <= 1
C1470: + x41 + x124 <= 1
C1471: + x42 + x372 <= 1
C1472: + x17 + x104 <= 1
C1473: + x71 + x303 <= 1
C1474: + x108 + x423 <= 1
C1475: + x147 + x321 <= 1
C1476: + x29 + x32 <= 1
C1477: + x3 + x7 <= 1
C1478: + x20 + x490 <= 1
C1479: + x78 + x142 <= 1
C1480: + x25 + x40 <= 1
C1481: + x176 + x280 <= 1
C1482: + x13 + x244 <= 1
C1483: + x22 + x41 <= 1
C1484: + x5 + x17 <= 1
C1485: + x116 + x134 <= 1
C1486: + x461 + x467 <= 1
C1487: + x196 + x222 <= 1
C1488: + x223 + x478 <= 1
C1489: + x41 + x168 <= 1
C1490: + x51 + x160 <= 1
C1491: + x34 + x62 <= 1
C1492: + x7 + x27 <= 1
C1493: + x102 + x105 <= 1
C1494: + x29 + x409 <= 1
C1495: + x22 + x410 <= 1
C1496: + x40 + x452 <= 1
C1497: + x9 + x163 <= 1
C1498: + x1 + x208 <= 1
C1499: + x353 + x377 <= 1
C1500: + x53 + x127 <= 1
C1501: + x131 + x183 <= 1
C1502: + x61 + x143 <= 1
C1503: + x170 + x498 <= 1
C1504: + x71 + x151 <= 1
C1505: + x1 + x266 <= 1
C1506: + x11 + x449 <= 1
C1507: + x53 + x433 <= 1
C1508: + x95 + x353 <= 1
C1509: + x13 + x417 <= 1
C1510: + x14 + x303 <= 1
C1511: + x79 + x325 <= 1
C1512: + x9 + x76 <= 1
C1513: + x7 + x482 <= 1
C1514: + x8 + x494 <= 1
C1515: + x311 + x337 <= 1
C1516: + x385 + x467 <= 1
C1517: + x212 + x252 <= 1
C1518: + x320 + x432 <= 1
C1519: + x44 + x379 <= 1
C1520: + x10 + x114 <= 1
C1521: + x19 + x93 <= 1
C1522: + x40 + x108 <= 1
C1523: + x170 + x217 <= 1
C1524: + x6 + x152 <= 1
C1525: + x17 + x238 <= 1
C1526: + x63 + x366 <= 1
C1527: + x78 + x461 <= 1
C1528: + x40 + x278 <= 1
C1529: + x51 + x151 <= 1
C1530: + x251 + x463 <= 1
C1531: + x235 + x261 <= 1
C1532: + x174 + x495 <= 1
C1533: + x115 + x444 <= 1
C1534: + x88 + x195 <= 1
C1535: + x309 + x331 <= 1
C1536: + x65 + x263 <= 1
C1537: + x135 + x469 <= 1
C1538: + x47 + x411 <= 1
C1539: + x51 + x477 <= 1
C1540: + x23 + x254 <= 1
C1541: + x99 + x368 <= 1
C1542: + x16 + x116 <= 1
C1543: + x1 + x100 <= 1
C1544: + x248 + x281 <= 1
C1545: + x23 + x388 <= 1
C1546: + x147 + x237 <= 1
C1547: + x3 + x106 <= 1
C1548: + x417 + x468 <= 1
C1549: + x7 + x320 <= 1
C1550: + x19 + x197 <= 1
C1551: + x13 + x19 <= 1
C1552: + x5 + x120 <= 1
C1553: + x53 + x138 <= 1
C1554: + x80 + x328 <= 1
C1555: + x65 + x128 <= 1
C1556: + x175 + x426 <= 1
C1557: + x5 + x354 <= 1
C1558: + x34 + x95 <= 1
C1559: + x15 + x41 <= 1
C1560: + x63 + x103 <= 1
C1561: + x28 + x478 <= 1
C1562: + x87 + x121 <= 1
C1563: + x35 + x83 <= 1
C1564: + x1 + x47 <= 1
C1565: + x57 + x60 <= 1
C1566: + x147 + x454 <= 1
C1567: + x63 + x277 <= 1
C1568: + x280 + x332 <= 1
C1569: + x43 + x243 <= 1
C1570: + x7 + x21 <= 1
C1571: + x249 + x473 <= 1
C1572: + x47 + x144 <= 1
C1573: + x175 + x374 <= 1
C1574: + x104 + x306 <= 1
C1575: + x14 + x127 <= 1
C1576: + x39 + x494 <= 1
C1577: + x167 + x311 <= 1
C1578: + x43 + x408 <= 1
C1579: + x7 + x178 <= 1
C1580: + x9 + x284 <= 1
C1581: + x175 + x215 <= 1
C1582: + x13 + x214 <= 1
C1583: + x168 + x431 <= 1
C1584: + x53 + x77 <= 1
C1585: + x199 + x232 <= 1
C1586: + x20 + x126 <= 1
C1587: + x41 + x194 <= 1
C1588: + x196 + x363 <= 1
C1589: + x332 + x451 <= 1
C1590: + x53 + x226 <= 1
C1591: + x316 + x397 <= 1
C1592: + x130 + x166 <= 1
C1593: + x233 + x244 <= 1
C1594: + x163 + x195 <= 1
C1595: + x193 + x287 <= 1
C1596: + x233 + x273 <= 1
C1597: + x68 + x466 <= 1
C1598: + x89 + x107 <= 1
C1599: + x15 + x407 <= 1
C1600: + x201 + x207 <= 1
C1601: + x200 + x292 <= 1
C1602: + x56 + x230 <= 1
C1603: + x8 + x484 <= 1
C1604: + x124 + x431 <= 1
C1605: + x16 + x420 <= 1
C1606: + x63 + x106 <= 1
C1607: + x1 + x153 <= 1
C1608: + x5 + x14 <= 1
C1609: + x65 + x486 <= 1
C1610: + x113 + x176 <= 1
C1611: + x94 + x281 <= 1
C1612: + x42 + x275 <= 1
C1613: + x70 + x125 <= 1
C1614: + x118 + x403 <= 1
C1615: + x155 + x397 <= 1
C1616: + x20 + x22 <= 1
C1617: + x3 + x40 <= 1
C1618: + x376 + x404 <= 1
C1619: + x95 + x141 <= 1
C1620: + x38 + x415 <= 1
C1621: + x74 + x213 <= 1
C1622: + x110 + x196 <= 1
C1623: + x219 + x475 <= 1
C1624: + x22 + x55 + x68 <= 1
C1625: + x231 + x386 <= 1
C1626: + x232 + x270 <= 1
C1627: + x321 + x359 <= 1
C1628: + x38 + x213 <= 1
C1629: + x187 + x357 <= 1
C1630: + x25 + x120 <= 1
C1631: + x127 + x340 <= 1
C1632: + x64 + x191 <= 1
C1633: + x112 + x336 <= 1
C1634: + x295 + x358 <= 1
C1635: + x150 + x180 <= 1
C1636: + x14 + x44 <= 1
C1637: + x7 + x229 <= 1
C1638: + x183 + x216 <= 1
C1639: + x56 + x96 <= 1
C1640: + x31 + x239 <= 1
C1641: + x304 + x410 <= 1
C1642: + x443 + x472 <= 1
C1643: + x11 + x333 <= 1
C1644: + x12 + x417 <= 1
C1645: + x119 + x489 <= 1
C1646: + x11 + x123 <= 1
C1647: + x109 + x164 <= 1
C1648: + x273 + x365 <= 1
C1649: + x220 + x417 <= 1
C1650: + x40 + x246 <= 1
C1651: + x72 + x205 <= 1
C1652: + x50 + x159 <= 1
C1653: + x26 + x456 <= 1
C1654: + x32 + x186 <= 1
C1655: + x162 + x203 <= 1
C1656: + x174 + x363 <= 1
C1657: + x168 + x260 <= 1
C1658: + x152 + x169 <= 1
C1659: + x118 + x323 <= 1
C1660: + x101 + x220 <= 1
C1661: + x228 + x287 <= 1
C1662: + x143 + x441 <= 1
C1663: + x86 + x362 <= 1
C1664: + x3 + x280 <= 1
C1665: + x306 + x471 <= 1
C1666: + x143 + x342 <= 1
C1667: + x7 + x111 <= 1
C1668: + x10 + x475 <= 1
C1669: + x6 + x140 <= 1
C1670: + x17 + x202 <= 1
C1671: + x180 + x209 <= 1
C1672: + x40 + x243 <= 1
C1673: + x13 + x116 <= 1
C1674: + x14 + x263 <= 1
C1675: + x298 + x382 <= 1
C1676: + x128 + x366 <= 1
C1677: + x320 + x440 <= 1
C1678: + x87 + x253 <= 1
C1679: + x27 + x455 <= 1
C1680: + x1 + x163 <= 1
C1681: + x46 + x321 <= 1
C1682: + x50 + x499 <= 1
C1683: + x169 + x239 <= 1
C1684: + x117 + x301 <= 1
C1685: + x153 + x286 <= 1
C1686: + x80 + x280 <= 1
C1687: + x191 + x246 <= 1
C1688: + x227 + x317 <= 1
C1689: + x35 + x52 <= 1
C1690: + x236 + x268 <= 1
C1691: + x1 + x80 <= 1
C1692: + x314 + x436 <= 1
C1693: + x93 + x131 <= 1
C1694: + x174 + x470 <= 1
C1695: + x48 + x414 <= 1
C1696: + x40 + x465 <= 1
C1697: + x279 + x446 <= 1
C1698: + x190 + x420 <= 1
C1699: + x8 + x172 <= 1
C1700: + x12 + x173 <= 1
C1701: + x233 + x262 <= 1
C1702: + x25 + x320 <= 1
C1703: + x188 + x222 <= 1
C1704: + x278 + x409 <= 1
C1705: + x18 + x70 <= 1
C1706: + x248 + x305 <= 1
C1707: + x41 + x312 <= 1
C1708: + x333 + x430 <= 1
C1709: + x87 + x316 <= 1
C1710: + x10 + x452 <= 1
C1711: + x93 + x215 <= 1
C1712: + x68 + x86 <= 1
C1713: + x23 + x69 <= 1
C1714: + x5 + x251 <= 1
C1715: + x29 + x225 <= 1
C1716: + x4 + x8 <= 1
C1717: + x142 + x331 <= 1
C1718: + x3 + x49 <= 1
C1719: + x50 + x137 <= 1
C1720: + x217 + x286 <= 1
C1721: + x15 + x81 <= 1
C1722: + x185 + x380 <= 1
C1723: + x39 + x107 <= 1
C1724: + x5 + x47 <= 1
C1725: + x9 + x42 <= 1
C1726: + x281 + x346 <= 1
C1727: + x38 + x208 <= 1
C1728: + x124 + x204 <= 1
C1729: + x35 + x176 <= 1
C1730: + x325 + x406 <= 1
C1731: + x16 + x500 <= 1
C1732: + x111 + x387 <= 1
C1733: + x57 + x310 <= 1
C1734: + x14 + x87 <= 1
C1735: + x24 + x372 <= 1
C1736: + x7 + x202 <= 1
C1737: + x269 + x406 <= 1
C1738: + x28 + x276 <= 1
C1739: + x57 + x112 <= 1
C1740: + x3 + x395 <= 1
C1741: + x29 + x73 <= 1
C1742: + x222 + x226 <= 1
C1743: + x5 + x333 <= 1
C1744: + x6 + x91 <= 1
C1745: + x92 + x383 <= 1
C1746: + x19 + x490 <= 1
C1747: + x11 + x24 <= 1
C1748: + x158 + x197 <= 1
C1749: + x340 + x363 <= 1
C1750: + x90 + x349 <= 1
C1751: + x71 + x399 <= 1
C1752: + x236 + x462 <= 1
C1753: + x142 + x481 <= 1
C1754: + x38 + x133 <= 1
C1755: + x94 + x381 <= 1
C1756: + x7 + x335 <= 1
C1757: + x28 + x129 <= 1
C1758: + x61 + x108 <= 1
C1759: + x315 + x482 <= 1
C1760: + x246 + x399 <= 1
C1761: + x141 + x482 <= 1
C1762: + x102 + x493 <= 1
C1763: + x85 + x98 <= 1
C1764: + x6 + x15 <= 1
C1765: + x91 + x137 <= 1
C1766: + x92 + x267 <= 1
C1767: + x19 + x103 <= 1
C1768: + x1 + x5 + x7 + x11 <= 1
C1769: + x25 + x322 <= 1
C1770: + x100 + x146 <= 1
C1771: + x13 + x86 <= 1
C1772: + x35 + x167 <= 1
C1773: + x6 + x416 <= 1
C1774: + x41 + x407 <= 1
C1775: + x12 + x384 <= 1
C1776: + x32 + x38 <= 1
C1777: + x142 + x155 <= 1
C1778: + x16 + x203 <= 1
C1779: + x65 + x269 <= 1
C1780: + x135 + x479 <= 1
C1781: + x49 + x471 <= 1
C1782: + x57 + x410 <= 1
C1783: + x56 + x420 <= 1
C1784: + x452 + x477 <= 1
C1785: + x41 + x52 <= 1
C1786: + x4 + x74 <= 1
C1787: + x5 + x407 <= 1
C1788: + x165 + x291 <= 1
C1789: + x386 + x418 <= 1
C1790: + x142 + x236 <= 1
C1791: + x65 + x247 <= 1
C1792: + x29 + x338 <= 1
C1793: + x203 + x492 <= 1
C1794: + x27 + x30 <= 1
C1795: + x63 + x291 <= 1
C1796: + x281 + x412 <= 1
C1797: + x13 + x25 <= 1
C1798: + x134 + x304 <= 1
C1799: + x55 + x233 <= 1
C1800: + x34 + x65 <= 1
C1801: + x117 + x485 <= 1
C1802: + x7 + x144 <= 1
C1803: + x13 + x240 <= 1
C1804: + x152 + x267 <= 1
C1805: + x167 + x480 <= 1
C1806: + x388 + x415 <= 1
C1807: + x118 + x388 <= 1
C1808: + x73 + x210 <= 1
C1809: + x92 + x131 <= 1
C1810: + x41 + x59 <= 1
C1811: + x13 + x36 <= 1
C1812: + x51 + x290 <= 1
C1813: + x4 + x79 <= 1
C1814: + x53 + x123 <= 1
C1815: + x5 + x414 <= 1
C1816: + x43 + x49 <= 1
C1817: + x11 + x26 <= 1
C1818: + x49 + x349 <= 1
C1819: + x20 + x390 <= 1
C1820: + x95 + x204 <= 1
C1821: + x16 + x232 <= 1
C1822: + x31 + x250 <= 1
C1823: + x5 + x450 <= 1
C1824: + x71 + x294 <= 1
C1825: + x8 + x490 <= 1
C1826: + x102 + x287 <= 1
C1827: + x50 + x180 <= 1
C1828: + x16 + x346 <= 1
C1829: + x8 + x269 <= 1
C1830: + x246 + x258 <= 1
C1831: + x11 + x78 <= 1
C1832: + x22 + x62 <= 1
C1833: + x5 + x28 <= 1
C1834: + x280 + x335 <= 1
C1835: + x21 + x39 <= 1
C1836: + x42 + x293 <= 1
C1837: + x25 + x162 <= 1
C1838: + x24 + x60 <= 1
C1839: + x36 + x315 <= 1
C1840: + x74 + x116 <= 1
C1841: + x27 + x334 <= 1
C1842: + x50 + x112 <= 1
C1843: + x33 + x34 <= 1
C1844: + x71 + x115 <= 1
C1845: + x36 + x45 <= 1
C1846: + x11 + x178 <= 1
C1847: + x103 + x199 <= 1
C1848: + x192 + x266 <= 1
C1849: + x20 + x286 <= 1
C1850: + x35 + x44 <= 1
C1851: + x8 + x51 <= 1
C1852: + x102 + x340 <= 1
C1853: + x65 + x424 <= 1
C1854: + x21 + x424 <= 1
C1855: + x21 + x261 <= 1
C1856: + x51 + x428 <= 1
C1857: + x14 + x54 <= 1
C1858: + x70 + x350 <= 1
C1859: + x22 + x115 <= 1
C1860: + x9 + x154 <= 1
C1861: + x8 + x68 <= 1
C1862: + x57 + x500 <= 1
C1863: + x38 + x192 <= 1
C1864: + x66 + x473 <= 1
C1865: + x336 + x447 <= 1
C1866: + x230 + x339 <= 1
C1867: + x70 + x239 <= 1
C1868: + x180 + x496 <= 1
C1869: + x71 + x186 <= 1
C1870: + x236 + x251 <= 1
C1871: + x92 + x274 <= 1
C1872: + x13 + x158 <= 1
C1873: + x296 + x428 <= 1
C1874: + x81 + x84 <= 1
C1875: + x278 + x498 <= 1
C1876: + x29 + x153 <= 1
C1877: + x196 + x291 <= 1
C1878: + x15 + x121 <= 1
C1879: + x92 + x145 <= 1
C1880: + x5 + x55 <= 1
C1881: + x88 + x482 <= 1
C1882: + x7 + x412 <= 1
C1883: + x10 + x134 <= 1
C1884: + x175 + x489 <= 1
C1885: + x119 + x474 <= 1
C1886: + x11 + x12 <= 1
C1887: + x29 + x447 <= 1
C1888: + x4 + x206 <= 1
C1889: + x150 + x183 <= 1
C1890: + x91 + x254 <= 1
C1891: + x1 + x238 <= 1
C1892: + x22 + x223 <= 1
C1893: + x361 + x362 <= 1
C1894: + x125 + x259 <= 1
C1895: + x24 + x118 <= 1
C1896: + x51 + x54 <= 1
C1897: + x169 + x284 <= 1
C1898: + x7 + x113 <= 1
C1899: + x19 + x386 <= 1
C1900: + x335 + x425 <= 1
C1901: + x66 + x323 <= 1
C1902: + x105 + x292 <= 1
C1903: + x167 + x211 <= 1
C1904: + x5 + x10 <= 1
C1905: + x106 + x188 <= 1
C1906: + x15 + x262 <= 1
C1907: + x55 + x365 <= 1
C1908: + x67 + x406 <= 1
C1909: + x41 + x129 <= 1
C1910: + x31 + x361 <= 1
C1911: + x235 + x371 <= 1
C1912: + x10 + x318 <= 1
C1913: + x66 + x137 <= 1
C1914: + x29 + x53 <= 1
C1915: + x110 + x373 <= 1
C1916: + x12 + x199 <= 1
C1917: + x125 + x326 <= 1
C1918: + x179 + x289 <= 1
C1919: + x25 + x223 <= 1
C1920: + x16 + x78 <= 1
C1921: + x378 + x384 <= 1
C1922: + x48 + x309 <= 1
C1923: + x51 + x249 <= 1
C1924: + x31 + x277 <= 1
C1925: + x176 + x484 <= 1
C1926: + x54 + x94 <= 1
C1927: + x401 + x451 <= 1
C1928: + x183 + x454 <= 1
C1929: + x221 + x374 <= 1
C1930: + x13 + x352 <= 1
C1931: + x115 + x179 <= 1
C1932: + x7 + x302 <= 1
C1933: + x121 + x322 <= 1
C1934: + x41 + x92 <= 1
C1935: + x5 + x98 <= 1
C1936: + x34 + x351 <= 1
C1937: + x32 + x320 <= 1
C1938: + x52 + x437 <= 1
C1939: + x12 + x18 <= 1
C1940: + x115 + x493 <= 1
C1941: + x34 + x109 <= 1
C1942: + x1 + x303 <= 1
C1943: + x32 + x114 <= 1
C1944: + x87 + x143 <= 1
C1945: + x45 + x96 <= 1
C1946: + x8 + x102 <= 1
C1947: + x71 + x410 <= 1
C1948: + x1 + x49 <= 1
C1949: + x273 + x353 <= 1
C1950: + x4 + x30 <= 1
C1951: + x13 + x446 <= 1
C1952: + x5 + x483 <= 1
C1953: + x91 + x487 <= 1
C1954: + x92 + x413 <= 1
C1955: + x249 + x491 <= 1

binary
x1 x2 x3 x4 x5 x6 x7 x8 x9 x10 x11 x12 x13 x14 x15 x16 x17 x18 x19 x20 x21 x22 x23 x24 x25 x26 x27 x28 x29 x30 x31 x32 x33 x34 x35 x36 x37 x38 x39 x40 x41 x42 x43 x44 x45 x46 x47 x48 x49 x50 x51 x52 x53 x54 x55 x56 x57 x58 x59 x60 x61 x62 x63 x64 x65 x66 x67 x68 x69 x70 x71 x72 x73 x74 x75 x76 x77 x78 x79 x80 x81 x82 x83 x84 x85 x86 x87 x88 x89 x90 x91 x92 x93 x94 x95 x96 x97 x98 x99 x100 x101 x102 x103 x104 x105 x106 x107 x108 x109 x110 x111 x112 x113 x114 x115 x116 x117 x118 x119 x120 x121 x122 x123 x124 x125 x126 x127 x128 x129 x130 x131 x132 x133 x134 x135 x136 x137 x138 x139 x140 x141 x142 x143 x144 x145 x146 x147 x148 x149 x150 x151 x152 x153 x154 x155 x156 x157 x158 x159 x160 x161 x162 x163 x164 x165 x166 x167 x168 x169 x170 x171 x172 x173 x174 x175 x176 x177 x178 x179 x180 x181 x182 x183 x184 x185 x186 x187 x188 x189 x190 x191 x192 x193 x194 x195 x196 x197 x198 x199 x200 x201 x202 x203 x204 x205 x206 x207 x208 x209 x210 x211 x212 x213 x214 x215 x216 x217 x218 x219 x220 x221 x222 x223 x224 x225 x226 x227 x228 x229 x230 x231 x232 x233 x234 x235 x236 x237 x238 x239 x240 x241 x242 x243 x244 x245 x246 x247 x248 x249 x250 x251 x252 x253 x254 x255 x256 x257 x258 x259 x260 x261 x262 x263 x264 x265 x266 x267 x268 x269 x270 x271 x272 x273 x274 x275 x276 x277 x278 x279 x280 x281 x282 x283 x284 x285 x286 x287 x288 x289 x290 x291 x292 x293 x294 x295 x296 x297 x298 x299 x300 x301 x302 x303 x304 x305 x306 x307 x308 x309 x310 x311 x312 x313 x314 x315 x316 x317 x318 x319 x320 x321 x322 x323 x324 x325 x326 x327 x328 x329 x330 x331 x332 x333 x334 x335 x336 x337 x338 x339 x340 x341 x342 x343 x344 x345 x346 x347 x348 x349 x350 x351 x352 x353 x354 x355 x356 x357 x358 x359 x360 x361 x362 x363 x364 x365 x366 x367 x368 x369 x370 x371 x372 x373 x374 x375 x376 x377 x378 x379 x380 x381 x382 x383 x384 x385 x386 x387 x388 x389 x390 x391 x392 x393 x394 x395 x396 x397 x398 x399 x400 x401 x402 x403 x404 x405 x406 x407 x408 x409 x410 x411 x412 x413 x414 x415 x416 x417 x418 x419 x420 x421 x422 x423 x424 x425 x426 x427 x428 x429 x430 x431 x432 x433 x434 x435 x436 x437 x438 x439 x440 x441 x442 x443 x444 x445 x446 x447 x448 x449 x450 x451 x452 x453 x454 x455 x456 x457 x458 x459 x460 x461 x462 x463 x464 x465 x466 x467 x468 x469 x470 x471 x472 x473 x474 x475 x476 x477 x478 x479 x480 x481 x482 x483 x484 x485 x486 x487 x488 x489 x490 x491 x492 x493 x494 x495 x496 x497 x498 x499 x500
