maximize
OBJ: + 1 x1 + 1 x2 + 1 x3 + 1 x4 + 1 x5 + 1 x6 + 1 x7 + 1 x8 + 1 x9 + 1 x10 + 1 x11 + 1 x12 + 1 x13 + 1 x14 + 1 x15 + 1 x16 + 1 x17 + 1 x18 + 1 x19 + 1 x20 + 1 x21 + 1 x22 + 1 x23 + 1 x24 + 1 x25 + 1 x26 + 1 x27 + 1 x28 + 1 x29 + 1 x30 + 1 x31 + 1 x32 + 1 x33 + 1 x34 + 1 x35 + 1 x36 + 1 x37 + 1 x38 + 1 x39 + 1 x40 + 1 x41 + 1 x42 + 1 x43 + 1 x44 + 1 x45 + 1 x46 + 1 x47 + 1 x48 + 1 x49 + 1 x50 + 1 x51 + 1 x52 + 1 x53 + 1 x54 + 1 x55 + 1 x56 + 1 x57 + 1 x58 + 1 x59 + 1 x60 + 1 x61 + 1 x62 + 1 x63 + 1 x64 + 1 x65 + 1 x66 + 1 x67 + 1 x68 + 1 x69 + 1 x70 + 1 x71 + 1 x72 + 1 x73 + 1 x74 + 1 x75 + 1 x76 + 1 x77 + 1 x78 + 1 x79 + 1 x80 + 1 x81 + 1 x82 + 1 x83 + 1 x84 + 1 x85 + 1 x86 + 1 x87 + 1 x88 + 1 x89 + 1 x90 + 1 x91 + 1 x92 + 1 x93 + 1 x94 + 1 x95 + 1 x96 + 1 x97 + 1 x98 + 1 x99 + 1 x100 + 1 x101 + 1 x102 + 1 x103 + 1 x104 + 1 x105 + 1 x106 + 1 x107 + 1 x108 + 1 x109 + 1 x110 + 1 x111 + 1 x112 + 1 x113 + 1 x114 + 1 x115 + 1 x116 + 1 x117 + 1 x118 + 1 x119 + 1 x120 + 1 x121 + 1 x122 + 1 x123 + 1 x124 + 1 x125 + 1 x126 + 1 x127 + 1 x128 + 1 x129 + 1 x130 + 1 x131 + 1 x132 + 1 x133 + 1 x134 + 1 x135 + 1 x136 + 1 x137 + 1 x138 + 1 x139 + 1 x140 + 1 x141 + 1 x142 + 1 x143 + 1 x144 + 1 x145 + 1 x146 + 1 x147 + 1 x148 + 1 x149 + 1 x150 + 1 x151 + 1 x152 + 1 x153 + 1 x154 + 1 x155 + 1 x156 + 1 x157 + 1 x158 + 1 x159 + 1 x160 + 1 x161 + 1 x162 + 1 x163 + 1 x164 + 1 x165 + 1 x166 + 1 x167 + 1 x168 + 1 x169 + 1 x170 + 1 x171 + 1 x172 + 1 x173 + 1 x174 + 1 x175 + 1 x176 + 1 x177 + 1 x178 + 1 x179 + 1 x180 + 1 x181 + 1 x182 + 1 x183 + 1 x184 + 1 x185 + 1 x186 + 1 x187 + 1 x188 + 1 x189 + 1 x190 + 1 x191 + 1 x192 + 1 x193 + 1 x194 + 1 x195 + 1 x196 + 1 x197 + 1 x198 + 1 x199 + 1 x200 + 1 x201 + 1 x202 + 1 x203 + 1 x204 + 1 x205 + 1 x206 + 1 x207 + 1 x208 + 1 x209 + 1 x210 + 1 x211 + 1 x212 + 1 x213 + 1 x214 + 1 x215 + 1 x216 + 1 x217 + 1 x218 + 1 x219 + 1 x220 + 1 x221 + 1 x222 + 1 x223 + 1 x224 + 1 x225 + 1 x226 + 1 x227 + 1 x228 + 1 x229 + 1 x230 + 1 x231 + 1 x232 + 1 x233 + 1 x234 + 1 x235 + 1 x236 + 1 x237 + 1 x238 + 1 x239 + 1 x240 + 1 x241 + 1 x242 + 1 x243 + 1 x244 + 1 x245 + 1 x246 + 1 x247 + 1 x248 + 1 x249 + 1 x250 + 1 x251 + 1 x252 + 1 x253 + 1 x254 + 1 x255 + 1 x256 + 1 x257 + 1 x258 + 1 x259 + 1 x260 + 1 x261 + 1 x262 + 1 x263 + 1 x264 + 1 x265 + 1 x266 + 1 x267 + 1 x268 + 1 x269 + 1 x270 + 1 x271 + 1 x272 + 1 x273 + 1 x274 + 1 x275 + 1 x276 + 1 x277 + 1 x278 + 1 x279 + 1 x280 + 1 x281 + 1 x282 + 1 x283 + 1 x284 + 1 x285 + 1 x286 + 1 x287 + 1 x288 + 1 x289 + 1 x290 + 1 x291 + 1 x292 + 1 x293 + 1 x294 + 1 x295 + 1 x296 + 1 x297 + 1 x298 + 1 x299 + 1 x300 + 1 x301 + 1 x302 + 1 x303 + 1 x304 + 1 x305 + 1 x306 + 1 x307 + 1 x308 + 1 x309 + 1 x310 + 1 x311 + 1 x312 + 1 x313 + 1 x314 + 1 x315 + 1 x316 + 1 x317 + 1 x318 + 1 x319 + 1 x320 + 1 x321 + 1 x322 + 1 x323 + 1 x324 + 1 x325 + 1 x326 + 1 x327 + 1 x328 + 1 x329 + 1 x330 + 1 x331 + 1 x332 + 1 x333 + 1 x334 + 1 x335 + 1 x336 + 1 x337 + 1 x338 + 1 x339 + 1 x340 + 1 x341 + 1 x342 + 1 x343 + 1 x344 + 1 x345 + 1 x346 + 1 x347 + 1 x348 + 1 x349 + 1 x350 + 1 x351 + 1 x352 + 1 x353 + 1 x354 + 1 x355 + 1 x356 + 1 x357 + 1 x358 + 1 x359 + 1 x360 + 1 x361 + 1 x362 + 1 x363 + 1 x364 + 1 x365 + 1 x366 + 1 x367 + 1 x368 + 1 x369 + 1 x370 + 1 x371 + 1 x372 + 1 x373 + 1 x374 + 1 x375 + 1 x376 + 1 x377 + 1 x378 + 1 x379 + 1 x380 + 1 x381 + 1 x382 + 1 x383 + 1 x384 + 1 x385 + 1 x386 + 1 x387 + 1 x388 + 1 x389 + 1 x390 + 1 x391 + 1 x392 + 1 x393 + 1 x394 + 1 x395 + 1 x396 + 1 x397 + 1 x398 + 1 x399 + 1 x400 + 1 x401 + 1 x402 + 1 x403 + 1 x404 + 1 x405 + 1 x406 + 1 x407 + 1 x408 + 1 x409 + 1 x410 + 1 x411 + 1 x412 + 1 x413 + 1 x414 + 1 x415 + 1 x416 + 1 x417 + 1 x418 + 1 x419 + 1 x420 + 1 x421 + 1 x422 + 1 x423 + 1 x424 + 1 x425 + 1 x426 + 1 x427 + 1 x428 + 1 x429 + 1 x430 + 1 x431 + 1 x432 + 1 x433 + 1 x434 + 1 x435 + 1 x436 + 1 x437 + 1 x438 + 1 x439 + 1 x440 + 1 x441 + 1 x442 + 1 x443 + 1 x444 + 1 x445 + 1 x446 + 1 x447 + 1 x448 + 1 x449 + 1 x450 + 1 x451 + 1 x452 + 1 x453 + 1 x454 + 1 x455 + 1 x456 + 1 x457 + 1 x458 + 1 x459 + 1 x460 + 1 x461 + 1 x462 + 1 x463 + 1 x464 + 1 x465 + 1 x466 + 1 x467 + 1 x468 + 1 x469 + 1 x470 + 1 x471 + 1 x472 + 1 x473 + 1 x474 + 1 x475 + 1 x476 + 1 x477 + 1 x478 + 1 x479 + 1 x480 + 1 x481 + 1 x482 + 1 x483 + 1 x484 + 1 x485 + 1 x486 + 1 x487 + 1 x488 + 1 x489 + 1 x490 + 1 x491 + 1 x492 + 1 x493 + 1 x494 + 1 x495 + 1 x496 + 1 x497 + 1 x498 + 1 x499 + 1 x500

subject to
C1: + x195 + x296 <= 1
C2: + x404 + x448 <= 1
C3: + x6 + x32 <= 1
C4: + x155 + x226 <= 1
C5: + x83 + x314 <= 1
C6: + x76 + x78 + x80 <= 1
C7: + x31 + x42 <= 1
C8: + x6 + x179 <= 1
C9: + x17 + x318 <= 1
C10: + x80 + x267 <= 1
C11: + x18 + x21 <= 1
C12: + x16 + x75 <= 1
C13: + x72 + x346 <= 1
C14: + x50 + x345 <= 1
C15: + x77 + x101 <= 1
C16: + x344 + x386 <= 1
C17: + x9 + x413 <= 1
C18: + x220 + x323 <= 1
C19: + x56 + x270 <= 1
C20: + x95 + x168 <= 1
C21: + x5 + x204 <= 1
C22: + x6 + x196 <= 1
C23: + x125 + x436 <= 1
C24: + x18 + x339 <= 1
C25: + x19 + x46 <= 1
C26: + x175 + x177 <= 1
C27: + x168 + x397 <= 1
C28: + x162 + x334 <= 1
C29: + x88 + x460 <= 1
C30: + x91 + x478 <= 1
C31: + x6 + x306 <= 1
C32: + x39 + x150 <= 1
C33: + x21 + x385 <= 1
C34: + x48 + x203 <= 1
C35: + x30 + x428 <= 1
C36: + x26 + x385 <= 1
C37: + x220 + x287 <= 1
C38: + x8 + x99 <= 1
C39: + x148 + x329 <= 1
C40: + x268 + x299 <= 1
C41: + x44 + x236 <= 1
C42: + x207 + x241 <= 1
C43: + x45 + x252 <= 1
C44: + x15 + x433 <= 1
C45: + x392 + x412 <= 1
C46: + x110 + x452 <= 1
C47: + x221 + x312 <= 1
C48: + x23 + x49 <= 1
C49: + x15 + x78 <= 1
C50: + x61 + x311 <= 1
C51: + x65 + x178 <= 1
C52: + x8 + x293 <= 1
C53: + x20 + x314 <= 1
C54: + x17 + x250 <= 1
C55: + x8 + x23 <= 1
C56: + x123 + x205 <= 1
C57: + x131 + x146 <= 1
C58: + x5 + x286 <= 1
C59: + x135 + x243 <= 1
C60: + x203 + x306 <= 1
C61: + x1 + x243 <= 1
C62: + x211 + x306 <= 1
C63: + x194 + x368 <= 1
C64: + x48 + x125 <= 1
C65: + x47 + x391 <= 1
C66: + x32 + x215 <= 1
C67: + x146 + x354 <= 1
C68: + x277 + x299 <= 1
C69: + x23 + x234 <= 1
C70: + x164 + x423 <= 1
C71: + x7 + x441 <= 1
C72: + x66 + x72 <= 1
C73: + x11 + x379 <= 1
C74: + x12 + x16 <= 1
C75: + x78 + x96 <= 1
C76: + x30 + x122 <= 1
C77: + x81 + x147 <= 1
C78: + x32 + x449 <= 1
C79: + x318 + x348 <= 1
C80: + x247 + x292 <= 1
C81: + x191 + x391 <= 1
C82: + x10 + x456 <= 1
C83: + x126 + x422 <= 1
C84: + x18 + x485 <= 1
C85: + x2 + x22 <= 1
C86: + x23 + x89 <= 1
C87: + x8 + x92 <= 1
C88: + x99 + x408 <= 1
C89: + x174 + x456 <= 1
C90: + x67 + x260 <= 1
C91: + x14 + x415 <= 1
C92: + x7 + x146 <= 1
C93: + x119 + x395 <= 1
C94: + x3 + x210 <= 1
C95: + x21 + x177 <= 1
C96: + x25 + x383 <= 1
C97: + x126 + x136 <= 1
C98: + x27 + x220 <= 1
C99: + x80 + x281 <= 1
C100: + x12 + x73 <= 1
C101: + x9 + x395 <= 1
C102: + x150 + x203 <= 1
C103: + x107 + x124 <= 1
C104: + x190 + x441 <= 1
C105: + x27 + x75 <= 1
C106: + x10 + x51 <= 1
C107: + x8 + x157 <= 1
C108: + x17 + x443 <= 1
C109: + x18 + x333 <= 1
C110: + x15 + x375 <= 1
C111: + x18 + x51 <= 1
C112: + x236 + x305 <= 1
C113: + x58 + x364 <= 1
C114: + x251 + x386 <= 1
C115: + x333 + x417 <= 1
C116: + x6 + x71 <= 1
C117: + x256 + x326 <= 1
C118: + x111 + x467 <= 1
C119: + x58 + x122 <= 1
C120: + x286 + x396 <= 1
C121: + x80 + x103 <= 1
C122: + x16 + x158 <= 1
C123: + x1 + x6 <= 1
C124: + x8 + x81 <= 1
C125: + x28 + x133 <= 1
C126: + x114 + x216 <= 1
C127: + x5 + x480 <= 1
C128: + x6 + x472 <= 1
C129: + x9 + x70 <= 1
C130: + x167 + x330 <= 1
C131: + x6 + x11 <= 1
C132: + x82 + x202 <= 1
C133: + x431 + x435 <= 1
C134: + x14 + x251 <= 1
C135: + x45 + x121 <= 1
C136: + x55 + x133 <= 1
C137: + x13 + x82 <= 1
C138: + x24 + x34 <= 1
C139: + x182 + x306 <= 1
C140: + x393 + x412 <= 1
C141: + x103 + x201 <= 1
C142: + x5 + x403 <= 1
C143: + x41 + x213 <= 1
C144: + x251 + x393 <= 1
C145: + x133 + x184 <= 1
C146: + x245 + x284 <= 1
C147: + x36 + x206 <= 1
C148: + x1 + x442 <= 1
C149: + x27 + x480 <= 1
C150: + x19 + x94 <= 1
C151: + x202 + x460 <= 1
C152: + x12 + x284 <= 1
C153: + x116 + x142 <= 1
C154: + x87 + x103 <= 1
C155: + x245 + x304 <= 1
C156: + x111 + x312 <= 1
C157: + x38 + x254 <= 1
C158: + x293 + x447 <= 1
C159: + x6 + x389 <= 1
C160: + x8 + x417 <= 1
C161: + x76 + x230 <= 1
C162: + x257 + x469 <= 1
C163: + x178 + x446 <= 1
C164: + x5 + x176 <= 1
C165: + x100 + x341 <= 1
C166: + x51 + x478 <= 1
C167: + x34 + x167 <= 1
C168: + x3 + x409 <= 1
C169: + x23 + x385 <= 1
C170: + x80 + x210 <= 1
C171: + x55 + x117 <= 1
C172: + x247 + x250 <= 1
C173: + x40 + x48 <= 1
C174: + x370 + x426 <= 1
C175: + x10 + x233 <= 1
C176: + x250 + x295 <= 1
C177: + x5 + x462 <= 1
C178: + x244 + x272 <= 1
C179: + x15 + x397 <= 1
C180: + x139 + x162 <= 1
C181: + x221 + x284 <= 1
C182: + x238 + x353 <= 1
C183: + x5 + x8 <= 1
C184: + x176 + x252 <= 1
C185: + x6 + x363 <= 1
C186: + x45 + x111 <= 1
C187: + x1 + x48 <= 1
C188: + x102 + x364 <= 1
C189: + x185 + x242 <= 1
C190: + x196 + x290 <= 1
C191: + x3 + x481 <= 1
C192: + x59 + x63 <= 1
C193: + x95 + x139 <= 1
C194: + x43 + x405 <= 1
C195: + x6 + x33 <= 1
C196: + x17 + x432 <= 1
C197: + x63 + x84 <= 1
C198: + x8 + x140 <= 1
C199: + x246 + x338 <= 1
C200: + x2 + x193 <= 1
C201: + x448 + x449 <= 1
C202: + x149 + x274 <= 1
C203: + x125 + x249 <= 1
C204: + x8 + x47 <= 1
C205: + x191 + x194 <= 1
C206: + x3 + x404 <= 1
C207: + x39 + x169 <= 1
C208: + x121 + x201 <= 1
C209: + x109 + x392 <= 1
C210: + x64 + x177 <= 1
C211: + x52 + x272 <= 1
C212: + x108 + x155 <= 1
C213: + x61 + x355 <= 1
C214: + x7 + x227 <= 1
C215: + x146 + x378 <= 1
C216: + x58 + x496 <= 1
C217: + x132 + x488 <= 1
C218: + x27 + x141 <= 1
C219: + x256 + x450 <= 1
C220: + x3 + x17 <= 1
C221: + x137 + x237 <= 1
C222: + x257 + x308 <= 1
C223: + x33 + x462 <= 1
C224: + x61 + x439 <= 1
C225: + x100 + x137 <= 1
C226: + x109 + x166 <= 1
C227: + x3 + x343 <= 1
C228: + x4 + x20 <= 1
C229: + x83 + x86 <= 1
C230: + x95 + x142 <= 1
C231: + x146 + x244 <= 1
C232: + x161 + x372 <= 1
C233: + x198 + x200 <= 1
C234: + x116 + x283 <= 1
C235: + x7 + x416 <= 1
C236: + x82 + x479 <= 1
C237: + x56 + x316 <= 1
C238: + x31 + x435 <= 1
C239: + x261 + x287 <= 1
C240: + x36 + x463 <= 1
C241: + x9 + x336 <= 1
C242: + x62 + x476 <= 1
C243: + x11 + x233 <= 1
C244: + x115 + x196 <= 1
C245: + x23 + x270 <= 1
C246: + x235 + x331 <= 1
C247: + x16 + x21 <= 1
C248: + x249 + x284 <= 1
C249: + x310 + x445 <= 1
C250: + x313 + x401 <= 1
C251: + x39 + x160 <= 1
C252: + x41 + x331 <= 1
C253: + x52 + x134 <= 1
C254: + x2 + x7 <= 1
C255: + x57 + x366 <= 1
C256: + x59 + x82 <= 1
C257: + x67 + x77 <= 1
C258: + x51 + x403 <= 1
C259: + x163 + x175 <= 1
C260: + x119 + x256 <= 1
C261: + x3 + x338 <= 1
C262: + x12 + x110 <= 1
C263: + x222 + x348 <= 1
C264: + x9 + x430 <= 1
C265: + x8 + x400 <= 1
C266: + x94 + x436 <= 1
C267: + x392 + x418 <= 1
C268: + x14 + x112 <= 1
C269: + x6 + x19 <= 1
C270: + x72 + x442 <= 1
C271: + x116 + x173 <= 1
C272: + x17 + x144 <= 1
C273: + x18 + x24 <= 1
C274: + x26 + x213 <= 1
C275: + x22 + x302 <= 1
C276: + x14 + x449 <= 1
C277: + x35 + x155 <= 1
C278: + x335 + x492 <= 1
C279: + x396 + x455 <= 1
C280: + x11 + x63 <= 1
C281: + x41 + x419 <= 1
C282: + x32 + x74 <= 1
C283: + x52 + x286 <= 1
C284: + x7 + x290 <= 1
C285: + x202 + x279 <= 1
C286: + x268 + x382 <= 1
C287: + x7 + x451 <= 1
C288: + x10 + x383 <= 1
C289: + x29 + x124 <= 1
C290: + x39 + x151 <= 1
C291: + x33 + x127 <= 1
C292: + x169 + x263 <= 1
C293: + x37 + x262 <= 1
C294: + x67 + x489 <= 1
C295: + x94 + x362 <= 1
C296: + x31 + x131 <= 1
C297: + x21 + x64 <= 1
C298: + x125 + x151 <= 1
C299: + x207 + x238 <= 1
C300: + x58 + x220 <= 1
C301: + x105 + x446 <= 1
C302: + x287 + x326 <= 1
C303: + x35 + x291 <= 1
C304: + x19 + x425 <= 1
C305: + x5 + x6 + x7 + x10 <= 1
C306: + x21 + x175 <= 1
C307: + x33 + x408 <= 1
C308: + x5 + x33 <= 1
C309: + x45 + x144 <= 1
C310: + x68 + x142 <= 1
C311: + x6 + x429 <= 1
C312: + x93 + x132 <= 1
C313: + x3 + x75 <= 1
C314: + x149 + x158 <= 1
C315: + x87 + x202 <= 1
C316: + x133 + x312 <= 1
C317: + x373 + x436 <= 1
C318: + x3 + x240 <= 1
C319: + x29 + x302 <= 1
C320: + x40 + x183 <= 1
C321: + x125 + x218 <= 1
C322: + x281 + x288 <= 1
C323: + x67 + x369 <= 1
C324: + x3 + x433 <= 1
C325: + x60 + x245 <= 1
C326: + x142 + x249 <= 1
C327: + x7 + x103 <= 1
C328: + x401 + x490 <= 1
C329: + x46 + x58 <= 1
C330: + x67 + x95 <= 1
C331: + x41 + x470 <= 1
C332: + x68 + x85 <= 1
C333: + x1 + x12 <= 1
C334: + x113 + x214 <= 1
C335: + x13 + x433 <= 1
C336: + x87 + x245 <= 1
C337: + x36 + x442 <= 1
C338: + x246 + x251 <= 1
C339: + x8 + x240 <= 1
C340: + x54 + x59 <= 1
C341: + x72 + x97 <= 1
C342: + x221 + x465 <= 1
C343: + x112 + x245 <= 1
C344: + x34 + x273 <= 1
C345: + x149 + x310 <= 1
C346: + x239 + x476 <= 1
C347: + x131 + x289 <= 1
C348: + x22 + x320 <= 1
C349: + x51 + x231 <= 1
C350: + x35 + x498 <= 1
C351: + x16 + x274 <= 1
C352: + x18 + x147 <= 1
C353: + x92 + x184 <= 1
C354: + x110 + x226 <= 1
C355: + x94 + x168 <= 1
C356: + x39 + x40 <= 1
C357: + x190 + x444 <= 1
C358: + x8 + x164 <= 1
C359: + x150 + x476 <= 1
C360: + x14 + x324 <= 1
C361: + x76 + x317 <= 1
C362: + x5 + x334 <= 1
C363: + x9 + x500 <= 1
C364: + x46 + x51 <= 1
C365: + x2 + x106 <= 1
C366: + x21 + x361 <= 1
C367: + x206 + x458 <= 1
C368: + x43 + x481 <= 1
C369: + x8 + x88 <= 1
C370: + x161 + x289 <= 1
C371: + x87 + x419 <= 1
C372: + x1 + x432 <= 1
C373: + x65 + x141 <= 1
C374: + x8 + x282 <= 1
C375: + x121 + x399 <= 1
C376: + x29 + x368 <= 1
C377: + x234 + x351 <= 1
C378: + x6 + x380 <= 1
C379: + x8 + x12 <= 1
C380: + x33 + x259 <= 1
C381: + x268 + x276 <= 1
C382: + x6 + x415 <= 1
C383: + x7 + x37 <= 1
C384: + x249 + x457 <= 1
C385: + x2 + x484 <= 1
C386: + x2 + x87 <= 1
C387: + x221 + x351 <= 1
C388: + x94 + x161 <= 1
C389: + x22 + x255 <= 1
C390: + x52 + x400 <= 1
C391: + x126 + x216 <= 1
C392: + x18 + x55 <= 1
C393: + x47 + x239 <= 1
C394: + x203 + x251 <= 1
C395: + x177 + x399 <= 1
C396: + x22 + x269 <= 1
C397: + x227 + x229 <= 1
C398: + x8 + x355 <= 1
C399: + x172 + x404 <= 1
C400: + x11 + x451 <= 1
C401: + x33 + x481 <= 1
C402: + x206 + x451 <= 1
C403: + x12 + x138 <= 1
C404: + x13 + x26 <= 1
C405: + x6 + x468 <= 1
C406: + x304 + x490 <= 1
C407: + x47 + x187 <= 1
C408: + x200 + x471 <= 1
C409: + x116 + x137 <= 1
C410: + x94 + x265 <= 1
C411: + x39 + x199 <= 1
C412: + x276 + x350 <= 1
C413: + x78 + x463 <= 1
C414: + x31 + x164 <= 1
C415: + x69 + x115 <= 1
C416: + x8 + x424 <= 1
C417: + x78 + x253 <= 1
C418: + x88 + x193 <= 1
C419: + x163 + x333 <= 1
C420: + x16 + x211 <= 1
C421: + x237 + x273 <= 1
C422: + x28 + x70 <= 1
C423: + x5 + x66 <= 1
C424: + x116 + x213 <= 1
C425: + x43 + x324 <= 1
C426: + x452 + x453 <= 1
C427: + x8 + x53 <= 1
C428: + x18 + x48 <= 1
C429: + x130 + x345 <= 1
C430: + x294 + x384 <= 1
C431: + x5 + x308 <= 1
C432: + x15 + x31 <= 1
C433: + x22 + x105 <= 1
C434: + x17 + x354 <= 1
C435: + x80 + x108 <= 1
C436: + x144 + x478 <= 1
C437: + x111 + x240 <= 1
C438: + x47 + x97 <= 1
C439: + x214 + x268 <= 1
C440: + x4 + x126 <= 1
C441: + x61 + x123 <= 1
C442: + x2 + x23 + x32 <= 1
C443: + x65 + x126 <= 1
C444: + x121 + x139 <= 1
C445: + x102 + x286 <= 1
C446: + x25 + x52 <= 1
C447: + x6 + x128 <= 1
C448: + x15 + x43 <= 1
C449: + x19 + x90 <= 1
C450: + x6 + x147 <= 1
C451: + x44 + x100 <= 1
C452: + x171 + x212 <= 1
C453: + x1 + x45 <= 1
C454: + x117 + x255 <= 1
C455: + x51 + x327 <= 1
C456: + x29 + x493 <= 1
C457: + x94 + x112 <= 1
C458: + x32 + x43 <= 1
C459: + x15 + x119 <= 1
C460: + x6 + x36 <= 1
C461: + x27 + x89 <= 1
C462: + x148 + x157 <= 1
C463: + x49 + x454 <= 1
C464: + x205 + x412 <= 1
C465: + x34 + x187 <= 1
C466: + x313 + x443 <= 1
C467: + x50 + x309 <= 1
C468: + x3 + x99 <= 1
C469: + x24 + x366 <= 1
C470: + x15 + x131 <= 1
C471: + x180 + x322 <= 1
C472: + x72 + x259 <= 1
C473: + x23 + x195 <= 1
C474: + x226 + x378 <= 1
C475: + x130 + x209 <= 1
C476: + x49 + x292 <= 1
C477: + x69 + x210 <= 1
C478: + x6 + x121 <= 1
C479: + x8 + x212 <= 1
C480: + x246 + x266 <= 1
C481: + x6 + x156 <= 1
C482: + x8 + x119 <= 1
C483: + x10 + x217 <= 1
C484: + x149 + x431 <= 1
C485: + x40 + x266 <= 1
C486: + x25 + x170 <= 1
C487: + x26 + x94 <= 1
C488: + x179 + x344 <= 1
C489: + x127 + x354 <= 1
C490: + x67 + x317 <= 1
C491: + x130 + x237 <= 1
C492: + x95 + x143 <= 1
C493: + x178 + x427 <= 1
C494: + x18 + x300 <= 1
C495: + x188 + x242 <= 1
C496: + x245 + x455 <= 1
C497: + x37 + x217 <= 1
C498: + x31 + x275 <= 1
C499: + x359 + x379 <= 1
C500: + x416 + x459 <= 1
C501: + x1 + x285 <= 1
C502: + x93 + x179 <= 1
C503: + x109 + x289 <= 1
C504: + x10 + x22 <= 1
C505: + x11 + x238 <= 1
C506: + x40 + x136 <= 1
C507: + x14 + x145 <= 1
C508: + x52 + x102 <= 1
C509: + x7 + x469 <= 1
C510: + x131 + x218 <= 1
C511: + x21 + x500 <= 1
C512: + x43 + x88 <= 1
C513: + x37 + x447 <= 1
C514: + x36 + x77 <= 1
C515: + x210 + x362 <= 1
C516: + x2 + x173 <= 1
C517: + x21 + x54 <= 1
C518: + x31 + x149 <= 1
C519: + x96 + x422 <= 1
C520: + x56 + x181 <= 1
C521: + x402 + x416 <= 1
C522: + x2 + x464 <= 1
C523: + x125 + x482 <= 1
C524: + x142 + x190 <= 1
C525: + x150 + x235 <= 1
C526: + x6 + x22 <= 1
C527: + x21 + x165 <= 1
C528: + x12 + x250 <= 1
C529: + x7 + x404 <= 1
C530: + x8 + x36 <= 1
C531: + x59 + x380 <= 1
C532: + x87 + x343 <= 1
C533: + x7 + x61 <= 1
C534: + x2 + x79 <= 1
C535: + x67 + x181 <= 1
C536: + x212 + x348 <= 1
C537: + x23 + x116 <= 1
C538: + x417 + x487 <= 1
C539: + x10 + x31 <= 1
C540: + x50 + x440 <= 1
C541: + x378 + x496 <= 1
C542: + x42 + x339 <= 1
C543: + x324 + x443 <= 1
C544: + x80 + x337 <= 1
C545: + x66 + x117 <= 1
C546: + x11 + x330 <= 1
C547: + x39 + x41 + x43 <= 1
C548: + x42 + x65 <= 1
C549: + x31 + x450 <= 1
C550: + x6 + x107 <= 1
C551: + x34 + x100 <= 1
C552: + x20 + x360 <= 1
C553: + x86 + x221 <= 1
C554: + x14 + x27 <= 1
C555: + x23 + x80 <= 1
C556: + x36 + x118 <= 1
C557: + x231 + x291 <= 1
C558: + x40 + x241 <= 1
C559: + x31 + x160 <= 1
C560: + x99 + x387 <= 1
C561: + x67 + x271 <= 1
C562: + x31 + x398 <= 1
C563: + x52 + x342 <= 1
C564: + x5 + x129 <= 1
C565: + x151 + x228 <= 1
C566: + x246 + x304 <= 1
C567: + x23 + x156 <= 1
C568: + x79 + x410 <= 1
C569: + x27 + x215 <= 1
C570: + x8 + x25 <= 1
C571: + x16 + x86 <= 1
C572: + x77 + x473 <= 1
C573: + x13 + x499 <= 1
C574: + x298 + x300 <= 1
C575: + x36 + x285 <= 1
C576: + x151 + x339 <= 1
C577: + x83 + x125 <= 1
C578: + x274 + x408 <= 1
C579: + x8 + x170 <= 1
C580: + x5 + x423 <= 1
C581: + x53 + x100 <= 1
C582: + x72 + x141 <= 1
C583: + x1 + x410 <= 1
C584: + x303 + x403 <= 1
C585: + x128 + x412 <= 1
C586: + x111 + x123 <= 1
C587: + x257 + x262 <= 1
C588: + x365 + x389 <= 1
C589: + x268 + x463 <= 1
C590: + x14 + x20 <= 1
C591: + x126 + x271 <= 1
C592: + x125 + x385 <= 1
C593: + x41 + x467 <= 1
C594: + x4 + x6 <= 1
C595: + x33 + x317 <= 1
C596: + x51 + x363 <= 1
C597: + x161 + x279 <= 1
C598: + x49 + x261 <= 1
C599: + x20 + x478 <= 1
C600: + x23 + x50 <= 1
C601: + x6 + x8 <= 1
C602: + x5 + x144 <= 1
C603: + x146 + x226 <= 1
C604: + x8 + x243 <= 1
C605: + x141 + x384 <= 1
C606: + x207 + x432 <= 1
C607: + x33 + x265 <= 1
C608: + x37 + x488 <= 1
C609: + x130 + x132 <= 1
C610: + x46 + x461 <= 1
C611: + x9 + x354 <= 1
C612: + x27 + x408 <= 1
C613: + x18 + x331 <= 1
C614: + x36 + x56 <= 1
C615: + x109 + x219 <= 1
C616: + x12 + x164 <= 1
C617: + x32 + x301 <= 1
C618: + x15 + x365 <= 1
C619: + x12 + x15 <= 1
C620: + x42 + x179 <= 1
C621: + x88 + x167 <= 1
C622: + x83 + x172 <= 1
C623: + x95 + x220 <= 1
C624: + x23 + x90 <= 1
C625: + x207 + x491 <= 1
C626: + x118 + x214 <= 1
C627: + x7 + x329 <= 1
C628: + x30 + x234 <= 1
C629: + x13 + x104 <= 1
C630: + x205 + x237 <= 1
C631: + x36 + x223 <= 1
C632: + x275 + x350 <= 1
C633: + x53 + x340 <= 1
C634: + x210 + x494 <= 1
C635: + x95 + x264 <= 1
C636: + x126 + x135 <= 1
C637: + x9 + x47 <= 1
C638: + x8 + x15 <= 1
C639: + x230 + x395 <= 1
C640: + x106 + x117 <= 1
C641: + x24 + x44 <= 1
C642: + x72 + x238 <= 1
C643: + x156 + x301 <= 1
C644: + x37 + x495 <= 1
C645: + x103 + x118 <= 1
C646: + x51 + x72 <= 1
C647: + x5 + x187 <= 1
C648: + x6 + x53 <= 1
C649: + x50 + x475 <= 1
C650: + x42 + x326 <= 1
C651: + x17 + x174 <= 1
C652: + x9 + x27 <= 1
C653: + x20 + x105 <= 1
C654: + x113 + x114 <= 1
C655: + x31 + x315 <= 1
C656: + x335 + x390 <= 1
C657: + x11 + x17 <= 1
C658: + x198 + x313 <= 1
C659: + x82 + x192 <= 1
C660: + x45 + x70 <= 1
C661: + x1 + x7 <= 1
C662: + x65 + x455 <= 1
C663: + x81 + x282 <= 1
C664: + x3 + x5 <= 1
C665: + x333 + x406 <= 1
C666: + x201 + x462 <= 1
C667: + x101 + x138 <= 1
C668: + x67 + x106 <= 1
C669: + x296 + x444 <= 1
C670: + x6 + x173 <= 1
C671: + x126 + x160 <= 1
C672: + x108 + x298 <= 1
C673: + x55 + x134 <= 1
C674: + x38 + x244 <= 1
C675: + x14 + x488 <= 1
C676: + x142 + x307 <= 1
C677: + x72 + x235 <= 1
C678: + x58 + x259 <= 1
C679: + x43 + x420 <= 1
C680: + x424 + x472 <= 1
C681: + x28 + x65 <= 1
C682: + x8 + x149 <= 1
C683: + x309 + x334 <= 1
C684: + x15 + x383 <= 1
C685: + x54 + x290 <= 1
C686: + x241 + x489 <= 1
C687: + x258 + x370 <= 1
C688: + x78 + x81 <= 1
C689: + x5 + x305 <= 1
C690: + x351 + x439 <= 1
C691: + x31 + x95 <= 1
C692: + x286 + x388 <= 1
C693: + x13 + x419 <= 1
C694: + x230 + x231 <= 1
C695: + x147 + x168 <= 1
C696: + x44 + x111 <= 1
C697: + x18 + x248 <= 1
C698: + x55 + x157 <= 1
C699: + x31 + x377 <= 1
C700: + x97 + x387 <= 1
C701: + x397 + x489 <= 1
C702: + x27 + x336 <= 1
C703: + x190 + x359 <= 1
C704: + x130 + x151 <= 1
C705: + x78 + x249 <= 1
C706: + x6 + x39 <= 1
C707: + x7 + x189 <= 1
C708: + x146 + x332 <= 1
C709: + x68 + x447 <= 1
C710: + x205 + x409 <= 1
C711: + x35 + x46 <= 1
C712: + x6 + x277 <= 1
C713: + x59 + x363 <= 1
C714: + x168 + x279 <= 1
C715: + x159 + x378 <= 1
C716: + x80 + x209 <= 1
C717: + x18 + x463 <= 1
C718: + x57 + x224 <= 1
C719: + x420 + x473 <= 1
C720: + x31 + x66 <= 1
C721: + x5 + x221 <= 1
C722: + x227 + x394 <= 1
C723: + x28 + x150 <= 1
C724: + x5 + x114 <= 1
C725: + x63 + x140 <= 1
C726: + x210 + x227 <= 1
C727: + x57 + x79 <= 1
C728: + x37 + x155 <= 1
C729: + x3 + x430 <= 1
C730: + x13 + x319 <= 1
C731: + x5 + x356 <= 1
C732: + x184 + x296 <= 1
C733: + x26 + x331 <= 1
C734: + x2 + x343 <= 1
C735: + x139 + x485 <= 1
C736: + x35 + x182 <= 1
C737: + x7 + x11 <= 1
C738: + x97 + x359 <= 1
C739: + x5 + x152 <= 1
C740: + x125 + x496 <= 1
C741: + x27 + x492 <= 1
C742: + x145 + x246 <= 1
C743: + x36 + x413 <= 1
C744: + x13 + x216 <= 1
C745: + x141 + x344 <= 1
C746: + x5 + x386 <= 1
C747: + x150 + x499 <= 1
C748: + x18 + x37 <= 1
C749: + x8 + x42 <= 1
C750: + x75 + x480 <= 1
C751: + x45 + x321 <= 1
C752: + x119 + x476 <= 1
C753: + x143 + x223 <= 1
C754: + x129 + x207 <= 1
C755: + x7 + x228 <= 1
C756: + x58 + x495 <= 1
C757: + x41 + x83 <= 1
C758: + x23 + x199 <= 1
C759: + x34 + x328 <= 1
C760: + x18 + x81 <= 1
C761: + x76 + x276 <= 1
C762: + x3 + x18 <= 1
C763: + x48 + x370 <= 1
C764: + x258 + x288 <= 1
C765: + x7 + x115 <= 1
C766: + x300 + x332 <= 1
C767: + x32 + x143 <= 1
C768: + x14 + x229 <= 1
C769: + x44 + x93 <= 1
C770: + x8 + x115 <= 1
C771: + x3 + x344 <= 1
C772: + x242 + x438 <= 1
C773: + x13 + x389 <= 1
C774: + x35 + x205 <= 1
C775: + x7 + x14 <= 1
C776: + x9 + x424 <= 1
C777: + x3 + x38 <= 1
C778: + x19 + x440 <= 1
C779: + x39 + x72 <= 1
C780: + x77 + x116 <= 1
C781: + x118 + x421 <= 1
C782: + x55 + x72 <= 1
C783: + x374 + x390 <= 1
C784: + x195 + x483 <= 1
C785: + x78 + x223 <= 1
C786: + x23 + x125 <= 1
C787: + x5 + x195 <= 1
C788: + x7 + x219 <= 1
C789: + x190 + x432 <= 1
C790: + x19 + x53 <= 1
C791: + x22 + x218 <= 1
C792: + x188 + x283 <= 1
C793: + x25 + x233 <= 1
C794: + x69 + x491 <= 1
C795: + x202 + x208 <= 1
C796: + x90 + x122 <= 1
C797: + x6 + x110 <= 1
C798: + x75 + x185 <= 1
C799: + x23 + x73 <= 1
C800: + x87 + x137 <= 1
C801: + x8 + x108 <= 1
C802: + x42 + x282 <= 1
C803: + x111 + x427 <= 1
C804: + x362 + x387 <= 1
C805: + x6 + x18 <= 1
C806: + x65 + x366 <= 1
C807: + x39 + x127 <= 1
C808: + x24 + x271 <= 1
C809: + x310 + x497 <= 1
C810: + x94 + x292 <= 1
C811: + x215 + x235 <= 1
C812: + x82 + x114 <= 1
C813: + x119 + x470 <= 1
C814: + x2 + x67 <= 1
C815: + x3 + x113 <= 1
C816: + x14 + x35 <= 1
C817: + x162 + x186 <= 1
C818: + x253 + x255 <= 1
C819: + x168 + x225 <= 1
C820: + x7 + x222 <= 1
C821: + x9 + x141 <= 1
C822: + x79 + x81 <= 1
C823: + x121 + x327 <= 1
C824: + x351 + x479 <= 1
C825: + x74 + x153 <= 1
C826: + x66 + x236 <= 1
C827: + x67 + x69 <= 1
C828: + x212 + x428 <= 1
C829: + x23 + x68 <= 1
C830: + x24 + x255 <= 1
C831: + x254 + x360 <= 1
C832: + x143 + x459 <= 1
C833: + x11 + x197 <= 1
C834: + x232 + x429 <= 1
C835: + x16 + x33 <= 1
C836: + x15 + x80 <= 1
C837: + x181 + x263 <= 1
C838: + x18 + x282 <= 1
C839: + x10 + x96 <= 1
C840: + x242 + x305 <= 1
C841: + x22 + x40 <= 1
C842: + x35 + x389 <= 1
C843: + x171 + x253 <= 1
C844: + x82 + x464 <= 1
C845: + x8 + x21 <= 1
C846: + x231 + x275 <= 1
C847: + x18 + x427 <= 1
C848: + x37 + x48 <= 1
C849: + x29 + x394 <= 1
C850: + x3 + x76 <= 1
C851: + x22 + x393 <= 1
C852: + x354 + x499 <= 1
C853: + x116 + x193 <= 1
C854: + x371 + x448 <= 1
C855: + x201 + x230 <= 1
C856: + x33 + x119 <= 1
C857: + x410 + x434 <= 1
C858: + x129 + x341 <= 1
C859: + x11 + x107 <= 1
C860: + x50 + x62 <= 1
C861: + x267 + x497 <= 1
C862: + x14 + x16 <= 1
C863: + x16 + x139 <= 1
C864: + x6 + x481 <= 1
C865: + x71 + x311 <= 1
C866: + x67 + x262 <= 1
C867: + x41 + x358 <= 1
C868: + x198 + x452 <= 1
C869: + x3 + x212 <= 1
C870: + x158 + x286 <= 1
C871: + x234 + x341 <= 1
C872: + x8 + x14 <= 1
C873: + x185 + x219 <= 1
C874: + x106 + x120 <= 1
C875: + x33 + x178 <= 1
C876: + x5 + x283 <= 1
C877: + x7 + x35 <= 1
C878: + x54 + x171 <= 1
C879: + x156 + x300 <= 1
C880: + x36 + x60 <= 1
C881: + x18 + x146 <= 1
C882: + x7 + x273 <= 1
C883: + x41 + x79 <= 1
C884: + x214 + x309 <= 1
C885: + x43 + x351 <= 1
C886: + x32 + x297 <= 1
C887: + x6 + x294 <= 1
C888: + x9 + x24 <= 1
C889: + x151 + x473 <= 1
C890: + x56 + x204 <= 1
C891: + x270 + x369 <= 1
C892: + x6 + x89 <= 1
C893: + x79 + x206 <= 1
C894: + x67 + x87 <= 1
C895: + x149 + x234 <= 1
C896: + x40 + x64 <= 1
C897: + x23 + x94 <= 1
C898: + x242 + x247 <= 1
C899: + x43 + x482 <= 1
C900: + x85 + x253 <= 1
C901: + x16 + x148 <= 1
C902: + x378 + x458 <= 1
C903: + x131 + x485 <= 1
C904: + x31 + x327 <= 1
C905: + x89 + x458 <= 1
C906: + x4 + x15 <= 1
C907: + x132 + x399 <= 1
C908: + x201 + x217 <= 1
C909: + x6 + x490 <= 1
C910: + x3 + x10 <= 1
C911: + x268 + x440 <= 1
C912: + x27 + x37 <= 1
C913: + x8 + x11 <= 1
C914: + x94 + x271 <= 1
C915: + x4 + x59 <= 1
C916: + x13 + x413 <= 1
C917: + x17 + x19 <= 1
C918: + x7 + x38 <= 1
C919: + x67 + x158 <= 1
C920: + x29 + x416 <= 1
C921: + x21 + x301 <= 1
C922: + x23 + x25 <= 1
C923: + x6 + x49 <= 1
C924: + x1 + x207 <= 1
C925: + x42 + x330 <= 1
C926: + x206 + x369 <= 1
C927: + x6 + x303 <= 1
C928: + x76 + x309 <= 1
C929: + x12 + x60 <= 1
C930: + x332 + x470 <= 1
C931: + x8 + x350 <= 1
C932: + x57 + x214 <= 1
C933: + x11 + x29 <= 1
C934: + x166 + x169 <= 1
C935: + x95 + x199 <= 1
C936: + x268 + x497 <= 1
C937: + x7 + x243 <= 1
C938: + x309 + x407 <= 1
C939: + x149 + x342 <= 1
C940: + x14 + x304 <= 1
C941: + x10 + x295 <= 1
C942: + x263 + x310 <= 1
C943: + x310 + x420 <= 1
C944: + x56 + x149 <= 1
C945: + x8 + x499 <= 1
C946: + x47 + x188 <= 1
C947: + x122 + x430 <= 1
C948: + x6 + x118 <= 1
C949: + x209 + x315 <= 1
C950: + x15 + x33 <= 1
C951: + x35 + x333 <= 1
C952: + x120 + x124 <= 1
C953: + x2 + x62 <= 1
C954: + x94 + x229 <= 1
C955: + x86 + x228 + x278 <= 1
C956: + x5 + x31 <= 1
C957: + x133 + x415 <= 1
C958: + x6 + x356 <= 1
C959: + x472 + x500 <= 1
C960: + x246 + x474 <= 1
C961: + x13 + x79 <= 1
C962: + x142 + x303 <= 1
C963: + x18 + x414 <= 1
C964: + x19 + x294 <= 1
C965: + x126 + x450 <= 1
C966: + x117 + x427 <= 1
C967: + x18 + x132 <= 1
C968: + x19 + x20 <= 1
C969: + x2 + x202 <= 1
C970: + x41 + x61 <= 1
C971: + x33 + x394 <= 1
C972: + x59 + x153 <= 1
C973: + x252 + x258 <= 1
C974: + x345 + x414 <= 1
C975: + x57 + x274 <= 1
C976: + x31 + x67 <= 1
C977: + x18 + x373 <= 1
C978: + x271 + x494 <= 1
C979: + x1 + x18 <= 1
C980: + x13 + x18 <= 1
C981: + x9 + x114 <= 1
C982: + x86 + x110 <= 1
C983: + x6 + x127 <= 1
C984: + x288 + x317 <= 1
C985: + x126 + x391 <= 1
C986: + x110 + x152 <= 1
C987: + x40 + x98 <= 1
C988: + x6 + x146 <= 1
C989: + x90 + x377 <= 1
C990: + x36 + x66 <= 1
C991: + x286 + x375 <= 1
C992: + x31 + x381 <= 1
C993: + x43 + x246 <= 1
C994: + x88 + x374 <= 1
C995: + x7 + x24 <= 1
C996: + x28 + x332 <= 1
C997: + x15 + x475 <= 1
C998: + x37 + x68 <= 1
C999: + x113 + x474 <= 1
C1000: + x17 + x56 + x159 <= 1
C1001: + x6 + x35 <= 1
C1002: + x117 + x434 <= 1
C1003: + x36 + x47 <= 1
C1004: + x18 + x133 <= 1
C1005: + x246 + x340 <= 1
C1006: + x3 + x8 + x9 + x13 <= 1
C1007: + x5 + x74 <= 1
C1008: + x71 + x359 <= 1
C1009: + x19 + x176 <= 1
C1010: + x12 + x42 <= 1
C1011: + x7 + x68 <= 1
C1012: + x121 + x473 <= 1
C1013: + x42 + x453 <= 1
C1014: + x227 + x390 <= 1
C1015: + x55 + x352 <= 1
C1016: + x269 + x342 <= 1
C1017: + x362 + x379 <= 1
C1018: + x325 + x456 <= 1
C1019: + x66 + x122 <= 1
C1020: + x3 + x19 <= 1
C1021: + x131 + x224 <= 1
C1022: + x231 + x236 <= 1
C1023: + x80 + x225 <= 1
C1024: + x83 + x197 <= 1
C1025: + x8 + x264 <= 1
C1026: + x69 + x376 <= 1
C1027: + x286 + x429 <= 1
C1028: + x26 + x130 <= 1
C1029: + x36 + x71 <= 1
C1030: + x92 + x102 <= 1
C1031: + x202 + x339 <= 1
C1032: + x174 + x191 <= 1
C1033: + x6 + x393 <= 1
C1034: + x180 + x446 <= 1
C1035: + x6 + x44 <= 1
C1036: + x401 + x447 <= 1
C1037: + x24 + x402 <= 1
C1038: + x260 + x374 <= 1
C1039: + x65 + x433 <= 1
C1040: + x2 + x359 <= 1
C1041: + x17 + x52 <= 1
C1042: + x16 + x486 <= 1
C1043: + x7 + x59 <= 1
C1044: + x31 + x77 <= 1
C1045: + x150 + x181 <= 1
C1046: + x43 + x454 <= 1
C1047: + x14 + x45 <= 1
C1048: + x87 + x186 <= 1
C1049: + x18 + x170 <= 1
C1050: + x19 + x58 <= 1
C1051: + x320 + x357 <= 1
C1052: + x109 + x239 <= 1
C1053: + x31 + x234 <= 1
C1054: + x3 + x288 <= 1
C1055: + x21 + x227 <= 1
C1056: + x43 + x180 <= 1
C1057: + x121 + x154 <= 1
C1058: + x68 + x371 <= 1
C1059: + x43 + x85 <= 1
C1060: + x32 + x472 <= 1
C1061: + x66 + x321 <= 1
C1062: + x75 + x190 <= 1
C1063: + x8 + x111 <= 1
C1064: + x94 + x275 <= 1
C1065: + x22 + x161 <= 1
C1066: + x178 + x189 <= 1
C1067: + x168 + x461 <= 1
C1068: + x15 + x421 <= 1
C1069: + x134 + x205 <= 1
C1070: + x57 + x166 <= 1
C1071: + x76 + x118 <= 1
C1072: + x21 + x166 <= 1
C1073: + x304 + x340 <= 1
C1074: + x81 + x121 <= 1
C1075: + x162 + x204 <= 1
C1076: + x91 + x397 <= 1
C1077: + x19 + x162 <= 1
C1078: + x54 + x313 <= 1
C1079: + x3 + x360 <= 1
C1080: + x256 + x386 <= 1
C1081: + x37 + x57 + x113 <= 1
C1082: + x235 + x293 <= 1
C1083: + x144 + x218 <= 1
C1084: + x8 + x322 <= 1
C1085: + x156 + x345 <= 1
C1086: + x11 + x49 <= 1
C1087: + x318 + x372 <= 1
C1088: + x163 + x216 <= 1
C1089: + x19 + x49 <= 1
C1090: + x105 + x158 <= 1
C1091: + x39 + x56 <= 1
C1092: + x22 + x230 <= 1
C1093: + x59 + x492 <= 1
C1094: + x302 + x363 <= 1
C1095: + x13 + x297 <= 1
C1096: + x53 + x315 <= 1
C1097: + x7 + x106 <= 1
C1098: + x80 + x247 <= 1
C1099: + x191 + x411 <= 1
C1100: + x2 + x26 <= 1
C1101: + x75 + x165 <= 1
C1102: + x168 + x220 <= 1
C1103: + x180 + x283 <= 1
C1104: + x237 + x487 <= 1
C1105: + x55 + x358 <= 1
C1106: + x230 + x468 <= 1
C1107: + x124 + x232 <= 1
C1108: + x71 + x313 <= 1
C1109: + x221 + x315 <= 1
C1110: + x195 + x294 <= 1
C1111: + x14 + x107 <= 1
C1112: + x7 + x166 <= 1
C1113: + x1 + x381 <= 1
C1114: + x10 + x91 <= 1
C1115: + x55 + x277 <= 1
C1116: + x266 + x417 <= 1
C1117: + x6 + x177 <= 1
C1118: + x9 + x34 <= 1
C1119: + x10 + x182 <= 1
C1120: + x7 + x396 <= 1
C1121: + x19 + x153 <= 1
C1122: + x37 + x208 <= 1
C1123: + x22 + x297 <= 1
C1124: + x253 + x406 <= 1
C1125: + x347 + x358 <= 1
C1126: + x11 + x60 <= 1
C1127: + x51 + x83 <= 1
C1128: + x176 + x330 <= 1
C1129: + x11 + x157 <= 1
C1130: + x9 + x110 <= 1
C1131: + x56 + x242 <= 1
C1132: + x312 + x445 <= 1
C1133: + x94 + x500 <= 1
C1134: + x13 + x296 <= 1
C1135: + x35 + x364 <= 1
C1136: + x48 + x487 <= 1
C1137: + x13 + x133 <= 1
C1138: + x87 + x136 <= 1
C1139: + x36 + x126 <= 1
C1140: + x227 + x483 <= 1
C1141: + x8 + x93 <= 1
C1142: + x4 + x5 <= 1
C1143: + x76 + x370 <= 1
C1144: + x20 + x477 <= 1
C1145: + x9 + x311 <= 1
C1146: + x92 + x307 <= 1
C1147: + x1 + x185 <= 1
C1148: + x2 + x47 <= 1
C1149: + x24 + x260 <= 1
C1150: + x8 + x17 <= 1
C1151: + x54 + x267 <= 1
C1152: + x33 + x191 <= 1
C1153: + x15 + x451 <= 1
C1154: + x102 + x425 <= 1
C1155: + x58 + x171 <= 1
C1156: + x139 + x256 <= 1
C1157: + x175 + x349 <= 1
C1158: + x12 + x163 <= 1
C1159: + x13 + x45 <= 1
C1160: + x32 + x209 <= 1
C1161: + x268 + x362 <= 1
C1162: + x17 + x184 <= 1
C1163: + x236 + x318 <= 1
C1164: + x20 + x99 <= 1
C1165: + x166 + x437 <= 1
C1166: + x7 + x92 <= 1
C1167: + x128 + x388 <= 1
C1168: + x11 + x23 <= 1
C1169: + x253 + x371 <= 1
C1170: + x2 + x183 <= 1
C1171: + x11 + x204 <= 1
C1172: + x18 + x108 <= 1
C1173: + x54 + x227 <= 1
C1174: + x19 + x380 <= 1
C1175: + x38 + x121 <= 1
C1176: + x76 + x190 <= 1
C1177: + x58 + x232 <= 1
C1178: + x60 + x200 <= 1
C1179: + x7 + x152 <= 1
C1180: + x28 + x63 <= 1
C1181: + x67 + x112 <= 1
C1182: + x112 + x244 <= 1
C1183: + x95 + x261 <= 1
C1184: + x5 + x21 <= 1
C1185: + x210 + x272 <= 1
C1186: + x33 + x257 <= 1
C1187: + x40 + x214 <= 1
C1188: + x36 + x270 <= 1
C1189: + x271 + x319 <= 1
C1190: + x18 + x424 <= 1
C1191: + x11 + x46 <= 1
C1192: + x5 + x188 <= 1
C1193: + x7 + x277 <= 1
C1194: + x36 + x64 <= 1
C1195: + x102 + x208 <= 1
C1196: + x19 + x30 <= 1
C1197: + x165 + x205 <= 1
C1198: + x297 + x392 <= 1
C1199: + x43 + x347 <= 1
C1200: + x9 + x28 <= 1
C1201: + x59 + x346 <= 1
C1202: + x95 + x494 <= 1
C1203: + x42 + x470 <= 1
C1204: + x296 + x327 <= 1
C1205: + x109 + x314 <= 1
C1206: + x294 + x474 <= 1
C1207: + x40 + x159 <= 1
C1208: + x48 + x76 <= 1
C1209: + x8 + x498 <= 1
C1210: + x122 + x425 <= 1
C1211: + x3 + x6 <= 1
C1212: + x4 + x357 <= 1
C1213: + x34 + x66 <= 1
C1214: + x142 + x161 <= 1
C1215: + x17 + x392 <= 1
C1216: + x6 + x9 <= 1
C1217: + x8 + x277 <= 1
C1218: + x3 + x167 <= 1
C1219: + x69 + x263 <= 1
C1220: + x23 + x174 <= 1
C1221: + x6 + x172 <= 1
C1222: + x98 + x237 <= 1
C1223: + x194 + x207 <= 1
C1224: + x41 + x171 <= 1
C1225: + x13 + x84 <= 1
C1226: + x17 + x23 <= 1
C1227: + x35 + x161 <= 1
C1228: + x44 + x152 <= 1
C1229: + x226 + x294 <= 1
C1230: + x119 + x307 <= 1
C1231: + x6 + x410 <= 1
C1232: + x13 + x382 <= 1
C1233: + x23 + x29 <= 1
C1234: + x31 + x404 <= 1
C1235: + x172 + x378 <= 1
C1236: + x246 + x334 <= 1
C1237: + x54 + x398 <= 1
C1238: + x22 + x250 <= 1
C1239: + x25 + x276 <= 1
C1240: + x27 + x245 <= 1
C1241: + x21 + x99 <= 1
C1242: + x150 + x323 <= 1
C1243: + x7 + x86 <= 1
C1244: + x228 + x246 <= 1
C1245: + x18 + x469 <= 1
C1246: + x46 + x498 <= 1
C1247: + x421 + x429 <= 1
C1248: + x13 + x178 <= 1
C1249: + x22 + x107 <= 1
C1250: + x99 + x154 <= 1
C1251: + x54 + x338 <= 1
C1252: + x74 + x422 <= 1
C1253: + x8 + x76 <= 1
C1254: + x21 + x210 <= 1
C1255: + x10 + x230 <= 1
C1256: + x89 + x370 <= 1
C1257: + x7 + x130 <= 1
C1258: + x114 + x352 <= 1
C1259: + x158 + x236 <= 1
C1260: + x5 + x27 <= 1
C1261: + x87 + x101 <= 1
C1262: + x6 + x368 <= 1
C1263: + x36 + x93 <= 1
C1264: + x323 + x486 <= 1
C1265: + x98 + x268 <= 1
C1266: + x15 + x472 <= 1
C1267: + x8 + x419 <= 1
C1268: + x95 + x130 <= 1
C1269: + x133 + x298 <= 1
C1270: + x211 + x281 <= 1
C1271: + x2 + x206 <= 1
C1272: + x57 + x423 <= 1
C1273: + x23 + x241 <= 1
C1274: + x27 + x256 <= 1
C1275: + x8 + x52 <= 1
C1276: + x391 + x442 <= 1
C1277: + x39 + x184 <= 1
C1278: + x41 + x222 <= 1
C1279: + x138 + x308 <= 1
C1280: + x86 + x249 <= 1
C1281: + x14 + x55 <= 1
C1282: + x198 + x298 <= 1
C1283: + x82 + x169 <= 1
C1284: + x27 + x438 <= 1
C1285: + x277 + x278 <= 1
C1286: + x5 + x115 <= 1
C1287: + x120 + x355 <= 1
C1288: + x130 + x211 <= 1
C1289: + x155 + x203 <= 1
C1290: + x105 + x316 <= 1
C1291: + x90 + x138 <= 1
C1292: + x6 + x361 <= 1
C1293: + x27 + x51 <= 1
C1294: + x10 + x219 <= 1
C1295: + x298 + x493 <= 1
C1296: + x19 + x248 <= 1
C1297: + x42 + x303 <= 1
C1298: + x332 + x396 <= 1
C1299: + x73 + x98 <= 1
C1300: + x7 + x12 <= 1
C1301: + x21 + x319 <= 1
C1302: + x5 + x145 <= 1
C1303: + x79 + x188 <= 1
C1304: + x154 + x174 <= 1
C1305: + x119 + x426 <= 1
C1306: + x43 + x129 <= 1
C1307: + x35 + x38 <= 1
C1308: + x289 + x420 <= 1
C1309: + x160 + x479 <= 1
C1310: + x21 + x430 <= 1
C1311: + x116 + x435 <= 1
C1312: + x151 + x323 <= 1
C1313: + x45 + x322 <= 1
C1314: + x54 + x86 <= 1
C1315: + x110 + x270 <= 1
C1316: + x97 + x180 <= 1
C1317: + x288 + x401 <= 1
C1318: + x27 + x445 <= 1
C1319: + x7 + x310 <= 1
C1320: + x277 + x285 <= 1
C1321: + x268 + x322 <= 1
C1322: + x23 + x265 <= 1
C1323: + x154 + x464 <= 1
C1324: + x28 + x265 <= 1
C1325: + x7 + x471 <= 1
C1326: + x29 + x104 <= 1
C1327: + x36 + x254 <= 1
C1328: + x19 + x352 <= 1
C1329: + x56 + x231 <= 1
C1330: + x35 + x347 <= 1
C1331: + x198 + x420 <= 1
C1332: + x5 + x9 <= 1
C1333: + x35 + x105 <= 1
C1334: + x1 + x57 <= 1
C1335: + x47 + x57 <= 1
C1336: + x139 + x493 <= 1
C1337: + x115 + x328 <= 1
C1338: + x34 + x198 <= 1
C1339: + x81 + x316 <= 1
C1340: + x221 + x252 <= 1
C1341: + x130 + x232 <= 1
C1342: + x12 + x409 <= 1
C1343: + x4 + x264 <= 1
C1344: + x23 + x34 <= 1
C1345: + x5 + x160 <= 1
C1346: + x18 + x29 <= 1
C1347: + x19 + x163 <= 1
C1348: + x41 + x257 <= 1
C1349: + x143 + x167 <= 1
C1350: + x401 + x450 <= 1
C1351: + x76 + x194 <= 1
C1352: + x95 + x192 <= 1
C1353: + x70 + x321 <= 1
C1354: + x15 + x143 <= 1
C1355: + x5 + x196 <= 1
C1356: + x18 + x174 <= 1
C1357: + x7 + x301 <= 1
C1358: + x250 + x311 <= 1
C1359: + x442 + x477 <= 1
C1360: + x5 + x97 <= 1
C1361: + x18 + x73 <= 1
C1362: + x41 + x333 <= 1
C1363: + x342 + x482 <= 1
C1364: + x6 + x109 <= 1
C1365: + x163 + x415 <= 1
C1366: + x2 + x5 <= 1
C1367: + x123 + x416 <= 1
C1368: + x17 + x257 <= 1
C1369: + x117 + x202 <= 1
C1370: + x50 + x366 <= 1
C1371: + x31 + x154 <= 1
C1372: + x205 + x253 <= 1
C1373: + x160 + x320 <= 1
C1374: + x81 + x307 <= 1
C1375: + x19 + x267 <= 1
C1376: + x92 + x414 <= 1
C1377: + x337 + x392 <= 1
C1378: + x113 + x460 <= 1
C1379: + x49 + x199 <= 1
C1380: + x82 + x149 + x268 <= 1
C1381: + x6 + x17 <= 1
C1382: + x282 + x422 <= 1
C1383: + x1 + x175 <= 1
C1384: + x22 + x58 + x349 <= 1
C1385: + x21 + x162 <= 1
C1386: + x6 + x180 <= 1
C1387: + x22 + x300 <= 1
C1388: + x209 + x239 <= 1
C1389: + x10 + x276 <= 1
C1390: + x203 + x266 <= 1
C1391: + x14 + x34 <= 1
C1392: + x52 + x288 <= 1
C1393: + x154 + x319 <= 1
C1394: + x8 + x176 <= 1
C1395: + x75 + x82 <= 1
C1396: + x47 + x127 <= 1
C1397: + x39 + x44 <= 1
C1398: + x8 + x467 <= 1
C1399: + x11 + x371 <= 1
C1400: + x30 + x98 <= 1
C1401: + x59 + x134 <= 1
C1402: + x13 + x293 <= 1
C1403: + x15 + x222 <= 1
C1404: + x128 + x140 <= 1
C1405: + x74 + x398 <= 1
C1406: + x47 + x75 <= 1
C1407: + x56 + x102 <= 1
C1408: + x51 + x186 <= 1
C1409: + x58 + x295 <= 1
C1410: + x76 + x381 <= 1
C1411: + x85 + x418 <= 1
C1412: + x169 + x309 <= 1
C1413: + x6 + x26 <= 1
C1414: + x81 + x215 <= 1
C1415: + x246 + x256 <= 1
C1416: + x8 + x241 <= 1
C1417: + x246 + x299 <= 1
C1418: + x364 + x411 <= 1
C1419: + x96 + x100 <= 1
C1420: + x6 + x189 <= 1
C1421: + x24 + x206 <= 1
C1422: + x123 + x208 <= 1
C1423: + x195 + x232 <= 1
C1424: + x35 + x148 <= 1
C1425: + x7 + x41 <= 1
C1426: + x74 + x85 <= 1
C1427: + x55 + x87 <= 1
C1428: + x91 + x259 <= 1
C1429: + x19 + x40 <= 1
C1430: + x75 + x89 <= 1
C1431: + x56 + x431 <= 1
C1432: + x9 + x384 <= 1
C1433: + x10 + x11 <= 1
C1434: + x116 + x196 <= 1
C1435: + x18 + x59 <= 1
C1436: + x2 + x257 <= 1
C1437: + x58 + x356 <= 1
C1438: + x294 + x323 <= 1
C1439: + x3 + x399 <= 1
C1440: + x124 + x439 <= 1
C1441: + x34 + x128 <= 1
C1442: + x111 + x128 <= 1
C1443: + x14 + x15 <= 1
C1444: + x237 + x474 <= 1
C1445: + x31 + x140 <= 1
C1446: + x15 + x443 <= 1
C1447: + x154 + x495 <= 1
C1448: + x20 + x46 <= 1
C1449: + x3 + x16 <= 1
C1450: + x95 + x101 <= 1
C1451: + x98 + x396 <= 1
C1452: + x23 + x459 <= 1
C1453: + x208 + x400 <= 1
C1454: + x180 + x405 <= 1
C1455: + x131 + x414 <= 1
C1456: + x5 + x42 <= 1
C1457: + x288 + x488 <= 1
C1458: + x162 + x269 <= 1
C1459: + x151 + x398 <= 1
C1460: + x316 + x335 <= 1
C1461: + x52 + x207 <= 1
C1462: + x17 + x29 <= 1
C1463: + x182 + x298 <= 1
C1464: + x95 + x145 <= 1
C1465: + x32 + x58 <= 1
C1466: + x18 + x145 <= 1
C1467: + x74 + x372 <= 1
C1468: + x43 + x352 <= 1
C1469: + x9 + x25 <= 1
C1470: + x18 + x52 <= 1
C1471: + x3 + x394 <= 1
C1472: + x285 + x305 <= 1
C1473: + x123 + x344 <= 1
C1474: + x124 + x336 <= 1
C1475: + x15 + x19 <= 1
C1476: + x126 + x448 <= 1
C1477: + x190 + x299 <= 1
C1478: + x8 + x360 <= 1
C1479: + x95 + x221 <= 1
C1480: + x4 + x211 <= 1
C1481: + x50 + x54 <= 1
C1482: + x6 + x251 <= 1
C1483: + x36 + x103 <= 1
C1484: + x1 + x5 <= 1
C1485: + x103 + x269 <= 1
C1486: + x131 + x486 <= 1
C1487: + x18 + x112 <= 1
C1488: + x310 + x346 <= 1
C1489: + x221 + x261 <= 1
C1490: + x50 + x135 <= 1
C1491: + x34 + x77 <= 1
C1492: + x9 + x290 <= 1
C1493: + x71 + x76 <= 1
C1494: + x10 + x73 <= 1
C1495: + x1 + x335 <= 1
C1496: + x20 + x325 <= 1
C1497: + x154 + x353 <= 1
C1498: + x280 + x310 <= 1
C1499: + x159 + x325 <= 1
C1500: + x200 + x361 <= 1
C1501: + x2 + x85 <= 1
C1502: + x95 + x156 <= 1
C1503: + x97 + x343 <= 1
C1504: + x82 + x135 <= 1
C1505: + x11 + x139 <= 1
C1506: + x438 + x439 <= 1
C1507: + x119 + x175 <= 1
C1508: + x246 + x484 <= 1
C1509: + x2 + x275 <= 1
C1510: + x385 + x391 <= 1
C1511: + x89 + x291 <= 1
C1512: + x44 + x335 <= 1
C1513: + x7 + x87 <= 1
C1514: + x172 + x406 <= 1
C1515: + x57 + x215 <= 1
C1516: + x93 + x168 <= 1
C1517: + x420 + x466 <= 1
C1518: + x41 + x454 <= 1
C1519: + x37 + x480 <= 1
C1520: + x13 + x183 <= 1
C1521: + x87 + x150 <= 1
C1522: + x35 + x475 <= 1
C1523: + x7 + x325 <= 1
C1524: + x145 + x178 <= 1
C1525: + x18 + x198 <= 1
C1526: + x146 + x393 <= 1
C1527: + x57 + x489 <= 1
C1528: + x13 + x28 <= 1
C1529: + x106 + x400 <= 1
C1530: + x234 + x437 <= 1
C1531: + x290 + x337 <= 1
C1532: + x327 + x491 <= 1
C1533: + x3 + x469 <= 1
C1534: + x31 + x492 <= 1
C1535: + x181 + x285 <= 1
C1536: + x8 + x273 <= 1
C1537: + x19 + x93 <= 1
C1538: + x49 + x405 <= 1
C1539: + x175 + x260 <= 1
C1540: + x368 + x436 <= 1
C1541: + x15 + x195 <= 1
C1542: + x24 + x302 <= 1
C1543: + x117 + x242 <= 1
C1544: + x130 + x387 <= 1
C1545: + x7 + x30 <= 1
C1546: + x8 + x418 <= 1
C1547: + x249 + x466 <= 1
C1548: + x47 + x314 <= 1
C1549: + x48 + x438 <= 1
C1550: + x109 + x377 <= 1
C1551: + x109 + x198 <= 1
C1552: + x27 + x96 <= 1
C1553: + x8 + x148 <= 1
C1554: + x7 + x260 <= 1
C1555: + x41 + x62 <= 1
C1556: + x12 + x213 <= 1
C1557: + x107 + x130 <= 1
C1558: + x227 + x281 <= 1
C1559: + x47 + x248 <= 1
C1560: + x23 + x388 <= 1
C1561: + x6 + x74 <= 1
C1562: + x83 + x151 <= 1
C1563: + x67 + x170 <= 1
C1564: + x23 + x109 <= 1
C1565: + x43 + x465 <= 1
C1566: + x15 + x186 <= 1
C1567: + x16 + x225 <= 1
C1568: + x54 + x350 <= 1
C1569: + x6 + x475 <= 1
C1570: + x47 + x373 <= 1
C1571: + x25 + x54 <= 1
C1572: + x228 + x377 <= 1
C1573: + x138 + x142 <= 1
C1574: + x23 + x185 <= 1
C1575: + x36 + x65 <= 1
C1576: + x182 + x226 <= 1
C1577: + x28 + x176 <= 1
C1578: + x149 + x418 <= 1
C1579: + x312 + x457 <= 1
C1580: + x31 + x169 <= 1
C1581: + x1 + x460 <= 1
C1582: + x38 + x91 <= 1
C1583: + x3 + x484 <= 1
C1584: + x12 + x367 <= 1
C1585: + x5 + x150 <= 1
C1586: + x109 + x376 <= 1
C1587: + x28 + x490 <= 1
C1588: + x72 + x457 <= 1
C1589: + x56 + x435 <= 1
C1590: + x9 + x14 <= 1
C1591: + x80 + x313 <= 1
C1592: + x128 + x200 <= 1
C1593: + x133 + x165 <= 1
C1594: + x7 + x65 <= 1
C1595: + x19 + x466 <= 1
C1596: + x3 + x97 <= 1
C1597: + x139 + x217 <= 1
C1598: + x99 + x173 <= 1
C1599: + x9 + x328 <= 1
C1600: + x417 + x491 <= 1
C1601: + x18 + x365 <= 1
C1602: + x84 + x120 <= 1
C1603: + x19 + x64 <= 1
C1604: + x55 + x349 <= 1
C1605: + x18 + x83 <= 1
C1606: + x7 + x468 <= 1
C1607: + x28 + x312 <= 1
C1608: + x5 + x361 <= 1
C1609: + x89 + x381 <= 1
C1610: + x58 + x90 <= 1
C1611: + x5 + x14 <= 1
C1612: + x7 + x355 <= 1
C1613: + x13 + x126 <= 1
C1614: + x43 + x254 <= 1
C1615: + x235 + x375 <= 1
C1616: + x271 + x280 <= 1
C1617: + x66 + x181 <= 1
C1618: + x79 + x192 <= 1
C1619: + x72 + x123 <= 1
C1620: + x128 + x467 <= 1
C1621: + x46 + x335 <= 1
C1622: + x23 + x144 <= 1
C1623: + x27 + x195 <= 1
C1624: + x119 + x180 <= 1
C1625: + x63 + x332 <= 1
C1626: + x39 + x163 <= 1
C1627: + x186 + x367 <= 1
C1628: + x52 + x247 <= 1
C1629: + x35 + x131 <= 1
C1630: + x6 + x444 <= 1
C1631: + x82 + x123 <= 1
C1632: + x130 + x191 <= 1
C1633: + x25 + x405 <= 1
C1634: + x19 + x55 <= 1
C1635: + x29 + x223 <= 1
C1636: + x58 + x498 <= 1
C1637: + x5 + x102 <= 1
C1638: + x6 + x461 <= 1
C1639: + x16 + x22 <= 1
C1640: + x19 + x348 <= 1
C1641: + x76 + x279 <= 1
C1642: + x149 + x449 <= 1
C1643: + x68 + x374 <= 1
C1644: + x7 + x120 <= 1
C1645: + x2 + x8 <= 1
C1646: + x14 + x32 <= 1
C1647: + x44 + x84 <= 1
C1648: + x18 + x229 <= 1
C1649: + x7 + x358 <= 1
C1650: + x57 + x458 <= 1
C1651: + x80 + x154 <= 1
C1652: + x75 + x369 <= 1
C1653: + x51 + x101 <= 1
C1654: + x23 + x38 <= 1
C1655: + x15 + x71 <= 1
C1656: + x364 + x417 <= 1
C1657: + x144 + x172 <= 1
C1658: + x190 + x471 <= 1
C1659: + x8 + x308 <= 1
C1660: + x174 + x200 <= 1
C1661: + x294 + x438 <= 1
C1662: + x60 + x287 <= 1
C1663: + x49 + x83 <= 1
C1664: + x27 + x367 <= 1
C1665: + x83 + x132 <= 1
C1666: + x321 + x411 <= 1
C1667: + x266 + x272 <= 1
C1668: + x13 + x347 <= 1
C1669: + x7 + x224 <= 1
C1670: + x27 + x125 <= 1
C1671: + x174 + x252 <= 1
C1672: + x78 + x445 <= 1
C1673: + x5 + x109 <= 1
C1674: + x43 + x188 <= 1
C1675: + x168 + x401 <= 1
C1676: + x155 + x459 <= 1
C1677: + x58 + x342 <= 1
C1678: + x58 + x108 <= 1
C1679: + x30 + x371 <= 1
C1680: + x26 + x147 <= 1
C1681: + x254 + x362 <= 1
C1682: + x51 + x187 <= 1
C1683: + x13 + x441 <= 1
C1684: + x151 + x261 <= 1
C1685: + x19 + x263 <= 1
C1686: + x66 + x135 <= 1
C1687: + x129 + x134 <= 1
C1688: + x5 + x131 <= 1
C1689: + x22 + x26 <= 1
C1690: + x2 + x376 <= 1
C1691: + x113 + x138 <= 1
C1692: + x98 + x495 <= 1
C1693: + x44 + x164 <= 1
C1694: + x66 + x211 <= 1
C1695: + x11 + x496 <= 1
C1696: + x41 + x425 <= 1
C1697: + x117 + x340 <= 1
C1698: + x17 + x336 <= 1
C1699: + x3 + x239 <= 1
C1700: + x41 + x70 <= 1
C1701: + x13 + x55 <= 1
C1702: + x297 + x411 <= 1
C1703: + x174 + x280 <= 1
C1704: + x120 + x326 <= 1
C1705: + x149 + x471 <= 1
C1706: + x69 + x201 <= 1
C1707: + x17 + x479 <= 1
C1708: + x7 + x98 <= 1
C1709: + x71 + x162 <= 1
C1710: + x54 + x120 <= 1
C1711: + x11 + x109 <= 1
C1712: + x140 + x190 <= 1
C1713: + x175 + x295 <= 1
C1714: + x21 + x353 <= 1
C1715: + x114 + x384 <= 1
C1716: + x23 + x69 <= 1
C1717: + x48 + x69 <= 1
C1718: + x51 + x182 <= 1
C1719: + x9 + x91 <= 1
C1720: + x82 + x434 <= 1
C1721: + x12 + x395 <= 1
C1722: + x41 + x356 <= 1
C1723: + x10 + x67 <= 1
C1724: + x26 + x365 <= 1
C1725: + x190 + x247 <= 1
C1726: + x46 + x221 <= 1
C1727: + x113 + x129 <= 1
C1728: + x7 + x45 <= 1
C1729: + x1 + x484 <= 1
C1730: + x11 + x36 <= 1
C1731: + x56 + x264 <= 1
C1732: + x149 + x156 <= 1
C1733: + x35 + x497 <= 1
C1734: + x36 + x483 <= 1
C1735: + x9 + x185 <= 1
C1736: + x228 + x269 <= 1
C1737: + x365 + x367 <= 1
C1738: + x76 + x95 <= 1
C1739: + x86 + x380 <= 1
C1740: + x188 + x304 <= 1
C1741: + x23 + x274 <= 1
C1742: + x43 + x337 <= 1
C1743: + x150 + x477 <= 1
C1744: + x147 + x402 <= 1
C1745: + x195 + x353 <= 1
C1746: + x51 + x222 <= 1
C1747: + x15 + x16 <= 1
C1748: + x177 + x372 <= 1
C1749: + x106 + x148 <= 1
C1750: + x61 + x346 <= 1
C1751: + x79 + x105 <= 1
C1752: + x95 + x379 <= 1
C1753: + x4 + x13 <= 1
C1754: + x13 + x431 <= 1
C1755: + x65 + x111 <= 1
C1756: + x81 + x194 <= 1
C1757: + x8 + x287 <= 1
C1758: + x2 + x39 <= 1
C1759: + x20 + x324 <= 1
C1760: + x312 + x347 <= 1
C1761: + x77 + x364 <= 1
C1762: + x11 + x92 <= 1
C1763: + x17 + x244 <= 1
C1764: + x27 + x39 <= 1
C1765: + x9 + x209 <= 1
C1766: + x124 + x376 <= 1
C1767: + x7 + x40 <= 1
C1768: + x149 + x163 <= 1
C1769: + x78 + x197 <= 1
C1770: + x23 + x27 <= 1
C1771: + x5 + x165 <= 1
C1772: + x21 + x291 <= 1
C1773: + x133 + x293 <= 1
C1774: + x114 + x318 <= 1
C1775: + x36 + x63 <= 1
C1776: + x21 + x136 <= 1
C1777: + x295 + x483 <= 1
C1778: + x14 + x382 <= 1
C1779: + x18 + x56 <= 1
C1780: + x237 + x446 <= 1
C1781: + x8 + x61 <= 1
C1782: + x70 + x201 <= 1
C1783: + x7 + x84 <= 1
C1784: + x11 + x31 <= 1
C1785: + x95 + x193 <= 1
C1786: + x18 + x382 <= 1
C1787: + x163 + x182 <= 1
C1788: + x41 + x128 <= 1
C1789: + x13 + x25 <= 1
C1790: + x49 + x240 <= 1
C1791: + x15 + x35 <= 1
C1792: + x8 + x280 <= 1
C1793: + x20 + x24 + x50 <= 1
C1794: + x33 + x444 <= 1
C1795: + x26 + x383 <= 1
C1796: + x94 + x266 <= 1
C1797: + x12 + x67 <= 1
C1798: + x195 + x246 <= 1
C1799: + x13 + x410 <= 1
C1800: + x86 + x413 <= 1
C1801: + x41 + x172 <= 1
C1802: + x39 + x194 <= 1
C1803: + x77 + x456 <= 1
C1804: + x99 + x482 <= 1
C1805: + x82 + x96 <= 1
C1806: + x257 + x465 <= 1
C1807: + x341 + x423 <= 1
C1808: + x6 + x60 <= 1
C1809: + x207 + x303 <= 1
C1810: + x13 + x36 <= 1
C1811: + x14 + x375 <= 1
C1812: + x23 + x292 <= 1
C1813: + x19 + x183 <= 1
C1814: + x243 + x345 <= 1
C1815: + x13 + x179 <= 1
C1816: + x299 + x437 <= 1
C1817: + x67 + x464 <= 1
C1818: + x312 + x316 <= 1
C1819: + x95 + x357 <= 1
C1820: + x24 + x104 <= 1
C1821: + x142 + x374 <= 1
C1822: + x3 + x30 <= 1
C1823: + x12 + x434 <= 1
C1824: + x403 + x407 <= 1
C1825: + x155 + x280 <= 1
C1826: + x59 + x68 <= 1
C1827: + x180 + x262 <= 1
C1828: + x27 + x41 <= 1
C1829: + x282 + x289 <= 1
C1830: + x54 + x357 <= 1
C1831: + x146 + x441 <= 1
C1832: + x21 + x39 <= 1
C1833: + x95 + x401 <= 1
C1834: + x90 + x406 <= 1
C1835: + x73 + x124 <= 1
C1836: + x74 + x116 <= 1
C1837: + x66 + x191 <= 1
C1838: + x3 + x485 <= 1
C1839: + x58 + x189 <= 1
C1840: + x132 + x153 <= 1
C1841: + x6 + x37 <= 1
C1842: + x9 + x281 <= 1
C1843: + x109 + x373 <= 1
C1844: + x149 + x278 <= 1
C1845: + x31 + x53 <= 1
C1846: + x52 + x82 <= 1
C1847: + x35 + x44 <= 1
C1848: + x15 + x328 <= 1
C1849: + x2 + x368 <= 1
C1850: + x231 + x373 <= 1
C1851: + x13 + x453 <= 1
C1852: + x7 + x78 <= 1
C1853: + x50 + x92 <= 1
C1854: + x40 + x41 <= 1
C1855: + x14 + x54 <= 1
C1856: + x44 + x487 <= 1
C1857: + x346 + x440 <= 1
C1858: + x38 + x192 <= 1
C1859: + x130 + x452 <= 1
C1860: + x5 + x116 <= 1
C1861: + x43 + x203 <= 1
C1862: + x6 + x455 <= 1
C1863: + x9 + x119 <= 1
C1864: + x80 + x324 <= 1
C1865: + x10 + x329 <= 1
C1866: + x195 + x258 <= 1
C1867: + x42 + x88 <= 1
C1868: + x237 + x338 <= 1
C1869: + x246 + x267 <= 1
C1870: + x21 + x329 <= 1
C1871: + x111 + x318 <= 1
C1872: + x51 + x321 <= 1
C1873: + x26 + x95 <= 1
C1874: + x62 + x254 <= 1
C1875: + x74 + x117 <= 1
C1876: + x38 + x71 <= 1
C1877: + x29 + x62 <= 1
C1878: + x357 + x403 <= 1
C1879: + x4 + x258 <= 1
C1880: + x178 + x428 <= 1
C1881: + x145 + x248 <= 1
C1882: + x57 + x431 <= 1
C1883: + x68 + x426 <= 1
C1884: + x5 + x388 <= 1
C1885: + x9 + x50 <= 1
C1886: + x41 + x198 <= 1
C1887: + x30 + x91 <= 1
C1888: + x13 + x452 <= 1
C1889: + x7 + x69 <= 1
C1890: + x11 + x12 <= 1
C1891: + x3 + x258 <= 1
C1892: + x26 + x28 <= 1
C1893: + x140 + x409 <= 1
C1894: + x114 + x494 <= 1
C1895: + x150 + x296 <= 1
C1896: + x5 + x341 <= 1
C1897: + x28 + x30 <= 1
C1898: + x10 + x104 <= 1
C1899: + x46 + x407 <= 1
C1900: + x97 + x129 <= 1
C1901: + x372 + x468 <= 1
C1902: + x6 + x337 <= 1
C1903: + x440 + x486 <= 1
C1904: + x51 + x407 <= 1
C1905: + x32 + x137 <= 1
C1906: + x52 + x477 <= 1
C1907: + x36 + x78 <= 1
C1908: + x55 + x365 <= 1
C1909: + x77 + x493 <= 1
C1910: + x87 + x390 <= 1
C1911: + x187 + x228 <= 1
C1912: + x72 + x212 <= 1
C1913: + x47 + x155 <= 1
C1914: + x20 + x461 <= 1
C1915: + x95 + x113 <= 1
C1916: + x51 + x106 <= 1
C1917: + x106 + x325 <= 1
C1918: + x62 + x90 <= 1
C1919: + x3 + x197 <= 1
C1920: + x40 + x74 <= 1
C1921: + x253 + x320 <= 1
C1922: + x18 + x20 <= 1
C1923: + x9 + x57 <= 1
C1924: + x94 + x297 <= 1
C1925: + x312 + x402 <= 1
C1926: + x239 + x454 <= 1
C1927: + x67 + x426 <= 1
C1928: + x23 + x402 <= 1
C1929: + x209 + x233 <= 1
C1930: + x6 + x424 <= 1
C1931: + x218 + x231 <= 1
C1932: + x54 + x94 <= 1
C1933: + x19 + x453 <= 1
C1934: + x197 + x397 <= 1
C1935: + x125 + x437 <= 1
C1936: + x7 + x302 <= 1
C1937: + x54 + x428 <= 1
C1938: + x75 + x88 <= 1
C1939: + x2 + x235 <= 1
C1940: + x155 + x171 <= 1
C1941: + x13 + x61 <= 1
C1942: + x23 + x224 <= 1
C1943: + x32 + x320 <= 1
C1944: + x24 + x466 <= 1
C1945: + x144 + x351 <= 1
C1946: + x2 + x28 <= 1
C1947: + x6 + x143 <= 1
C1948: + x151 + x421 <= 1
C1949: + x246 + x448 <= 1
C1950: + x57 + x462 <= 1
C1951: + x39 + x238 <= 1
C1952: + x31 + x159 <= 1
C1953: + x43 + x225 <= 1
C1954: + x245 + x421 <= 1
C1955: + x336 + x465 <= 1
C1956: + x166 + x457 <= 1

binary
x1 x2 x3 x4 x5 x6 x7 x8 x9 x10 x11 x12 x13 x14 x15 x16 x17 x18 x19 x20 x21 x22 x23 x24 x25 x26 x27 x28 x29 x30 x31 x32 x33 x34 x35 x36 x37 x38 x39 x40 x41 x42 x43 x44 x45 x46 x47 x48 x49 x50 x51 x52 x53 x54 x55 x56 x57 x58 x59 x60 x61 x62 x63 x64 x65 x66 x67 x68 x69 x70 x71 x72 x73 x74 x75 x76 x77 x78 x79 x80 x81 x82 x83 x84 x85 x86 x87 x88 x89 x90 x91 x92 x93 x94 x95 x96 x97 x98 x99 x100 x101 x102 x103 x104 x105 x106 x107 x108 x109 x110 x111 x112 x113 x114 x115 x116 x117 x118 x119 x120 x121 x122 x123 x124 x125 x126 x127 x128 x129 x130 x131 x132 x133 x134 x135 x136 x137 x138 x139 x140 x141 x142 x143 x144 x145 x146 x147 x148 x149 x150 x151 x152 x153 x154 x155 x156 x157 x158 x159 x160 x161 x162 x163 x164 x165 x166 x167 x168 x169 x170 x171 x172 x173 x174 x175 x176 x177 x178 x179 x180 x181 x182 x183 x184 x185 x186 x187 x188 x189 x190 x191 x192 x193 x194 x195 x196 x197 x198 x199 x200 x201 x202 x203 x204 x205 x206 x207 x208 x209 x210 x211 x212 x213 x214 x215 x216 x217 x218 x219 x220 x221 x222 x223 x224 x225 x226 x227 x228 x229 x230 x231 x232 x233 x234 x235 x236 x237 x238 x239 x240 x241 x242 x243 x244 x245 x246 x247 x248 x249 x250 x251 x252 x253 x254 x255 x256 x257 x258 x259 x260 x261 x262 x263 x264 x265 x266 x267 x268 x269 x270 x271 x272 x273 x274 x275 x276 x277 x278 x279 x280 x281 x282 x283 x284 x285 x286 x287 x288 x289 x290 x291 x292 x293 x294 x295 x296 x297 x298 x299 x300 x301 x302 x303 x304 x305 x306 x307 x308 x309 x310 x311 x312 x313 x314 x315 x316 x317 x318 x319 x320 x321 x322 x323 x324 x325 x326 x327 x328 x329 x330 x331 x332 x333 x334 x335 x336 x337 x338 x339 x340 x341 x342 x343 x344 x345 x346 x347 x348 x349 x350 x351 x352 x353 x354 x355 x356 x357 x358 x359 x360 x361 x362 x363 x364 x365 x366 x367 x368 x369 x370 x371 x372 x373 x374 x375 x376 x377 x378 x379 x380 x381 x382 x383 x384 x385 x386 x387 x388 x389 x390 x391 x392 x393 x394 x395 x396 x397 x398 x399 x400 x401 x402 x403 x404 x405 x406 x407 x408 x409 x410 x411 x412 x413 x414 x415 x416 x417 x418 x419 x420 x421 x422 x423 x424 x425 x426 x427 x428 x429 x430 x431 x432 x433 x434 x435 x436 x437 x438 x439 x440 x441 x442 x443 x444 x445 x446 x447 x448 x449 x450 x451 x452 x453 x454 x455 x456 x457 x458 x459 x460 x461 x462 x463 x464 x465 x466 x467 x468 x469 x470 x471 x472 x473 x474 x475 x476 x477 x478 x479 x480 x481 x482 x483 x484 x485 x486 x487 x488 x489 x490 x491 x492 x493 x494 x495 x496 x497 x498 x499 x500
