maximize
OBJ: + 1 x1 + 1 x2 + 1 x3 + 1 x4 + 1 x5 + 1 x6 + 1 x7 + 1 x8 + 1 x9 + 1 x10 + 1 x11 + 1 x12 + 1 x13 + 1 x14 + 1 x15 + 1 x16 + 1 x17 + 1 x18 + 1 x19 + 1 x20 + 1 x21 + 1 x22 + 1 x23 + 1 x24 + 1 x25 + 1 x26 + 1 x27 + 1 x28 + 1 x29 + 1 x30 + 1 x31 + 1 x32 + 1 x33 + 1 x34 + 1 x35 + 1 x36 + 1 x37 + 1 x38 + 1 x39 + 1 x40 + 1 x41 + 1 x42 + 1 x43 + 1 x44 + 1 x45 + 1 x46 + 1 x47 + 1 x48 + 1 x49 + 1 x50 + 1 x51 + 1 x52 + 1 x53 + 1 x54 + 1 x55 + 1 x56 + 1 x57 + 1 x58 + 1 x59 + 1 x60 + 1 x61 + 1 x62 + 1 x63 + 1 x64 + 1 x65 + 1 x66 + 1 x67 + 1 x68 + 1 x69 + 1 x70 + 1 x71 + 1 x72 + 1 x73 + 1 x74 + 1 x75 + 1 x76 + 1 x77 + 1 x78 + 1 x79 + 1 x80 + 1 x81 + 1 x82 + 1 x83 + 1 x84 + 1 x85 + 1 x86 + 1 x87 + 1 x88 + 1 x89 + 1 x90 + 1 x91 + 1 x92 + 1 x93 + 1 x94 + 1 x95 + 1 x96 + 1 x97 + 1 x98 + 1 x99 + 1 x100 + 1 x101 + 1 x102 + 1 x103 + 1 x104 + 1 x105 + 1 x106 + 1 x107 + 1 x108 + 1 x109 + 1 x110 + 1 x111 + 1 x112 + 1 x113 + 1 x114 + 1 x115 + 1 x116 + 1 x117 + 1 x118 + 1 x119 + 1 x120 + 1 x121 + 1 x122 + 1 x123 + 1 x124 + 1 x125 + 1 x126 + 1 x127 + 1 x128 + 1 x129 + 1 x130 + 1 x131 + 1 x132 + 1 x133 + 1 x134 + 1 x135 + 1 x136 + 1 x137 + 1 x138 + 1 x139 + 1 x140 + 1 x141 + 1 x142 + 1 x143 + 1 x144 + 1 x145 + 1 x146 + 1 x147 + 1 x148 + 1 x149 + 1 x150 + 1 x151 + 1 x152 + 1 x153 + 1 x154 + 1 x155 + 1 x156 + 1 x157 + 1 x158 + 1 x159 + 1 x160 + 1 x161 + 1 x162 + 1 x163 + 1 x164 + 1 x165 + 1 x166 + 1 x167 + 1 x168 + 1 x169 + 1 x170 + 1 x171 + 1 x172 + 1 x173 + 1 x174 + 1 x175 + 1 x176 + 1 x177 + 1 x178 + 1 x179 + 1 x180 + 1 x181 + 1 x182 + 1 x183 + 1 x184 + 1 x185 + 1 x186 + 1 x187 + 1 x188 + 1 x189 + 1 x190 + 1 x191 + 1 x192 + 1 x193 + 1 x194 + 1 x195 + 1 x196 + 1 x197 + 1 x198 + 1 x199 + 1 x200 + 1 x201 + 1 x202 + 1 x203 + 1 x204 + 1 x205 + 1 x206 + 1 x207 + 1 x208 + 1 x209 + 1 x210 + 1 x211 + 1 x212 + 1 x213 + 1 x214 + 1 x215 + 1 x216 + 1 x217 + 1 x218 + 1 x219 + 1 x220 + 1 x221 + 1 x222 + 1 x223 + 1 x224 + 1 x225 + 1 x226 + 1 x227 + 1 x228 + 1 x229 + 1 x230 + 1 x231 + 1 x232 + 1 x233 + 1 x234 + 1 x235 + 1 x236 + 1 x237 + 1 x238 + 1 x239 + 1 x240 + 1 x241 + 1 x242 + 1 x243 + 1 x244 + 1 x245 + 1 x246 + 1 x247 + 1 x248 + 1 x249 + 1 x250 + 1 x251 + 1 x252 + 1 x253 + 1 x254 + 1 x255 + 1 x256 + 1 x257 + 1 x258 + 1 x259 + 1 x260 + 1 x261 + 1 x262 + 1 x263 + 1 x264 + 1 x265 + 1 x266 + 1 x267 + 1 x268 + 1 x269 + 1 x270 + 1 x271 + 1 x272 + 1 x273 + 1 x274 + 1 x275 + 1 x276 + 1 x277 + 1 x278 + 1 x279 + 1 x280 + 1 x281 + 1 x282 + 1 x283 + 1 x284 + 1 x285 + 1 x286 + 1 x287 + 1 x288 + 1 x289 + 1 x290 + 1 x291 + 1 x292 + 1 x293 + 1 x294 + 1 x295 + 1 x296 + 1 x297 + 1 x298 + 1 x299 + 1 x300 + 1 x301 + 1 x302 + 1 x303 + 1 x304 + 1 x305 + 1 x306 + 1 x307 + 1 x308 + 1 x309 + 1 x310 + 1 x311 + 1 x312 + 1 x313 + 1 x314 + 1 x315 + 1 x316 + 1 x317 + 1 x318 + 1 x319 + 1 x320 + 1 x321 + 1 x322 + 1 x323 + 1 x324 + 1 x325 + 1 x326 + 1 x327 + 1 x328 + 1 x329 + 1 x330 + 1 x331 + 1 x332 + 1 x333 + 1 x334 + 1 x335 + 1 x336 + 1 x337 + 1 x338 + 1 x339 + 1 x340 + 1 x341 + 1 x342 + 1 x343 + 1 x344 + 1 x345 + 1 x346 + 1 x347 + 1 x348 + 1 x349 + 1 x350 + 1 x351 + 1 x352 + 1 x353 + 1 x354 + 1 x355 + 1 x356 + 1 x357 + 1 x358 + 1 x359 + 1 x360 + 1 x361 + 1 x362 + 1 x363 + 1 x364 + 1 x365 + 1 x366 + 1 x367 + 1 x368 + 1 x369 + 1 x370 + 1 x371 + 1 x372 + 1 x373 + 1 x374 + 1 x375 + 1 x376 + 1 x377 + 1 x378 + 1 x379 + 1 x380 + 1 x381 + 1 x382 + 1 x383 + 1 x384 + 1 x385 + 1 x386 + 1 x387 + 1 x388 + 1 x389 + 1 x390 + 1 x391 + 1 x392 + 1 x393 + 1 x394 + 1 x395 + 1 x396 + 1 x397 + 1 x398 + 1 x399 + 1 x400 + 1 x401 + 1 x402 + 1 x403 + 1 x404 + 1 x405 + 1 x406 + 1 x407 + 1 x408 + 1 x409 + 1 x410 + 1 x411 + 1 x412 + 1 x413 + 1 x414 + 1 x415 + 1 x416 + 1 x417 + 1 x418 + 1 x419 + 1 x420 + 1 x421 + 1 x422 + 1 x423 + 1 x424 + 1 x425 + 1 x426 + 1 x427 + 1 x428 + 1 x429 + 1 x430 + 1 x431 + 1 x432 + 1 x433 + 1 x434 + 1 x435 + 1 x436 + 1 x437 + 1 x438 + 1 x439 + 1 x440 + 1 x441 + 1 x442 + 1 x443 + 1 x444 + 1 x445 + 1 x446 + 1 x447 + 1 x448 + 1 x449 + 1 x450 + 1 x451 + 1 x452 + 1 x453 + 1 x454 + 1 x455 + 1 x456 + 1 x457 + 1 x458 + 1 x459 + 1 x460 + 1 x461 + 1 x462 + 1 x463 + 1 x464 + 1 x465 + 1 x466 + 1 x467 + 1 x468 + 1 x469 + 1 x470 + 1 x471 + 1 x472 + 1 x473 + 1 x474 + 1 x475 + 1 x476 + 1 x477 + 1 x478 + 1 x479 + 1 x480 + 1 x481 + 1 x482 + 1 x483 + 1 x484 + 1 x485 + 1 x486 + 1 x487 + 1 x488 + 1 x489 + 1 x490 + 1 x491 + 1 x492 + 1 x493 + 1 x494 + 1 x495 + 1 x496 + 1 x497 + 1 x498 + 1 x499 + 1 x500

subject to
C1: + x79 + x139 <= 1
C2: + x28 + x37 + x64 <= 1
C3: + x275 + x400 <= 1
C4: + x96 + x102 <= 1
C5: + x32 + x166 <= 1
C6: + x22 + x299 <= 1
C7: + x5 + x279 <= 1
C8: + x209 + x240 <= 1
C9: + x16 + x490 <= 1
C10: + x226 + x285 <= 1
C11: + x147 + x265 <= 1
C12: + x81 + x368 <= 1
C13: + x24 + x378 <= 1
C14: + x101 + x200 <= 1
C15: + x19 + x46 <= 1
C16: + x237 + x304 <= 1
C17: + x183 + x336 <= 1
C18: + x12 + x23 <= 1
C19: + x106 + x267 <= 1
C20: + x172 + x418 <= 1
C21: + x61 + x328 <= 1
C22: + x6 + x248 <= 1
C23: + x154 + x330 <= 1
C24: + x12 + x104 <= 1
C25: + x165 + x486 <= 1
C26: + x48 + x342 <= 1
C27: + x196 + x437 <= 1
C28: + x87 + x241 <= 1
C29: + x160 + x219 <= 1
C30: + x74 + x286 <= 1
C31: + x428 + x443 <= 1
C32: + x39 + x120 <= 1
C33: + x108 + x246 <= 1
C34: + x26 + x163 <= 1
C35: + x134 + x322 <= 1
C36: + x7 + x397 <= 1
C37: + x326 + x386 <= 1
C38: + x49 + x78 <= 1
C39: + x146 + x465 <= 1
C40: + x56 + x57 <= 1
C41: + x25 + x74 <= 1
C42: + x147 + x205 <= 1
C43: + x3 + x8 + x17 <= 1
C44: + x7 + x203 <= 1
C45: + x9 + x182 <= 1
C46: + x91 + x260 <= 1
C47: + x205 + x371 <= 1
C48: + x98 + x169 <= 1
C49: + x159 + x491 <= 1
C50: + x168 + x390 <= 1
C51: + x27 + x229 <= 1
C52: + x173 + x396 <= 1
C53: + x37 + x185 <= 1
C54: + x41 + x316 <= 1
C55: + x50 + x270 <= 1
C56: + x79 + x201 <= 1
C57: + x7 + x102 <= 1
C58: + x88 + x168 <= 1
C59: + x46 + x55 <= 1
C60: + x49 + x428 <= 1
C61: + x73 + x290 <= 1
C62: + x7 + x332 <= 1
C63: + x56 + x126 <= 1
C64: + x51 + x357 <= 1
C65: + x61 + x105 <= 1
C66: + x26 + x59 <= 1
C67: + x25 + x133 <= 1
C68: + x134 + x314 <= 1
C69: + x15 + x444 <= 1
C70: + x1 + x428 <= 1
C71: + x122 + x418 <= 1
C72: + x132 + x254 <= 1
C73: + x414 + x495 <= 1
C74: + x62 + x101 <= 1
C75: + x65 + x382 <= 1
C76: + x140 + x366 <= 1
C77: + x5 + x43 <= 1
C78: + x6 + x384 <= 1
C79: + x9 + x46 <= 1
C80: + x8 + x16 <= 1
C81: + x27 + x220 <= 1
C82: + x49 + x69 <= 1
C83: + x7 + x392 <= 1
C84: + x379 + x385 <= 1
C85: + x388 + x405 <= 1
C86: + x7 + x33 <= 1
C87: + x147 + x379 <= 1
C88: + x283 + x352 <= 1
C89: + x176 + x350 <= 1
C90: + x117 + x423 <= 1
C91: + x9 + x360 <= 1
C92: + x19 + x32 <= 1
C93: + x22 + x257 <= 1
C94: + x25 + x29 <= 1
C95: + x6 + x71 <= 1
C96: + x107 + x395 <= 1
C97: + x15 + x20 <= 1
C98: + x69 + x337 <= 1
C99: + x440 + x458 <= 1
C100: + x7 + x250 <= 1
C101: + x7 + x323 <= 1
C102: + x1 + x6 <= 1
C103: + x84 + x100 <= 1
C104: + x131 + x483 <= 1
C105: + x5 + x480 <= 1
C106: + x161 + x292 <= 1
C107: + x14 + x309 <= 1
C108: + x53 + x346 <= 1
C109: + x16 + x344 <= 1
C110: + x6 + x11 <= 1
C111: + x62 + x126 <= 1
C112: + x57 + x338 <= 1
C113: + x30 + x149 <= 1
C114: + x105 + x204 <= 1
C115: + x27 + x35 <= 1
C116: + x326 + x372 <= 1
C117: + x41 + x169 <= 1
C118: + x186 + x220 <= 1
C119: + x33 + x203 <= 1
C120: + x60 + x76 <= 1
C121: + x18 + x411 <= 1
C122: + x7 + x28 <= 1
C123: + x102 + x477 <= 1
C124: + x157 + x429 <= 1
C125: + x76 + x237 <= 1
C126: + x39 + x497 <= 1
C127: + x322 + x492 <= 1
C128: + x346 + x414 <= 1
C129: + x219 + x463 <= 1
C130: + x29 + x319 <= 1
C131: + x378 + x389 <= 1
C132: + x304 + x442 <= 1
C133: + x53 + x128 <= 1
C134: + x236 + x298 <= 1
C135: + x1 + x110 <= 1
C136: + x247 + x401 <= 1
C137: + x12 + x62 <= 1
C138: + x150 + x325 <= 1
C139: + x83 + x157 <= 1
C140: + x41 + x455 <= 1
C141: + x220 + x385 <= 1
C142: + x173 + x430 <= 1
C143: + x145 + x194 <= 1
C144: + x51 + x490 <= 1
C145: + x116 + x142 <= 1
C146: + x26 + x182 <= 1
C147: + x7 + x370 <= 1
C148: + x31 + x167 <= 1
C149: + x108 + x459 <= 1
C150: + x15 + x466 <= 1
C151: + x226 + x313 <= 1
C152: + x7 + x19 <= 1
C153: + x153 + x404 <= 1
C154: + x186 + x499 <= 1
C155: + x5 + x176 <= 1
C156: + x96 + x239 <= 1
C157: + x273 + x408 <= 1
C158: + x184 + x228 <= 1
C159: + x5 + x77 <= 1
C160: + x73 + x456 <= 1
C161: + x86 + x493 <= 1
C162: + x184 + x462 <= 1
C163: + x6 + x73 <= 1
C164: + x2 + x121 <= 1
C165: + x49 + x337 <= 1
C166: + x56 + x294 <= 1
C167: + x184 + x273 <= 1
C168: + x36 + x449 <= 1
C169: + x134 + x498 <= 1
C170: + x116 + x345 <= 1
C171: + x17 + x87 <= 1
C172: + x160 + x284 <= 1
C173: + x46 + x179 <= 1
C174: + x122 + x437 <= 1
C175: + x30 + x452 <= 1
C176: + x141 + x190 <= 1
C177: + x3 + x26 <= 1
C178: + x61 + x219 <= 1
C179: + x26 + x425 <= 1
C180: + x132 + x272 <= 1
C181: + x5 + x8 <= 1
C182: + x53 + x461 <= 1
C183: + x15 + x320 <= 1
C184: + x36 + x68 <= 1
C185: + x160 + x425 <= 1
C186: + x14 + x283 <= 1
C187: + x25 + x166 <= 1
C188: + x23 + x336 <= 1
C189: + x31 + x416 <= 1
C190: + x44 + x303 <= 1
C191: + x409 + x493 <= 1
C192: + x329 + x402 <= 1
C193: + x113 + x313 <= 1
C194: + x153 + x266 <= 1
C195: + x55 + x163 <= 1
C196: + x38 + x43 <= 1
C197: + x12 + x44 <= 1
C198: + x30 + x94 <= 1
C199: + x88 + x332 <= 1
C200: + x45 + x328 <= 1
C201: + x185 + x464 <= 1
C202: + x52 + x272 <= 1
C203: + x379 + x384 <= 1
C204: + x10 + x18 <= 1
C205: + x23 + x194 <= 1
C206: + x215 + x386 <= 1
C207: + x397 + x426 <= 1
C208: + x326 + x478 <= 1
C209: + x28 + x311 <= 1
C210: + x132 + x218 <= 1
C211: + x8 + x258 <= 1
C212: + x77 + x141 <= 1
C213: + x22 + x67 <= 1
C214: + x5 + x15 <= 1
C215: + x23 + x177 <= 1
C216: + x86 + x427 <= 1
C217: + x196 + x212 <= 1
C218: + x22 + x166 <= 1
C219: + x169 + x424 <= 1
C220: + x26 + x35 <= 1
C221: + x7 + x13 <= 1
C222: + x118 + x402 <= 1
C223: + x169 + x325 <= 1
C224: + x69 + x129 <= 1
C225: + x13 + x361 <= 1
C226: + x173 + x373 <= 1
C227: + x1 + x353 <= 1
C228: + x37 + x359 <= 1
C229: + x13 + x206 <= 1
C230: + x5 + x51 <= 1
C231: + x24 + x190 <= 1
C232: + x6 + x264 <= 1
C233: + x8 + x40 <= 1
C234: + x82 + x479 <= 1
C235: + x114 + x438 <= 1
C236: + x10 + x485 <= 1
C237: + x19 + x458 <= 1
C238: + x184 + x359 <= 1
C239: + x245 + x369 <= 1
C240: + x9 + x98 <= 1
C241: + x16 + x21 <= 1
C242: + x230 + x328 <= 1
C243: + x50 + x287 <= 1
C244: + x222 + x299 <= 1
C245: + x6 + x111 <= 1
C246: + x163 + x385 <= 1
C247: + x10 + x465 <= 1
C248: + x6 + x130 <= 1
C249: + x45 + x93 <= 1
C250: + x36 + x114 <= 1
C251: + x2 + x162 <= 1
C252: + x157 + x276 <= 1
C253: + x220 + x420 <= 1
C254: + x15 + x427 <= 1
C255: + x7 + x8 <= 1
C256: + x37 + x116 <= 1
C257: + x3 + x64 <= 1
C258: + x97 + x372 <= 1
C259: + x5 + x133 <= 1
C260: + x6 + x19 <= 1
C261: + x1 + x360 <= 1
C262: + x10 + x88 <= 1
C263: + x5 + x58 <= 1
C264: + x126 + x334 <= 1
C265: + x79 + x406 <= 1
C266: + x127 + x255 <= 1
C267: + x194 + x225 <= 1
C268: + x25 + x128 <= 1
C269: + x6 + x420 <= 1
C270: + x9 + x410 <= 1
C271: + x73 + x90 <= 1
C272: + x71 + x244 <= 1
C273: + x1 + x279 <= 1
C274: + x176 + x323 <= 1
C275: + x79 + x84 <= 1
C276: + x19 + x47 <= 1
C277: + x48 + x107 <= 1
C278: + x105 + x160 <= 1
C279: + x116 + x249 <= 1
C280: + x14 + x338 <= 1
C281: + x9 + x105 <= 1
C282: + x213 + x265 <= 1
C283: + x186 + x323 <= 1
C284: + x181 + x498 <= 1
C285: + x134 + x163 <= 1
C286: + x74 + x301 <= 1
C287: + x111 + x119 <= 1
C288: + x20 + x361 <= 1
C289: + x72 + x387 <= 1
C290: + x42 + x481 <= 1
C291: + x318 + x326 <= 1
C292: + x101 + x172 <= 1
C293: + x46 + x396 <= 1
C294: + x49 + x434 <= 1
C295: + x195 + x433 <= 1
C296: + x20 + x200 <= 1
C297: + x486 + x499 <= 1
C298: + x314 + x487 <= 1
C299: + x24 + x67 <= 1
C300: + x16 + x34 <= 1
C301: + x98 + x125 <= 1
C302: + x52 + x343 <= 1
C303: + x62 + x111 <= 1
C304: + x35 + x291 <= 1
C305: + x66 + x364 <= 1
C306: + x192 + x289 <= 1
C307: + x215 + x479 <= 1
C308: + x59 + x258 <= 1
C309: + x90 + x441 <= 1
C310: + x7 + x43 <= 1
C311: + x318 + x395 <= 1
C312: + x55 + x81 <= 1
C313: + x108 + x130 <= 1
C314: + x16 + x265 <= 1
C315: + x6 + x208 <= 1
C316: + x27 + x69 <= 1
C317: + x112 + x180 <= 1
C318: + x23 + x288 <= 1
C319: + x27 + x154 <= 1
C320: + x59 + x143 <= 1
C321: + x61 + x255 <= 1
C322: + x13 + x18 + x170 <= 1
C323: + x7 + x103 <= 1
C324: + x203 + x487 <= 1
C325: + x367 + x488 <= 1
C326: + x23 + x70 <= 1
C327: + x133 + x380 <= 1
C328: + x287 + x318 <= 1
C329: + x9 + x255 <= 1
C330: + x8 + x95 <= 1
C331: + x84 + x90 <= 1
C332: + x9 + x92 <= 1
C333: + x12 + x398 <= 1
C334: + x89 + x159 <= 1
C335: + x145 + x209 <= 1
C336: + x18 + x276 <= 1
C337: + x8 + x19 <= 1
C338: + x106 + x460 <= 1
C339: + x23 + x424 <= 1
C340: + x107 + x476 <= 1
C341: + x10 + x288 <= 1
C342: + x366 + x469 <= 1
C343: + x15 + x158 <= 1
C344: + x73 + x165 <= 1
C345: + x71 + x468 <= 1
C346: + x1 + x247 <= 1
C347: + x10 + x14 <= 1
C348: + x39 + x40 <= 1
C349: + x14 + x185 <= 1
C350: + x24 + x157 <= 1
C351: + x30 + x417 <= 1
C352: + x78 + x92 <= 1
C353: + x17 + x471 <= 1
C354: + x16 + x391 <= 1
C355: + x163 + x430 <= 1
C356: + x12 + x310 <= 1
C357: + x97 + x170 <= 1
C358: + x25 + x439 <= 1
C359: + x7 + x251 <= 1
C360: + x11 + x202 <= 1
C361: + x2 + x181 <= 1
C362: + x202 + x333 <= 1
C363: + x51 + x353 <= 1
C364: + x6 + x491 <= 1
C365: + x73 + x387 <= 1
C366: + x7 + x489 <= 1
C367: + x49 + x234 <= 1
C368: + x185 + x423 <= 1
C369: + x47 + x357 <= 1
C370: + x25 + x38 <= 1
C371: + x99 + x117 <= 1
C372: + x7 + x150 <= 1
C373: + x91 + x138 <= 1
C374: + x18 + x277 <= 1
C375: + x12 + x226 <= 1
C376: + x131 + x407 <= 1
C377: + x132 + x285 <= 1
C378: + x295 + x312 <= 1
C379: + x8 + x12 <= 1
C380: + x268 + x276 <= 1
C381: + x69 + x447 <= 1
C382: + x159 + x327 <= 1
C383: + x26 + x75 <= 1
C384: + x160 + x349 <= 1
C385: + x11 + x415 <= 1
C386: + x186 + x485 <= 1
C387: + x104 + x258 <= 1
C388: + x89 + x178 <= 1
C389: + x169 + x365 <= 1
C390: + x152 + x183 <= 1
C391: + x218 + x468 <= 1
C392: + x154 + x276 <= 1
C393: + x10 + x55 <= 1
C394: + x113 + x280 <= 1
C395: + x13 + x38 <= 1
C396: + x5 + x91 <= 1
C397: + x14 + x178 <= 1
C398: + x6 + x304 <= 1
C399: + x18 + x55 <= 1
C400: + x1 + x107 <= 1
C401: + x37 + x164 <= 1
C402: + x29 + x65 <= 1
C403: + x85 + x489 <= 1
C404: + x201 + x275 <= 1
C405: + x326 + x443 <= 1
C406: + x261 + x386 <= 1
C407: + x10 + x461 <= 1
C408: + x57 + x266 <= 1
C409: + x3 + x145 <= 1
C410: + x28 + x153 <= 1
C411: + x241 + x324 <= 1
C412: + x25 + x144 <= 1
C413: + x18 + x99 <= 1
C414: + x236 + x353 <= 1
C415: + x50 + x186 <= 1
C416: + x69 + x228 <= 1
C417: + x98 + x392 <= 1
C418: + x8 + x222 <= 1
C419: + x2 + x63 <= 1
C420: + x3 + x165 <= 1
C421: + x169 + x197 <= 1
C422: + x5 + x30 <= 1
C423: + x44 + x107 <= 1
C424: + x36 + x90 <= 1
C425: + x21 + x25 <= 1
C426: + x59 + x283 <= 1
C427: + x259 + x297 <= 1
C428: + x12 + x70 <= 1
C429: + x124 + x217 <= 1
C430: + x127 + x376 <= 1
C431: + x177 + x311 <= 1
C432: + x33 + x44 <= 1
C433: + x5 + x173 <= 1
C434: + x224 + x366 <= 1
C435: + x27 + x485 <= 1
C436: + x166 + x194 <= 1
C437: + x17 + x168 <= 1
C438: + x63 + x348 <= 1
C439: + x76 + x299 <= 1
C440: + x261 + x393 <= 1
C441: + x57 + x273 <= 1
C442: + x3 + x108 <= 1
C443: + x7 + x245 <= 1
C444: + x9 + x351 <= 1
C445: + x8 + x70 <= 1
C446: + x10 + x236 <= 1
C447: + x254 + x269 <= 1
C448: + x11 + x59 + x412 <= 1
C449: + x4 + x126 <= 1
C450: + x6 + x477 <= 1
C451: + x23 + x474 <= 1
C452: + x88 + x134 <= 1
C453: + x19 + x397 <= 1
C454: + x43 + x263 <= 1
C455: + x326 + x377 <= 1
C456: + x54 + x356 <= 1
C457: + x8 + x122 <= 1
C458: + x3 + x321 <= 1
C459: + x97 + x390 <= 1
C460: + x70 + x118 <= 1
C461: + x3 + x47 <= 1
C462: + x421 + x482 <= 1
C463: + x278 + x345 <= 1
C464: + x79 + x183 <= 1
C465: + x257 + x374 <= 1
C466: + x112 + x216 <= 1
C467: + x10 + x132 <= 1
C468: + x28 + x250 <= 1
C469: + x237 + x429 <= 1
C470: + x58 + x378 <= 1
C471: + x59 + x163 <= 1
C472: + x5 + x315 <= 1
C473: + x7 + x67 <= 1
C474: + x1 + x262 <= 1
C475: + x57 + x227 <= 1
C476: + x2 + x125 <= 1
C477: + x203 + x283 <= 1
C478: + x23 + x389 <= 1
C479: + x40 + x44 <= 1
C480: + x177 + x282 <= 1
C481: + x268 + x496 <= 1
C482: + x74 + x429 <= 1
C483: + x154 + x453 <= 1
C484: + x3 + x22 <= 1
C485: + x91 + x99 <= 1
C486: + x2 + x9 <= 1
C487: + x21 + x330 <= 1
C488: + x207 + x399 <= 1
C489: + x245 + x307 <= 1
C490: + x2 + x172 <= 1
C491: + x369 + x371 <= 1
C492: + x22 + x153 <= 1
C493: + x73 + x100 <= 1
C494: + x23 + x45 <= 1
C495: + x181 + x309 <= 1
C496: + x16 + x374 <= 1
C497: + x72 + x456 <= 1
C498: + x140 + x321 <= 1
C499: + x4 + x192 <= 1
C500: + x50 + x451 <= 1
C501: + x161 + x204 <= 1
C502: + x159 + x459 <= 1
C503: + x33 + x169 <= 1
C504: + x97 + x489 <= 1
C505: + x26 + x106 <= 1
C506: + x7 + x70 <= 1
C507: + x83 + x139 <= 1
C508: + x202 + x398 <= 1
C509: + x113 + x396 <= 1
C510: + x206 + x494 <= 1
C511: + x32 + x72 <= 1
C512: + x288 + x403 <= 1
C513: + x82 + x363 <= 1
C514: + x73 + x322 <= 1
C515: + x1 + x239 <= 1
C516: + x2 + x145 <= 1
C517: + x38 + x168 <= 1
C518: + x54 + x418 <= 1
C519: + x383 + x426 <= 1
C520: + x5 + x124 <= 1
C521: + x63 + x178 <= 1
C522: + x20 + x77 <= 1
C523: + x21 + x500 <= 1
C524: + x231 + x238 <= 1
C525: + x168 + x381 <= 1
C526: + x6 + x98 <= 1
C527: + x4 + x249 <= 1
C528: + x197 + x331 <= 1
C529: + x24 + x319 <= 1
C530: + x18 + x231 <= 1
C531: + x73 + x270 <= 1
C532: + x154 + x383 <= 1
C533: + x231 + x300 <= 1
C534: + x51 + x134 <= 1
C535: + x179 + x335 <= 1
C536: + x26 + x39 <= 1
C537: + x255 + x446 <= 1
C538: + x47 + x156 <= 1
C539: + x394 + x401 <= 1
C540: + x6 + x22 <= 1
C541: + x382 + x399 <= 1
C542: + x111 + x181 <= 1
C543: + x10 + x83 <= 1
C544: + x222 + x464 <= 1
C545: + x8 + x253 <= 1
C546: + x116 + x287 <= 1
C547: + x98 + x373 <= 1
C548: + x35 + x59 <= 1
C549: + x127 + x252 <= 1
C550: + x26 + x115 <= 1
C551: + x79 + x308 <= 1
C552: + x136 + x142 <= 1
C553: + x2 + x79 <= 1
C554: + x3 + x117 <= 1
C555: + x5 + x206 <= 1
C556: + x133 + x334 <= 1
C557: + x89 + x218 <= 1
C558: + x9 + x137 <= 1
C559: + x10 + x31 <= 1
C560: + x11 + x149 <= 1
C561: + x229 + x407 <= 1
C562: + x66 + x426 <= 1
C563: + x237 + x306 <= 1
C564: + x38 + x161 <= 1
C565: + x87 + x450 <= 1
C566: + x88 + x462 <= 1
C567: + x77 + x305 <= 1
C568: + x165 + x268 <= 1
C569: + x150 + x304 <= 1
C570: + x24 + x465 <= 1
C571: + x7 + x105 <= 1
C572: + x2 + x27 <= 1
C573: + x48 + x479 <= 1
C574: + x21 + x352 <= 1
C575: + x22 + x88 <= 1
C576: + x180 + x207 <= 1
C577: + x181 + x193 <= 1
C578: + x326 + x340 <= 1
C579: + x69 + x87 <= 1
C580: + x26 + x48 <= 1
C581: + x15 + x431 <= 1
C582: + x110 + x458 <= 1
C583: + x20 + x34 <= 1
C584: + x366 + x427 <= 1
C585: + x224 + x322 <= 1
C586: + x6 + x31 <= 1
C587: + x8 + x303 <= 1
C588: + x92 + x226 <= 1
C589: + x94 + x158 <= 1
C590: + x23 + x156 <= 1
C591: + x153 + x167 <= 1
C592: + x26 + x358 <= 1
C593: + x135 + x352 <= 1
C594: + x79 + x315 <= 1
C595: + x13 + x344 <= 1
C596: + x25 + x481 <= 1
C597: + x24 + x377 <= 1
C598: + x163 + x293 <= 1
C599: + x127 + x441 <= 1
C600: + x105 + x132 <= 1
C601: + x87 + x473 <= 1
C602: + x17 + x192 <= 1
C603: + x37 + x179 <= 1
C604: + x270 + x380 <= 1
C605: + x7 + x100 <= 1
C606: + x11 + x470 <= 1
C607: + x2 + x425 <= 1
C608: + x9 + x21 + x23 <= 1
C609: + x51 + x394 <= 1
C610: + x24 + x333 <= 1
C611: + x17 + x207 <= 1
C612: + x8 + x94 <= 1
C613: + x10 + x244 <= 1
C614: + x157 + x359 <= 1
C615: + x21 + x60 <= 1
C616: + x112 + x123 <= 1
C617: + x115 + x171 <= 1
C618: + x33 + x317 <= 1
C619: + x20 + x39 <= 1
C620: + x29 + x497 <= 1
C621: + x185 + x413 <= 1
C622: + x23 + x50 <= 1
C623: + x1 + x168 <= 1
C624: + x10 + x93 <= 1
C625: + x5 + x45 <= 1
C626: + x162 + x199 <= 1
C627: + x7 + x398 <= 1
C628: + x82 + x461 <= 1
C629: + x83 + x467 <= 1
C630: + x30 + x37 <= 1
C631: + x31 + x179 <= 1
C632: + x7 + x47 <= 1
C633: + x177 + x262 <= 1
C634: + x187 + x469 <= 1
C635: + x5 + x180 <= 1
C636: + x48 + x409 <= 1
C637: + x28 + x115 <= 1
C638: + x41 + x75 <= 1
C639: + x13 + x52 <= 1
C640: + x9 + x20 <= 1
C641: + x1 + x401 <= 1
C642: + x57 + x110 <= 1
C643: + x113 + x123 <= 1
C644: + x119 + x339 <= 1
C645: + x177 + x405 <= 1
C646: + x79 + x202 <= 1
C647: + x109 + x413 <= 1
C648: + x126 + x135 + x301 <= 1
C649: + x105 + x282 <= 1
C650: + x24 + x326 <= 1
C651: + x26 + x159 <= 1
C652: + x10 + x245 <= 1
C653: + x193 + x309 <= 1
C654: + x48 + x68 <= 1
C655: + x23 + x368 <= 1
C656: + x26 + x58 <= 1
C657: + x38 + x122 <= 1
C658: + x3 + x449 <= 1
C659: + x69 + x250 <= 1
C660: + x26 + x469 <= 1
C661: + x65 + x138 <= 1
C662: + x11 + x94 <= 1
C663: + x148 + x194 <= 1
C664: + x192 + x342 <= 1
C665: + x12 + x237 <= 1
C666: + x10 + x435 <= 1
C667: + x24 + x282 <= 1
C668: + x112 + x131 + x231 <= 1
C669: + x147 + x471 <= 1
C670: + x3 + x372 <= 1
C671: + x233 + x483 <= 1
C672: + x51 + x346 <= 1
C673: + x22 + x316 <= 1
C674: + x2 + x82 <= 1
C675: + x7 + x195 <= 1
C676: + x27 + x76 <= 1
C677: + x82 + x343 <= 1
C678: + x127 + x427 <= 1
C679: + x92 + x140 <= 1
C680: + x131 + x432 <= 1
C681: + x479 + x488 <= 1
C682: + x54 + x217 <= 1
C683: + x1 + x408 <= 1
C684: + x123 + x153 <= 1
C685: + x62 + x169 <= 1
C686: + x36 + x375 <= 1
C687: + x301 + x315 <= 1
C688: + x22 + x99 <= 1
C689: + x109 + x134 <= 1
C690: + x8 + x84 <= 1
C691: + x2 + x137 <= 1
C692: + x47 + x91 <= 1
C693: + x2 + x300 <= 1
C694: + x3 + x5 <= 1
C695: + x396 + x401 <= 1
C696: + x8 + x278 <= 1
C697: + x24 + x222 <= 1
C698: + x36 + x85 <= 1
C699: + x12 + x65 <= 1
C700: + x22 + x138 <= 1
C701: + x225 + x455 <= 1
C702: + x60 + x97 + x240 <= 1
C703: + x390 + x417 <= 1
C704: + x112 + x367 <= 1
C705: + x24 + x392 <= 1
C706: + x74 + x379 <= 1
C707: + x171 + x363 <= 1
C708: + x37 + x176 <= 1
C709: + x55 + x210 <= 1
C710: + x247 + x402 <= 1
C711: + x29 + x93 <= 1
C712: + x48 + x288 <= 1
C713: + x6 + x79 <= 1
C714: + x88 + x181 <= 1
C715: + x29 + x431 <= 1
C716: + x431 + x495 <= 1
C717: + x197 + x406 <= 1
C718: + x5 + x214 <= 1
C719: + x168 + x253 <= 1
C720: + x154 + x292 <= 1
C721: + x1 + x30 <= 1
C722: + x111 + x233 <= 1
C723: + x41 + x101 <= 1
C724: + x285 + x441 <= 1
C725: + x141 + x406 <= 1
C726: + x5 + x456 <= 1
C727: + x33 + x247 <= 1
C728: + x341 + x379 <= 1
C729: + x89 + x468 <= 1
C730: + x127 + x144 <= 1
C731: + x45 + x391 <= 1
C732: + x22 + x64 <= 1
C733: + x270 + x446 <= 1
C734: + x160 + x419 <= 1
C735: + x317 + x321 <= 1
C736: + x166 + x381 <= 1
C737: + x311 + x450 <= 1
C738: + x133 + x140 <= 1
C739: + x226 + x320 <= 1
C740: + x6 + x388 <= 1
C741: + x284 + x341 <= 1
C742: + x15 + x116 <= 1
C743: + x73 + x215 <= 1
C744: + x18 + x129 <= 1
C745: + x30 + x161 <= 1
C746: + x7 + x419 <= 1
C747: + x1 + x102 <= 1
C748: + x7 + x80 <= 1
C749: + x120 + x499 <= 1
C750: + x138 + x200 <= 1
C751: + x38 + x479 <= 1
C752: + x14 + x56 <= 1
C753: + x198 + x299 <= 1
C754: + x18 + x362 <= 1
C755: + x153 + x254 <= 1
C756: + x100 + x260 <= 1
C757: + x148 + x360 <= 1
C758: + x60 + x474 <= 1
C759: + x14 + x155 <= 1
C760: + x44 + x215 <= 1
C761: + x9 + x117 <= 1
C762: + x127 + x183 <= 1
C763: + x328 + x500 <= 1
C764: + x231 + x248 <= 1
C765: + x26 + x432 <= 1
C766: + x27 + x33 + x199 <= 1
C767: + x8 + x215 <= 1
C768: + x117 + x251 <= 1
C769: + x298 + x494 <= 1
C770: + x83 + x439 <= 1
C771: + x11 + x300 <= 1
C772: + x3 + x349 <= 1
C773: + x7 + x11 <= 1
C774: + x135 + x224 <= 1
C775: + x208 + x278 <= 1
C776: + x6 + x48 <= 1
C777: + x279 + x339 <= 1
C778: + x237 + x268 <= 1
C779: + x97 + x196 <= 1
C780: + x43 + x311 <= 1
C781: + x6 + x286 <= 1
C782: + x9 + x16 <= 1
C783: + x8 + x42 <= 1
C784: + x58 + x382 <= 1
C785: + x21 + x120 <= 1
C786: + x12 + x43 <= 1
C787: + x305 + x492 <= 1
C788: + x5 + x295 <= 1
C789: + x15 + x486 <= 1
C790: + x147 + x281 <= 1
C791: + x11 + x14 <= 1
C792: + x84 + x155 <= 1
C793: + x31 + x73 <= 1
C794: + x162 + x176 <= 1
C795: + x10 + x17 <= 1
C796: + x14 + x351 <= 1
C797: + x127 + x186 <= 1
C798: + x72 + x158 <= 1
C799: + x3 + x421 <= 1
C800: + x67 + x210 <= 1
C801: + x266 + x365 <= 1
C802: + x5 + x363 <= 1
C803: + x2 + x13 <= 1
C804: + x114 + x331 <= 1
C805: + x15 + x211 <= 1
C806: + x11 + x211 <= 1
C807: + x131 + x257 <= 1
C808: + x22 + x165 <= 1
C809: + x222 + x322 <= 1
C810: + x115 + x327 <= 1
C811: + x88 + x272 <= 1
C812: + x23 + x328 <= 1
C813: + x1 + x453 <= 1
C814: + x7 + x14 <= 1
C815: + x47 + x149 <= 1
C816: + x23 + x33 <= 1
C817: + x6 + x41 <= 1
C818: + x5 + x159 <= 1
C819: + x8 + x132 <= 1
C820: + x57 + x436 <= 1
C821: + x103 + x243 <= 1
C822: + x63 + x330 <= 1
C823: + x249 + x337 <= 1
C824: + x131 + x341 <= 1
C825: + x25 + x122 <= 1
C826: + x80 + x167 <= 1
C827: + x37 + x58 <= 1
C828: + x51 + x96 <= 1
C829: + x7 + x304 <= 1
C830: + x10 + x26 <= 1
C831: + x179 + x206 <= 1
C832: + x7 + x457 <= 1
C833: + x39 + x157 <= 1
C834: + x50 + x161 <= 1
C835: + x141 + x173 <= 1
C836: + x127 + x286 <= 1
C837: + x22 + x75 <= 1
C838: + x23 + x73 <= 1
C839: + x15 + x271 <= 1
C840: + x8 + x108 <= 1
C841: + x159 + x423 <= 1
C842: + x19 + x270 <= 1
C843: + x93 + x261 <= 1
C844: + x6 + x18 <= 1
C845: + x62 + x85 <= 1
C846: + x7 + x162 <= 1
C847: + x173 + x186 <= 1
C848: + x162 + x372 <= 1
C849: + x171 + x335 <= 1
C850: + x48 + x308 <= 1
C851: + x7 + x49 <= 1
C852: + x17 + x331 <= 1
C853: + x181 + x185 <= 1
C854: + x12 + x170 <= 1
C855: + x26 + x232 <= 1
C856: + x71 + x260 <= 1
C857: + x1 + x391 <= 1
C858: + x412 + x428 <= 1
C859: + x141 + x172 <= 1
C860: + x104 + x363 <= 1
C861: + x220 + x285 <= 1
C862: + x345 + x351 <= 1
C863: + x99 + x318 <= 1
C864: + x236 + x466 <= 1
C865: + x1 + x54 <= 1
C866: + x22 + x183 <= 1
C867: + x60 + x112 <= 1
C868: + x42 + x214 <= 1
C869: + x310 + x329 <= 1
C870: + x3 + x459 <= 1
C871: + x6 + x27 <= 1
C872: + x18 + x282 <= 1
C873: + x72 + x107 <= 1
C874: + x133 + x418 <= 1
C875: + x100 + x102 <= 1
C876: + x65 + x386 <= 1
C877: + x11 + x265 <= 1
C878: + x49 + x76 <= 1
C879: + x131 + x295 <= 1
C880: + x321 + x375 <= 1
C881: + x247 + x274 <= 1
C882: + x29 + x394 <= 1
C883: + x360 + x474 <= 1
C884: + x79 + x92 <= 1
C885: + x7 + x213 <= 1
C886: + x16 + x199 <= 1
C887: + x19 + x39 <= 1
C888: + x10 + x12 <= 1
C889: + x22 + x236 <= 1
C890: + x31 + x223 <= 1
C891: + x36 + x146 <= 1
C892: + x310 + x398 <= 1
C893: + x12 + x14 <= 1
C894: + x213 + x273 <= 1
C895: + x69 + x203 <= 1
C896: + x303 + x407 <= 1
C897: + x333 + x432 <= 1
C898: + x21 + x355 <= 1
C899: + x15 + x281 <= 1
C900: + x16 + x139 <= 1
C901: + x11 + x208 <= 1
C902: + x23 + x361 <= 1
C903: + x26 + x53 <= 1
C904: + x150 + x422 <= 1
C905: + x64 + x228 <= 1
C906: + x3 + x15 <= 1
C907: + x23 + x54 <= 1
C908: + x7 + x148 <= 1
C909: + x118 + x271 <= 1
C910: + x9 + x314 <= 1
C911: + x282 + x433 <= 1
C912: + x1 + x188 <= 1
C913: + x14 + x196 <= 1
C914: + x15 + x244 <= 1
C915: + x117 + x310 <= 1
C916: + x236 + x259 <= 1
C917: + x171 + x305 <= 1
C918: + x174 + x347 <= 1
C919: + x113 + x131 <= 1
C920: + x159 + x349 <= 1
C921: + x83 + x116 <= 1
C922: + x140 + x249 <= 1
C923: + x106 + x358 <= 1
C924: + x89 + x172 <= 1
C925: + x167 + x269 <= 1
C926: + x301 + x425 <= 1
C927: + x49 + x466 <= 1
C928: + x17 + x171 <= 1
C929: + x45 + x188 <= 1
C930: + x7 + x446 <= 1
C931: + x72 + x130 <= 1
C932: + x29 + x75 <= 1
C933: + x21 + x405 <= 1
C934: + x170 + x394 <= 1
C935: + x1 + x306 <= 1
C936: + x8 + x357 <= 1
C937: + x46 + x50 <= 1
C938: + x3 + x151 <= 1
C939: + x229 + x280 <= 1
C940: + x249 + x399 <= 1
C941: + x49 + x417 <= 1
C942: + x16 + x293 <= 1
C943: + x118 + x210 <= 1
C944: + x9 + x231 <= 1
C945: + x7 + x333 <= 1
C946: + x166 + x259 <= 1
C947: + x25 + x138 <= 1
C948: + x16 + x55 <= 1
C949: + x275 + x346 <= 1
C950: + x50 + x136 <= 1
C951: + x341 + x470 <= 1
C952: + x6 + x13 <= 1
C953: + x346 + x468 <= 1
C954: + x22 + x42 <= 1
C955: + x5 + x24 <= 1
C956: + x108 + x226 <= 1
C957: + x81 + x97 <= 1
C958: + x118 + x230 <= 1
C959: + x82 + x314 <= 1
C960: + x134 + x438 <= 1
C961: + x48 + x148 <= 1
C962: + x34 + x63 <= 1
C963: + x26 + x74 <= 1
C964: + x7 + x38 <= 1
C965: + x209 + x211 <= 1
C966: + x9 + x400 <= 1
C967: + x388 + x412 <= 1
C968: + x252 + x317 <= 1
C969: + x140 + x242 <= 1
C970: + x51 + x68 <= 1
C971: + x2 + x86 <= 1
C972: + x160 + x243 <= 1
C973: + x76 + x235 <= 1
C974: + x22 + x411 <= 1
C975: + x23 + x25 <= 1
C976: + x9 + x365 <= 1
C977: + x384 + x454 <= 1
C978: + x369 + x478 <= 1
C979: + x10 + x54 <= 1
C980: + x23 + x230 <= 1
C981: + x15 + x21 <= 1
C982: + x48 + x498 <= 1
C983: + x13 + x182 <= 1
C984: + x317 + x370 <= 1
C985: + x228 + x484 <= 1
C986: + x326 + x331 <= 1
C987: + x54 + x342 <= 1
C988: + x202 + x373 <= 1
C989: + x3 + x307 <= 1
C990: + x57 + x488 <= 1
C991: + x38 + x442 <= 1
C992: + x8 + x274 <= 1
C993: + x10 + x115 <= 1
C994: + x373 + x454 <= 1
C995: + x59 + x71 <= 1
C996: + x26 + x184 <= 1
C997: + x118 + x239 <= 1
C998: + x1 + x87 <= 1
C999: + x11 + x294 <= 1
C1000: + x240 + x473 <= 1
C1001: + x7 + x29 <= 1
C1002: + x22 + x420 <= 1
C1003: + x32 + x45 <= 1
C1004: + x61 + x278 <= 1
C1005: + x404 + x422 <= 1
C1006: + x92 + x133 <= 1
C1007: + x72 + x376 <= 1
C1008: + x127 + x289 <= 1
C1009: + x327 + x350 <= 1
C1010: + x12 + x291 <= 1
C1011: + x22 + x120 <= 1
C1012: + x45 + x57 <= 1
C1013: + x29 + x109 <= 1
C1014: + x49 + x302 <= 1
C1015: + x42 + x109 <= 1
C1016: + x1 + x348 <= 1
C1017: + x8 + x214 <= 1
C1018: + x112 + x259 <= 1
C1019: + x223 + x463 <= 1
C1020: + x62 + x227 <= 1
C1021: + x27 + x332 <= 1
C1022: + x9 + x446 <= 1
C1023: + x7 + x177 <= 1
C1024: + x21 + x152 <= 1
C1025: + x5 + x74 <= 1
C1026: + x15 + x326 <= 1
C1027: + x10 + x131 <= 1
C1028: + x21 + x117 <= 1
C1029: + x143 + x220 <= 1
C1030: + x228 + x256 <= 1
C1031: + x173 + x275 <= 1
C1032: + x55 + x435 <= 1
C1033: + x284 + x357 <= 1
C1034: + x123 + x453 <= 1
C1035: + x268 + x495 <= 1
C1036: + x5 + x217 <= 1
C1037: + x56 + x72 <= 1
C1038: + x213 + x412 <= 1
C1039: + x295 + x463 <= 1
C1040: + x442 + x472 <= 1
C1041: + x7 + x467 <= 1
C1042: + x15 + x51 <= 1
C1043: + x88 + x158 <= 1
C1044: + x135 + x406 <= 1
C1045: + x1 + x136 <= 1
C1046: + x37 + x433 <= 1
C1047: + x167 + x218 <= 1
C1048: + x36 + x71 <= 1
C1049: + x1 + x37 <= 1
C1050: + x115 + x191 <= 1
C1051: + x24 + x51 <= 1
C1052: + x47 + x146 <= 1
C1053: + x113 + x318 <= 1
C1054: + x228 + x394 <= 1
C1055: + x321 + x358 <= 1
C1056: + x49 + x91 <= 1
C1057: + x48 + x243 <= 1
C1058: + x3 + x365 <= 1
C1059: + x25 + x119 <= 1
C1060: + x17 + x52 <= 1
C1061: + x5 + x291 <= 1
C1062: + x164 + x293 <= 1
C1063: + x283 + x378 <= 1
C1064: + x41 + x442 <= 1
C1065: + x60 + x376 <= 1
C1066: + x15 + x139 <= 1
C1067: + x10 + x21 <= 1
C1068: + x53 + x159 <= 1
C1069: + x18 + x85 <= 1
C1070: + x326 + x473 <= 1
C1071: + x90 + x474 <= 1
C1072: + x148 + x464 <= 1
C1073: + x132 + x221 <= 1
C1074: + x407 + x455 <= 1
C1075: + x173 + x318 <= 1
C1076: + x104 + x216 <= 1
C1077: + x6 + x132 <= 1
C1078: + x354 + x448 <= 1
C1079: + x313 + x382 <= 1
C1080: + x12 + x108 <= 1
C1081: + x341 + x345 <= 1
C1082: + x429 + x436 <= 1
C1083: + x362 + x414 <= 1
C1084: + x181 + x317 <= 1
C1085: + x34 + x422 <= 1
C1086: + x79 + x130 <= 1
C1087: + x45 + x421 <= 1
C1088: + x76 + x118 <= 1
C1089: + x294 + x439 <= 1
C1090: + x97 + x223 <= 1
C1091: + x373 + x487 <= 1
C1092: + x127 + x249 <= 1
C1093: + x8 + x35 <= 1
C1094: + x121 + x213 <= 1
C1095: + x194 + x227 <= 1
C1096: + x12 + x40 <= 1
C1097: + x62 + x201 <= 1
C1098: + x2 + x411 <= 1
C1099: + x129 + x271 <= 1
C1100: + x249 + x434 <= 1
C1101: + x39 + x459 <= 1
C1102: + x154 + x200 <= 1
C1103: + x7 + x223 <= 1
C1104: + x91 + x195 <= 1
C1105: + x55 + x298 <= 1
C1106: + x14 + x137 <= 1
C1107: + x197 + x292 <= 1
C1108: + x15 + x356 <= 1
C1109: + x26 + x227 <= 1
C1110: + x60 + x254 <= 1
C1111: + x5 + x350 <= 1
C1112: + x33 + x125 <= 1
C1113: + x1 + x289 <= 1
C1114: + x10 + x111 <= 1
C1115: + x1 + x150 <= 1
C1116: + x298 + x452 <= 1
C1117: + x16 + x129 <= 1
C1118: + x228 + x460 <= 1
C1119: + x16 + x40 <= 1
C1120: + x20 + x33 <= 1
C1121: + x114 + x465 <= 1
C1122: + x25 + x470 <= 1
C1123: + x6 + x30 <= 1
C1124: + x355 + x402 <= 1
C1125: + x354 + x397 <= 1
C1126: + x190 + x255 <= 1
C1127: + x144 + x388 <= 1
C1128: + x48 + x129 <= 1
C1129: + x59 + x260 <= 1
C1130: + x77 + x103 <= 1
C1131: + x26 + x123 <= 1
C1132: + x219 + x230 <= 1
C1133: + x247 + x275 <= 1
C1134: + x14 + x95 <= 1
C1135: + x16 + x198 <= 1
C1136: + x19 + x44 <= 1
C1137: + x105 + x133 <= 1
C1138: + x60 + x481 <= 1
C1139: + x44 + x50 <= 1
C1140: + x26 + x236 <= 1
C1141: + x55 + x206 <= 1
C1142: + x50 + x222 <= 1
C1143: + x60 + x243 <= 1
C1144: + x98 + x444 <= 1
C1145: + x406 + x483 <= 1
C1146: + x7 + x97 <= 1
C1147: + x24 + x489 <= 1
C1148: + x46 + x60 <= 1
C1149: + x2 + x19 <= 1
C1150: + x185 + x303 <= 1
C1151: + x86 + x229 <= 1
C1152: + x12 + x315 <= 1
C1153: + x149 + x232 <= 1
C1154: + x22 + x96 <= 1
C1155: + x11 + x193 <= 1
C1156: + x20 + x203 <= 1
C1157: + x41 + x113 <= 1
C1158: + x4 + x5 <= 1
C1159: + x21 + x197 <= 1
C1160: + x31 + x136 <= 1
C1161: + x24 + x90 <= 1
C1162: + x6 + x484 <= 1
C1163: + x123 + x277 <= 1
C1164: + x21 + x471 <= 1
C1165: + x15 + x84 <= 1
C1166: + x53 + x342 <= 1
C1167: + x84 + x197 <= 1
C1168: + x133 + x430 <= 1
C1169: + x32 + x173 <= 1
C1170: + x16 + x94 <= 1
C1171: + x103 + x334 <= 1
C1172: + x124 + x201 <= 1
C1173: + x33 + x191 <= 1
C1174: + x306 + x369 <= 1
C1175: + x4 + x49 <= 1
C1176: + x314 + x438 <= 1
C1177: + x7 + x48 <= 1
C1178: + x220 + x350 <= 1
C1179: + x3 + x72 <= 1
C1180: + x77 + x195 <= 1
C1181: + x5 + x189 <= 1
C1182: + x217 + x297 <= 1
C1183: + x172 + x268 <= 1
C1184: + x27 + x66 <= 1
C1185: + x61 + x490 <= 1
C1186: + x5 + x431 <= 1
C1187: + x317 + x393 <= 1
C1188: + x113 + x124 <= 1
C1189: + x10 + x454 <= 1
C1190: + x66 + x300 <= 1
C1191: + x49 + x430 <= 1
C1192: + x3 + x156 <= 1
C1193: + x22 + x89 <= 1
C1194: + x97 + x152 <= 1
C1195: + x18 + x201 <= 1
C1196: + x111 + x224 <= 1
C1197: + x148 + x340 <= 1
C1198: + x131 + x490 <= 1
C1199: + x302 + x494 <= 1
C1200: + x24 + x87 <= 1
C1201: + x7 + x491 <= 1
C1202: + x129 + x147 <= 1
C1203: + x167 + x341 <= 1
C1204: + x43 + x118 <= 1
C1205: + x19 + x106 <= 1
C1206: + x115 + x118 + x188 <= 1
C1207: + x170 + x212 <= 1
C1208: + x81 + x110 <= 1
C1209: + x153 + x182 <= 1
C1210: + x26 + x375 <= 1
C1211: + x6 + x382 <= 1
C1212: + x249 + x362 <= 1
C1213: + x49 + x71 <= 1
C1214: + x151 + x385 <= 1
C1215: + x61 + x429 <= 1
C1216: + x236 + x263 <= 1
C1217: + x20 + x160 <= 1
C1218: + x22 + x144 <= 1
C1219: + x30 + x267 <= 1
C1220: + x6 + x52 <= 1
C1221: + x21 + x135 <= 1
C1222: + x70 + x476 <= 1
C1223: + x5 + x89 <= 1
C1224: + x180 + x184 <= 1
C1225: + x40 + x171 <= 1
C1226: + x1 + x105 <= 1
C1227: + x37 + x162 <= 1
C1228: + x26 + x246 <= 1
C1229: + x247 + x416 <= 1
C1230: + x22 + x271 <= 1
C1231: + x54 + x123 <= 1
C1232: + x64 + x339 <= 1
C1233: + x31 + x85 <= 1
C1234: + x16 + x160 <= 1
C1235: + x19 + x210 <= 1
C1236: + x27 + x29 <= 1
C1237: + x8 + x83 <= 1
C1238: + x29 + x246 <= 1
C1239: + x378 + x462 <= 1
C1240: + x96 + x409 <= 1
C1241: + x18 + x109 <= 1
C1242: + x20 + x56 <= 1
C1243: + x29 + x456 <= 1
C1244: + x3 + x6 <= 1
C1245: + x366 + x405 <= 1
C1246: + x96 + x320 <= 1
C1247: + x6 + x9 <= 1
C1248: + x27 + x467 <= 1
C1249: + x39 + x104 <= 1
C1250: + x378 + x447 <= 1
C1251: + x361 + x387 <= 1
C1252: + x15 + x308 <= 1
C1253: + x18 + x254 <= 1
C1254: + x247 + x475 <= 1
C1255: + x22 + x137 <= 1
C1256: + x60 + x78 <= 1
C1257: + x23 + x436 <= 1
C1258: + x36 + x307 <= 1
C1259: + x7 + x26 <= 1
C1260: + x323 + x491 <= 1
C1261: + x33 + x42 <= 1
C1262: + x6 + x61 <= 1
C1263: + x76 + x78 <= 1
C1264: + x114 + x147 <= 1
C1265: + x23 + x250 <= 1
C1266: + x5 + x413 <= 1
C1267: + x38 + x39 <= 1
C1268: + x134 + x153 <= 1
C1269: + x411 + x422 <= 1
C1270: + x89 + x195 <= 1
C1271: + x61 + x367 <= 1
C1272: + x7 + x247 <= 1
C1273: + x148 + x354 <= 1
C1274: + x112 + x145 <= 1
C1275: + x33 + x248 <= 1
C1276: + x188 + x190 <= 1
C1277: + x44 + x209 <= 1
C1278: + x27 + x185 <= 1
C1279: + x341 + x380 <= 1
C1280: + x307 + x312 <= 1
C1281: + x20 + x61 <= 1
C1282: + x13 + x257 <= 1
C1283: + x4 + x366 <= 1
C1284: + x2 + x50 <= 1
C1285: + x202 + x458 <= 1
C1286: + x12 + x286 <= 1
C1287: + x69 + x270 <= 1
C1288: + x5 + x27 <= 1
C1289: + x249 + x376 <= 1
C1290: + x67 + x387 <= 1
C1291: + x156 + x415 <= 1
C1292: + x97 + x388 <= 1
C1293: + x79 + x280 <= 1
C1294: + x7 + x17 <= 1
C1295: + x8 + x419 <= 1
C1296: + x141 + x245 <= 1
C1297: + x150 + x219 <= 1
C1298: + x16 + x355 <= 1
C1299: + x36 + x46 <= 1
C1300: + x101 + x230 <= 1
C1301: + x12 + x202 <= 1
C1302: + x51 + x476 <= 1
C1303: + x17 + x157 <= 1
C1304: + x1 + x103 <= 1
C1305: + x191 + x221 <= 1
C1306: + x49 + x161 <= 1
C1307: + x131 + x141 <= 1
C1308: + x204 + x316 <= 1
C1309: + x143 + x213 <= 1
C1310: + x91 + x303 <= 1
C1311: + x19 + x196 <= 1
C1312: + x57 + x499 <= 1
C1313: + x8 + x65 <= 1
C1314: + x115 + x208 <= 1
C1315: + x295 + x460 <= 1
C1316: + x14 + x154 <= 1
C1317: + x32 + x335 <= 1
C1318: + x7 + x480 <= 1
C1319: + x3 + x24 <= 1
C1320: + x12 + x440 <= 1
C1321: + x315 + x351 <= 1
C1322: + x26 + x431 <= 1
C1323: + x364 + x380 <= 1
C1324: + x2 + x11 <= 1
C1325: + x49 + x399 <= 1
C1326: + x47 + x469 <= 1
C1327: + x26 + x189 <= 1
C1328: + x135 + x308 <= 1
C1329: + x38 + x229 <= 1
C1330: + x234 + x495 <= 1
C1331: + x223 + x368 <= 1
C1332: + x7 + x12 <= 1
C1333: + x113 + x478 <= 1
C1334: + x6 + x47 <= 1
C1335: + x7 + x181 <= 1
C1336: + x9 + x287 <= 1
C1337: + x28 + x82 <= 1
C1338: + x1 + x364 <= 1
C1339: + x92 + x146 <= 1
C1340: + x50 + x461 <= 1
C1341: + x37 + x378 <= 1
C1342: + x3 + x205 <= 1
C1343: + x1 + x126 <= 1
C1344: + x8 + x41 <= 1
C1345: + x386 + x438 <= 1
C1346: + x33 + x151 <= 1
C1347: + x65 + x219 <= 1
C1348: + x101 + x295 <= 1
C1349: + x2 + x120 <= 1
C1350: + x284 + x377 <= 1
C1351: + x125 + x445 <= 1
C1352: + x188 + x442 <= 1
C1353: + x7 + x310 <= 1
C1354: + x10 + x24 <= 1
C1355: + x111 + x252 <= 1
C1356: + x210 + x448 <= 1
C1357: + x12 + x187 <= 1
C1358: + x51 + x263 <= 1
C1359: + x17 + x80 <= 1
C1360: + x12 + x26 <= 1
C1361: + x131 + x367 <= 1
C1362: + x51 + x53 <= 1
C1363: + x127 + x284 <= 1
C1364: + x163 + x392 <= 1
C1365: + x6 + x135 <= 1
C1366: + x45 + x104 <= 1
C1367: + x2 + x175 <= 1
C1368: + x202 + x343 <= 1
C1369: + x339 + x413 <= 1
C1370: + x186 + x259 <= 1
C1371: + x340 + x449 <= 1
C1372: + x31 + x389 <= 1
C1373: + x71 + x112 <= 1
C1374: + x163 + x348 <= 1
C1375: + x1 + x216 <= 1
C1376: + x97 + x220 <= 1
C1377: + x32 + x190 <= 1
C1378: + x14 + x355 <= 1
C1379: + x108 + x332 <= 1
C1380: + x43 + x140 <= 1
C1381: + x465 + x485 <= 1
C1382: + x194 + x238 <= 1
C1383: + x140 + x419 <= 1
C1384: + x179 + x389 <= 1
C1385: + x51 + x93 <= 1
C1386: + x5 + x196 <= 1
C1387: + x25 + x408 <= 1
C1388: + x118 + x327 <= 1
C1389: + x17 + x484 <= 1
C1390: + x163 + x415 <= 1
C1391: + x146 + x191 <= 1
C1392: + x74 + x298 <= 1
C1393: + x173 + x314 <= 1
C1394: + x123 + x416 <= 1
C1395: + x61 + x336 <= 1
C1396: + x230 + x471 <= 1
C1397: + x140 + x496 <= 1
C1398: + x56 + x383 <= 1
C1399: + x230 + x266 <= 1
C1400: + x191 + x452 <= 1
C1401: + x173 + x187 <= 1
C1402: + x8 + x252 <= 1
C1403: + x114 + x191 <= 1
C1404: + x6 + x180 <= 1
C1405: + x279 + x463 <= 1
C1406: + x1 + x76 <= 1
C1407: + x49 + x86 <= 1
C1408: + x41 + x264 <= 1
C1409: + x25 + x66 <= 1
C1410: + x390 + x440 <= 1
C1411: + x393 + x486 <= 1
C1412: + x131 + x480 <= 1
C1413: + x51 + x313 <= 1
C1414: + x5 + x421 <= 1
C1415: + x44 + x61 <= 1
C1416: + x46 + x156 <= 1
C1417: + x165 + x305 <= 1
C1418: + x12 + x24 <= 1
C1419: + x267 + x278 <= 1
C1420: + x132 + x202 <= 1
C1421: + x7 + x110 <= 1
C1422: + x11 + x472 <= 1
C1423: + x2 + x30 <= 1
C1424: + x33 + x478 <= 1
C1425: + x17 + x264 <= 1
C1426: + x28 + x184 <= 1
C1427: + x37 + x264 <= 1
C1428: + x3 + x295 <= 1
C1429: + x112 + x121 <= 1
C1430: + x61 + x81 <= 1
C1431: + x111 + x435 <= 1
C1432: + x3 + x53 <= 1
C1433: + x186 + x269 <= 1
C1434: + x19 + x116 <= 1
C1435: + x2 + x42 <= 1
C1436: + x112 + x234 <= 1
C1437: + x16 + x81 <= 1
C1438: + x19 + x149 <= 1
C1439: + x27 + x212 <= 1
C1440: + x7 + x400 <= 1
C1441: + x222 + x359 <= 1
C1442: + x46 + x225 <= 1
C1443: + x12 + x81 <= 1
C1444: + x7 + x41 <= 1
C1445: + x17 + x38 <= 1
C1446: + x2 + x408 <= 1
C1447: + x49 + x383 <= 1
C1448: + x12 + x323 <= 1
C1449: + x14 + x91 <= 1
C1450: + x10 + x11 <= 1
C1451: + x257 + x364 <= 1
C1452: + x85 + x136 <= 1
C1453: + x22 + x235 <= 1
C1454: + x277 + x298 <= 1
C1455: + x20 + x22 + x36 <= 1
C1456: + x7 + x444 <= 1
C1457: + x89 + x341 <= 1
C1458: + x6 + x95 <= 1
C1459: + x36 + x336 <= 1
C1460: + x1 + x316 <= 1
C1461: + x209 + x274 <= 1
C1462: + x83 + x174 <= 1
C1463: + x102 + x416 <= 1
C1464: + x59 + x98 <= 1
C1465: + x28 + x443 <= 1
C1466: + x224 + x293 <= 1
C1467: + x192 + x360 <= 1
C1468: + x44 + x67 <= 1
C1469: + x32 + x101 <= 1
C1470: + x3 + x290 <= 1
C1471: + x132 + x393 <= 1
C1472: + x169 + x415 <= 1
C1473: + x23 + x362 <= 1
C1474: + x44 + x226 <= 1
C1475: + x18 + x119 <= 1
C1476: + x73 + x414 <= 1
C1477: + x2 + x477 <= 1
C1478: + x311 + x327 <= 1
C1479: + x28 + x62 <= 1
C1480: + x76 + x104 <= 1
C1481: + x12 + x235 <= 1
C1482: + x148 + x192 <= 1
C1483: + x112 + x247 <= 1
C1484: + x15 + x241 <= 1
C1485: + x15 + x294 <= 1
C1486: + x345 + x371 <= 1
C1487: + x200 + x205 <= 1
C1488: + x88 + x395 <= 1
C1489: + x384 + x492 <= 1
C1490: + x8 + x13 <= 1
C1491: + x11 + x305 <= 1
C1492: + x282 + x339 <= 1
C1493: + x134 + x239 <= 1
C1494: + x135 + x245 <= 1
C1495: + x102 + x112 <= 1
C1496: + x415 + x436 <= 1
C1497: + x36 + x59 <= 1
C1498: + x19 + x31 <= 1
C1499: + x173 + x221 <= 1
C1500: + x23 + x277 <= 1
C1501: + x26 + x241 <= 1
C1502: + x79 + x434 <= 1
C1503: + x65 + x86 <= 1
C1504: + x166 + x433 <= 1
C1505: + x22 + x258 <= 1
C1506: + x352 + x454 <= 1
C1507: + x127 + x312 <= 1
C1508: + x57 + x261 <= 1
C1509: + x114 + x374 <= 1
C1510: + x31 + x82 <= 1
C1511: + x6 + x251 <= 1
C1512: + x82 + x186 <= 1
C1513: + x9 + x232 <= 1
C1514: + x7 + x334 <= 1
C1515: + x118 + x358 <= 1
C1516: + x300 + x470 <= 1
C1517: + x12 + x147 <= 1
C1518: + x1 + x5 <= 1
C1519: + x56 + x124 <= 1
C1520: + x3 + x313 <= 1
C1521: + x59 + x462 <= 1
C1522: + x127 + x135 <= 1
C1523: + x205 + x234 <= 1
C1524: + x10 + x347 <= 1
C1525: + x38 + x101 <= 1
C1526: + x3 + x7 <= 1
C1527: + x132 + x228 <= 1
C1528: + x43 + x114 <= 1
C1529: + x7 + x140 <= 1
C1530: + x9 + x290 <= 1
C1531: + x147 + x175 <= 1
C1532: + x202 + x452 <= 1
C1533: + x23 + x175 <= 1
C1534: + x26 + x73 <= 1
C1535: + x429 + x457 <= 1
C1536: + x348 + x414 <= 1
C1537: + x114 + x307 <= 1
C1538: + x22 + x410 <= 1
C1539: + x92 + x143 <= 1
C1540: + x8 + x155 <= 1
C1541: + x20 + x273 <= 1
C1542: + x51 + x294 <= 1
C1543: + x89 + x390 <= 1
C1544: + x9 + x32 <= 1
C1545: + x5 + x311 <= 1
C1546: + x406 + x497 <= 1
C1547: + x12 + x301 <= 1
C1548: + x145 + x178 <= 1
C1549: + x7 + x325 <= 1
C1550: + x18 + x198 <= 1
C1551: + x20 + x221 <= 1
C1552: + x68 + x484 <= 1
C1553: + x13 + x28 <= 1
C1554: + x62 + x277 <= 1
C1555: + x1 + x441 <= 1
C1556: + x43 + x121 <= 1
C1557: + x5 + x379 <= 1
C1558: + x73 + x233 <= 1
C1559: + x10 + x447 <= 1
C1560: + x19 + x404 <= 1
C1561: + x84 + x215 <= 1
C1562: + x26 + x82 <= 1
C1563: + x244 + x340 <= 1
C1564: + x33 + x46 <= 1
C1565: + x60 + x173 <= 1
C1566: + x6 + x57 <= 1
C1567: + x79 + x174 <= 1
C1568: + x82 + x256 <= 1
C1569: + x10 + x62 <= 1
C1570: + x8 + x148 <= 1
C1571: + x228 + x320 <= 1
C1572: + x114 + x151 <= 1
C1573: + x86 + x267 <= 1
C1574: + x1 + x100 <= 1
C1575: + x193 + x233 <= 1
C1576: + x126 + x434 <= 1
C1577: + x60 + x377 <= 1
C1578: + x17 + x356 <= 1
C1579: + x9 + x150 <= 1
C1580: + x38 + x180 <= 1
C1581: + x20 + x65 <= 1
C1582: + x3 + x25 <= 1
C1583: + x50 + x177 <= 1
C1584: + x5 + x354 <= 1
C1585: + x23 + x480 <= 1
C1586: + x10 + x424 <= 1
C1587: + x2 + x54 <= 1
C1588: + x26 + x325 <= 1
C1589: + x109 + x174 <= 1
C1590: + x156 + x403 <= 1
C1591: + x106 + x445 <= 1
C1592: + x25 + x165 <= 1
C1593: + x127 + x381 <= 1
C1594: + x148 + x397 <= 1
C1595: + x113 + x475 <= 1
C1596: + x115 + x435 <= 1
C1597: + x180 + x440 <= 1
C1598: + x244 + x248 <= 1
C1599: + x110 + x384 <= 1
C1600: + x1 + x222 <= 1
C1601: + x55 + x257 <= 1
C1602: + x355 + x390 <= 1
C1603: + x117 + x141 <= 1
C1604: + x6 + x288 <= 1
C1605: + x198 + x224 <= 1
C1606: + x33 + x148 <= 1
C1607: + x79 + x296 <= 1
C1608: + x132 + x330 <= 1
C1609: + x188 + x421 <= 1
C1610: + x43 + x476 <= 1
C1611: + x7 + x238 <= 1
C1612: + x69 + x333 <= 1
C1613: + x16 + x234 <= 1
C1614: + x20 + x235 <= 1
C1615: + x178 + x207 <= 1
C1616: + x49 + x145 <= 1
C1617: + x6 + x103 <= 1
C1618: + x198 + x423 <= 1
C1619: + x83 + x198 <= 1
C1620: + x16 + x420 <= 1
C1621: + x32 + x141 <= 1
C1622: + x188 + x369 <= 1
C1623: + x6 + x154 <= 1
C1624: + x7 + x355 <= 1
C1625: + x8 + x113 <= 1
C1626: + x49 + x274 <= 1
C1627: + x23 + x35 <= 1
C1628: + x10 + x48 <= 1
C1629: + x23 + x144 <= 1
C1630: + x99 + x354 <= 1
C1631: + x8 + x37 <= 1
C1632: + x146 + x483 <= 1
C1633: + x6 + x444 <= 1
C1634: + x58 + x151 <= 1
C1635: + x12 + x340 <= 1
C1636: + x22 + x121 <= 1
C1637: + x6 + x223 <= 1
C1638: + x80 + x124 <= 1
C1639: + x172 + x296 <= 1
C1640: + x10 + x28 <= 1
C1641: + x1 + x225 <= 1
C1642: + x48 + x99 <= 1
C1643: + x59 + x482 <= 1
C1644: + x295 + x455 <= 1
C1645: + x98 + x155 <= 1
C1646: + x23 + x269 <= 1
C1647: + x25 + x306 <= 1
C1648: + x248 + x291 <= 1
C1649: + x160 + x174 <= 1
C1650: + x28 + x31 <= 1
C1651: + x2 + x8 <= 1
C1652: + x16 + x187 <= 1
C1653: + x8 + x106 <= 1
C1654: + x20 + x192 <= 1
C1655: + x4 + x493 <= 1
C1656: + x17 + x128 <= 1
C1657: + x134 + x204 <= 1
C1658: + x393 + x439 <= 1
C1659: + x69 + x143 <= 1
C1660: + x14 + x113 <= 1
C1661: + x6 + x20 <= 1
C1662: + x24 + x426 <= 1
C1663: + x49 + x79 + x88 <= 1
C1664: + x11 + x175 <= 1
C1665: + x117 + x147 <= 1
C1666: + x17 + x143 <= 1
C1667: + x2 + x383 <= 1
C1668: + x131 + x338 <= 1
C1669: + x25 + x127 <= 1
C1670: + x243 + x321 <= 1
C1671: + x2 + x77 <= 1
C1672: + x30 + x319 <= 1
C1673: + x7 + x224 <= 1
C1674: + x100 + x204 <= 1
C1675: + x100 + x309 <= 1
C1676: + x262 + x403 <= 1
C1677: + x48 + x262 <= 1
C1678: + x60 + x253 <= 1
C1679: + x37 + x424 <= 1
C1680: + x53 + x473 <= 1
C1681: + x7 + x349 <= 1
C1682: + x51 + x370 <= 1
C1683: + x28 + x338 <= 1
C1684: + x390 + x400 <= 1
C1685: + x49 + x251 <= 1
C1686: + x218 + x289 <= 1
C1687: + x33 + x74 <= 1
C1688: + x178 + x475 <= 1
C1689: + x23 + x61 <= 1
C1690: + x190 + x496 <= 1
C1691: + x51 + x449 <= 1
C1692: + x227 + x317 <= 1
C1693: + x3 + x384 <= 1
C1694: + x105 + x119 <= 1
C1695: + x44 + x164 <= 1
C1696: + x62 + x193 <= 1
C1697: + x54 + x164 <= 1
C1698: + x283 + x494 <= 1
C1699: + x48 + x113 <= 1
C1700: + x7 + x453 <= 1
C1701: + x193 + x403 <= 1
C1702: + x33 + x466 <= 1
C1703: + x24 + x335 <= 1
C1704: + x79 + x475 <= 1
C1705: + x100 + x189 <= 1
C1706: + x128 + x184 <= 1
C1707: + x111 + x214 <= 1
C1708: + x10 + x242 <= 1
C1709: + x135 + x281 <= 1
C1710: + x69 + x96 <= 1
C1711: + x24 + x89 <= 1
C1712: + x135 + x198 <= 1
C1713: + x74 + x109 <= 1
C1714: + x37 + x97 <= 1
C1715: + x20 + x41 <= 1
C1716: + x12 + x395 <= 1
C1717: + x3 + x49 <= 1
C1718: + x23 + x56 <= 1
C1719: + x61 + x306 <= 1
C1720: + x24 + x448 <= 1
C1721: + x166 + x237 <= 1
C1722: + x30 + x160 <= 1
C1723: + x82 + x451 <= 1
C1724: + x8 + x20 <= 1
C1725: + x219 + x329 <= 1
C1726: + x20 + x154 <= 1
C1727: + x295 + x409 <= 1
C1728: + x60 + x63 <= 1
C1729: + x25 + x77 <= 1
C1730: + x7 + x45 <= 1
C1731: + x9 + x391 <= 1
C1732: + x2 + x492 <= 1
C1733: + x11 + x36 <= 1
C1734: + x284 + x324 <= 1
C1735: + x16 + x279 <= 1
C1736: + x281 + x457 <= 1
C1737: + x10 + x15 <= 1
C1738: + x19 + x36 <= 1
C1739: + x1 + x246 <= 1
C1740: + x108 + x362 <= 1
C1741: + x18 + x63 <= 1
C1742: + x15 + x371 <= 1
C1743: + x9 + x22 <= 1
C1744: + x65 + x83 <= 1
C1745: + x227 + x268 <= 1
C1746: + x49 + x189 <= 1
C1747: + x81 + x150 <= 1
C1748: + x7 + x89 <= 1
C1749: + x24 + x481 <= 1
C1750: + x29 + x347 <= 1
C1751: + x105 + x284 <= 1
C1752: + x113 + x367 <= 1
C1753: + x23 + x96 <= 1
C1754: + x19 + x216 <= 1
C1755: + x166 + x261 <= 1
C1756: + x47 + x179 <= 1
C1757: + x160 + x205 <= 1
C1758: + x94 + x238 <= 1
C1759: + x6 + x162 <= 1
C1760: + x35 + x409 <= 1
C1761: + x160 + x447 <= 1
C1762: + x8 + x9 <= 1
C1763: + x12 + x78 <= 1
C1764: + x62 + x211 <= 1
C1765: + x72 + x240 <= 1
C1766: + x37 + x84 <= 1
C1767: + x229 + x297 <= 1
C1768: + x24 + x393 <= 1
C1769: + x7 + x193 <= 1
C1770: + x109 + x212 <= 1
C1771: + x10 + x56 <= 1
C1772: + x19 + x27 <= 1
C1773: + x212 + x464 <= 1
C1774: + x3 + x225 <= 1
C1775: + x52 + x68 <= 1
C1776: + x33 + x131 <= 1
C1777: + x25 + x32 <= 1
C1778: + x142 + x236 <= 1
C1779: + x136 + x374 <= 1
C1780: + x97 + x176 <= 1
C1781: + x32 + x106 <= 1
C1782: + x9 + x343 <= 1
C1783: + x240 + x267 <= 1
C1784: + x176 + x445 <= 1
C1785: + x8 + x497 <= 1
C1786: + x59 + x232 <= 1
C1787: + x43 + x57 + x152 <= 1
C1788: + x88 + x142 <= 1
C1789: + x261 + x437 <= 1
C1790: + x22 + x53 <= 1
C1791: + x5 + x29 <= 1
C1792: + x108 + x229 <= 1
C1793: + x148 + x296 <= 1
C1794: + x140 + x451 <= 1
C1795: + x222 + x373 <= 1
C1796: + x219 + x256 <= 1
C1797: + x115 + x445 <= 1
C1798: + x15 + x111 <= 1
C1799: + x80 + x404 <= 1
C1800: + x134 + x450 <= 1
C1801: + x237 + x280 <= 1
C1802: + x3 + x252 <= 1
C1803: + x114 + x146 <= 1
C1804: + x51 + x290 <= 1
C1805: + x23 + x292 <= 1
C1806: + x51 + x208 <= 1
C1807: + x84 + x348 <= 1
C1808: + x49 + x58 <= 1
C1809: + x17 + x83 <= 1
C1810: + x7 + x486 <= 1
C1811: + x102 + x287 <= 1
C1812: + x41 + x345 <= 1
C1813: + x33 + x86 <= 1
C1814: + x32 + x488 <= 1
C1815: + x25 + x51 <= 1
C1816: + x204 + x477 <= 1
C1817: + x12 + x285 <= 1
C1818: + x123 + x388 <= 1
C1819: + x261 + x337 <= 1
C1820: + x24 + x60 <= 1
C1821: + x7 + x18 <= 1
C1822: + x327 + x411 <= 1
C1823: + x33 + x34 <= 1
C1824: + x14 + x66 <= 1
C1825: + x16 + x366 <= 1
C1826: + x16 + x217 <= 1
C1827: + x10 + x34 <= 1
C1828: + x111 + x166 <= 1
C1829: + x89 + x92 <= 1
C1830: + x14 + x368 <= 1
C1831: + x34 + x369 <= 1
C1832: + x25 + x284 <= 1
C1833: + x25 + x209 <= 1
C1834: + x30 + x66 <= 1
C1835: + x77 + x128 <= 1
C1836: + x186 + x353 <= 1
C1837: + x43 + x60 <= 1
C1838: + x14 + x467 <= 1
C1839: + x113 + x404 <= 1
C1840: + x22 + x115 <= 1
C1841: + x6 + x233 <= 1
C1842: + x16 + x237 <= 1
C1843: + x27 + x112 <= 1
C1844: + x2 + x5 + x6 + x7 + x10 <= 1
C1845: + x23 + x375 <= 1
C1846: + x35 + x256 <= 1
C1847: + x3 + x428 <= 1
C1848: + x67 + x213 <= 1
C1849: + x69 + x209 <= 1
C1850: + x7 + x122 <= 1
C1851: + x10 + x127 <= 1
C1852: + x21 + x329 <= 1
C1853: + x39 + x407 <= 1
C1854: + x26 + x329 <= 1
C1855: + x6 + x344 <= 1
C1856: + x248 + x302 + x472 <= 1
C1857: + x10 + x218 <= 1
C1858: + x210 + x370 <= 1
C1859: + x3 + x347 <= 1
C1860: + x166 + x356 <= 1
C1861: + x106 + x417 <= 1
C1862: + x61 + x69 <= 1
C1863: + x397 + x482 <= 1
C1864: + x7 + x9 <= 1
C1865: + x256 + x266 <= 1
C1866: + x106 + x324 <= 1
C1867: + x19 + x443 <= 1
C1868: + x228 + x297 <= 1
C1869: + x29 + x272 <= 1
C1870: + x64 + x95 <= 1
C1871: + x247 + x482 <= 1
C1872: + x222 + x283 <= 1
C1873: + x48 + x241 <= 1
C1874: + x169 + x496 <= 1
C1875: + x12 + x500 <= 1
C1876: + x7 + x69 <= 1
C1877: + x3 + x125 <= 1
C1878: + x41 + x440 <= 1
C1879: + x14 + x15 + x114 <= 1
C1880: + x109 + x296 <= 1
C1881: + x10 + x23 <= 1
C1882: + x65 + x302 <= 1
C1883: + x12 + x25 <= 1
C1884: + x13 + x312 <= 1
C1885: + x314 + x361 <= 1
C1886: + x116 + x450 <= 1
C1887: + x236 + x244 <= 1
C1888: + x146 + x197 <= 1
C1889: + x1 + x344 <= 1
C1890: + x20 + x352 <= 1
C1891: + x194 + x310 <= 1
C1892: + x69 + x381 <= 1
C1893: + x6 + x134 <= 1
C1894: + x117 + x279 <= 1
C1895: + x15 + x262 <= 1
C1896: + x218 + x448 <= 1
C1897: + x26 + x32 + x127 <= 1
C1898: + x113 + x164 <= 1
C1899: + x77 + x493 <= 1
C1900: + x33 + x302 <= 1
C1901: + x277 + x354 <= 1
C1902: + x23 + x326 <= 1
C1903: + x127 + x364 <= 1
C1904: + x119 + x261 <= 1
C1905: + x26 + x451 <= 1
C1906: + x30 + x177 <= 1
C1907: + x5 + x62 <= 1
C1908: + x27 + x207 <= 1
C1909: + x154 + x396 <= 1
C1910: + x64 + x72 <= 1
C1911: + x163 + x460 <= 1
C1912: + x173 + x263 <= 1
C1913: + x64 + x187 <= 1
C1914: + x1 + x275 <= 1
C1915: + x2 + x80 <= 1
C1916: + x34 + x500 <= 1
C1917: + x79 + x80 <= 1
C1918: + x18 + x346 <= 1
C1919: + x227 + x410 <= 1
C1920: + x76 + x432 <= 1
C1921: + x239 + x437 <= 1
C1922: + x379 + x487 <= 1
C1923: + x1 + x12 + x16 <= 1
C1924: + x35 + x242 <= 1
C1925: + x50 + x167 <= 1
C1926: + x186 + x319 <= 1
C1927: + x6 + x108 <= 1
C1928: + x2 + x28 <= 1
C1929: + x84 + x242 <= 1
C1930: + x23 + x79 <= 1
C1931: + x180 + x281 <= 1
C1932: + x26 + x142 <= 1
C1933: + x142 + x498 <= 1
C1934: + x71 + x410 <= 1
C1935: + x1 + x49 <= 1
C1936: + x93 + x98 <= 1
C1937: + x148 + x324 <= 1
C1938: + x21 + x52 <= 1
C1939: + x45 + x253 <= 1
C1940: + x57 + x171 <= 1
C1941: + x166 + x457 <= 1

binary
x1 x2 x3 x4 x5 x6 x7 x8 x9 x10 x11 x12 x13 x14 x15 x16 x17 x18 x19 x20 x21 x22 x23 x24 x25 x26 x27 x28 x29 x30 x31 x32 x33 x34 x35 x36 x37 x38 x39 x40 x41 x42 x43 x44 x45 x46 x47 x48 x49 x50 x51 x52 x53 x54 x55 x56 x57 x58 x59 x60 x61 x62 x63 x64 x65 x66 x67 x68 x69 x70 x71 x72 x73 x74 x75 x76 x77 x78 x79 x80 x81 x82 x83 x84 x85 x86 x87 x88 x89 x90 x91 x92 x93 x94 x95 x96 x97 x98 x99 x100 x101 x102 x103 x104 x105 x106 x107 x108 x109 x110 x111 x112 x113 x114 x115 x116 x117 x118 x119 x120 x121 x122 x123 x124 x125 x126 x127 x128 x129 x130 x131 x132 x133 x134 x135 x136 x137 x138 x139 x140 x141 x142 x143 x144 x145 x146 x147 x148 x149 x150 x151 x152 x153 x154 x155 x156 x157 x158 x159 x160 x161 x162 x163 x164 x165 x166 x167 x168 x169 x170 x171 x172 x173 x174 x175 x176 x177 x178 x179 x180 x181 x182 x183 x184 x185 x186 x187 x188 x189 x190 x191 x192 x193 x194 x195 x196 x197 x198 x199 x200 x201 x202 x203 x204 x205 x206 x207 x208 x209 x210 x211 x212 x213 x214 x215 x216 x217 x218 x219 x220 x221 x222 x223 x224 x225 x226 x227 x228 x229 x230 x231 x232 x233 x234 x235 x236 x237 x238 x239 x240 x241 x242 x243 x244 x245 x246 x247 x248 x249 x250 x251 x252 x253 x254 x255 x256 x257 x258 x259 x260 x261 x262 x263 x264 x265 x266 x267 x268 x269 x270 x271 x272 x273 x274 x275 x276 x277 x278 x279 x280 x281 x282 x283 x284 x285 x286 x287 x288 x289 x290 x291 x292 x293 x294 x295 x296 x297 x298 x299 x300 x301 x302 x303 x304 x305 x306 x307 x308 x309 x310 x311 x312 x313 x314 x315 x316 x317 x318 x319 x320 x321 x322 x323 x324 x325 x326 x327 x328 x329 x330 x331 x332 x333 x334 x335 x336 x337 x338 x339 x340 x341 x342 x343 x344 x345 x346 x347 x348 x349 x350 x351 x352 x353 x354 x355 x356 x357 x358 x359 x360 x361 x362 x363 x364 x365 x366 x367 x368 x369 x370 x371 x372 x373 x374 x375 x376 x377 x378 x379 x380 x381 x382 x383 x384 x385 x386 x387 x388 x389 x390 x391 x392 x393 x394 x395 x396 x397 x398 x399 x400 x401 x402 x403 x404 x405 x406 x407 x408 x409 x410 x411 x412 x413 x414 x415 x416 x417 x418 x419 x420 x421 x422 x423 x424 x425 x426 x427 x428 x429 x430 x431 x432 x433 x434 x435 x436 x437 x438 x439 x440 x441 x442 x443 x444 x445 x446 x447 x448 x449 x450 x451 x452 x453 x454 x455 x456 x457 x458 x459 x460 x461 x462 x463 x464 x465 x466 x467 x468 x469 x470 x471 x472 x473 x474 x475 x476 x477 x478 x479 x480 x481 x482 x483 x484 x485 x486 x487 x488 x489 x490 x491 x492 x493 x494 x495 x496 x497 x498 x499 x500
