maximize
OBJ: + 1 x1 + 1 x2 + 1 x3 + 1 x4 + 1 x5 + 1 x6 + 1 x7 + 1 x8 + 1 x9 + 1 x10 + 1 x11 + 1 x12 + 1 x13 + 1 x14 + 1 x15 + 1 x16 + 1 x17 + 1 x18 + 1 x19 + 1 x20 + 1 x21 + 1 x22 + 1 x23 + 1 x24 + 1 x25 + 1 x26 + 1 x27 + 1 x28 + 1 x29 + 1 x30 + 1 x31 + 1 x32 + 1 x33 + 1 x34 + 1 x35 + 1 x36 + 1 x37 + 1 x38 + 1 x39 + 1 x40 + 1 x41 + 1 x42 + 1 x43 + 1 x44 + 1 x45 + 1 x46 + 1 x47 + 1 x48 + 1 x49 + 1 x50 + 1 x51 + 1 x52 + 1 x53 + 1 x54 + 1 x55 + 1 x56 + 1 x57 + 1 x58 + 1 x59 + 1 x60 + 1 x61 + 1 x62 + 1 x63 + 1 x64 + 1 x65 + 1 x66 + 1 x67 + 1 x68 + 1 x69 + 1 x70 + 1 x71 + 1 x72 + 1 x73 + 1 x74 + 1 x75 + 1 x76 + 1 x77 + 1 x78 + 1 x79 + 1 x80 + 1 x81 + 1 x82 + 1 x83 + 1 x84 + 1 x85 + 1 x86 + 1 x87 + 1 x88 + 1 x89 + 1 x90 + 1 x91 + 1 x92 + 1 x93 + 1 x94 + 1 x95 + 1 x96 + 1 x97 + 1 x98 + 1 x99 + 1 x100 + 1 x101 + 1 x102 + 1 x103 + 1 x104 + 1 x105 + 1 x106 + 1 x107 + 1 x108 + 1 x109 + 1 x110 + 1 x111 + 1 x112 + 1 x113 + 1 x114 + 1 x115 + 1 x116 + 1 x117 + 1 x118 + 1 x119 + 1 x120 + 1 x121 + 1 x122 + 1 x123 + 1 x124 + 1 x125 + 1 x126 + 1 x127 + 1 x128 + 1 x129 + 1 x130 + 1 x131 + 1 x132 + 1 x133 + 1 x134 + 1 x135 + 1 x136 + 1 x137 + 1 x138 + 1 x139 + 1 x140 + 1 x141 + 1 x142 + 1 x143 + 1 x144 + 1 x145 + 1 x146 + 1 x147 + 1 x148 + 1 x149 + 1 x150 + 1 x151 + 1 x152 + 1 x153 + 1 x154 + 1 x155 + 1 x156 + 1 x157 + 1 x158 + 1 x159 + 1 x160 + 1 x161 + 1 x162 + 1 x163 + 1 x164 + 1 x165 + 1 x166 + 1 x167 + 1 x168 + 1 x169 + 1 x170 + 1 x171 + 1 x172 + 1 x173 + 1 x174 + 1 x175 + 1 x176 + 1 x177 + 1 x178 + 1 x179 + 1 x180 + 1 x181 + 1 x182 + 1 x183 + 1 x184 + 1 x185 + 1 x186 + 1 x187 + 1 x188 + 1 x189 + 1 x190 + 1 x191 + 1 x192 + 1 x193 + 1 x194 + 1 x195 + 1 x196 + 1 x197 + 1 x198 + 1 x199 + 1 x200 + 1 x201 + 1 x202 + 1 x203 + 1 x204 + 1 x205 + 1 x206 + 1 x207 + 1 x208 + 1 x209 + 1 x210 + 1 x211 + 1 x212 + 1 x213 + 1 x214 + 1 x215 + 1 x216 + 1 x217 + 1 x218 + 1 x219 + 1 x220 + 1 x221 + 1 x222 + 1 x223 + 1 x224 + 1 x225 + 1 x226 + 1 x227 + 1 x228 + 1 x229 + 1 x230 + 1 x231 + 1 x232 + 1 x233 + 1 x234 + 1 x235 + 1 x236 + 1 x237 + 1 x238 + 1 x239 + 1 x240 + 1 x241 + 1 x242 + 1 x243 + 1 x244 + 1 x245 + 1 x246 + 1 x247 + 1 x248 + 1 x249 + 1 x250 + 1 x251 + 1 x252 + 1 x253 + 1 x254 + 1 x255 + 1 x256 + 1 x257 + 1 x258 + 1 x259 + 1 x260 + 1 x261 + 1 x262 + 1 x263 + 1 x264 + 1 x265 + 1 x266 + 1 x267 + 1 x268 + 1 x269 + 1 x270 + 1 x271 + 1 x272 + 1 x273 + 1 x274 + 1 x275 + 1 x276 + 1 x277 + 1 x278 + 1 x279 + 1 x280 + 1 x281 + 1 x282 + 1 x283 + 1 x284 + 1 x285 + 1 x286 + 1 x287 + 1 x288 + 1 x289 + 1 x290 + 1 x291 + 1 x292 + 1 x293 + 1 x294 + 1 x295 + 1 x296 + 1 x297 + 1 x298 + 1 x299 + 1 x300 + 1 x301 + 1 x302 + 1 x303 + 1 x304 + 1 x305 + 1 x306 + 1 x307 + 1 x308 + 1 x309 + 1 x310 + 1 x311 + 1 x312 + 1 x313 + 1 x314 + 1 x315 + 1 x316 + 1 x317 + 1 x318 + 1 x319 + 1 x320 + 1 x321 + 1 x322 + 1 x323 + 1 x324 + 1 x325 + 1 x326 + 1 x327 + 1 x328 + 1 x329 + 1 x330 + 1 x331 + 1 x332 + 1 x333 + 1 x334 + 1 x335 + 1 x336 + 1 x337 + 1 x338 + 1 x339 + 1 x340 + 1 x341 + 1 x342 + 1 x343 + 1 x344 + 1 x345 + 1 x346 + 1 x347 + 1 x348 + 1 x349 + 1 x350 + 1 x351 + 1 x352 + 1 x353 + 1 x354 + 1 x355 + 1 x356 + 1 x357 + 1 x358 + 1 x359 + 1 x360 + 1 x361 + 1 x362 + 1 x363 + 1 x364 + 1 x365 + 1 x366 + 1 x367 + 1 x368 + 1 x369 + 1 x370 + 1 x371 + 1 x372 + 1 x373 + 1 x374 + 1 x375 + 1 x376 + 1 x377 + 1 x378 + 1 x379 + 1 x380 + 1 x381 + 1 x382 + 1 x383 + 1 x384 + 1 x385 + 1 x386 + 1 x387 + 1 x388 + 1 x389 + 1 x390 + 1 x391 + 1 x392 + 1 x393 + 1 x394 + 1 x395 + 1 x396 + 1 x397 + 1 x398 + 1 x399 + 1 x400 + 1 x401 + 1 x402 + 1 x403 + 1 x404 + 1 x405 + 1 x406 + 1 x407 + 1 x408 + 1 x409 + 1 x410 + 1 x411 + 1 x412 + 1 x413 + 1 x414 + 1 x415 + 1 x416 + 1 x417 + 1 x418 + 1 x419 + 1 x420 + 1 x421 + 1 x422 + 1 x423 + 1 x424 + 1 x425 + 1 x426 + 1 x427 + 1 x428 + 1 x429 + 1 x430 + 1 x431 + 1 x432 + 1 x433 + 1 x434 + 1 x435 + 1 x436 + 1 x437 + 1 x438 + 1 x439 + 1 x440 + 1 x441 + 1 x442 + 1 x443 + 1 x444 + 1 x445 + 1 x446 + 1 x447 + 1 x448 + 1 x449 + 1 x450 + 1 x451 + 1 x452 + 1 x453 + 1 x454 + 1 x455 + 1 x456 + 1 x457 + 1 x458 + 1 x459 + 1 x460 + 1 x461 + 1 x462 + 1 x463 + 1 x464 + 1 x465 + 1 x466 + 1 x467 + 1 x468 + 1 x469 + 1 x470 + 1 x471 + 1 x472 + 1 x473 + 1 x474 + 1 x475 + 1 x476 + 1 x477 + 1 x478 + 1 x479 + 1 x480 + 1 x481 + 1 x482 + 1 x483 + 1 x484 + 1 x485 + 1 x486 + 1 x487 + 1 x488 + 1 x489 + 1 x490 + 1 x491 + 1 x492 + 1 x493 + 1 x494 + 1 x495 + 1 x496 + 1 x497 + 1 x498 + 1 x499 + 1 x500

subject to
C1: + x287 + x322 <= 1
C2: + x160 + x222 <= 1
C3: + x5 + x136 <= 1
C4: + x62 + x83 <= 1
C5: + x10 + x85 <= 1
C6: + x280 + x459 <= 1
C7: + x375 + x412 <= 1
C8: + x21 + x163 <= 1
C9: + x68 + x408 <= 1
C10: + x9 + x64 <= 1
C11: + x328 + x421 <= 1
C12: + x38 + x218 <= 1
C13: + x4 + x413 <= 1
C14: + x99 + x474 <= 1
C15: + x66 + x257 <= 1
C16: + x60 + x132 <= 1
C17: + x22 + x398 <= 1
C18: + x9 + x378 <= 1
C19: + x152 + x340 <= 1
C20: + x22 + x225 <= 1
C21: + x52 + x446 <= 1
C22: + x443 + x475 <= 1
C23: + x59 + x131 <= 1
C24: + x21 + x385 <= 1
C25: + x6 + x85 <= 1
C26: + x2 + x29 <= 1
C27: + x60 + x352 <= 1
C28: + x139 + x416 <= 1
C29: + x22 + x368 <= 1
C30: + x53 + x183 <= 1
C31: + x82 + x445 <= 1
C32: + x2 + x13 + x15 + x36 <= 1
C33: + x85 + x96 <= 1
C34: + x287 + x329 <= 1
C35: + x271 + x391 <= 1
C36: + x81 + x442 <= 1
C37: + x9 + x39 <= 1
C38: + x1 + x68 <= 1
C39: + x120 + x270 <= 1
C40: + x68 + x143 <= 1
C41: + x48 + x315 <= 1
C42: + x7 + x42 <= 1
C43: + x72 + x246 <= 1
C44: + x119 + x291 <= 1
C45: + x28 + x354 <= 1
C46: + x104 + x269 <= 1
C47: + x254 + x256 <= 1
C48: + x82 + x351 <= 1
C49: + x173 + x231 <= 1
C50: + x86 + x383 <= 1
C51: + x223 + x285 <= 1
C52: + x189 + x194 <= 1
C53: + x16 + x104 <= 1
C54: + x9 + x19 <= 1
C55: + x39 + x338 <= 1
C56: + x3 + x16 + x24 + x40 <= 1
C57: + x5 + x322 <= 1
C58: + x46 + x55 <= 1
C59: + x84 + x256 <= 1
C60: + x59 + x111 <= 1
C61: + x13 + x130 <= 1
C62: + x286 + x435 <= 1
C63: + x15 + x166 <= 1
C64: + x7 + x332 <= 1
C65: + x309 + x387 <= 1
C66: + x192 + x198 <= 1
C67: + x149 + x322 <= 1
C68: + x450 + x495 <= 1
C69: + x243 + x443 <= 1
C70: + x24 + x85 <= 1
C71: + x16 + x44 <= 1
C72: + x127 + x157 <= 1
C73: + x3 + x13 <= 1
C74: + x20 + x484 <= 1
C75: + x13 + x273 <= 1
C76: + x180 + x408 <= 1
C77: + x7 + x146 <= 1
C78: + x72 + x94 <= 1
C79: + x219 + x436 <= 1
C80: + x83 + x300 <= 1
C81: + x3 + x210 <= 1
C82: + x23 + x149 <= 1
C83: + x6 + x165 <= 1
C84: + x125 + x339 <= 1
C85: + x168 + x302 <= 1
C86: + x7 + x33 <= 1
C87: + x82 + x98 <= 1
C88: + x37 + x81 <= 1
C89: + x129 + x173 <= 1
C90: + x10 + x285 <= 1
C91: + x356 + x489 <= 1
C92: + x81 + x251 <= 1
C93: + x45 + x460 <= 1
C94: + x237 + x286 <= 1
C95: + x2 + x254 <= 1
C96: + x56 + x423 <= 1
C97: + x13 + x42 <= 1
C98: + x14 + x182 <= 1
C99: + x32 + x224 <= 1
C100: + x88 + x474 <= 1
C101: + x368 + x369 <= 1
C102: + x52 + x158 <= 1
C103: + x11 + x20 <= 1
C104: + x12 + x311 <= 1
C105: + x198 + x314 <= 1
C106: + x80 + x103 <= 1
C107: + x1 + x6 <= 1
C108: + x13 + x30 <= 1
C109: + x31 + x325 <= 1
C110: + x61 + x104 <= 1
C111: + x13 + x427 <= 1
C112: + x35 + x239 <= 1
C113: + x16 + x49 <= 1
C114: + x201 + x219 <= 1
C115: + x3 + x8 <= 1
C116: + x145 + x203 <= 1
C117: + x21 + x192 <= 1
C118: + x22 + x56 <= 1
C119: + x23 + x176 <= 1
C120: + x160 + x443 <= 1
C121: + x289 + x456 <= 1
C122: + x72 + x325 <= 1
C123: + x49 + x124 <= 1
C124: + x40 + x288 <= 1
C125: + x24 + x34 <= 1
C126: + x27 + x328 <= 1
C127: + x63 + x197 <= 1
C128: + x6 + x412 <= 1
C129: + x3 + x92 <= 1
C130: + x67 + x156 <= 1
C131: + x105 + x347 <= 1
C132: + x6 + x63 <= 1
C133: + x209 + x370 <= 1
C134: + x66 + x439 <= 1
C135: + x136 + x481 <= 1
C136: + x5 + x403 <= 1
C137: + x71 + x363 <= 1
C138: + x37 + x175 <= 1
C139: + x114 + x128 <= 1
C140: + x32 + x439 <= 1
C141: + x95 + x197 <= 1
C142: + x69 + x352 <= 1
C143: + x7 + x241 <= 1
C144: + x1 + x29 <= 1
C145: + x2 + x131 <= 1
C146: + x286 + x296 <= 1
C147: + x325 + x468 <= 1
C148: + x9 + x77 <= 1
C149: + x319 + x469 <= 1
C150: + x34 + x69 <= 1
C151: + x6 + x116 <= 1
C152: + x7 + x132 <= 1
C153: + x18 + x241 <= 1
C154: + x1 + x41 <= 1
C155: + x33 + x194 <= 1
C156: + x60 + x65 <= 1
C157: + x76 + x230 <= 1
C158: + x47 + x319 <= 1
C159: + x158 + x159 <= 1
C160: + x12 + x361 <= 1
C161: + x16 + x353 <= 1
C162: + x7 + x257 <= 1
C163: + x21 + x139 <= 1
C164: + x368 + x391 <= 1
C165: + x198 + x354 <= 1
C166: + x54 + x300 <= 1
C167: + x37 + x214 <= 1
C168: + x8 + x50 <= 1
C169: + x28 + x230 <= 1
C170: + x22 + x275 <= 1
C171: + x18 + x464 <= 1
C172: + x149 + x250 <= 1
C173: + x6 + x236 <= 1
C174: + x82 + x382 <= 1
C175: + x112 + x160 <= 1
C176: + x13 + x20 <= 1
C177: + x5 + x462 <= 1
C178: + x44 + x216 <= 1
C179: + x13 + x318 <= 1
C180: + x89 + x375 <= 1
C181: + x15 + x42 <= 1
C182: + x109 + x445 <= 1
C183: + x44 + x371 <= 1
C184: + x164 + x188 <= 1
C185: + x68 + x121 <= 1
C186: + x5 + x8 <= 1
C187: + x87 + x122 <= 1
C188: + x52 + x467 <= 1
C189: + x35 + x84 <= 1
C190: + x18 + x234 <= 1
C191: + x90 + x410 <= 1
C192: + x7 + x22 <= 1
C193: + x72 + x218 <= 1
C194: + x19 + x283 <= 1
C195: + x10 + x312 <= 1
C196: + x59 + x63 <= 1
C197: + x149 + x189 <= 1
C198: + x70 + x278 <= 1
C199: + x9 + x285 <= 1
C200: + x65 + x170 <= 1
C201: + x173 + x203 <= 1
C202: + x91 + x171 <= 1
C203: + x12 + x205 <= 1
C204: + x112 + x209 <= 1
C205: + x125 + x308 <= 1
C206: + x32 + x258 <= 1
C207: + x168 + x426 <= 1
C208: + x1 + x124 <= 1
C209: + x128 + x199 <= 1
C210: + x291 + x414 <= 1
C211: + x103 + x424 <= 1
C212: + x12 + x44 <= 1
C213: + x88 + x332 <= 1
C214: + x160 + x372 <= 1
C215: + x183 + x464 <= 1
C216: + x12 + x350 <= 1
C217: + x13 + x166 <= 1
C218: + x6 + x213 <= 1
C219: + x7 + x227 <= 1
C220: + x125 + x205 <= 1
C221: + x207 + x216 <= 1
C222: + x28 + x311 <= 1
C223: + x248 + x293 <= 1
C224: + x12 + x427 <= 1
C225: + x13 + x309 <= 1
C226: + x89 + x382 <= 1
C227: + x39 + x298 <= 1
C228: + x6 + x102 <= 1
C229: + x135 + x396 <= 1
C230: + x2 + x14 <= 1
C231: + x6 + x153 <= 1
C232: + x9 + x202 <= 1
C233: + x29 + x149 <= 1
C234: + x4 + x20 <= 1
C235: + x31 + x358 <= 1
C236: + x7 + x13 <= 1
C237: + x29 + x58 <= 1
C238: + x98 + x99 <= 1
C239: + x23 + x141 <= 1
C240: + x135 + x353 <= 1
C241: + x183 + x294 <= 1
C242: + x276 + x313 <= 1
C243: + x195 + x321 <= 1
C244: + x22 + x293 <= 1
C245: + x196 + x339 <= 1
C246: + x8 + x331 <= 1
C247: + x129 + x266 <= 1
C248: + x192 + x388 <= 1
C249: + x42 + x52 <= 1
C250: + x80 + x123 <= 1
C251: + x63 + x181 <= 1
C252: + x13 + x308 <= 1
C253: + x7 + x117 <= 1
C254: + x19 + x71 <= 1
C255: + x272 + x393 <= 1
C256: + x195 + x442 <= 1
C257: + x5 + x246 <= 1
C258: + x6 + x349 <= 1
C259: + x120 + x232 <= 1
C260: + x13 + x118 <= 1
C261: + x31 + x156 <= 1
C262: + x71 + x200 <= 1
C263: + x157 + x433 <= 1
C264: + x168 + x174 <= 1
C265: + x25 + x465 <= 1
C266: + x343 + x432 <= 1
C267: + x1 + x173 <= 1
C268: + x173 + x372 <= 1
C269: + x129 + x402 <= 1
C270: + x106 + x236 <= 1
C271: + x4 + x170 <= 1
C272: + x5 + x58 <= 1
C273: + x126 + x249 <= 1
C274: + x80 + x266 <= 1
C275: + x14 + x449 <= 1
C276: + x6 + x420 <= 1
C277: + x7 + x52 <= 1
C278: + x190 + x327 <= 1
C279: + x118 + x431 <= 1
C280: + x218 + x235 <= 1
C281: + x95 + x161 <= 1
C282: + x7 + x290 <= 1
C283: + x211 + x316 <= 1
C284: + x39 + x54 <= 1
C285: + x223 + x279 <= 1
C286: + x305 + x376 <= 1
C287: + x7 + x112 <= 1
C288: + x164 + x284 <= 1
C289: + x8 + x376 <= 1
C290: + x112 + x284 <= 1
C291: + x6 + x139 <= 1
C292: + x180 + x212 <= 1
C293: + x128 + x138 <= 1
C294: + x71 + x319 <= 1
C295: + x156 + x264 <= 1
C296: + x23 + x62 <= 1
C297: + x18 + x283 <= 1
C298: + x255 + x261 <= 1
C299: + x144 + x367 <= 1
C300: + x114 + x178 <= 1
C301: + x149 + x303 <= 1
C302: + x44 + x433 <= 1
C303: + x236 + x267 <= 1
C304: + x19 + x316 <= 1
C305: + x399 + x488 <= 1
C306: + x129 + x264 <= 1
C307: + x350 + x418 <= 1
C308: + x5 + x184 <= 1
C309: + x15 + x155 <= 1
C310: + x90 + x220 <= 1
C311: + x177 + x239 <= 1
C312: + x326 + x457 <= 1
C313: + x394 + x476 <= 1
C314: + x52 + x148 <= 1
C315: + x89 + x339 <= 1
C316: + x16 + x442 <= 1
C317: + x6 + x81 <= 1
C318: + x64 + x148 <= 1
C319: + x283 + x286 <= 1
C320: + x66 + x337 <= 1
C321: + x114 + x383 <= 1
C322: + x16 + x140 <= 1
C323: + x81 + x303 <= 1
C324: + x65 + x105 <= 1
C325: + x484 + x485 <= 1
C326: + x145 + x209 <= 1
C327: + x156 + x239 <= 1
C328: + x2 + x45 <= 1
C329: + x69 + x275 <= 1
C330: + x5 + x48 <= 1
C331: + x23 + x146 <= 1
C332: + x43 + x302 <= 1
C333: + x9 + x43 <= 1
C334: + x100 + x108 <= 1
C335: + x32 + x409 <= 1
C336: + x127 + x326 <= 1
C337: + x63 + x223 <= 1
C338: + x8 + x434 <= 1
C339: + x3 + x70 <= 1
C340: + x69 + x162 <= 1
C341: + x9 + x186 <= 1
C342: + x8 + x164 <= 1
C343: + x52 + x126 <= 1
C344: + x9 + x23 <= 1
C345: + x65 + x84 <= 1
C346: + x124 + x334 <= 1
C347: + x395 + x467 <= 1
C348: + x22 + x260 <= 1
C349: + x6 + x90 <= 1
C350: + x1 + x305 <= 1
C351: + x7 + x90 <= 1
C352: + x32 + x63 + x123 <= 1
C353: + x30 + x324 <= 1
C354: + x13 + x190 <= 1
C355: + x35 + x454 <= 1
C356: + x9 + x337 <= 1
C357: + x143 + x472 <= 1
C358: + x8 + x88 <= 1
C359: + x120 + x243 <= 1
C360: + x5 + x477 <= 1
C361: + x63 + x150 <= 1
C362: + x252 + x333 <= 1
C363: + x9 + x320 <= 1
C364: + x3 + x174 <= 1
C365: + x35 + x67 <= 1
C366: + x16 + x165 <= 1
C367: + x109 + x190 <= 1
C368: + x67 + x399 <= 1
C369: + x12 + x77 <= 1
C370: + x34 + x64 <= 1
C371: + x24 + x37 <= 1
C372: + x8 + x431 <= 1
C373: + x2 + x484 <= 1
C374: + x229 + x298 <= 1
C375: + x106 + x368 <= 1
C376: + x96 + x229 <= 1
C377: + x109 + x264 <= 1
C378: + x8 + x153 <= 1
C379: + x37 + x335 <= 1
C380: + x21 + x129 <= 1
C381: + x34 + x169 <= 1
C382: + x142 + x392 <= 1
C383: + x9 + x30 <= 1
C384: + x147 + x394 <= 1
C385: + x12 + x57 <= 1
C386: + x30 + x79 <= 1
C387: + x12 + x464 <= 1
C388: + x204 + x272 <= 1
C389: + x41 + x295 <= 1
C390: + x143 + x201 <= 1
C391: + x372 + x436 <= 1
C392: + x270 + x462 <= 1
C393: + x45 + x168 + x487 <= 1
C394: + x220 + x400 <= 1
C395: + x13 + x26 <= 1
C396: + x223 + x312 <= 1
C397: + x205 + x231 <= 1
C398: + x45 + x230 <= 1
C399: + x7 + x484 <= 1
C400: + x2 + x297 <= 1
C401: + x67 + x279 <= 1
C402: + x12 + x444 <= 1
C403: + x60 + x223 <= 1
C404: + x6 + x119 <= 1
C405: + x19 + x95 <= 1
C406: + x238 + x363 <= 1
C407: + x184 + x211 <= 1
C408: + x5 + x30 <= 1
C409: + x6 + x357 <= 1
C410: + x7 + x371 <= 1
C411: + x65 + x406 <= 1
C412: + x157 + x268 <= 1
C413: + x21 + x25 <= 1
C414: + x13 + x78 <= 1
C415: + x31 + x164 <= 1
C416: + x168 + x295 <= 1
C417: + x34 + x49 <= 1
C418: + x9 + x438 <= 1
C419: + x46 + x113 <= 1
C420: + x70 + x304 <= 1
C421: + x28 + x70 <= 1
C422: + x210 + x307 <= 1
C423: + x63 + x348 <= 1
C424: + x49 + x172 <= 1
C425: + x32 + x435 <= 1
C426: + x25 + x104 <= 1
C427: + x16 + x405 <= 1
C428: + x70 + x340 <= 1
C429: + x6 + x239 <= 1
C430: + x18 + x185 <= 1
C431: + x1 + x17 <= 1
C432: + x6 + x7 + x8 + x9 <= 1
C433: + x21 + x212 <= 1
C434: + x95 + x358 <= 1
C435: + x170 + x262 <= 1
C436: + x36 + x242 <= 1
C437: + x1 + x446 <= 1
C438: + x28 + x317 <= 1
C439: + x50 + x179 <= 1
C440: + x44 + x370 <= 1
C441: + x15 + x43 <= 1
C442: + x8 + x272 <= 1
C443: + x10 + x418 <= 1
C444: + x1 + x347 <= 1
C445: + x37 + x393 <= 1
C446: + x12 + x288 <= 1
C447: + x225 + x372 <= 1
C448: + x32 + x134 <= 1
C449: + x70 + x392 <= 1
C450: + x180 + x252 <= 1
C451: + x317 + x324 <= 1
C452: + x3 + x321 <= 1
C453: + x243 + x413 <= 1
C454: + x24 + x59 <= 1
C455: + x96 + x440 <= 1
C456: + x113 + x473 <= 1
C457: + x204 + x429 <= 1
C458: + x10 + x33 <= 1
C459: + x85 + x154 <= 1
C460: + x9 + x12 <= 1
C461: + x102 + x339 <= 1
C462: + x319 + x408 <= 1
C463: + x16 + x127 <= 1
C464: + x21 + x108 <= 1
C465: + x23 + x389 <= 1
C466: + x37 + x452 <= 1
C467: + x50 + x91 <= 1
C468: + x5 + x224 <= 1
C469: + x24 + x366 <= 1
C470: + x7 + x240 <= 1
C471: + x35 + x495 <= 1
C472: + x22 + x213 <= 1
C473: + x108 + x396 <= 1
C474: + x7 + x478 <= 1
C475: + x47 + x378 <= 1
C476: + x42 + x87 <= 1
C477: + x243 + x261 <= 1
C478: + x5 + x367 <= 1
C479: + x7 + x127 <= 1
C480: + x40 + x441 <= 1
C481: + x431 + x449 <= 1
C482: + x205 + x479 <= 1
C483: + x6 + x343 <= 1
C484: + x317 + x347 <= 1
C485: + x19 + x246 <= 1
C486: + x11 + x215 <= 1
C487: + x7 + x10 <= 1
C488: + x19 + x279 <= 1
C489: + x147 + x356 <= 1
C490: + x12 + x358 <= 1
C491: + x6 + x45 <= 1
C492: + x16 + x374 <= 1
C493: + x7 + x171 <= 1
C494: + x24 + x407 <= 1
C495: + x2 + x197 <= 1
C496: + x8 + x136 <= 1
C497: + x21 + x158 <= 1
C498: + x24 + x161 <= 1
C499: + x227 + x301 <= 1
C500: + x35 + x36 <= 1
C501: + x16 + x72 <= 1
C502: + x145 + x475 <= 1
C503: + x12 + x48 <= 1
C504: + x79 + x297 <= 1
C505: + x110 + x268 <= 1
C506: + x65 + x221 <= 1
C507: + x52 + x276 <= 1
C508: + x15 + x134 <= 1
C509: + x91 + x312 <= 1
C510: + x63 + x469 <= 1
C511: + x233 + x278 <= 1
C512: + x153 + x474 <= 1
C513: + x218 + x270 <= 1
C514: + x27 + x137 <= 1
C515: + x2 + x308 <= 1
C516: + x148 + x461 <= 1
C517: + x135 + x154 <= 1
C518: + x66 + x116 <= 1
C519: + x61 + x238 <= 1
C520: + x216 + x284 <= 1
C521: + x7 + x114 <= 1
C522: + x101 + x277 <= 1
C523: + x8 + x201 <= 1
C524: + x270 + x330 <= 1
C525: + x12 + x270 <= 1
C526: + x5 + x11 <= 1
C527: + x181 + x250 <= 1
C528: + x334 + x411 <= 1
C529: + x45 + x263 <= 1
C530: + x63 + x254 <= 1
C531: + x399 + x462 <= 1
C532: + x40 + x486 <= 1
C533: + x30 + x144 <= 1
C534: + x125 + x244 <= 1
C535: + x53 + x81 <= 1
C536: + x10 + x142 <= 1
C537: + x1 + x119 <= 1
C538: + x111 + x274 <= 1
C539: + x20 + x138 <= 1
C540: + x30 + x414 <= 1
C541: + x342 + x412 <= 1
C542: + x150 + x348 <= 1
C543: + x93 + x349 <= 1
C544: + x220 + x333 <= 1
C545: + x258 + x485 <= 1
C546: + x104 + x282 <= 1
C547: + x34 + x499 <= 1
C548: + x20 + x247 <= 1
C549: + x10 + x378 <= 1
C550: + x13 + x304 <= 1
C551: + x5 + x349 <= 1
C552: + x88 + x145 <= 1
C553: + x1 + x304 <= 1
C554: + x292 + x353 <= 1
C555: + x68 + x107 <= 1
C556: + x30 + x373 <= 1
C557: + x77 + x136 <= 1
C558: + x189 + x375 <= 1
C559: + x73 + x309 <= 1
C560: + x237 + x486 <= 1
C561: + x223 + x352 <= 1
C562: + x69 + x87 <= 1
C563: + x116 + x375 <= 1
C564: + x52 + x55 <= 1
C565: + x13 + x447 <= 1
C566: + x38 + x120 <= 1
C567: + x260 + x454 <= 1
C568: + x15 + x76 <= 1
C569: + x17 + x402 <= 1
C570: + x6 + x31 <= 1
C571: + x111 + x192 <= 1
C572: + x61 + x414 <= 1
C573: + x3 + x354 <= 1
C574: + x12 + x94 <= 1
C575: + x92 + x428 <= 1
C576: + x10 + x274 <= 1
C577: + x238 + x276 <= 1
C578: + x64 + x163 <= 1
C579: + x191 + x337 <= 1
C580: + x4 + x315 <= 1
C581: + x47 + x292 <= 1
C582: + x6 + x195 <= 1
C583: + x118 + x334 <= 1
C584: + x154 + x317 <= 1
C585: + x358 + x450 <= 1
C586: + x32 + x54 <= 1
C587: + x225 + x417 <= 1
C588: + x125 + x223 <= 1
C589: + x6 + x305 <= 1
C590: + x16 + x26 <= 1
C591: + x28 + x281 <= 1
C592: + x183 + x333 <= 1
C593: + x21 + x386 <= 1
C594: + x132 + x204 <= 1
C595: + x208 + x381 <= 1
C596: + x25 + x429 <= 1
C597: + x6 + x247 <= 1
C598: + x1 + x9 <= 1
C599: + x111 + x216 <= 1
C600: + x9 + x89 <= 1
C601: + x308 + x426 <= 1
C602: + x46 + x78 <= 1
C603: + x485 + x500 <= 1
C604: + x155 + x234 <= 1
C605: + x83 + x306 <= 1
C606: + x167 + x186 <= 1
C607: + x81 + x118 <= 1
C608: + x6 + x187 <= 1
C609: + x108 + x245 <= 1
C610: + x345 + x366 <= 1
C611: + x472 + x482 <= 1
C612: + x234 + x500 <= 1
C613: + x7 + x47 <= 1
C614: + x10 + x283 <= 1
C615: + x64 + x359 <= 1
C616: + x32 + x51 <= 1
C617: + x80 + x85 <= 1
C618: + x236 + x416 <= 1
C619: + x8 + x167 <= 1
C620: + x63 + x458 <= 1
C621: + x192 + x273 <= 1
C622: + x264 + x313 <= 1
C623: + x19 + x38 <= 1
C624: + x218 + x454 <= 1
C625: + x41 + x75 <= 1
C626: + x21 + x255 <= 1
C627: + x16 + x103 <= 1
C628: + x36 + x147 <= 1
C629: + x260 + x278 <= 1
C630: + x44 + x56 <= 1
C631: + x139 + x309 <= 1
C632: + x123 + x146 <= 1
C633: + x12 + x470 <= 1
C634: + x43 + x65 <= 1
C635: + x151 + x162 <= 1
C636: + x174 + x438 <= 1
C637: + x211 + x450 <= 1
C638: + x149 + x238 <= 1
C639: + x6 + x256 <= 1
C640: + x17 + x198 <= 1
C641: + x117 + x365 <= 1
C642: + x8 + x91 <= 1
C643: + x2 + x184 <= 1
C644: + x12 + x160 <= 1
C645: + x31 + x138 <= 1
C646: + x236 + x375 <= 1
C647: + x25 + x35 <= 1
C648: + x15 + x86 <= 1
C649: + x1 + x330 <= 1
C650: + x410 + x451 <= 1
C651: + x13 + x247 <= 1
C652: + x5 + x44 <= 1
C653: + x26 + x376 <= 1
C654: + x9 + x47 <= 1
C655: + x8 + x15 <= 1
C656: + x1 + x92 <= 1
C657: + x146 + x457 <= 1
C658: + x41 + x163 <= 1
C659: + x70 + x135 <= 1
C660: + x61 + x190 <= 1
C661: + x7 + x34 <= 1
C662: + x42 + x43 <= 1
C663: + x125 + x451 <= 1
C664: + x7 + x280 <= 1
C665: + x8 + x160 <= 1
C666: + x44 + x46 + x327 <= 1
C667: + x122 + x336 <= 1
C668: + x4 + x72 <= 1
C669: + x132 + x456 <= 1
C670: + x5 + x405 <= 1
C671: + x6 + x291 <= 1
C672: + x18 + x50 <= 1
C673: + x9 + x27 <= 1
C674: + x22 + x272 <= 1
C675: + x70 + x203 <= 1
C676: + x216 + x320 <= 1
C677: + x55 + x124 <= 1
C678: + x232 + x377 <= 1
C679: + x181 + x222 <= 1
C680: + x1 + x7 <= 1
C681: + x2 + x137 <= 1
C682: + x100 + x169 <= 1
C683: + x13 + x31 <= 1
C684: + x84 + x450 <= 1
C685: + x3 + x5 <= 1
C686: + x70 + x255 <= 1
C687: + x96 + x317 <= 1
C688: + x6 + x10 <= 1
C689: + x9 + x292 <= 1
C690: + x11 + x69 <= 1
C691: + x48 + x58 <= 1
C692: + x5 + x19 <= 1
C693: + x70 + x402 <= 1
C694: + x44 + x106 <= 1
C695: + x151 + x411 <= 1
C696: + x86 + x415 <= 1
C697: + x172 + x476 <= 1
C698: + x219 + x242 <= 1
C699: + x89 + x182 <= 1
C700: + x34 + x415 <= 1
C701: + x118 + x345 <= 1
C702: + x65 + x258 <= 1
C703: + x19 + x24 <= 1
C704: + x12 + x210 <= 1
C705: + x125 + x319 <= 1
C706: + x248 + x286 <= 1
C707: + x222 + x267 <= 1
C708: + x12 + x452 <= 1
C709: + x15 + x28 <= 1
C710: + x11 + x28 <= 1
C711: + x229 + x282 <= 1
C712: + x220 + x357 <= 1
C713: + x286 + x388 <= 1
C714: + x20 + x388 <= 1
C715: + x9 + x145 <= 1
C716: + x124 + x129 <= 1
C717: + x20 + x62 <= 1
C718: + x67 + x224 <= 1
C719: + x113 + x490 <= 1
C720: + x82 + x194 <= 1
C721: + x19 + x91 <= 1
C722: + x149 + x200 <= 1
C723: + x44 + x111 <= 1
C724: + x8 + x125 <= 1
C725: + x73 + x122 <= 1
C726: + x27 + x336 <= 1
C727: + x8 + x420 <= 1
C728: + x56 + x166 <= 1
C729: + x47 + x139 <= 1
C730: + x282 + x468 <= 1
C731: + x13 + x217 <= 1
C732: + x152 + x470 <= 1
C733: + x123 + x171 <= 1
C734: + x5 + x320 <= 1
C735: + x388 + x434 <= 1
C736: + x7 + x80 <= 1
C737: + x334 + x480 <= 1
C738: + x1 + x259 <= 1
C739: + x75 + x195 <= 1
C740: + x185 + x458 <= 1
C741: + x195 + x401 <= 1
C742: + x90 + x255 <= 1
C743: + x18 + x362 <= 1
C744: + x93 + x94 <= 1
C745: + x55 + x348 <= 1
C746: + x70 + x78 <= 1
C747: + x57 + x79 <= 1
C748: + x3 + x23 <= 1
C749: + x33 + x107 <= 1
C750: + x70 + x225 <= 1
C751: + x5 + x356 <= 1
C752: + x1 + x132 <= 1
C753: + x101 + x192 <= 1
C754: + x3 + x188 <= 1
C755: + x39 + x401 <= 1
C756: + x84 + x226 <= 1
C757: + x90 + x382 <= 1
C758: + x8 + x118 <= 1
C759: + x120 + x273 <= 1
C760: + x49 + x107 <= 1
C761: + x106 + x419 <= 1
C762: + x143 + x147 <= 1
C763: + x7 + x11 <= 1
C764: + x56 + x362 <= 1
C765: + x33 + x39 <= 1
C766: + x119 + x425 <= 1
C767: + x47 + x420 <= 1
C768: + x112 + x212 <= 1
C769: + x18 + x37 <= 1
C770: + x9 + x16 <= 1
C771: + x203 + x233 <= 1
C772: + x100 + x430 <= 1
C773: + x54 + x87 <= 1
C774: + x30 + x299 <= 1
C775: + x232 + x360 <= 1
C776: + x16 + x236 <= 1
C777: + x129 + x465 <= 1
C778: + x15 + x405 <= 1
C779: + x65 + x73 <= 1
C780: + x118 + x496 <= 1
C781: + x1 + x155 <= 1
C782: + x164 + x365 <= 1
C783: + x3 + x179 <= 1
C784: + x186 + x403 <= 1
C785: + x205 + x475 <= 1
C786: + x10 + x98 <= 1
C787: + x192 + x330 <= 1
C788: + x12 + x265 <= 1
C789: + x45 + x103 <= 1
C790: + x34 + x305 <= 1
C791: + x88 + x126 <= 1
C792: + x215 + x498 <= 1
C793: + x3 + x344 <= 1
C794: + x4 + x19 <= 1
C795: + x315 + x460 <= 1
C796: + x108 + x444 <= 1
C797: + x16 + x467 <= 1
C798: + x7 + x14 <= 1
C799: + x3 + x38 <= 1
C800: + x152 + x218 <= 1
C801: + x208 + x434 <= 1
C802: + x18 + x304 <= 1
C803: + x16 + x370 <= 1
C804: + x18 + x23 + x390 <= 1
C805: + x31 + x33 <= 1
C806: + x29 + x170 <= 1
C807: + x30 + x385 <= 1
C808: + x65 + x209 <= 1
C809: + x21 + x265 <= 1
C810: + x258 + x488 <= 1
C811: + x209 + x404 <= 1
C812: + x65 + x291 <= 1
C813: + x116 + x298 <= 1
C814: + x12 + x32 <= 1
C815: + x61 + x234 <= 1
C816: + x15 + x57 <= 1
C817: + x6 + x110 <= 1
C818: + x2 + x6 <= 1
C819: + x56 + x110 <= 1
C820: + x13 + x119 <= 1
C821: + x2 + x452 <= 1
C822: + x177 + x480 <= 1
C823: + x115 + x419 <= 1
C824: + x6 + x18 <= 1
C825: + x270 + x314 <= 1
C826: + x74 + x279 <= 1
C827: + x192 + x315 <= 1
C828: + x32 + x188 <= 1
C829: + x108 + x251 <= 1
C830: + x216 + x463 <= 1
C831: + x81 + x449 <= 1
C832: + x37 + x196 <= 1
C833: + x103 + x343 <= 1
C834: + x131 + x153 <= 1
C835: + x96 + x342 <= 1
C836: + x17 + x46 <= 1
C837: + x10 + x493 <= 1
C838: + x64 + x381 <= 1
C839: + x7 + x222 <= 1
C840: + x85 + x384 <= 1
C841: + x5 + x111 <= 1
C842: + x333 + x340 <= 1
C843: + x125 + x196 <= 1
C844: + x9 + x106 <= 1
C845: + x473 + x474 <= 1
C846: + x12 + x21 <= 1
C847: + x127 + x261 <= 1
C848: + x172 + x432 <= 1
C849: + x12 + x263 <= 1
C850: + x141 + x265 <= 1
C851: + x214 + x404 <= 1
C852: + x6 + x138 <= 1
C853: + x8 + x97 <= 1
C854: + x10 + x207 <= 1
C855: + x231 + x295 <= 1
C856: + x9 + x86 <= 1
C857: + x258 + x294 <= 1
C858: + x9 + x307 <= 1
C859: + x83 + x234 <= 1
C860: + x45 + x415 <= 1
C861: + x2 + x43 <= 1
C862: + x94 + x154 <= 1
C863: + x32 + x161 <= 1
C864: + x16 + x82 <= 1
C865: + x7 + x399 <= 1
C866: + x154 + x408 <= 1
C867: + x113 + x140 <= 1
C868: + x120 + x308 <= 1
C869: + x1 + x5 + x12 <= 1
C870: + x6 + x428 <= 1
C871: + x42 + x61 <= 1
C872: + x18 + x342 <= 1
C873: + x237 + x293 <= 1
C874: + x111 + x144 <= 1
C875: + x3 + x237 <= 1
C876: + x188 + x297 <= 1
C877: + x16 + x102 <= 1
C878: + x135 + x144 <= 1
C879: + x36 + x146 <= 1
C880: + x201 + x230 <= 1
C881: + x305 + x461 <= 1
C882: + x33 + x119 <= 1
C883: + x5 + x328 <= 1
C884: + x53 + x269 <= 1
C885: + x8 + x368 <= 1
C886: + x46 + x57 <= 1
C887: + x31 + x106 <= 1
C888: + x6 + x243 <= 1
C889: + x281 + x400 <= 1
C890: + x8 + x90 <= 1
C891: + x47 + x77 <= 1
C892: + x21 + x200 <= 1
C893: + x214 + x384 <= 1
C894: + x60 + x101 <= 1
C895: + x5 + x471 <= 1
C896: + x171 + x418 <= 1
C897: + x9 + x93 <= 1
C898: + x37 + x99 <= 1
C899: + x3 + x15 <= 1
C900: + x139 + x183 <= 1
C901: + x88 + x250 <= 1
C902: + x7 + x148 <= 1
C903: + x83 + x225 <= 1
C904: + x8 + x292 <= 1
C905: + x283 + x303 <= 1
C906: + x47 + x448 <= 1
C907: + x85 + x186 <= 1
C908: + x131 + x413 <= 1
C909: + x277 + x484 <= 1
C910: + x5 + x41 <= 1
C911: + x16 + x95 <= 1
C912: + x170 + x240 <= 1
C913: + x45 + x136 <= 1
C914: + x391 + x416 <= 1
C915: + x12 + x87 <= 1
C916: + x13 + x89 <= 1
C917: + x286 + x364 <= 1
C918: + x26 + x65 <= 1
C919: + x118 + x448 <= 1
C920: + x390 + x443 <= 1
C921: + x3 + x67 <= 1
C922: + x20 + x430 <= 1
C923: + x15 + x99 <= 1
C924: + x88 + x206 <= 1
C925: + x345 + x481 <= 1
C926: + x7 + x208 <= 1
C927: + x135 + x486 <= 1
C928: + x229 + x385 <= 1
C929: + x36 + x151 <= 1
C930: + x293 + x371 <= 1
C931: + x303 + x410 <= 1
C932: + x112 + x470 <= 1
C933: + x191 + x396 <= 1
C934: + x6 + x252 <= 1
C935: + x18 + x379 <= 1
C936: + x63 + x314 <= 1
C937: + x32 + x349 <= 1
C938: + x24 + x84 <= 1
C939: + x27 + x182 <= 1
C940: + x20 + x52 <= 1
C941: + x3 + x10 <= 1
C942: + x266 + x373 <= 1
C943: + x152 + x254 <= 1
C944: + x45 + x397 <= 1
C945: + x8 + x232 <= 1
C946: + x10 + x439 <= 1
C947: + x210 + x482 <= 1
C948: + x307 + x404 <= 1
C949: + x94 + x271 <= 1
C950: + x4 + x59 <= 1
C951: + x115 + x351 <= 1
C952: + x4 + x498 <= 1
C953: + x82 + x101 <= 1
C954: + x63 + x199 <= 1
C955: + x191 + x327 <= 1
C956: + x52 + x213 <= 1
C957: + x365 + x451 <= 1
C958: + x420 + x483 <= 1
C959: + x42 + x47 <= 1
C960: + x169 + x366 <= 1
C961: + x113 + x265 <= 1
C962: + x157 + x189 <= 1
C963: + x56 + x193 <= 1
C964: + x30 + x78 <= 1
C965: + x204 + x271 <= 1
C966: + x5 + x310 <= 1
C967: + x15 + x21 <= 1
C968: + x229 + x287 <= 1
C969: + x277 + x430 <= 1
C970: + x159 + x173 <= 1
C971: + x372 + x435 <= 1
C972: + x53 + x440 <= 1
C973: + x27 + x28 <= 1
C974: + x118 + x219 <= 1
C975: + x121 + x296 <= 1
C976: + x7 + x328 <= 1
C977: + x1 + x27 <= 1
C978: + x31 + x330 <= 1
C979: + x160 + x273 <= 1
C980: + x44 + x221 <= 1
C981: + x403 + x414 <= 1
C982: + x12 + x282 <= 1
C983: + x40 + x105 <= 1
C984: + x90 + x189 <= 1
C985: + x90 + x376 <= 1
C986: + x9 + x218 <= 1
C987: + x219 + x345 <= 1
C988: + x34 + x56 <= 1
C989: + x70 + x140 <= 1
C990: + x7 + x29 <= 1
C991: + x9 + x439 <= 1
C992: + x311 + x368 <= 1
C993: + x56 + x280 <= 1
C994: + x3 + x492 <= 1
C995: + x28 + x69 <= 1
C996: + x11 + x181 <= 1
C997: + x83 + x340 <= 1
C998: + x112 + x202 <= 1
C999: + x12 + x214 <= 1
C1000: + x285 + x481 <= 1
C1001: + x63 + x345 <= 1
C1002: + x90 + x95 <= 1
C1003: + x9 + x483 <= 1
C1004: + x22 + x120 <= 1
C1005: + x118 + x164 <= 1
C1006: + x193 + x263 <= 1
C1007: + x47 + x98 <= 1
C1008: + x287 + x433 <= 1
C1009: + x324 + x455 <= 1
C1010: + x289 + x357 <= 1
C1011: + x7 + x476 <= 1
C1012: + x186 + x298 <= 1
C1013: + x22 + x473 <= 1
C1014: + x61 + x217 <= 1
C1015: + x15 + x44 <= 1
C1016: + x72 + x79 <= 1
C1017: + x49 + x395 <= 1
C1018: + x123 + x386 <= 1
C1019: + x5 + x6 <= 1
C1020: + x74 + x407 <= 1
C1021: + x12 + x126 <= 1
C1022: + x34 + x201 <= 1
C1023: + x29 + x33 <= 1
C1024: + x123 + x497 <= 1
C1025: + x6 + x35 <= 1
C1026: + x9 + x176 <= 1
C1027: + x1 + x221 <= 1
C1028: + x28 + x94 <= 1
C1029: + x40 + x86 <= 1
C1030: + x12 + x42 <= 1
C1031: + x21 + x117 <= 1
C1032: + x41 + x278 <= 1
C1033: + x87 + x326 <= 1
C1034: + x112 + x328 <= 1
C1035: + x13 + x172 <= 1
C1036: + x141 + x300 <= 1
C1037: + x1 + x233 <= 1
C1038: + x274 + x335 <= 1
C1039: + x54 + x424 <= 1
C1040: + x222 + x433 <= 1
C1041: + x232 + x458 <= 1
C1042: + x362 + x379 <= 1
C1043: + x52 + x425 <= 1
C1044: + x224 + x445 <= 1
C1045: + x152 + x422 <= 1
C1046: + x84 + x468 <= 1
C1047: + x85 + x121 <= 1
C1048: + x30 + x479 <= 1
C1049: + x142 + x208 <= 1
C1050: + x7 + x128 <= 1
C1051: + x83 + x197 <= 1
C1052: + x109 + x442 <= 1
C1053: + x347 + x477 <= 1
C1054: + x192 + x333 <= 1
C1055: + x19 + x82 <= 1
C1056: + x70 + x400 <= 1
C1057: + x5 + x13 <= 1
C1058: + x1 + x37 <= 1
C1059: + x19 + x243 <= 1
C1060: + x211 + x384 <= 1
C1061: + x16 + x466 <= 1
C1062: + x51 + x109 <= 1
C1063: + x18 + x299 <= 1
C1064: + x83 + x249 <= 1
C1065: + x10 + x406 <= 1
C1066: + x283 + x471 <= 1
C1067: + x5 + x49 <= 1
C1068: + x244 + x464 <= 1
C1069: + x84 + x397 <= 1
C1070: + x114 + x440 <= 1
C1071: + x104 + x445 <= 1
C1072: + x169 + x466 <= 1
C1073: + x35 + x134 <= 1
C1074: + x62 + x208 <= 1
C1075: + x202 + x397 <= 1
C1076: + x136 + x355 <= 1
C1077: + x7 + x232 <= 1
C1078: + x12 + x192 <= 1
C1079: + x131 + x457 <= 1
C1080: + x61 + x477 <= 1
C1081: + x34 + x143 <= 1
C1082: + x96 + x497 <= 1
C1083: + x75 + x400 <= 1
C1084: + x21 + x72 <= 1
C1085: + x327 + x380 <= 1
C1086: + x1 + x159 <= 1
C1087: + x49 + x441 <= 1
C1088: + x31 + x121 <= 1
C1089: + x6 + x351 <= 1
C1090: + x100 + x144 <= 1
C1091: + x316 + x353 <= 1
C1092: + x2 + x164 <= 1
C1093: + x24 + x76 <= 1
C1094: + x6 + x21 <= 1
C1095: + x55 + x286 <= 1
C1096: + x38 + x380 <= 1
C1097: + x104 + x140 <= 1
C1098: + x161 + x196 <= 1
C1099: + x81 + x121 <= 1
C1100: + x34 + x257 <= 1
C1101: + x9 + x59 <= 1
C1102: + x64 + x66 <= 1
C1103: + x240 + x444 <= 1
C1104: + x342 + x411 <= 1
C1105: + x6 + x422 <= 1
C1106: + x7 + x62 <= 1
C1107: + x102 + x423 <= 1
C1108: + x14 + x38 <= 1
C1109: + x9 + x373 <= 1
C1110: + x6 + x311 <= 1
C1111: + x47 + x216 <= 1
C1112: + x52 + x137 <= 1
C1113: + x24 + x468 <= 1
C1114: + x329 + x473 <= 1
C1115: + x1 + x150 <= 1
C1116: + x2 + x26 <= 1
C1117: + x160 + x390 <= 1
C1118: + x62 + x427 <= 1
C1119: + x2 + x165 <= 1
C1120: + x220 + x423 <= 1
C1121: + x292 + x479 <= 1
C1122: + x174 + x177 <= 1
C1123: + x69 + x88 <= 1
C1124: + x130 + x254 <= 1
C1125: + x168 + x169 <= 1
C1126: + x94 + x157 <= 1
C1127: + x53 + x89 <= 1
C1128: + x119 + x141 <= 1
C1129: + x113 + x137 <= 1
C1130: + x71 + x245 <= 1
C1131: + x47 + x289 <= 1
C1132: + x7 + x283 <= 1
C1133: + x65 + x318 <= 1
C1134: + x120 + x168 <= 1
C1135: + x3 + x274 <= 1
C1136: + x77 + x297 <= 1
C1137: + x42 + x347 <= 1
C1138: + x179 + x193 <= 1
C1139: + x52 + x115 <= 1
C1140: + x53 + x109 <= 1
C1141: + x36 + x237 <= 1
C1142: + x201 + x227 <= 1
C1143: + x55 + x206 <= 1
C1144: + x241 + x453 <= 1
C1145: + x240 + x405 <= 1
C1146: + x9 + x110 <= 1
C1147: + x187 + x446 <= 1
C1148: + x12 + x480 <= 1
C1149: + x7 + x97 <= 1
C1150: + x140 + x187 <= 1
C1151: + x13 + x133 <= 1
C1152: + x417 + x459 <= 1
C1153: + x126 + x185 <= 1
C1154: + x71 + x407 <= 1
C1155: + x118 + x204 <= 1
C1156: + x111 + x213 <= 1
C1157: + x58 + x457 <= 1
C1158: + x4 + x5 <= 1
C1159: + x2 + x473 <= 1
C1160: + x3 + x455 <= 1
C1161: + x67 + x244 <= 1
C1162: + x33 + x80 <= 1
C1163: + x23 + x55 <= 1
C1164: + x63 + x74 <= 1
C1165: + x2 + x47 <= 1
C1166: + x193 + x430 <= 1
C1167: + x60 + x302 <= 1
C1168: + x32 + x173 <= 1
C1169: + x153 + x175 <= 1
C1170: + x15 + x237 <= 1
C1171: + x7 + x387 <= 1
C1172: + x8 + x17 <= 1
C1173: + x180 + x227 <= 1
C1174: + x39 + x215 <= 1
C1175: + x162 + x492 <= 1
C1176: + x189 + x306 <= 1
C1177: + x18 + x157 <= 1
C1178: + x28 + x118 <= 1
C1179: + x37 + x326 <= 1
C1180: + x7 + x447 <= 1
C1181: + x52 + x151 <= 1
C1182: + x249 + x396 <= 1
C1183: + x174 + x437 <= 1
C1184: + x9 + x228 <= 1
C1185: + x2 + x183 <= 1
C1186: + x20 + x212 <= 1
C1187: + x183 + x248 <= 1
C1188: + x4 + x14 <= 1
C1189: + x22 + x188 <= 1
C1190: + x40 + x301 <= 1
C1191: + x7 + x491 <= 1
C1192: + x63 + x152 <= 1
C1193: + x167 + x341 <= 1
C1194: + x61 + x208 <= 1
C1195: + x15 + x91 <= 1
C1196: + x160 + x206 <= 1
C1197: + x6 + x16 <= 1
C1198: + x44 + x258 <= 1
C1199: + x2 + x40 <= 1
C1200: + x82 + x453 <= 1
C1201: + x326 + x393 <= 1
C1202: + x1 + x93 <= 1
C1203: + x230 + x394 <= 1
C1204: + x359 + x360 <= 1
C1205: + x6 + x401 <= 1
C1206: + x2 + x81 <= 1
C1207: + x95 + x152 <= 1
C1208: + x12 + x381 <= 1
C1209: + x61 + x260 <= 1
C1210: + x6 + x52 <= 1
C1211: + x28 + x75 <= 1
C1212: + x193 + x369 <= 1
C1213: + x94 + x163 <= 1
C1214: + x12 + x220 <= 1
C1215: + x62 + x325 <= 1
C1216: + x2 + x287 <= 1
C1217: + x174 + x267 <= 1
C1218: + x33 + x130 <= 1
C1219: + x315 + x377 <= 1
C1220: + x15 + x18 <= 1
C1221: + x7 + x83 <= 1
C1222: + x13 + x187 <= 1
C1223: + x431 + x485 <= 1
C1224: + x189 + x285 <= 1
C1225: + x80 + x97 <= 1
C1226: + x181 + x223 <= 1
C1227: + x24 + x350 <= 1
C1228: + x8 + x83 <= 1
C1229: + x13 + x32 <= 1
C1230: + x33 + x332 <= 1
C1231: + x61 + x98 <= 1
C1232: + x281 + x312 <= 1
C1233: + x16 + x51 <= 1
C1234: + x236 + x367 <= 1
C1235: + x57 + x66 <= 1
C1236: + x3 + x6 <= 1
C1237: + x34 + x66 <= 1
C1238: + x17 + x392 <= 1
C1239: + x73 + x229 <= 1
C1240: + x63 + x124 <= 1
C1241: + x75 + x134 <= 1
C1242: + x147 + x174 <= 1
C1243: + x8 + x228 <= 1
C1244: + x40 + x112 <= 1
C1245: + x167 + x169 <= 1
C1246: + x194 + x207 <= 1
C1247: + x98 + x499 <= 1
C1248: + x181 + x392 <= 1
C1249: + x18 + x409 <= 1
C1250: + x9 + x436 <= 1
C1251: + x12 + x374 <= 1
C1252: + x6 + x61 <= 1
C1253: + x135 + x465 <= 1
C1254: + x30 + x167 <= 1
C1255: + x13 + x35 <= 1
C1256: + x39 + x84 <= 1
C1257: + x107 + x351 <= 1
C1258: + x6 + x299 <= 1
C1259: + x1 + x112 <= 1
C1260: + x41 + x215 <= 1
C1261: + x30 + x74 <= 1
C1262: + x40 + x334 <= 1
C1263: + x31 + x291 <= 1
C1264: + x79 + x217 <= 1
C1265: + x53 + x287 <= 1
C1266: + x198 + x398 <= 1
C1267: + x12 + x290 <= 1
C1268: + x53 + x436 <= 1
C1269: + x1 + x31 <= 1
C1270: + x8 + x76 <= 1
C1271: + x77 + x266 <= 1
C1272: + x205 + x343 <= 1
C1273: + x22 + x377 <= 1
C1274: + x12 + x141 <= 1
C1275: + x82 + x422 <= 1
C1276: + x16 + x60 <= 1
C1277: + x200 + x303 <= 1
C1278: + x111 + x331 <= 1
C1279: + x19 + x366 <= 1
C1280: + x326 + x490 <= 1
C1281: + x13 + x257 <= 1
C1282: + x22 + x63 <= 1
C1283: + x176 + x253 <= 1
C1284: + x17 + x225 <= 1
C1285: + x9 + x222 <= 1
C1286: + x94 + x260 <= 1
C1287: + x104 + x471 <= 1
C1288: + x8 + x419 <= 1
C1289: + x50 + x105 <= 1
C1290: + x6 + x38 <= 1
C1291: + x118 + x289 <= 1
C1292: + x189 + x479 <= 1
C1293: + x17 + x427 <= 1
C1294: + x36 + x46 <= 1
C1295: + x146 + x331 <= 1
C1296: + x39 + x75 <= 1
C1297: + x176 + x193 <= 1
C1298: + x107 + x141 <= 1
C1299: + x125 + x311 <= 1
C1300: + x286 + x491 <= 1
C1301: + x21 + x149 <= 1
C1302: + x110 + x114 <= 1
C1303: + x4 + x181 <= 1
C1304: + x240 + x425 <= 1
C1305: + x48 + x233 <= 1
C1306: + x83 + x150 <= 1
C1307: + x93 + x186 <= 1
C1308: + x21 + x380 <= 1
C1309: + x205 + x489 <= 1
C1310: + x18 + x361 <= 1
C1311: + x38 + x177 <= 1
C1312: + x17 + x73 <= 1
C1313: + x488 + x494 <= 1
C1314: + x210 + x472 <= 1
C1315: + x3 + x185 <= 1
C1316: + x123 + x398 <= 1
C1317: + x6 + x361 <= 1
C1318: + x1 + x34 <= 1
C1319: + x157 + x288 <= 1
C1320: + x22 + x342 <= 1
C1321: + x16 + x469 <= 1
C1322: + x7 + x12 <= 1
C1323: + x37 + x80 <= 1
C1324: + x47 + x147 <= 1
C1325: + x9 + x287 <= 1
C1326: + x72 + x127 <= 1
C1327: + x52 + x481 <= 1
C1328: + x5 + x54 <= 1
C1329: + x10 + x135 <= 1
C1330: + x56 + x211 <= 1
C1331: + x253 + x389 <= 1
C1332: + x112 + x324 <= 1
C1333: + x104 + x231 <= 1
C1334: + x163 + x277 <= 1
C1335: + x12 + x187 <= 1
C1336: + x17 + x80 <= 1
C1337: + x111 + x341 <= 1
C1338: + x10 + x97 <= 1
C1339: + x8 + x207 <= 1
C1340: + x177 + x331 <= 1
C1341: + x44 + x96 <= 1
C1342: + x9 + x204 <= 1
C1343: + x16 + x191 <= 1
C1344: + x262 + x336 <= 1
C1345: + x28 + x325 <= 1
C1346: + x129 + x139 <= 1
C1347: + x94 + x441 <= 1
C1348: + x19 + x22 + x113 <= 1
C1349: + x69 + x131 <= 1
C1350: + x255 + x281 <= 1
C1351: + x8 + x131 <= 1
C1352: + x301 + x393 <= 1
C1353: + x292 + x422 <= 1
C1354: + x52 + x93 <= 1
C1355: + x16 + x67 <= 1
C1356: + x36 + x183 <= 1
C1357: + x8 + x34 <= 1
C1358: + x59 + x382 <= 1
C1359: + x12 + x35 <= 1
C1360: + x40 + x377 <= 1
C1361: + x214 + x227 <= 1
C1362: + x35 + x130 <= 1
C1363: + x39 + x472 <= 1
C1364: + x22 + x390 <= 1
C1365: + x61 + x380 <= 1
C1366: + x6 + x220 <= 1
C1367: + x10 + x25 <= 1
C1368: + x311 + x416 <= 1
C1369: + x12 + x180 <= 1
C1370: + x132 + x495 <= 1
C1371: + x68 + x476 <= 1
C1372: + x9 + x100 <= 1
C1373: + x201 + x249 <= 1
C1374: + x33 + x122 <= 1
C1375: + x16 + x438 <= 1
C1376: + x146 + x191 <= 1
C1377: + x291 + x373 <= 1
C1378: + x2 + x5 <= 1
C1379: + x9 + x449 <= 1
C1380: + x47 + x487 <= 1
C1381: + x22 + x74 <= 1
C1382: + x215 + x266 <= 1
C1383: + x47 + x68 <= 1
C1384: + x148 + x321 <= 1
C1385: + x51 + x374 <= 1
C1386: + x33 + x233 <= 1
C1387: + x289 + x323 <= 1
C1388: + x44 + x244 <= 1
C1389: + x10 + x296 <= 1
C1390: + x56 + x180 <= 1
C1391: + x3 + x497 <= 1
C1392: + x29 + x51 <= 1
C1393: + x48 + x334 <= 1
C1394: + x13 + x354 <= 1
C1395: + x63 + x68 <= 1
C1396: + x8 + x252 <= 1
C1397: + x10 + x387 <= 1
C1398: + x164 + x321 <= 1
C1399: + x2 + x209 <= 1
C1400: + x13 + x199 <= 1
C1401: + x15 + x231 <= 1
C1402: + x81 + x450 <= 1
C1403: + x70 + x151 <= 1
C1404: + x88 + x348 <= 1
C1405: + x16 + x495 <= 1
C1406: + x28 + x362 <= 1
C1407: + x93 + x135 <= 1
C1408: + x178 + x403 <= 1
C1409: + x23 + x117 <= 1
C1410: + x44 + x459 <= 1
C1411: + x208 + x462 <= 1
C1412: + x21 + x246 <= 1
C1413: + x42 + x342 <= 1
C1414: + x5 + x421 <= 1
C1415: + x34 + x156 <= 1
C1416: + x9 + x107 <= 1
C1417: + x110 + x401 <= 1
C1418: + x111 + x359 <= 1
C1419: + x12 + x24 <= 1
C1420: + x68 + x82 <= 1
C1421: + x4 + x229 <= 1
C1422: + x354 + x437 <= 1
C1423: + x88 + x115 <= 1
C1424: + x12 + x101 <= 1
C1425: + x285 + x338 <= 1
C1426: + x242 + x423 <= 1
C1427: + x24 + x93 <= 1
C1428: + x74 + x105 <= 1
C1429: + x72 + x199 <= 1
C1430: + x13 + x281 <= 1
C1431: + x35 + x289 <= 1
C1432: + x126 + x482 <= 1
C1433: + x146 + x228 <= 1
C1434: + x173 + x178 <= 1
C1435: + x22 + x39 <= 1
C1436: + x40 + x125 <= 1
C1437: + x6 + x189 <= 1
C1438: + x64 + x75 <= 1
C1439: + x130 + x448 <= 1
C1440: + x95 + x444 <= 1
C1441: + x9 + x387 <= 1
C1442: + x63 + x214 <= 1
C1443: + x271 + x305 <= 1
C1444: + x70 + x307 <= 1
C1445: + x126 + x310 <= 1
C1446: + x34 + x399 <= 1
C1447: + x100 + x319 <= 1
C1448: + x62 + x492 <= 1
C1449: + x10 + x11 <= 1
C1450: + x65 + x306 <= 1
C1451: + x21 + x253 <= 1
C1452: + x194 + x361 <= 1
C1453: + x13 + x50 <= 1
C1454: + x14 + x329 <= 1
C1455: + x6 + x316 <= 1
C1456: + x10 + x358 <= 1
C1457: + x21 + x82 <= 1
C1458: + x34 + x128 <= 1
C1459: + x136 + x182 <= 1
C1460: + x114 + x381 <= 1
C1461: + x186 + x421 <= 1
C1462: + x143 + x467 <= 1
C1463: + x51 + x360 <= 1
C1464: + x5 + x472 <= 1
C1465: + x67 + x259 <= 1
C1466: + x50 + x142 <= 1
C1467: + x106 + x313 <= 1
C1468: + x279 + x384 <= 1
C1469: + x15 + x88 <= 1
C1470: + x16 + x336 <= 1
C1471: + x21 + x184 <= 1
C1472: + x287 + x496 <= 1
C1473: + x90 + x357 <= 1
C1474: + x9 + x45 <= 1
C1475: + x7 + x391 <= 1
C1476: + x65 + x410 <= 1
C1477: + x243 + x370 <= 1
C1478: + x481 + x493 <= 1
C1479: + x220 + x235 <= 1
C1480: + x220 + x338 <= 1
C1481: + x348 + x389 <= 1
C1482: + x86 + x166 <= 1
C1483: + x60 + x159 <= 1
C1484: + x180 + x417 <= 1
C1485: + x6 + x55 <= 1
C1486: + x36 + x59 <= 1
C1487: + x82 + x142 <= 1
C1488: + x111 + x152 <= 1
C1489: + x104 + x106 <= 1
C1490: + x125 + x294 <= 1
C1491: + x183 + x345 <= 1
C1492: + x176 + x452 <= 1
C1493: + x6 + x72 <= 1
C1494: + x7 + x96 <= 1
C1495: + x75 + x211 <= 1
C1496: + x129 + x301 <= 1
C1497: + x274 + x448 <= 1
C1498: + x232 + x478 <= 1
C1499: + x36 + x198 <= 1
C1500: + x38 + x101 <= 1
C1501: + x3 + x7 <= 1
C1502: + x58 + x236 <= 1
C1503: + x29 + x32 <= 1
C1504: + x14 + x409 <= 1
C1505: + x36 + x417 <= 1
C1506: + x10 + x438 <= 1
C1507: + x2 + x60 <= 1
C1508: + x103 + x160 <= 1
C1509: + x3 + x172 <= 1
C1510: + x5 + x17 <= 1
C1511: + x43 + x275 <= 1
C1512: + x325 + x379 <= 1
C1513: + x26 + x379 <= 1
C1514: + x19 + x135 <= 1
C1515: + x40 + x210 <= 1
C1516: + x60 + x73 <= 1
C1517: + x31 + x191 <= 1
C1518: + x44 + x147 <= 1
C1519: + x262 + x344 <= 1
C1520: + x110 + x491 <= 1
C1521: + x2 + x482 <= 1
C1522: + x136 + x323 <= 1
C1523: + x359 + x453 <= 1
C1524: + x19 + x26 <= 1
C1525: + x383 + x463 <= 1
C1526: + x65 + x429 <= 1
C1527: + x1 + x109 <= 1
C1528: + x149 + x488 <= 1
C1529: + x42 + x191 <= 1
C1530: + x54 + x71 <= 1
C1531: + x4 + x220 <= 1
C1532: + x159 + x174 <= 1
C1533: + x287 + x302 <= 1
C1534: + x28 + x155 <= 1
C1535: + x20 + x221 <= 1
C1536: + x41 + x99 <= 1
C1537: + x70 + x71 <= 1
C1538: + x6 + x466 <= 1
C1539: + x36 + x203 <= 1
C1540: + x474 + x500 <= 1
C1541: + x10 + x324 <= 1
C1542: + x249 + x262 <= 1
C1543: + x146 + x282 <= 1
C1544: + x120 + x123 <= 1
C1545: + x201 + x499 <= 1
C1546: + x13 + x235 <= 1
C1547: + x88 + x110 <= 1
C1548: + x15 + x195 <= 1
C1549: + x21 + x27 <= 1
C1550: + x295 + x394 <= 1
C1551: + x33 + x193 <= 1
C1552: + x53 + x215 <= 1
C1553: + x7 + x30 <= 1
C1554: + x155 + x443 <= 1
C1555: + x194 + x465 <= 1
C1556: + x3 + x86 <= 1
C1557: + x13 + x378 <= 1
C1558: + x14 + x70 <= 1
C1559: + x208 + x418 <= 1
C1560: + x214 + x454 <= 1
C1561: + x5 + x68 <= 1
C1562: + x63 + x346 <= 1
C1563: + x1 + x100 <= 1
C1564: + x208 + x343 <= 1
C1565: + x164 + x314 <= 1
C1566: + x205 + x494 <= 1
C1567: + x6 + x237 <= 1
C1568: + x80 + x417 <= 1
C1569: + x95 + x364 <= 1
C1570: + x31 + x253 <= 1
C1571: + x125 + x181 <= 1
C1572: + x90 + x463 <= 1
C1573: + x152 + x432 <= 1
C1574: + x65 + x128 <= 1
C1575: + x46 + x180 <= 1
C1576: + x12 + x435 <= 1
C1577: + x10 + x424 <= 1
C1578: + x156 + x248 <= 1
C1579: + x12 + x274 <= 1
C1580: + x77 + x149 <= 1
C1581: + x14 + x238 <= 1
C1582: + x42 + x399 <= 1
C1583: + x5 + x7 <= 1
C1584: + x6 + x145 <= 1
C1585: + x273 + x383 <= 1
C1586: + x83 + x441 <= 1
C1587: + x115 + x133 <= 1
C1588: + x22 + x329 <= 1
C1589: + x5 + x497 <= 1
C1590: + x251 + x458 <= 1
C1591: + x7 + x21 <= 1
C1592: + x63 + x242 <= 1
C1593: + x54 + x133 <= 1
C1594: + x37 + x77 <= 1
C1595: + x33 + x37 <= 1
C1596: + x5 + x150 <= 1
C1597: + x146 + x252 <= 1
C1598: + x28 + x490 <= 1
C1599: + x238 + x406 <= 1
C1600: + x13 + x214 <= 1
C1601: + x9 + x14 <= 1
C1602: + x8 + x48 <= 1
C1603: + x137 + x451 <= 1
C1604: + x480 + x489 <= 1
C1605: + x18 + x39 <= 1
C1606: + x54 + x310 <= 1
C1607: + x71 + x360 <= 1
C1608: + x53 + x226 <= 1
C1609: + x7 + x65 <= 1
C1610: + x54 + x73 <= 1
C1611: + x194 + x486 <= 1
C1612: + x48 + x391 <= 1
C1613: + x141 + x293 <= 1
C1614: + x287 + x288 <= 1
C1615: + x267 + x406 <= 1
C1616: + x229 + x483 <= 1
C1617: + x2 + x158 <= 1
C1618: + x125 + x180 <= 1
C1619: + x23 + x374 <= 1
C1620: + x5 + x460 <= 1
C1621: + x135 + x165 <= 1
C1622: + x122 + x447 <= 1
C1623: + x30 + x478 <= 1
C1624: + x6 + x341 <= 1
C1625: + x201 + x350 <= 1
C1626: + x237 + x498 <= 1
C1627: + x46 + x318 <= 1
C1628: + x4 + x17 <= 1
C1629: + x22 + x167 <= 1
C1630: + x7 + x16 <= 1
C1631: + x173 + x471 <= 1
C1632: + x143 + x152 <= 1
C1633: + x139 + x323 <= 1
C1634: + x34 + x420 <= 1
C1635: + x35 + x276 <= 1
C1636: + x8 + x130 <= 1
C1637: + x11 + x168 <= 1
C1638: + x3 + x201 <= 1
C1639: + x32 + x177 <= 1
C1640: + x89 + x411 <= 1
C1641: + x7 + x415 <= 1
C1642: + x65 + x111 + x271 <= 1
C1643: + x50 + x292 <= 1
C1644: + x123 + x364 <= 1
C1645: + x33 + x171 <= 1
C1646: + x25 + x120 <= 1
C1647: + x182 + x466 <= 1
C1648: + x46 + x480 <= 1
C1649: + x432 + x498 <= 1
C1650: + x91 + x249 <= 1
C1651: + x9 + x132 <= 1
C1652: + x14 + x143 <= 1
C1653: + x87 + x461 <= 1
C1654: + x5 + x102 <= 1
C1655: + x18 + x76 <= 1
C1656: + x6 + x461 <= 1
C1657: + x66 + x114 <= 1
C1658: + x59 + x323 <= 1
C1659: + x233 + x437 <= 1
C1660: + x6 + x112 <= 1
C1661: + x9 + x478 <= 1
C1662: + x28 + x428 <= 1
C1663: + x28 + x31 <= 1
C1664: + x19 + x74 <= 1
C1665: + x237 + x332 <= 1
C1666: + x52 + x290 <= 1
C1667: + x90 + x151 <= 1
C1668: + x18 + x229 <= 1
C1669: + x145 + x296 <= 1
C1670: + x55 + x356 <= 1
C1671: + x54 + x372 <= 1
C1672: + x27 + x58 <= 1
C1673: + x265 + x346 <= 1
C1674: + x33 + x289 <= 1
C1675: + x61 + x95 <= 1
C1676: + x90 + x485 <= 1
C1677: + x126 + x492 <= 1
C1678: + x6 + x20 <= 1
C1679: + x8 + x255 <= 1
C1680: + x56 + x385 <= 1
C1681: + x4 + x167 <= 1
C1682: + x13 + x204 <= 1
C1683: + x117 + x294 <= 1
C1684: + x6 + x258 <= 1
C1685: + x9 + x60 <= 1
C1686: + x7 + x402 <= 1
C1687: + x308 + x459 <= 1
C1688: + x159 + x365 <= 1
C1689: + x318 + x371 <= 1
C1690: + x350 + x426 <= 1
C1691: + x220 + x494 <= 1
C1692: + x113 + x226 <= 1
C1693: + x39 + x53 <= 1
C1694: + x31 + x210 <= 1
C1695: + x4 + x83 <= 1
C1696: + x276 + x432 <= 1
C1697: + x16 + x19 <= 1
C1698: + x82 + x397 <= 1
C1699: + x20 + x88 <= 1
C1700: + x42 + x71 <= 1
C1701: + x90 + x125 <= 1
C1702: + x18 + x496 <= 1
C1703: + x2 + x25 <= 1
C1704: + x5 + x244 <= 1
C1705: + x81 + x394 <= 1
C1706: + x8 + x103 <= 1
C1707: + x40 + x243 <= 1
C1708: + x26 + x46 <= 1
C1709: + x15 + x429 <= 1
C1710: + x135 + x195 <= 1
C1711: + x73 + x404 <= 1
C1712: + x47 + x161 <= 1
C1713: + x31 + x500 <= 1
C1714: + x150 + x242 <= 1
C1715: + x146 + x306 <= 1
C1716: + x292 + x431 <= 1
C1717: + x3 + x219 <= 1
C1718: + x38 + x356 <= 1
C1719: + x193 + x344 <= 1
C1720: + x19 + x154 <= 1
C1721: + x219 + x322 <= 1
C1722: + x32 + x56 <= 1
C1723: + x152 + x162 <= 1
C1724: + x7 + x284 <= 1
C1725: + x8 + x172 <= 1
C1726: + x36 + x49 <= 1
C1727: + x379 + x493 <= 1
C1728: + x182 + x341 <= 1
C1729: + x65 + x92 <= 1
C1730: + x33 + x117 <= 1
C1731: + x5 + x326 <= 1
C1732: + x81 + x159 <= 1
C1733: + x44 + x352 <= 1
C1734: + x216 + x300 <= 1
C1735: + x2 + x18 <= 1
C1736: + x220 + x276 <= 1
C1737: + x141 + x262 <= 1
C1738: + x368 + x477 <= 1
C1739: + x5 + x251 <= 1
C1740: + x6 + x245 <= 1
C1741: + x372 + x419 <= 1
C1742: + x1 + x11 <= 1
C1743: + x274 + x365 <= 1
C1744: + x12 + x153 <= 1
C1745: + x460 + x496 <= 1
C1746: + x106 + x409 <= 1
C1747: + x129 + x157 <= 1
C1748: + x20 + x41 <= 1
C1749: + x357 + x395 <= 1
C1750: + x113 + x455 <= 1
C1751: + x101 + x329 <= 1
C1752: + x84 + x200 <= 1
C1753: + x295 + x320 <= 1
C1754: + x32 + x176 <= 1
C1755: + x15 + x238 <= 1
C1756: + x27 + x224 <= 1
C1757: + x19 + x145 <= 1
C1758: + x121 + x228 <= 1
C1759: + x31 + x262 <= 1
C1760: + x52 + x206 <= 1
C1761: + x40 + x363 <= 1
C1762: + x6 + x202 <= 1
C1763: + x344 + x383 <= 1
C1764: + x62 + x488 <= 1
C1765: + x74 + x335 <= 1
C1766: + x201 + x398 <= 1
C1767: + x104 + x109 <= 1
C1768: + x9 + x22 <= 1
C1769: + x182 + x350 <= 1
C1770: + x21 + x395 <= 1
C1771: + x42 + x177 <= 1
C1772: + x133 + x205 <= 1
C1773: + x48 + x268 <= 1
C1774: + x7 + x89 <= 1
C1775: + x87 + x307 <= 1
C1776: + x66 + x232 <= 1
C1777: + x2 + x424 <= 1
C1778: + x115 + x127 <= 1
C1779: + x260 + x421 <= 1
C1780: + x72 + x277 <= 1
C1781: + x134 + x295 <= 1
C1782: + x16 + x53 <= 1
C1783: + x43 + x115 <= 1
C1784: + x28 + x50 <= 1
C1785: + x66 + x359 <= 1
C1786: + x104 + x178 <= 1
C1787: + x5 + x22 <= 1
C1788: + x6 + x162 <= 1
C1789: + x151 + x386 <= 1
C1790: + x13 + x241 <= 1
C1791: + x48 + x51 <= 1
C1792: + x249 + x363 <= 1
C1793: + x156 + x388 <= 1
C1794: + x88 + x92 <= 1
C1795: + x286 + x359 <= 1
C1796: + x13 + x483 <= 1
C1797: + x126 + x346 <= 1
C1798: + x325 + x413 <= 1
C1799: + x22 + x143 <= 1
C1800: + x80 + x185 <= 1
C1801: + x194 + x475 <= 1
C1802: + x69 + x176 <= 1
C1803: + x202 + x267 <= 1
C1804: + x86 + x261 <= 1
C1805: + x34 + x170 <= 1
C1806: + x53 + x116 <= 1
C1807: + x179 + x317 <= 1
C1808: + x24 + x155 <= 1
C1809: + x9 + x29 <= 1
C1810: + x8 + x61 <= 1
C1811: + x282 + x355 <= 1
C1812: + x22 + x270 <= 1
C1813: + x15 + x23 <= 1
C1814: + x29 + x338 <= 1
C1815: + x3 + x148 <= 1
C1816: + x180 + x369 <= 1
C1817: + x7 + x253 <= 1
C1818: + x13 + x25 <= 1
C1819: + x124 + x142 <= 1
C1820: + x96 + x412 <= 1
C1821: + x6 + x469 <= 1
C1822: + x62 + x280 <= 1
C1823: + x210 + x247 <= 1
C1824: + x70 + x90 <= 1
C1825: + x20 + x494 <= 1
C1826: + x89 + x364 <= 1
C1827: + x90 + x100 <= 1
C1828: + x6 + x120 <= 1
C1829: + x2 + x64 <= 1
C1830: + x272 + x434 <= 1
C1831: + x22 + x53 <= 1
C1832: + x15 + x256 <= 1
C1833: + x39 + x194 <= 1
C1834: + x51 + x156 <= 1
C1835: + x56 + x175 <= 1
C1836: + x6 + x60 <= 1
C1837: + x145 + x250 <= 1
C1838: + x7 + x269 <= 1
C1839: + x7 + x426 <= 1
C1840: + x8 + x54 <= 1
C1841: + x102 + x299 <= 1
C1842: + x249 + x318 <= 1
C1843: + x70 + x178 <= 1
C1844: + x164 + x309 <= 1
C1845: + x7 + x248 <= 1
C1846: + x27 + x428 <= 1
C1847: + x140 + x272 <= 1
C1848: + x125 + x269 <= 1
C1849: + x173 + x425 <= 1
C1850: + x30 + x456 <= 1
C1851: + x403 + x407 <= 1
C1852: + x349 + x453 <= 1
C1853: + x22 + x62 <= 1
C1854: + x104 + x168 <= 1
C1855: + x15 + x316 <= 1
C1856: + x152 + x260 <= 1
C1857: + x82 + x310 <= 1
C1858: + x83 + x446 <= 1
C1859: + x36 + x96 <= 1
C1860: + x60 + x70 <= 1
C1861: + x43 + x248 <= 1
C1862: + x6 + x386 <= 1
C1863: + x7 + x18 <= 1
C1864: + x331 + x355 <= 1
C1865: + x4 + x281 <= 1
C1866: + x430 + x460 <= 1
C1867: + x343 + x410 <= 1
C1868: + x7 + x179 <= 1
C1869: + x36 + x45 <= 1
C1870: + x16 + x217 <= 1
C1871: + x31 + x53 <= 1
C1872: + x380 + x499 <= 1
C1873: + x30 + x66 <= 1
C1874: + x16 + x403 <= 1
C1875: + x95 + x179 <= 1
C1876: + x22 + x115 <= 1
C1877: + x118 + x175 <= 1
C1878: + x3 + x263 <= 1
C1879: + x149 + x346 <= 1
C1880: + x61 + x113 <= 1
C1881: + x6 + x455 <= 1
C1882: + x27 + x129 <= 1
C1883: + x45 + x219 <= 1
C1884: + x8 + x487 <= 1
C1885: + x49 + x158 <= 1
C1886: + x264 + x456 <= 1
C1887: + x2 + x10 <= 1
C1888: + x93 + x207 <= 1
C1889: + x220 + x268 <= 1
C1890: + x114 + x344 <= 1
C1891: + x83 + x437 <= 1
C1892: + x138 + x493 <= 1
C1893: + x115 + x129 <= 1
C1894: + x212 + x264 <= 1
C1895: + x30 + x277 <= 1
C1896: + x23 + x48 <= 1
C1897: + x70 + x275 <= 1
C1898: + x119 + x431 <= 1
C1899: + x2 + x198 <= 1
C1900: + x18 + x27 <= 1
C1901: + x128 + x196 <= 1
C1902: + x219 + x369 <= 1
C1903: + x3 + x367 <= 1
C1904: + x294 + x355 <= 1
C1905: + x7 + x69 <= 1
C1906: + x8 + x335 <= 1
C1907: + x37 + x61 <= 1
C1908: + x55 + x67 <= 1
C1909: + x3 + x125 <= 1
C1910: + x118 + x184 <= 1
C1911: + x12 + x190 <= 1
C1912: + x125 + x259 <= 1
C1913: + x5 + x440 <= 1
C1914: + x71 + x280 <= 1
C1915: + x390 + x470 <= 1
C1916: + x339 + x362 <= 1
C1917: + x248 + x290 <= 1
C1918: + x34 + x108 <= 1
C1919: + x80 + x240 <= 1
C1920: + x8 + x259 <= 1
C1921: + x6 + x337 <= 1
C1922: + x299 + x491 <= 1
C1923: + x30 + x32 <= 1
C1924: + x13 + x122 <= 1
C1925: + x51 + x133 <= 1
C1926: + x75 + x100 <= 1
C1927: + x165 + x226 <= 1
C1928: + x238 + x395 <= 1
C1929: + x9 + x57 <= 1
C1930: + x54 + x315 <= 1
C1931: + x26 + x116 <= 1
C1932: + x7 + x64 <= 1
C1933: + x65 + x211 <= 1
C1934: + x10 + x490 <= 1
C1935: + x17 + x41 <= 1
C1936: + x53 + x245 <= 1
C1937: + x22 + x389 <= 1
C1938: + x5 + x205 <= 1
C1939: + x27 + x114 <= 1
C1940: + x2 + x235 <= 1
C1941: + x238 + x447 <= 1
C1942: + x21 + x240 <= 1
C1943: + x220 + x489 <= 1
C1944: + x104 + x126 <= 1
C1945: + x7 + x463 <= 1
C1946: + x30 + x104 <= 1
C1947: + x53 + x313 <= 1
C1948: + x6 + x108 <= 1
C1949: + x237 + x251 <= 1
C1950: + x2 + x28 <= 1
C1951: + x157 + x202 <= 1
C1952: + x23 + x79 <= 1
C1953: + x5 + x241 <= 1
C1954: + x8 + x102 <= 1
C1955: + x3 + x301 <= 1

binary
x1 x2 x3 x4 x5 x6 x7 x8 x9 x10 x11 x12 x13 x14 x15 x16 x17 x18 x19 x20 x21 x22 x23 x24 x25 x26 x27 x28 x29 x30 x31 x32 x33 x34 x35 x36 x37 x38 x39 x40 x41 x42 x43 x44 x45 x46 x47 x48 x49 x50 x51 x52 x53 x54 x55 x56 x57 x58 x59 x60 x61 x62 x63 x64 x65 x66 x67 x68 x69 x70 x71 x72 x73 x74 x75 x76 x77 x78 x79 x80 x81 x82 x83 x84 x85 x86 x87 x88 x89 x90 x91 x92 x93 x94 x95 x96 x97 x98 x99 x100 x101 x102 x103 x104 x105 x106 x107 x108 x109 x110 x111 x112 x113 x114 x115 x116 x117 x118 x119 x120 x121 x122 x123 x124 x125 x126 x127 x128 x129 x130 x131 x132 x133 x134 x135 x136 x137 x138 x139 x140 x141 x142 x143 x144 x145 x146 x147 x148 x149 x150 x151 x152 x153 x154 x155 x156 x157 x158 x159 x160 x161 x162 x163 x164 x165 x166 x167 x168 x169 x170 x171 x172 x173 x174 x175 x176 x177 x178 x179 x180 x181 x182 x183 x184 x185 x186 x187 x188 x189 x190 x191 x192 x193 x194 x195 x196 x197 x198 x199 x200 x201 x202 x203 x204 x205 x206 x207 x208 x209 x210 x211 x212 x213 x214 x215 x216 x217 x218 x219 x220 x221 x222 x223 x224 x225 x226 x227 x228 x229 x230 x231 x232 x233 x234 x235 x236 x237 x238 x239 x240 x241 x242 x243 x244 x245 x246 x247 x248 x249 x250 x251 x252 x253 x254 x255 x256 x257 x258 x259 x260 x261 x262 x263 x264 x265 x266 x267 x268 x269 x270 x271 x272 x273 x274 x275 x276 x277 x278 x279 x280 x281 x282 x283 x284 x285 x286 x287 x288 x289 x290 x291 x292 x293 x294 x295 x296 x297 x298 x299 x300 x301 x302 x303 x304 x305 x306 x307 x308 x309 x310 x311 x312 x313 x314 x315 x316 x317 x318 x319 x320 x321 x322 x323 x324 x325 x326 x327 x328 x329 x330 x331 x332 x333 x334 x335 x336 x337 x338 x339 x340 x341 x342 x343 x344 x345 x346 x347 x348 x349 x350 x351 x352 x353 x354 x355 x356 x357 x358 x359 x360 x361 x362 x363 x364 x365 x366 x367 x368 x369 x370 x371 x372 x373 x374 x375 x376 x377 x378 x379 x380 x381 x382 x383 x384 x385 x386 x387 x388 x389 x390 x391 x392 x393 x394 x395 x396 x397 x398 x399 x400 x401 x402 x403 x404 x405 x406 x407 x408 x409 x410 x411 x412 x413 x414 x415 x416 x417 x418 x419 x420 x421 x422 x423 x424 x425 x426 x427 x428 x429 x430 x431 x432 x433 x434 x435 x436 x437 x438 x439 x440 x441 x442 x443 x444 x445 x446 x447 x448 x449 x450 x451 x452 x453 x454 x455 x456 x457 x458 x459 x460 x461 x462 x463 x464 x465 x466 x467 x468 x469 x470 x471 x472 x473 x474 x475 x476 x477 x478 x479 x480 x481 x482 x483 x484 x485 x486 x487 x488 x489 x490 x491 x492 x493 x494 x495 x496 x497 x498 x499 x500
