maximize
OBJ: + 1 x1 + 1 x2 + 1 x3 + 1 x4 + 1 x5 + 1 x6 + 1 x7 + 1 x8 + 1 x9 + 1 x10 + 1 x11 + 1 x12 + 1 x13 + 1 x14 + 1 x15 + 1 x16 + 1 x17 + 1 x18 + 1 x19 + 1 x20 + 1 x21 + 1 x22 + 1 x23 + 1 x24 + 1 x25 + 1 x26 + 1 x27 + 1 x28 + 1 x29 + 1 x30 + 1 x31 + 1 x32 + 1 x33 + 1 x34 + 1 x35 + 1 x36 + 1 x37 + 1 x38 + 1 x39 + 1 x40 + 1 x41 + 1 x42 + 1 x43 + 1 x44 + 1 x45 + 1 x46 + 1 x47 + 1 x48 + 1 x49 + 1 x50 + 1 x51 + 1 x52 + 1 x53 + 1 x54 + 1 x55 + 1 x56 + 1 x57 + 1 x58 + 1 x59 + 1 x60 + 1 x61 + 1 x62 + 1 x63 + 1 x64 + 1 x65 + 1 x66 + 1 x67 + 1 x68 + 1 x69 + 1 x70 + 1 x71 + 1 x72 + 1 x73 + 1 x74 + 1 x75 + 1 x76 + 1 x77 + 1 x78 + 1 x79 + 1 x80 + 1 x81 + 1 x82 + 1 x83 + 1 x84 + 1 x85 + 1 x86 + 1 x87 + 1 x88 + 1 x89 + 1 x90 + 1 x91 + 1 x92 + 1 x93 + 1 x94 + 1 x95 + 1 x96 + 1 x97 + 1 x98 + 1 x99 + 1 x100 + 1 x101 + 1 x102 + 1 x103 + 1 x104 + 1 x105 + 1 x106 + 1 x107 + 1 x108 + 1 x109 + 1 x110 + 1 x111 + 1 x112 + 1 x113 + 1 x114 + 1 x115 + 1 x116 + 1 x117 + 1 x118 + 1 x119 + 1 x120 + 1 x121 + 1 x122 + 1 x123 + 1 x124 + 1 x125 + 1 x126 + 1 x127 + 1 x128 + 1 x129 + 1 x130 + 1 x131 + 1 x132 + 1 x133 + 1 x134 + 1 x135 + 1 x136 + 1 x137 + 1 x138 + 1 x139 + 1 x140 + 1 x141 + 1 x142 + 1 x143 + 1 x144 + 1 x145 + 1 x146 + 1 x147 + 1 x148 + 1 x149 + 1 x150 + 1 x151 + 1 x152 + 1 x153 + 1 x154 + 1 x155 + 1 x156 + 1 x157 + 1 x158 + 1 x159 + 1 x160 + 1 x161 + 1 x162 + 1 x163 + 1 x164 + 1 x165 + 1 x166 + 1 x167 + 1 x168 + 1 x169 + 1 x170 + 1 x171 + 1 x172 + 1 x173 + 1 x174 + 1 x175 + 1 x176 + 1 x177 + 1 x178 + 1 x179 + 1 x180 + 1 x181 + 1 x182 + 1 x183 + 1 x184 + 1 x185 + 1 x186 + 1 x187 + 1 x188 + 1 x189 + 1 x190 + 1 x191 + 1 x192 + 1 x193 + 1 x194 + 1 x195 + 1 x196 + 1 x197 + 1 x198 + 1 x199 + 1 x200 + 1 x201 + 1 x202 + 1 x203 + 1 x204 + 1 x205 + 1 x206 + 1 x207 + 1 x208 + 1 x209 + 1 x210 + 1 x211 + 1 x212 + 1 x213 + 1 x214 + 1 x215 + 1 x216 + 1 x217 + 1 x218 + 1 x219 + 1 x220 + 1 x221 + 1 x222 + 1 x223 + 1 x224 + 1 x225 + 1 x226 + 1 x227 + 1 x228 + 1 x229 + 1 x230 + 1 x231 + 1 x232 + 1 x233 + 1 x234 + 1 x235 + 1 x236 + 1 x237 + 1 x238 + 1 x239 + 1 x240 + 1 x241 + 1 x242 + 1 x243 + 1 x244 + 1 x245 + 1 x246 + 1 x247 + 1 x248 + 1 x249 + 1 x250 + 1 x251 + 1 x252 + 1 x253 + 1 x254 + 1 x255 + 1 x256 + 1 x257 + 1 x258 + 1 x259 + 1 x260 + 1 x261 + 1 x262 + 1 x263 + 1 x264 + 1 x265 + 1 x266 + 1 x267 + 1 x268 + 1 x269 + 1 x270 + 1 x271 + 1 x272 + 1 x273 + 1 x274 + 1 x275 + 1 x276 + 1 x277 + 1 x278 + 1 x279 + 1 x280 + 1 x281 + 1 x282 + 1 x283 + 1 x284 + 1 x285 + 1 x286 + 1 x287 + 1 x288 + 1 x289 + 1 x290 + 1 x291 + 1 x292 + 1 x293 + 1 x294 + 1 x295 + 1 x296 + 1 x297 + 1 x298 + 1 x299 + 1 x300 + 1 x301 + 1 x302 + 1 x303 + 1 x304 + 1 x305 + 1 x306 + 1 x307 + 1 x308 + 1 x309 + 1 x310 + 1 x311 + 1 x312 + 1 x313 + 1 x314 + 1 x315 + 1 x316 + 1 x317 + 1 x318 + 1 x319 + 1 x320 + 1 x321 + 1 x322 + 1 x323 + 1 x324 + 1 x325 + 1 x326 + 1 x327 + 1 x328 + 1 x329 + 1 x330 + 1 x331 + 1 x332 + 1 x333 + 1 x334 + 1 x335 + 1 x336 + 1 x337 + 1 x338 + 1 x339 + 1 x340 + 1 x341 + 1 x342 + 1 x343 + 1 x344 + 1 x345 + 1 x346 + 1 x347 + 1 x348 + 1 x349 + 1 x350 + 1 x351 + 1 x352 + 1 x353 + 1 x354 + 1 x355 + 1 x356 + 1 x357 + 1 x358 + 1 x359 + 1 x360 + 1 x361 + 1 x362 + 1 x363 + 1 x364 + 1 x365 + 1 x366 + 1 x367 + 1 x368 + 1 x369 + 1 x370 + 1 x371 + 1 x372 + 1 x373 + 1 x374 + 1 x375 + 1 x376 + 1 x377 + 1 x378 + 1 x379 + 1 x380 + 1 x381 + 1 x382 + 1 x383 + 1 x384 + 1 x385 + 1 x386 + 1 x387 + 1 x388 + 1 x389 + 1 x390 + 1 x391 + 1 x392 + 1 x393 + 1 x394 + 1 x395 + 1 x396 + 1 x397 + 1 x398 + 1 x399 + 1 x400 + 1 x401 + 1 x402 + 1 x403 + 1 x404 + 1 x405 + 1 x406 + 1 x407 + 1 x408 + 1 x409 + 1 x410 + 1 x411 + 1 x412 + 1 x413 + 1 x414 + 1 x415 + 1 x416 + 1 x417 + 1 x418 + 1 x419 + 1 x420 + 1 x421 + 1 x422 + 1 x423 + 1 x424 + 1 x425 + 1 x426 + 1 x427 + 1 x428 + 1 x429 + 1 x430 + 1 x431 + 1 x432 + 1 x433 + 1 x434 + 1 x435 + 1 x436 + 1 x437 + 1 x438 + 1 x439 + 1 x440 + 1 x441 + 1 x442 + 1 x443 + 1 x444 + 1 x445 + 1 x446 + 1 x447 + 1 x448 + 1 x449 + 1 x450 + 1 x451 + 1 x452 + 1 x453 + 1 x454 + 1 x455 + 1 x456 + 1 x457 + 1 x458 + 1 x459 + 1 x460 + 1 x461 + 1 x462 + 1 x463 + 1 x464 + 1 x465 + 1 x466 + 1 x467 + 1 x468 + 1 x469 + 1 x470 + 1 x471 + 1 x472 + 1 x473 + 1 x474 + 1 x475 + 1 x476 + 1 x477 + 1 x478 + 1 x479 + 1 x480 + 1 x481 + 1 x482 + 1 x483 + 1 x484 + 1 x485 + 1 x486 + 1 x487 + 1 x488 + 1 x489 + 1 x490 + 1 x491 + 1 x492 + 1 x493 + 1 x494 + 1 x495 + 1 x496 + 1 x497 + 1 x498 + 1 x499 + 1 x500

subject to
C1: + x60 + x184 <= 1
C2: + x5 + x136 <= 1
C3: + x3 + x224 <= 1
C4: + x184 + x204 <= 1
C5: + x212 + x497 <= 1
C6: + x12 + x256 <= 1
C7: + x193 + x242 <= 1
C8: + x122 + x206 <= 1
C9: + x12 + x91 <= 1
C10: + x120 + x309 <= 1
C11: + x53 + x244 <= 1
C12: + x73 + x93 <= 1
C13: + x6 + x417 <= 1
C14: + x263 + x380 <= 1
C15: + x288 + x386 <= 1
C16: + x9 + x378 <= 1
C17: + x73 + x186 <= 1
C18: + x77 + x303 <= 1
C19: + x179 + x195 <= 1
C20: + x53 + x99 <= 1
C21: + x9 + x108 <= 1
C22: + x8 + x462 <= 1
C23: + x18 + x484 <= 1
C24: + x49 + x437 <= 1
C25: + x68 + x81 <= 1
C26: + x99 + x143 <= 1
C27: + x111 + x215 <= 1
C28: + x56 + x101 <= 1
C29: + x84 + x86 <= 1
C30: + x43 + x236 <= 1
C31: + x37 + x102 <= 1
C32: + x20 + x40 <= 1
C33: + x49 + x260 <= 1
C34: + x267 + x327 <= 1
C35: + x56 + x375 <= 1
C36: + x173 + x179 <= 1
C37: + x47 + x443 <= 1
C38: + x205 + x447 <= 1
C39: + x44 + x438 <= 1
C40: + x90 + x355 <= 1
C41: + x10 + x185 <= 1
C42: + x128 + x255 <= 1
C43: + x231 + x273 <= 1
C44: + x39 + x209 <= 1
C45: + x204 + x295 <= 1
C46: + x57 + x307 <= 1
C47: + x27 + x68 <= 1
C48: + x19 + x37 <= 1
C49: + x3 + x235 <= 1
C50: + x304 + x428 <= 1
C51: + x387 + x439 <= 1
C52: + x90 + x229 <= 1
C53: + x118 + x215 <= 1
C54: + x128 + x180 <= 1
C55: + x74 + x438 <= 1
C56: + x395 + x442 <= 1
C57: + x161 + x301 <= 1
C58: + x191 + x274 <= 1
C59: + x66 + x148 <= 1
C60: + x247 + x339 <= 1
C61: + x168 + x349 <= 1
C62: + x5 + x374 <= 1
C63: + x144 + x369 <= 1
C64: + x12 + x238 <= 1
C65: + x32 + x172 <= 1
C66: + x160 + x446 <= 1
C67: + x9 + x46 <= 1
C68: + x10 + x162 <= 1
C69: + x241 + x261 <= 1
C70: + x21 + x22 <= 1
C71: + x22 + x130 <= 1
C72: + x59 + x280 <= 1
C73: + x74 + x172 + x478 <= 1
C74: + x76 + x248 <= 1
C75: + x29 + x387 <= 1
C76: + x12 + x379 <= 1
C77: + x5 + x186 <= 1
C78: + x14 + x83 <= 1
C79: + x56 + x57 + x165 <= 1
C80: + x144 + x261 <= 1
C81: + x5 + x95 <= 1
C82: + x24 + x154 <= 1
C83: + x77 + x79 <= 1
C84: + x15 + x20 <= 1
C85: + x31 + x87 <= 1
C86: + x2 + x138 <= 1
C87: + x105 + x189 <= 1
C88: + x50 + x408 <= 1
C89: + x34 + x225 <= 1
C90: + x252 + x483 <= 1
C91: + x127 + x136 <= 1
C92: + x66 + x149 <= 1
C93: + x3 + x8 <= 1
C94: + x86 + x90 <= 1
C95: + x315 + x335 <= 1
C96: + x15 + x96 <= 1
C97: + x6 + x11 <= 1
C98: + x19 + x410 <= 1
C99: + x84 + x209 <= 1
C100: + x136 + x301 <= 1
C101: + x49 + x415 <= 1
C102: + x254 + x332 <= 1
C103: + x10 + x171 <= 1
C104: + x88 + x354 <= 1
C105: + x7 + x28 <= 1
C106: + x132 + x175 <= 1
C107: + x13 + x324 <= 1
C108: + x14 + x76 <= 1
C109: + x163 + x305 <= 1
C110: + x165 + x202 <= 1
C111: + x4 + x78 <= 1
C112: + x25 + x274 <= 1
C113: + x25 + x199 <= 1
C114: + x7 + x427 <= 1
C115: + x66 + x82 <= 1
C116: + x56 + x195 <= 1
C117: + x33 + x135 <= 1
C118: + x51 + x209 <= 1
C119: + x173 + x287 <= 1
C120: + x2 + x104 <= 1
C121: + x357 + x470 <= 1
C122: + x95 + x197 <= 1
C123: + x14 + x64 <= 1
C124: + x23 + x107 <= 1
C125: + x278 + x296 <= 1
C126: + x18 + x197 <= 1
C127: + x172 + x308 <= 1
C128: + x234 + x444 <= 1
C129: + x96 + x392 <= 1
C130: + x9 + x77 <= 1
C131: + x18 + x104 <= 1
C132: + x331 + x436 <= 1
C133: + x60 + x212 <= 1
C134: + x324 + x383 <= 1
C135: + x7 + x132 <= 1
C136: + x65 + x332 <= 1
C137: + x2 + x52 <= 1
C138: + x55 + x499 <= 1
C139: + x4 + x135 <= 1
C140: + x39 + x198 <= 1
C141: + x141 + x457 <= 1
C142: + x22 + x148 <= 1
C143: + x6 + x389 <= 1
C144: + x73 + x121 <= 1
C145: + x45 + x277 <= 1
C146: + x221 + x337 <= 1
C147: + x12 + x361 <= 1
C148: + x33 + x47 <= 1
C149: + x217 + x316 <= 1
C150: + x53 + x373 <= 1
C151: + x343 + x411 <= 1
C152: + x71 + x449 <= 1
C153: + x41 + x63 <= 1
C154: + x33 + x396 <= 1
C155: + x21 + x139 <= 1
C156: + x43 + x335 <= 1
C157: + x22 + x275 <= 1
C158: + x43 + x61 <= 1
C159: + x5 + x319 <= 1
C160: + x12 + x293 <= 1
C161: + x32 + x83 <= 1
C162: + x337 + x362 <= 1
C163: + x9 + x151 <= 1
C164: + x10 + x233 <= 1
C165: + x241 + x382 <= 1
C166: + x5 + x462 <= 1
C167: + x88 + x292 <= 1
C168: + x15 + x397 <= 1
C169: + x11 + x348 <= 1
C170: + x3 + x429 <= 1
C171: + x7 + x123 <= 1
C172: + x83 + x277 <= 1
C173: + x121 + x416 <= 1
C174: + x103 + x143 <= 1
C175: + x4 + x144 <= 1
C176: + x232 + x292 <= 1
C177: + x154 + x370 <= 1
C178: + x4 + x43 <= 1
C179: + x70 + x115 <= 1
C180: + x53 + x223 <= 1
C181: + x160 + x336 <= 1
C182: + x15 + x473 <= 1
C183: + x93 + x310 <= 1
C184: + x10 + x312 <= 1
C185: + x86 + x192 <= 1
C186: + x88 + x219 <= 1
C187: + x136 + x471 <= 1
C188: + x111 + x170 <= 1
C189: + x55 + x258 <= 1
C190: + x4 + x188 <= 1
C191: + x287 + x398 <= 1
C192: + x5 + x76 <= 1
C193: + x18 + x38 <= 1
C194: + x9 + x15 <= 1
C195: + x67 + x340 <= 1
C196: + x55 + x80 <= 1
C197: + x11 + x13 <= 1
C198: + x3 + x98 <= 1
C199: + x30 + x300 <= 1
C200: + x185 + x464 <= 1
C201: + x25 + x399 <= 1
C202: + x45 + x485 <= 1
C203: + x8 + x192 <= 1
C204: + x136 + x395 <= 1
C205: + x39 + x60 <= 1
C206: + x112 + x165 <= 1
C207: + x43 + x183 <= 1
C208: + x243 + x479 <= 1
C209: + x11 + x323 <= 1
C210: + x49 + x146 <= 1
C211: + x56 + x229 <= 1
C212: + x56 + x340 <= 1
C213: + x51 + x55 <= 1
C214: + x163 + x394 <= 1
C215: + x2 + x14 <= 1
C216: + x3 + x182 <= 1
C217: + x103 + x130 <= 1
C218: + x43 + x269 <= 1
C219: + x224 + x464 <= 1
C220: + x17 + x280 <= 1
C221: + x2 + x7 + x8 <= 1
C222: + x149 + x426 <= 1
C223: + x124 + x287 <= 1
C224: + x60 + x95 <= 1
C225: + x22 + x337 <= 1
C226: + x335 + x469 <= 1
C227: + x310 + x328 <= 1
C228: + x84 + x290 <= 1
C229: + x203 + x349 <= 1
C230: + x188 + x481 <= 1
C231: + x9 + x260 <= 1
C232: + x194 + x333 <= 1
C233: + x76 + x127 <= 1
C234: + x433 + x458 <= 1
C235: + x434 + x478 <= 1
C236: + x35 + x63 <= 1
C237: + x5 + x51 <= 1
C238: + x49 + x93 <= 1
C239: + x314 + x417 <= 1
C240: + x5 + x301 <= 1
C241: + x87 + x339 <= 1
C242: + x160 + x377 <= 1
C243: + x137 + x168 <= 1
C244: + x136 + x146 <= 1
C245: + x14 + x456 <= 1
C246: + x67 + x185 <= 1
C247: + x203 + x257 <= 1
C248: + x32 + x65 <= 1
C249: + x87 + x192 <= 1
C250: + x118 + x180 <= 1
C251: + x10 + x27 <= 1
C252: + x28 + x97 <= 1
C253: + x12 + x178 <= 1
C254: + x315 + x386 <= 1
C255: + x29 + x125 <= 1
C256: + x12 + x29 <= 1
C257: + x22 + x489 <= 1
C258: + x252 + x366 <= 1
C259: + x36 + x352 <= 1
C260: + x19 + x71 <= 1
C261: + x327 + x378 <= 1
C262: + x9 + x479 <= 1
C263: + x11 + x124 <= 1
C264: + x67 + x77 <= 1
C265: + x66 + x327 <= 1
C266: + x14 + x31 <= 1
C267: + x246 + x435 <= 1
C268: + x49 + x104 <= 1
C269: + x166 + x361 <= 1
C270: + x69 + x107 <= 1
C271: + x106 + x430 <= 1
C272: + x15 + x427 <= 1
C273: + x344 + x433 <= 1
C274: + x110 + x462 <= 1
C275: + x250 + x381 <= 1
C276: + x29 + x49 <= 1
C277: + x76 + x137 <= 1
C278: + x41 + x375 <= 1
C279: + x78 + x229 <= 1
C280: + x296 + x302 <= 1
C281: + x17 + x414 <= 1
C282: + x18 + x290 <= 1
C283: + x54 + x484 <= 1
C284: + x21 + x168 <= 1
C285: + x78 + x328 <= 1
C286: + x8 + x29 <= 1
C287: + x94 + x293 <= 1
C288: + x3 + x358 <= 1
C289: + x114 + x431 <= 1
C290: + x214 + x238 <= 1
C291: + x32 + x427 <= 1
C292: + x7 + x52 <= 1
C293: + x84 + x371 <= 1
C294: + x267 + x389 <= 1
C295: + x14 + x36 <= 1
C296: + x15 + x148 <= 1
C297: + x23 + x119 <= 1
C298: + x64 + x465 <= 1
C299: + x77 + x308 <= 1
C300: + x168 + x404 <= 1
C301: + x16 + x30 <= 1
C302: + x143 + x347 <= 1
C303: + x91 + x116 <= 1
C304: + x172 + x429 <= 1
C305: + x2 + x32 <= 1
C306: + x168 + x214 <= 1
C307: + x5 + x253 <= 1
C308: + x24 + x305 <= 1
C309: + x197 + x445 <= 1
C310: + x16 + x131 <= 1
C311: + x229 + x454 <= 1
C312: + x181 + x196 <= 1
C313: + x183 + x252 <= 1
C314: + x326 + x337 <= 1
C315: + x31 + x344 <= 1
C316: + x5 + x495 <= 1
C317: + x99 + x386 <= 1
C318: + x9 + x85 <= 1
C319: + x317 + x457 <= 1
C320: + x39 + x280 <= 1
C321: + x11 + x87 <= 1
C322: + x85 + x178 <= 1
C323: + x37 + x405 <= 1
C324: + x22 + x25 <= 1
C325: + x96 + x98 <= 1
C326: + x6 + x191 <= 1
C327: + x323 + x416 <= 1
C328: + x106 + x451 <= 1
C329: + x6 + x429 <= 1
C330: + x7 + x43 <= 1
C331: + x57 + x251 <= 1
C332: + x266 + x312 <= 1
C333: + x216 + x438 <= 1
C334: + x427 + x476 <= 1
C335: + x92 + x191 <= 1
C336: + x283 + x491 <= 1
C337: + x161 + x350 <= 1
C338: + x57 + x106 <= 1
C339: + x21 + x88 <= 1
C340: + x41 + x228 <= 1
C341: + x136 + x263 <= 1
C342: + x242 + x255 <= 1
C343: + x24 + x330 <= 1
C344: + x15 + x167 <= 1
C345: + x35 + x120 <= 1
C346: + x181 + x203 <= 1
C347: + x11 + x207 <= 1
C348: + x136 + x422 <= 1
C349: + x41 + x115 <= 1
C350: + x240 + x264 <= 1
C351: + x60 + x102 <= 1
C352: + x92 + x490 <= 1
C353: + x147 + x332 <= 1
C354: + x263 + x315 <= 1
C355: + x3 + x50 <= 1
C356: + x5 + x139 <= 1
C357: + x15 + x82 <= 1
C358: + x22 + x34 <= 1
C359: + x17 + x297 <= 1
C360: + x461 + x474 <= 1
C361: + x27 + x221 <= 1
C362: + x55 + x143 <= 1
C363: + x105 + x127 <= 1
C364: + x323 + x407 <= 1
C365: + x24 + x48 <= 1
C366: + x19 + x307 <= 1
C367: + x15 + x158 <= 1
C368: + x154 + x216 <= 1
C369: + x18 + x147 <= 1
C370: + x10 + x14 <= 1
C371: + x8 + x164 <= 1
C372: + x3 + x231 <= 1
C373: + x39 + x40 <= 1
C374: + x4 + x68 <= 1
C375: + x242 + x359 <= 1
C376: + x243 + x451 <= 1
C377: + x178 + x234 <= 1
C378: + x29 + x74 <= 1
C379: + x21 + x95 <= 1
C380: + x186 + x333 <= 1
C381: + x223 + x247 <= 1
C382: + x71 + x154 <= 1
C383: + x128 + x398 <= 1
C384: + x45 + x352 <= 1
C385: + x78 + x319 <= 1
C386: + x224 + x292 <= 1
C387: + x370 + x443 <= 1
C388: + x3 + x315 <= 1
C389: + x4 + x16 <= 1
C390: + x33 + x252 <= 1
C391: + x9 + x67 <= 1
C392: + x299 + x357 <= 1
C393: + x3 + x9 <= 1
C394: + x204 + x323 <= 1
C395: + x5 + x370 <= 1
C396: + x79 + x153 <= 1
C397: + x10 + x75 <= 1
C398: + x194 + x297 <= 1
C399: + x106 + x223 <= 1
C400: + x5 + x23 <= 1
C401: + x27 + x40 <= 1
C402: + x7 + x380 <= 1
C403: + x93 + x392 <= 1
C404: + x147 + x470 <= 1
C405: + x31 + x185 <= 1
C406: + x4 + x399 <= 1
C407: + x24 + x37 <= 1
C408: + x26 + x75 <= 1
C409: + x193 + x470 <= 1
C410: + x23 + x28 <= 1
C411: + x5 + x166 <= 1
C412: + x101 + x242 <= 1
C413: + x38 + x345 <= 1
C414: + x6 + x304 <= 1
C415: + x18 + x55 <= 1
C416: + x128 + x216 <= 1
C417: + x76 + x310 <= 1
C418: + x61 + x141 <= 1
C419: + x62 + x166 <= 1
C420: + x29 + x339 <= 1
C421: + x39 + x426 <= 1
C422: + x106 + x156 <= 1
C423: + x91 + x226 <= 1
C424: + x45 + x65 <= 1
C425: + x182 + x215 <= 1
C426: + x47 + x90 <= 1
C427: + x184 + x190 <= 1
C428: + x70 + x89 <= 1
C429: + x230 + x304 <= 1
C430: + x4 + x12 + x59 <= 1
C431: + x189 + x398 <= 1
C432: + x53 + x73 + x382 <= 1
C433: + x260 + x345 <= 1
C434: + x6 + x357 <= 1
C435: + x227 + x455 <= 1
C436: + x12 + x70 <= 1
C437: + x4 + x33 <= 1
C438: + x60 + x80 <= 1
C439: + x5 + x272 <= 1
C440: + x63 + x201 <= 1
C441: + x120 + x419 <= 1
C442: + x37 + x92 <= 1
C443: + x5 + x173 <= 1
C444: + x9 + x275 <= 1
C445: + x285 + x488 <= 1
C446: + x15 + x22 + x23 <= 1
C447: + x213 + x218 <= 1
C448: + x33 + x155 <= 1
C449: + x7 + x76 <= 1
C450: + x173 + x283 <= 1
C451: + x2 + x135 <= 1
C452: + x179 + x224 <= 1
C453: + x89 + x471 <= 1
C454: + x25 + x151 <= 1
C455: + x6 + x477 <= 1
C456: + x317 + x493 <= 1
C457: + x55 + x225 <= 1
C458: + x192 + x482 <= 1
C459: + x154 + x159 <= 1
C460: + x216 + x489 <= 1
C461: + x281 + x432 <= 1
C462: + x38 + x250 <= 1
C463: + x67 + x385 <= 1
C464: + x4 + x42 <= 1
C465: + x41 + x84 + x220 <= 1
C466: + x25 + x163 <= 1
C467: + x14 + x286 <= 1
C468: + x136 + x236 <= 1
C469: + x22 + x430 <= 1
C470: + x15 + x119 <= 1
C471: + x415 + x423 <= 1
C472: + x242 + x266 <= 1
C473: + x97 + x208 <= 1
C474: + x14 + x367 <= 1
C475: + x10 + x132 <= 1
C476: + x17 + x60 <= 1
C477: + x74 + x191 <= 1
C478: + x37 + x55 <= 1
C479: + x41 + x434 <= 1
C480: + x25 + x396 <= 1
C481: + x432 + x495 <= 1
C482: + x18 + x178 <= 1
C483: + x128 + x171 <= 1
C484: + x37 + x289 <= 1
C485: + x239 + x428 <= 1
C486: + x50 + x390 <= 1
C487: + x304 + x407 <= 1
C488: + x115 + x206 <= 1
C489: + x3 + x22 <= 1
C490: + x76 + x163 <= 1
C491: + x340 + x498 <= 1
C492: + x251 + x356 <= 1
C493: + x2 + x9 <= 1
C494: + x43 + x258 <= 1
C495: + x26 + x131 <= 1
C496: + x145 + x303 <= 1
C497: + x298 + x467 <= 1
C498: + x39 + x241 <= 1
C499: + x60 + x94 <= 1
C500: + x42 + x232 <= 1
C501: + x22 + x340 <= 1
C502: + x337 + x396 <= 1
C503: + x196 + x294 <= 1
C504: + x56 + x192 <= 1
C505: + x3 + x42 <= 1
C506: + x23 + x45 <= 1
C507: + x43 + x401 <= 1
C508: + x18 + x300 <= 1
C509: + x7 + x171 <= 1
C510: + x54 + x414 <= 1
C511: + x9 + x257 <= 1
C512: + x233 + x362 <= 1
C513: + x70 + x437 <= 1
C514: + x16 + x411 <= 1
C515: + x7 + x70 <= 1
C516: + x93 + x179 <= 1
C517: + x3 + x126 <= 1
C518: + x136 + x356 <= 1
C519: + x69 + x330 <= 1
C520: + x5 + x199 <= 1
C521: + x45 + x481 <= 1
C522: + x45 + x46 <= 1
C523: + x10 + x22 <= 1
C524: + x2 + x145 <= 1
C525: + x103 + x299 <= 1
C526: + x37 + x304 <= 1
C527: + x21 + x226 <= 1
C528: + x14 + x145 <= 1
C529: + x197 + x316 <= 1
C530: + x79 + x348 <= 1
C531: + x211 + x231 <= 1
C532: + x239 + x272 <= 1
C533: + x76 + x277 <= 1
C534: + x248 + x289 <= 1
C535: + x33 + x101 <= 1
C536: + x7 + x114 <= 1
C537: + x83 + x191 <= 1
C538: + x282 + x407 <= 1
C539: + x143 + x234 <= 1
C540: + x157 + x244 <= 1
C541: + x5 + x11 <= 1
C542: + x53 + x472 <= 1
C543: + x26 + x140 <= 1
C544: + x8 + x112 <= 1
C545: + x21 + x54 <= 1
C546: + x33 + x303 <= 1
C547: + x87 + x411 <= 1
C548: + x134 + x206 <= 1
C549: + x63 + x254 <= 1
C550: + x190 + x374 <= 1
C551: + x16 + x480 <= 1
C552: + x5 + x154 <= 1
C553: + x81 + x219 <= 1
C554: + x36 + x391 <= 1
C555: + x7 + x174 <= 1
C556: + x10 + x83 <= 1
C557: + x2 + x222 <= 1
C558: + x205 + x394 <= 1
C559: + x5 + x63 <= 1
C560: + x141 + x330 <= 1
C561: + x120 + x319 <= 1
C562: + x139 + x479 <= 1
C563: + x39 + x361 <= 1
C564: + x21 + x439 <= 1
C565: + x99 + x480 <= 1
C566: + x347 + x414 <= 1
C567: + x28 + x403 <= 1
C568: + x2 + x79 <= 1
C569: + x3 + x117 <= 1
C570: + x77 + x212 <= 1
C571: + x11 + x52 <= 1
C572: + x264 + x424 <= 1
C573: + x358 + x473 <= 1
C574: + x141 + x217 <= 1
C575: + x237 + x306 <= 1
C576: + x43 + x190 <= 1
C577: + x16 + x17 <= 1
C578: + x119 + x321 <= 1
C579: + x140 + x401 <= 1
C580: + x6 + x107 <= 1
C581: + x164 + x279 <= 1
C582: + x110 + x313 <= 1
C583: + x35 + x98 <= 1
C584: + x128 + x141 <= 1
C585: + x93 + x99 <= 1
C586: + x11 + x217 <= 1
C587: + x226 + x328 <= 1
C588: + x18 + x123 <= 1
C589: + x10 + x294 <= 1
C590: + x136 + x215 <= 1
C591: + x191 + x357 <= 1
C592: + x173 + x181 <= 1
C593: + x22 + x28 <= 1
C594: + x5 + x38 <= 1
C595: + x97 + x213 <= 1
C596: + x108 + x256 <= 1
C597: + x9 + x33 <= 1
C598: + x50 + x227 <= 1
C599: + x26 + x124 <= 1
C600: + x147 + x211 <= 1
C601: + x9 + x144 <= 1
C602: + x11 + x160 <= 1
C603: + x29 + x211 <= 1
C604: + x22 + x240 <= 1
C605: + x5 + x106 <= 1
C606: + x43 + x165 <= 1
C607: + x79 + x422 <= 1
C608: + x9 + x109 <= 1
C609: + x45 + x193 <= 1
C610: + x6 + x84 <= 1
C611: + x7 + x100 <= 1
C612: + x93 + x213 <= 1
C613: + x157 + x194 <= 1
C614: + x437 + x477 <= 1
C615: + x104 + x203 <= 1
C616: + x14 + x20 <= 1
C617: + x22 + x81 <= 1
C618: + x326 + x349 <= 1
C619: + x4 + x6 <= 1
C620: + x22 + x367 <= 1
C621: + x26 + x49 <= 1
C622: + x41 + x354 <= 1
C623: + x6 + x8 <= 1
C624: + x28 + x500 <= 1
C625: + x373 + x492 <= 1
C626: + x8 + x18 <= 1
C627: + x35 + x146 <= 1
C628: + x71 + x239 <= 1
C629: + x344 + x410 <= 1
C630: + x172 + x494 <= 1
C631: + x11 + x489 <= 1
C632: + x136 + x335 <= 1
C633: + x67 + x135 <= 1
C634: + x12 + x325 <= 1
C635: + x82 + x139 <= 1
C636: + x381 + x491 <= 1
C637: + x178 + x245 <= 1
C638: + x190 + x205 <= 1
C639: + x281 + x356 <= 1
C640: + x211 + x212 <= 1
C641: + x3 + x397 <= 1
C642: + x49 + x187 <= 1
C643: + x3 + x155 <= 1
C644: + x41 + x474 <= 1
C645: + x26 + x159 <= 1
C646: + x45 + x79 <= 1
C647: + x8 + x91 <= 1
C648: + x7 + x329 <= 1
C649: + x24 + x88 <= 1
C650: + x340 + x474 <= 1
C651: + x12 + x237 <= 1
C652: + x162 + x224 <= 1
C653: + x8 + x15 <= 1
C654: + x102 + x384 <= 1
C655: + x183 + x432 <= 1
C656: + x50 + x128 <= 1
C657: + x115 + x392 <= 1
C658: + x133 + x315 <= 1
C659: + x134 + x475 <= 1
C660: + x2 + x253 <= 1
C661: + x4 + x72 <= 1
C662: + x22 + x242 <= 1
C663: + x18 + x50 <= 1
C664: + x114 + x393 <= 1
C665: + x89 + x350 <= 1
C666: + x46 + x47 <= 1
C667: + x57 + x210 <= 1
C668: + x3 + x150 <= 1
C669: + x109 + x134 <= 1
C670: + x163 + x184 <= 1
C671: + x38 + x144 <= 1
C672: + x53 + x134 <= 1
C673: + x208 + x244 <= 1
C674: + x39 + x262 <= 1
C675: + x107 + x448 <= 1
C676: + x9 + x292 <= 1
C677: + x26 + x478 <= 1
C678: + x11 + x69 <= 1
C679: + x121 + x403 <= 1
C680: + x32 + x148 <= 1
C681: + x18 + x255 <= 1
C682: + x10 + x170 <= 1
C683: + x12 + x65 <= 1
C684: + x13 + x83 <= 1
C685: + x31 + x370 <= 1
C686: + x251 + x454 <= 1
C687: + x407 + x425 <= 1
C688: + x3 + x89 <= 1
C689: + x76 + x240 <= 1
C690: + x31 + x403 <= 1
C691: + x19 + x24 <= 1
C692: + x47 + x402 <= 1
C693: + x41 + x57 <= 1
C694: + x34 + x378 <= 1
C695: + x110 + x122 <= 1
C696: + x49 + x169 <= 1
C697: + x98 + x464 <= 1
C698: + x127 + x317 <= 1
C699: + x347 + x390 <= 1
C700: + x182 + x453 <= 1
C701: + x29 + x431 <= 1
C702: + x3 + x109 <= 1
C703: + x89 + x194 <= 1
C704: + x5 + x214 <= 1
C705: + x73 + x156 <= 1
C706: + x145 + x377 <= 1
C707: + x100 + x283 <= 1
C708: + x43 + x198 <= 1
C709: + x24 + x102 <= 1
C710: + x69 + x240 <= 1
C711: + x175 + x258 <= 1
C712: + x22 + x64 <= 1
C713: + x5 + x26 <= 1
C714: + x40 + x102 <= 1
C715: + x117 + x244 <= 1
C716: + x45 + x113 <= 1
C717: + x100 + x158 <= 1
C718: + x7 + x375 <= 1
C719: + x91 + x363 <= 1
C720: + x54 + x359 <= 1
C721: + x31 + x168 <= 1
C722: + x286 + x379 <= 1
C723: + x104 + x472 <= 1
C724: + x186 + x228 <= 1
C725: + x78 + x459 <= 1
C726: + x25 + x96 <= 1
C727: + x165 + x456 <= 1
C728: + x239 + x331 <= 1
C729: + x113 + x422 <= 1
C730: + x172 + x465 <= 1
C731: + x6 + x39 <= 1
C732: + x10 + x36 <= 1
C733: + x11 + x180 <= 1
C734: + x41 + x64 <= 1
C735: + x33 + x397 <= 1
C736: + x235 + x406 <= 1
C737: + x24 + x175 <= 1
C738: + x104 + x396 <= 1
C739: + x54 + x78 <= 1
C740: + x68 + x80 <= 1
C741: + x106 + x129 <= 1
C742: + x13 + x176 <= 1
C743: + x12 + x296 <= 1
C744: + x39 + x421 <= 1
C745: + x128 + x170 <= 1
C746: + x3 + x265 <= 1
C747: + x22 + x216 <= 1
C748: + x5 + x114 <= 1
C749: + x43 + x205 <= 1
C750: + x34 + x335 <= 1
C751: + x91 + x451 <= 1
C752: + x192 + x494 <= 1
C753: + x59 + x236 <= 1
C754: + x133 + x228 <= 1
C755: + x10 + x121 <= 1
C756: + x22 + x57 <= 1
C757: + x169 + x208 <= 1
C758: + x180 + x265 <= 1
C759: + x27 + x54 <= 1
C760: + x25 + x167 <= 1
C761: + x7 + x11 <= 1
C762: + x9 + x417 <= 1
C763: + x136 + x232 <= 1
C764: + x67 + x290 <= 1
C765: + x260 + x467 <= 1
C766: + x145 + x246 <= 1
C767: + x10 + x402 <= 1
C768: + x10 + x37 <= 1
C769: + x193 + x325 <= 1
C770: + x136 + x466 <= 1
C771: + x114 + x142 <= 1
C772: + x27 + x250 <= 1
C773: + x50 + x297 <= 1
C774: + x226 + x269 <= 1
C775: + x56 + x318 <= 1
C776: + x427 + x496 <= 1
C777: + x45 + x51 <= 1
C778: + x3 + x260 <= 1
C779: + x32 + x309 <= 1
C780: + x54 + x200 <= 1
C781: + x76 + x167 <= 1
C782: + x156 + x207 <= 1
C783: + x59 + x88 <= 1
C784: + x5 + x16 <= 1
C785: + x99 + x255 <= 1
C786: + x296 + x423 <= 1
C787: + x125 + x376 <= 1
C788: + x213 + x363 <= 1
C789: + x16 + x467 <= 1
C790: + x93 + x270 <= 1
C791: + x67 + x230 <= 1
C792: + x412 + x490 <= 1
C793: + x132 + x133 <= 1
C794: + x23 + x33 <= 1
C795: + x5 + x159 <= 1
C796: + x63 + x92 <= 1
C797: + x8 + x39 <= 1
C798: + x104 + x442 <= 1
C799: + x263 + x387 <= 1
C800: + x23 + x125 <= 1
C801: + x7 + x304 <= 1
C802: + x19 + x53 <= 1
C803: + x10 + x26 <= 1
C804: + x301 + x452 <= 1
C805: + x12 + x177 <= 1
C806: + x68 + x473 <= 1
C807: + x43 + x358 <= 1
C808: + x28 + x271 <= 1
C809: + x75 + x395 <= 1
C810: + x123 + x318 <= 1
C811: + x83 + x187 <= 1
C812: + x19 + x72 <= 1
C813: + x2 + x6 <= 1
C814: + x273 + x450 <= 1
C815: + x156 + x200 <= 1
C816: + x86 + x224 <= 1
C817: + x90 + x336 <= 1
C818: + x3 + x303 <= 1
C819: + x187 + x282 <= 1
C820: + x57 + x169 <= 1
C821: + x56 + x177 <= 1
C822: + x230 + x267 <= 1
C823: + x47 + x337 <= 1
C824: + x105 + x440 <= 1
C825: + x23 + x60 <= 1
C826: + x360 + x493 <= 1
C827: + x166 + x249 <= 1
C828: + x4 + x169 <= 1
C829: + x8 + x32 <= 1
C830: + x137 + x499 <= 1
C831: + x29 + x161 <= 1
C832: + x6 + x419 <= 1
C833: + x136 + x138 <= 1
C834: + x121 + x327 <= 1
C835: + x64 + x468 <= 1
C836: + x105 + x129 <= 1
C837: + x140 + x298 <= 1
C838: + x107 + x173 <= 1
C839: + x34 + x133 <= 1
C840: + x187 + x434 <= 1
C841: + x161 + x421 <= 1
C842: + x7 + x109 <= 1
C843: + x137 + x156 <= 1
C844: + x57 + x193 <= 1
C845: + x220 + x285 <= 1
C846: + x121 + x438 <= 1
C847: + x48 + x475 <= 1
C848: + x51 + x395 <= 1
C849: + x224 + x317 <= 1
C850: + x6 + x138 <= 1
C851: + x88 + x447 <= 1
C852: + x182 + x251 <= 1
C853: + x295 + x428 <= 1
C854: + x178 + x382 <= 1
C855: + x79 + x371 <= 1
C856: + x128 + x368 <= 1
C857: + x485 + x497 <= 1
C858: + x3 + x56 <= 1
C859: + x79 + x144 <= 1
C860: + x36 + x436 <= 1
C861: + x10 + x389 <= 1
C862: + x76 + x112 <= 1
C863: + x363 + x445 <= 1
C864: + x59 + x188 <= 1
C865: + x156 + x339 <= 1
C866: + x3 + x76 <= 1
C867: + x22 + x393 <= 1
C868: + x133 + x305 <= 1
C869: + x7 + x282 <= 1
C870: + x3 + x237 <= 1
C871: + x285 + x412 <= 1
C872: + x31 + x223 <= 1
C873: + x226 + x385 <= 1
C874: + x9 + x11 + x18 <= 1
C875: + x13 + x291 <= 1
C876: + x64 + x147 <= 1
C877: + x11 + x466 <= 1
C878: + x195 + x393 <= 1
C879: + x33 + x468 <= 1
C880: + x431 + x474 <= 1
C881: + x99 + x140 <= 1
C882: + x34 + x476 <= 1
C883: + x18 + x213 <= 1
C884: + x280 + x362 <= 1
C885: + x94 + x354 <= 1
C886: + x26 + x53 <= 1
C887: + x54 + x231 <= 1
C888: + x110 + x447 <= 1
C889: + x275 + x351 <= 1
C890: + x95 + x104 <= 1
C891: + x224 + x331 <= 1
C892: + x162 + x270 <= 1
C893: + x9 + x44 <= 1
C894: + x8 + x14 <= 1
C895: + x10 + x164 <= 1
C896: + x28 + x218 <= 1
C897: + x143 + x187 <= 1
C898: + x167 + x269 <= 1
C899: + x85 + x142 <= 1
C900: + x222 + x402 <= 1
C901: + x4 + x67 <= 1
C902: + x43 + x172 <= 1
C903: + x81 + x491 <= 1
C904: + x9 + x24 <= 1
C905: + x198 + x230 <= 1
C906: + x66 + x91 <= 1
C907: + x18 + x61 <= 1
C908: + x113 + x127 <= 1
C909: + x75 + x281 <= 1
C910: + x66 + x230 <= 1
C911: + x58 + x124 <= 1
C912: + x7 + x252 <= 1
C913: + x118 + x359 <= 1
C914: + x163 + x272 <= 1
C915: + x139 + x388 <= 1
C916: + x114 + x210 <= 1
C917: + x78 + x481 <= 1
C918: + x73 + x388 <= 1
C919: + x67 + x285 <= 1
C920: + x238 + x369 <= 1
C921: + x39 + x100 <= 1
C922: + x22 + x42 <= 1
C923: + x78 + x370 <= 1
C924: + x6 + x176 <= 1
C925: + x82 + x314 <= 1
C926: + x37 + x249 <= 1
C927: + x285 + x379 <= 1
C928: + x42 + x313 <= 1
C929: + x25 + x86 <= 1
C930: + x13 + x88 <= 1
C931: + x9 + x400 <= 1
C932: + x143 + x190 <= 1
C933: + x6 + x49 <= 1
C934: + x7 + x199 <= 1
C935: + x83 + x345 <= 1
C936: + x141 + x423 <= 1
C937: + x5 + x92 <= 1
C938: + x23 + x230 <= 1
C939: + x153 + x314 <= 1
C940: + x21 + x103 <= 1
C941: + x114 + x122 <= 1
C942: + x39 + x334 <= 1
C943: + x15 + x21 <= 1
C944: + x95 + x199 <= 1
C945: + x16 + x302 <= 1
C946: + x10 + x226 <= 1
C947: + x84 + x103 <= 1
C948: + x22 + x194 <= 1
C949: + x78 + x410 <= 1
C950: + x24 + x105 <= 1
C951: + x6 + x467 <= 1
C952: + x156 + x494 <= 1
C953: + x60 + x210 <= 1
C954: + x25 + x46 <= 1
C955: + x15 + x33 <= 1
C956: + x10 + x448 <= 1
C957: + x58 + x73 <= 1
C958: + x170 + x218 <= 1
C959: + x5 + x31 <= 1
C960: + x6 + x169 <= 1
C961: + x94 + x264 <= 1
C962: + x22 + x321 <= 1
C963: + x110 + x485 <= 1
C964: + x29 + x42 <= 1
C965: + x49 + x222 <= 1
C966: + x266 + x298 <= 1
C967: + x3 + x85 <= 1
C968: + x197 + x494 <= 1
C969: + x5 + x174 <= 1
C970: + x91 + x166 <= 1
C971: + x163 + x247 <= 1
C972: + x28 + x69 <= 1
C973: + x66 + x394 <= 1
C974: + x43 + x321 <= 1
C975: + x52 + x75 <= 1
C976: + x300 + x436 <= 1
C977: + x102 + x297 <= 1
C978: + x293 + x353 <= 1
C979: + x50 + x198 <= 1
C980: + x224 + x254 <= 1
C981: + x37 + x454 <= 1
C982: + x140 + x163 <= 1
C983: + x188 + x268 <= 1
C984: + x173 + x427 <= 1
C985: + x139 + x279 <= 1
C986: + x42 + x109 <= 1
C987: + x136 + x289 <= 1
C988: + x49 + x395 <= 1
C989: + x98 + x251 <= 1
C990: + x25 + x338 <= 1
C991: + x44 + x416 <= 1
C992: + x121 + x251 <= 1
C993: + x161 + x268 <= 1
C994: + x10 + x306 <= 1
C995: + x318 + x430 <= 1
C996: + x256 + x259 <= 1
C997: + x12 + x368 <= 1
C998: + x33 + x36 <= 1
C999: + x288 + x353 <= 1
C1000: + x16 + x219 <= 1
C1001: + x91 + x282 <= 1
C1002: + x236 + x391 <= 1
C1003: + x220 + x449 <= 1
C1004: + x81 + x238 <= 1
C1005: + x120 + x133 <= 1
C1006: + x125 + x306 <= 1
C1007: + x315 + x437 <= 1
C1008: + x15 + x326 <= 1
C1009: + x9 + x13 <= 1
C1010: + x28 + x249 <= 1
C1011: + x33 + x147 <= 1
C1012: + x23 + x390 <= 1
C1013: + x45 + x326 <= 1
C1014: + x146 + x150 <= 1
C1015: + x283 + x383 <= 1
C1016: + x3 + x100 <= 1
C1017: + x31 + x70 <= 1
C1018: + x26 + x259 <= 1
C1019: + x7 + x237 <= 1
C1020: + x464 + x465 <= 1
C1021: + x77 + x260 <= 1
C1022: + x69 + x481 <= 1
C1023: + x5 + x459 <= 1
C1024: + x173 + x418 <= 1
C1025: + x3 + x19 <= 1
C1026: + x58 + x256 <= 1
C1027: + x15 + x51 <= 1
C1028: + x288 + x294 <= 1
C1029: + x164 + x364 <= 1
C1030: + x220 + x270 <= 1
C1031: + x365 + x409 <= 1
C1032: + x68 + x128 <= 1
C1033: + x5 + x13 <= 1
C1034: + x23 + x179 <= 1
C1035: + x6 + x342 <= 1
C1036: + x49 + x111 <= 1
C1037: + x21 + x48 <= 1
C1038: + x70 + x126 <= 1
C1039: + x6 + x393 <= 1
C1040: + x49 + x273 <= 1
C1041: + x58 + x204 <= 1
C1042: + x112 + x377 <= 1
C1043: + x38 + x416 <= 1
C1044: + x10 + x406 <= 1
C1045: + x75 + x103 <= 1
C1046: + x60 + x263 <= 1
C1047: + x333 + x358 <= 1
C1048: + x10 + x140 <= 1
C1049: + x63 + x331 <= 1
C1050: + x21 + x116 <= 1
C1051: + x23 + x413 <= 1
C1052: + x17 + x52 <= 1
C1053: + x81 + x372 <= 1
C1054: + x10 + x21 <= 1
C1055: + x56 + x93 <= 1
C1056: + x260 + x290 <= 1
C1057: + x24 + x120 <= 1
C1058: + x80 + x331 <= 1
C1059: + x233 + x436 <= 1
C1060: + x104 + x369 <= 1
C1061: + x65 + x234 <= 1
C1062: + x156 + x195 <= 1
C1063: + x5 + x12 <= 1
C1064: + x90 + x152 <= 1
C1065: + x198 + x324 <= 1
C1066: + x6 + x132 <= 1
C1067: + x23 + x182 <= 1
C1068: + x2 + x164 <= 1
C1069: + x98 + x245 <= 1
C1070: + x21 + x55 <= 1
C1071: + x26 + x344 <= 1
C1072: + x6 + x351 <= 1
C1073: + x87 + x412 <= 1
C1074: + x160 + x308 <= 1
C1075: + x18 + x385 <= 1
C1076: + x101 + x485 <= 1
C1077: + x67 + x309 <= 1
C1078: + x212 + x271 <= 1
C1079: + x340 + x454 <= 1
C1080: + x15 + x66 <= 1
C1081: + x24 + x431 <= 1
C1082: + x10 + x82 <= 1
C1083: + x12 + x249 <= 1
C1084: + x5 + x64 <= 1
C1085: + x15 + x227 <= 1
C1086: + x305 + x487 <= 1
C1087: + x195 + x350 <= 1
C1088: + x114 + x425 <= 1
C1089: + x21 + x440 <= 1
C1090: + x43 + x44 <= 1
C1091: + x127 + x342 <= 1
C1092: + x75 + x296 <= 1
C1093: + x55 + x397 <= 1
C1094: + x3 + x118 <= 1
C1095: + x130 + x177 <= 1
C1096: + x77 + x205 <= 1
C1097: + x86 + x152 <= 1
C1098: + x15 + x142 <= 1
C1099: + x10 + x30 <= 1
C1100: + x132 + x468 <= 1
C1101: + x102 + x312 <= 1
C1102: + x84 + x482 <= 1
C1103: + x48 + x208 <= 1
C1104: + x7 + x106 <= 1
C1105: + x219 + x412 <= 1
C1106: + x220 + x284 <= 1
C1107: + x14 + x26 <= 1
C1108: + x222 + x343 <= 1
C1109: + x386 + x457 <= 1
C1110: + x98 + x276 <= 1
C1111: + x18 + x122 <= 1
C1112: + x127 + x145 <= 1
C1113: + x12 + x403 <= 1
C1114: + x78 + x160 <= 1
C1115: + x8 + x298 <= 1
C1116: + x266 + x417 <= 1
C1117: + x95 + x283 <= 1
C1118: + x30 + x136 <= 1
C1119: + x16 + x85 <= 1
C1120: + x194 + x252 <= 1
C1121: + x97 + x488 <= 1
C1122: + x16 + x492 <= 1
C1123: + x249 + x441 <= 1
C1124: + x2 + x71 <= 1
C1125: + x29 + x399 <= 1
C1126: + x140 + x207 <= 1
C1127: + x26 + x278 <= 1
C1128: + x45 + x472 <= 1
C1129: + x163 + x239 <= 1
C1130: + x51 + x312 <= 1
C1131: + x14 + x333 <= 1
C1132: + x189 + x197 <= 1
C1133: + x26 + x236 <= 1
C1134: + x128 + x296 <= 1
C1135: + x256 + x499 <= 1
C1136: + x239 + x287 <= 1
C1137: + x267 + x273 <= 1
C1138: + x42 + x73 <= 1
C1139: + x106 + x265 <= 1
C1140: + x26 + x391 <= 1
C1141: + x11 + x112 <= 1
C1142: + x2 + x19 <= 1
C1143: + x171 + x181 <= 1
C1144: + x109 + x145 <= 1
C1145: + x293 + x480 <= 1
C1146: + x4 + x5 <= 1
C1147: + x22 + x179 <= 1
C1148: + x306 + x389 <= 1
C1149: + x24 + x90 <= 1
C1150: + x96 + x202 <= 1
C1151: + x6 + x7 <= 1
C1152: + x7 + x157 <= 1
C1153: + x401 + x420 <= 1
C1154: + x21 + x31 + x34 <= 1
C1155: + x177 + x184 <= 1
C1156: + x22 + x36 <= 1
C1157: + x6 + x186 <= 1
C1158: + x6 + x373 <= 1
C1159: + x29 + x188 <= 1
C1160: + x106 + x115 <= 1
C1161: + x3 + x72 <= 1
C1162: + x39 + x453 <= 1
C1163: + x162 + x183 <= 1
C1164: + x17 + x326 <= 1
C1165: + x7 + x286 <= 1
C1166: + x365 + x366 <= 1
C1167: + x192 + x276 <= 1
C1168: + x185 + x327 <= 1
C1169: + x5 + x82 <= 1
C1170: + x371 + x444 <= 1
C1171: + x46 + x146 <= 1
C1172: + x258 + x359 <= 1
C1173: + x22 + x262 <= 1
C1174: + x187 + x325 <= 1
C1175: + x26 + x400 <= 1
C1176: + x196 + x372 <= 1
C1177: + x34 + x125 <= 1
C1178: + x71 + x156 <= 1
C1179: + x84 + x130 <= 1
C1180: + x75 + x286 <= 1
C1181: + x38 + x291 <= 1
C1182: + x41 + x475 <= 1
C1183: + x360 + x394 <= 1
C1184: + x97 + x117 <= 1
C1185: + x13 + x97 <= 1
C1186: + x6 + x493 <= 1
C1187: + x10 + x343 <= 1
C1188: + x341 + x459 <= 1
C1189: + x70 + x245 <= 1
C1190: + x6 + x16 <= 1
C1191: + x22 + x45 <= 1
C1192: + x200 + x202 <= 1
C1193: + x2 + x323 <= 1
C1194: + x49 + x71 <= 1
C1195: + x250 + x350 <= 1
C1196: + x139 + x457 <= 1
C1197: + x20 + x160 <= 1
C1198: + x87 + x377 <= 1
C1199: + x24 + x43 <= 1
C1200: + x2 + x81 <= 1
C1201: + x374 + x413 <= 1
C1202: + x82 + x131 <= 1
C1203: + x185 + x334 <= 1
C1204: + x12 + x220 <= 1
C1205: + x22 + x241 <= 1
C1206: + x78 + x425 <= 1
C1207: + x30 + x113 <= 1
C1208: + x15 + x18 <= 1
C1209: + x347 + x444 <= 1
C1210: + x156 + x380 <= 1
C1211: + x103 + x167 <= 1
C1212: + x57 + x264 <= 1
C1213: + x51 + x441 <= 1
C1214: + x71 + x385 <= 1
C1215: + x130 + x499 <= 1
C1216: + x60 + x114 <= 1
C1217: + x8 + x498 <= 1
C1218: + x37 + x150 <= 1
C1219: + x67 + x281 <= 1
C1220: + x60 + x221 <= 1
C1221: + x44 + x263 <= 1
C1222: + x16 + x338 <= 1
C1223: + x262 + x452 <= 1
C1224: + x12 + x229 <= 1
C1225: + x2 + x348 <= 1
C1226: + x12 + x68 <= 1
C1227: + x22 + x324 <= 1
C1228: + x164 + x458 <= 1
C1229: + x10 + x268 <= 1
C1230: + x85 + x391 <= 1
C1231: + x187 + x488 <= 1
C1232: + x31 + x404 <= 1
C1233: + x6 + x61 <= 1
C1234: + x14 + x74 <= 1
C1235: + x9 + x166 <= 1
C1236: + x109 + x381 <= 1
C1237: + x129 + x440 <= 1
C1238: + x41 + x58 <= 1
C1239: + x268 + x360 <= 1
C1240: + x10 + x149 <= 1
C1241: + x28 + x239 <= 1
C1242: + x195 + x374 <= 1
C1243: + x3 + x110 <= 1
C1244: + x418 + x456 <= 1
C1245: + x13 + x23 <= 1
C1246: + x31 + x334 <= 1
C1247: + x41 + x344 <= 1
C1248: + x33 + x85 <= 1
C1249: + x15 + x37 <= 1
C1250: + x262 + x461 <= 1
C1251: + x110 + x155 <= 1
C1252: + x58 + x77 <= 1
C1253: + x67 + x98 <= 1
C1254: + x107 + x217 <= 1
C1255: + x6 + x149 <= 1
C1256: + x287 + x477 <= 1
C1257: + x82 + x311 <= 1
C1258: + x165 + x356 <= 1
C1259: + x33 + x287 <= 1
C1260: + x14 + x288 <= 1
C1261: + x107 + x311 <= 1
C1262: + x108 + x461 <= 1
C1263: + x7 + x17 <= 1
C1264: + x10 + x269 <= 1
C1265: + x9 + x443 <= 1
C1266: + x47 + x317 <= 1
C1267: + x97 + x353 <= 1
C1268: + x6 + x38 <= 1
C1269: + x91 + x162 <= 1
C1270: + x172 + x198 <= 1
C1271: + x28 + x89 <= 1
C1272: + x16 + x218 <= 1
C1273: + x31 + x56 <= 1
C1274: + x4 + x181 <= 1
C1275: + x5 + x79 <= 1
C1276: + x243 + x498 <= 1
C1277: + x143 + x316 <= 1
C1278: + x9 + x10 <= 1
C1279: + x10 + x158 <= 1
C1280: + x62 + x343 <= 1
C1281: + x123 + x172 <= 1
C1282: + x22 + x273 <= 1
C1283: + x61 + x129 <= 1
C1284: + x5 + x313 <= 1
C1285: + x50 + x311 <= 1
C1286: + x33 + x160 <= 1
C1287: + x111 + x483 <= 1
C1288: + x59 + x122 <= 1
C1289: + x24 + x340 <= 1
C1290: + x7 + x234 <= 1
C1291: + x3 + x266 <= 1
C1292: + x23 + x205 <= 1
C1293: + x70 + x77 <= 1
C1294: + x44 + x202 <= 1
C1295: + x244 + x274 <= 1
C1296: + x388 + x450 <= 1
C1297: + x34 + x241 <= 1
C1298: + x157 + x489 <= 1
C1299: + x218 + x263 <= 1
C1300: + x92 + x500 <= 1
C1301: + x15 + x48 <= 1
C1302: + x182 + x401 <= 1
C1303: + x17 + x275 <= 1
C1304: + x147 + x449 <= 1
C1305: + x13 + x66 <= 1
C1306: + x31 + x176 <= 1
C1307: + x43 + x242 <= 1
C1308: + x16 + x364 <= 1
C1309: + x284 + x460 <= 1
C1310: + x6 + x285 <= 1
C1311: + x18 + x28 <= 1
C1312: + x143 + x259 <= 1
C1313: + x111 + x265 <= 1
C1314: + x65 + x446 <= 1
C1315: + x64 + x96 <= 1
C1316: + x231 + x367 <= 1
C1317: + x169 + x495 <= 1
C1318: + x25 + x116 <= 1
C1319: + x32 + x423 <= 1
C1320: + x208 + x345 <= 1
C1321: + x8 + x336 <= 1
C1322: + x136 + x155 <= 1
C1323: + x95 + x181 <= 1
C1324: + x189 + x298 <= 1
C1325: + x91 + x253 <= 1
C1326: + x28 + x110 <= 1
C1327: + x63 + x471 <= 1
C1328: + x12 + x187 <= 1
C1329: + x3 + x5 + x6 + x10 + x35 <= 1
C1330: + x5 + x439 <= 1
C1331: + x203 + x222 <= 1
C1332: + x19 + x25 + x27 <= 1
C1333: + x61 + x212 <= 1
C1334: + x5 + x9 <= 1
C1335: + x9 + x204 <= 1
C1336: + x71 + x418 <= 1
C1337: + x67 + x405 <= 1
C1338: + x188 + x483 <= 1
C1339: + x287 + x346 <= 1
C1340: + x190 + x475 <= 1
C1341: + x10 + x45 <= 1
C1342: + x211 + x267 <= 1
C1343: + x434 + x468 <= 1
C1344: + x98 + x196 <= 1
C1345: + x25 + x361 <= 1
C1346: + x9 + x56 <= 1
C1347: + x200 + x226 <= 1
C1348: + x322 + x366 <= 1
C1349: + x12 + x490 <= 1
C1350: + x196 + x341 <= 1
C1351: + x61 + x151 <= 1
C1352: + x395 + x500 <= 1
C1353: + x10 + x491 <= 1
C1354: + x56 + x310 <= 1
C1355: + x50 + x87 <= 1
C1356: + x104 + x288 <= 1
C1357: + x32 + x67 <= 1
C1358: + x12 + x341 <= 1
C1359: + x111 + x131 <= 1
C1360: + x55 + x299 <= 1
C1361: + x102 + x216 <= 1
C1362: + x46 + x384 <= 1
C1363: + x7 + x458 <= 1
C1364: + x182 + x336 <= 1
C1365: + x43 + x81 <= 1
C1366: + x53 + x320 <= 1
C1367: + x45 + x365 <= 1
C1368: + x210 + x450 <= 1
C1369: + x2 + x5 <= 1
C1370: + x4 + x256 <= 1
C1371: + x23 + x74 <= 1
C1372: + x14 + x29 <= 1
C1373: + x15 + x272 <= 1
C1374: + x145 + x283 <= 1
C1375: + x57 + x461 <= 1
C1376: + x5 + x482 <= 1
C1377: + x2 + x451 <= 1
C1378: + x22 + x443 <= 1
C1379: + x14 + x110 <= 1
C1380: + x6 + x17 <= 1
C1381: + x189 + x492 <= 1
C1382: + x360 + x496 <= 1
C1383: + x166 + x232 <= 1
C1384: + x31 + x41 <= 1
C1385: + x43 + x314 <= 1
C1386: + x216 + x458 <= 1
C1387: + x226 + x435 <= 1
C1388: + x254 + x418 <= 1
C1389: + x19 + x158 <= 1
C1390: + x137 + x500 <= 1
C1391: + x29 + x162 <= 1
C1392: + x103 + x344 <= 1
C1393: + x139 + x476 <= 1
C1394: + x26 + x118 <= 1
C1395: + x7 + x50 <= 1
C1396: + x134 + x253 <= 1
C1397: + x11 + x61 <= 1
C1398: + x411 + x442 <= 1
C1399: + x14 + x34 <= 1
C1400: + x5 + x203 <= 1
C1401: + x25 + x415 <= 1
C1402: + x129 + x432 <= 1
C1403: + x166 + x300 <= 1
C1404: + x39 + x44 <= 1
C1405: + x5 + x112 <= 1
C1406: + x6 + x307 <= 1
C1407: + x71 + x257 <= 1
C1408: + x19 + x338 <= 1
C1409: + x70 + x219 <= 1
C1410: + x236 + x239 <= 1
C1411: + x84 + x248 <= 1
C1412: + x58 + x105 <= 1
C1413: + x29 + x328 <= 1
C1414: + x13 + x138 <= 1
C1415: + x85 + x333 <= 1
C1416: + x12 + x101 <= 1
C1417: + x6 + x487 <= 1
C1418: + x219 + x222 <= 1
C1419: + x85 + x418 <= 1
C1420: + x41 + x384 <= 1
C1421: + x110 + x360 <= 1
C1422: + x105 + x221 <= 1
C1423: + x23 + x157 <= 1
C1424: + x6 + x189 <= 1
C1425: + x8 + x24 <= 1
C1426: + x58 + x408 <= 1
C1427: + x215 + x227 <= 1
C1428: + x253 + x402 <= 1
C1429: + x7 + x41 <= 1
C1430: + x247 + x279 <= 1
C1431: + x86 + x157 <= 1
C1432: + x358 + x461 <= 1
C1433: + x24 + x376 <= 1
C1434: + x91 + x259 <= 1
C1435: + x44 + x54 <= 1
C1436: + x56 + x206 <= 1
C1437: + x12 + x13 <= 1
C1438: + x78 + x161 <= 1
C1439: + x35 + x360 <= 1
C1440: + x6 + x95 <= 1
C1441: + x208 + x380 <= 1
C1442: + x393 + x473 <= 1
C1443: + x11 + x108 <= 1
C1444: + x22 + x92 <= 1
C1445: + x25 + x434 <= 1
C1446: + x14 + x15 <= 1
C1447: + x24 + x247 <= 1
C1448: + x32 + x101 <= 1
C1449: + x28 + x141 <= 1
C1450: + x93 + x119 <= 1
C1451: + x37 + x271 <= 1
C1452: + x23 + x362 <= 1
C1453: + x38 + x124 <= 1
C1454: + x3 + x16 <= 1
C1455: + x78 + x149 <= 1
C1456: + x201 + x453 <= 1
C1457: + x47 + x445 <= 1
C1458: + x49 + x487 <= 1
C1459: + x45 + x129 <= 1
C1460: + x10 + x286 <= 1
C1461: + x75 + x342 <= 1
C1462: + x11 + x47 <= 1
C1463: + x2 + x84 <= 1
C1464: + x32 + x58 <= 1
C1465: + x209 + x378 <= 1
C1466: + x16 + x276 <= 1
C1467: + x219 + x455 <= 1
C1468: + x37 + x322 <= 1
C1469: + x28 + x74 <= 1
C1470: + x5 + x94 <= 1
C1471: + x25 + x266 <= 1
C1472: + x235 + x422 <= 1
C1473: + x76 + x319 <= 1
C1474: + x86 + x476 <= 1
C1475: + x15 + x19 <= 1
C1476: + x81 + x137 <= 1
C1477: + x283 + x355 <= 1
C1478: + x7 + x334 <= 1
C1479: + x71 + x398 <= 1
C1480: + x1 + x5 <= 1
C1481: + x128 + x186 <= 1
C1482: + x38 + x130 <= 1
C1483: + x23 + x353 <= 1
C1484: + x53 + x188 <= 1
C1485: + x338 + x371 <= 1
C1486: + x3 + x7 <= 1
C1487: + x114 + x455 <= 1
C1488: + x6 + x12 <= 1
C1489: + x180 + x414 <= 1
C1490: + x105 + x203 <= 1
C1491: + x33 + x424 <= 1
C1492: + x5 + x17 <= 1
C1493: + x45 + x128 <= 1
C1494: + x37 + x250 <= 1
C1495: + x166 + x374 <= 1
C1496: + x77 + x460 <= 1
C1497: + x84 + x429 <= 1
C1498: + x42 + x243 <= 1
C1499: + x17 + x20 <= 1
C1500: + x7 + x27 <= 1
C1501: + x136 + x248 <= 1
C1502: + x283 + x346 <= 1
C1503: + x22 + x410 <= 1
C1504: + x34 + x409 <= 1
C1505: + x142 + x152 <= 1
C1506: + x53 + x365 <= 1
C1507: + x137 + x376 <= 1
C1508: + x13 + x40 <= 1
C1509: + x116 + x261 <= 1
C1510: + x9 + x32 <= 1
C1511: + x56 + x196 <= 1
C1512: + x43 + x53 <= 1
C1513: + x11 + x449 <= 1
C1514: + x147 + x246 <= 1
C1515: + x3 + x111 <= 1
C1516: + x68 + x69 <= 1
C1517: + x115 + x117 <= 1
C1518: + x15 + x183 <= 1
C1519: + x3 + x308 <= 1
C1520: + x104 + x482 <= 1
C1521: + x72 + x174 <= 1
C1522: + x54 + x248 <= 1
C1523: + x56 + x152 <= 1
C1524: + x10 + x324 <= 1
C1525: + x59 + x227 <= 1
C1526: + x340 + x486 <= 1
C1527: + x345 + x420 <= 1
C1528: + x10 + x447 <= 1
C1529: + x1 + x326 <= 1
C1530: + x11 + x66 <= 1
C1531: + x67 + x99 <= 1
C1532: + x157 + x225 <= 1
C1533: + x66 + x381 <= 1
C1534: + x70 + x413 <= 1
C1535: + x38 + x284 <= 1
C1536: + x17 + x238 <= 1
C1537: + x109 + x183 <= 1
C1538: + x54 + x281 <= 1
C1539: + x93 + x409 <= 1
C1540: + x166 + x383 <= 1
C1541: + x59 + x281 <= 1
C1542: + x5 + x32 <= 1
C1543: + x80 + x496 <= 1
C1544: + x33 + x193 <= 1
C1545: + x226 + x314 <= 1
C1546: + x7 + x30 <= 1
C1547: + x55 + x60 <= 1
C1548: + x67 + x150 <= 1
C1549: + x3 + x86 <= 1
C1550: + x14 + x70 <= 1
C1551: + x15 + x110 <= 1
C1552: + x415 + x446 <= 1
C1553: + x254 + x311 <= 1
C1554: + x6 + x57 <= 1
C1555: + x5 + x68 <= 1
C1556: + x43 + x322 <= 1
C1557: + x98 + x360 <= 1
C1558: + x443 + x498 <= 1
C1559: + x50 + x306 <= 1
C1560: + x31 + x295 <= 1
C1561: + x22 + x276 <= 1
C1562: + x13 + x67 + x243 <= 1
C1563: + x100 + x213 <= 1
C1564: + x29 + x201 <= 1
C1565: + x4 + x128 <= 1
C1566: + x5 + x120 <= 1
C1567: + x306 + x420 <= 1
C1568: + x45 + x223 <= 1
C1569: + x10 + x325 <= 1
C1570: + x46 + x180 <= 1
C1571: + x3 + x25 <= 1
C1572: + x351 + x488 <= 1
C1573: + x7 + x134 <= 1
C1574: + x121 + x415 <= 1
C1575: + x2 + x54 <= 1
C1576: + x4 + x141 <= 1
C1577: + x5 + x7 <= 1
C1578: + x53 + x452 <= 1
C1579: + x47 + x51 <= 1
C1580: + x131 + x268 <= 1
C1581: + x5 + x497 <= 1
C1582: + x26 + x91 <= 1
C1583: + x7 + x21 <= 1
C1584: + x83 + x94 <= 1
C1585: + x142 + x295 <= 1
C1586: + x47 + x321 <= 1
C1587: + x12 + x367 <= 1
C1588: + x13 + x369 <= 1
C1589: + x96 + x455 <= 1
C1590: + x16 + x121 <= 1
C1591: + x8 + x48 <= 1
C1592: + x121 + x200 <= 1
C1593: + x143 + x320 <= 1
C1594: + x183 + x302 <= 1
C1595: + x241 + x485 <= 1
C1596: + x77 + x123 <= 1
C1597: + x25 + x113 <= 1
C1598: + x91 + x93 <= 1
C1599: + x7 + x65 <= 1
C1600: + x37 + x49 <= 1
C1601: + x2 + x115 <= 1
C1602: + x29 + x419 <= 1
C1603: + x12 + x347 <= 1
C1604: + x168 + x241 <= 1
C1605: + x6 + x214 <= 1
C1606: + x133 + x346 <= 1
C1607: + x190 + x409 <= 1
C1608: + x209 + x411 <= 1
C1609: + x76 + x435 <= 1
C1610: + x50 + x444 <= 1
C1611: + x5 + x460 <= 1
C1612: + x3 + x20 <= 1
C1613: + x41 + x323 <= 1
C1614: + x6 + x103 <= 1
C1615: + x95 + x254 <= 1
C1616: + x114 + x341 <= 1
C1617: + x5 + x14 <= 1
C1618: + x180 + x195 <= 1
C1619: + x186 + x240 <= 1
C1620: + x77 + x497 <= 1
C1621: + x69 + x99 <= 1
C1622: + x402 + x421 <= 1
C1623: + x212 + x214 <= 1
C1624: + x177 + x295 <= 1
C1625: + x71 + x105 <= 1
C1626: + x255 + x278 <= 1
C1627: + x22 + x24 <= 1
C1628: + x5 + x50 <= 1
C1629: + x4 + x162 <= 1
C1630: + x24 + x163 <= 1
C1631: + x315 + x445 <= 1
C1632: + x125 + x247 <= 1
C1633: + x14 + x358 <= 1
C1634: + x183 + x293 <= 1
C1635: + x3 + x366 <= 1
C1636: + x4 + x404 <= 1
C1637: + x88 + x322 <= 1
C1638: + x208 + x293 <= 1
C1639: + x84 + x363 <= 1
C1640: + x114 + x274 <= 1
C1641: + x24 + x357 <= 1
C1642: + x279 + x420 <= 1
C1643: + x262 + x426 <= 1
C1644: + x83 + x375 <= 1
C1645: + x77 + x316 <= 1
C1646: + x5 + x435 <= 1
C1647: + x9 + x97 <= 1
C1648: + x248 + x291 <= 1
C1649: + x48 + x194 <= 1
C1650: + x83 + x189 <= 1
C1651: + x47 + x484 <= 1
C1652: + x93 + x193 <= 1
C1653: + x97 + x132 <= 1
C1654: + x5 + x245 <= 1
C1655: + x26 + x343 <= 1
C1656: + x24 + x232 <= 1
C1657: + x109 + x164 <= 1
C1658: + x299 + x490 <= 1
C1659: + x136 + x437 <= 1
C1660: + x112 + x119 <= 1
C1661: + x22 + x176 <= 1
C1662: + x95 + x386 <= 1
C1663: + x24 + x75 <= 1
C1664: + x110 + x463 <= 1
C1665: + x47 + x154 <= 1
C1666: + x353 + x424 <= 1
C1667: + x15 + x71 <= 1
C1668: + x17 + x413 <= 1
C1669: + x100 + x329 <= 1
C1670: + x174 + x200 <= 1
C1671: + x44 + x441 <= 1
C1672: + x226 + x446 <= 1
C1673: + x54 + x264 <= 1
C1674: + x2 + x383 <= 1
C1675: + x41 + x261 <= 1
C1676: + x386 + x387 <= 1
C1677: + x98 + x470 <= 1
C1678: + x255 + x368 <= 1
C1679: + x128 + x425 <= 1
C1680: + x28 + x405 <= 1
C1681: + x27 + x388 <= 1
C1682: + x9 + x139 <= 1
C1683: + x73 + x182 <= 1
C1684: + x39 + x53 <= 1
C1685: + x23 + x211 <= 1
C1686: + x11 + x376 <= 1
C1687: + x12 + x19 <= 1
C1688: + x39 + x347 <= 1
C1689: + x116 + x460 <= 1
C1690: + x15 + x62 <= 1
C1691: + x71 + x175 <= 1
C1692: + x8 + x373 <= 1
C1693: + x18 + x496 <= 1
C1694: + x138 + x161 <= 1
C1695: + x31 + x97 <= 1
C1696: + x13 + x143 <= 1
C1697: + x26 + x147 <= 1
C1698: + x12 + x100 <= 1
C1699: + x4 + x31 <= 1
C1700: + x233 + x459 <= 1
C1701: + x16 + x39 <= 1
C1702: + x319 + x320 <= 1
C1703: + x130 + x266 <= 1
C1704: + x6 + x29 <= 1
C1705: + x119 + x448 <= 1
C1706: + x148 + x182 <= 1
C1707: + x147 + x483 <= 1
C1708: + x82 + x117 <= 1
C1709: + x46 + x466 <= 1
C1710: + x3 + x78 <= 1
C1711: + x130 + x137 <= 1
C1712: + x21 + x285 <= 1
C1713: + x51 + x84 <= 1
C1714: + x84 + x300 <= 1
C1715: + x100 + x318 <= 1
C1716: + x163 + x291 <= 1
C1717: + x25 + x320 <= 1
C1718: + x127 + x173 <= 1
C1719: + x173 + x400 <= 1
C1720: + x8 + x463 <= 1
C1721: + x67 + x372 <= 1
C1722: + x50 + x221 <= 1
C1723: + x81 + x159 <= 1
C1724: + x190 + x277 <= 1
C1725: + x415 + x469 <= 1
C1726: + x143 + x250 <= 1
C1727: + x166 + x185 <= 1
C1728: + x114 + x384 <= 1
C1729: + x31 + x108 <= 1
C1730: + x133 + x379 <= 1
C1731: + x326 + x347 <= 1
C1732: + x22 + x365 <= 1
C1733: + x23 + x363 <= 1
C1734: + x53 + x178 <= 1
C1735: + x54 + x153 <= 1
C1736: + x26 + x466 <= 1
C1737: + x208 + x387 <= 1
C1738: + x357 + x368 <= 1
C1739: + x5 + x47 <= 1
C1740: + x44 + x126 <= 1
C1741: + x148 + x282 <= 1
C1742: + x231 + x280 <= 1
C1743: + x68 + x317 <= 1
C1744: + x285 + x354 <= 1
C1745: + x22 + x134 <= 1
C1746: + x17 + x26 <= 1
C1747: + x226 + x299 <= 1
C1748: + x7 + x45 <= 1
C1749: + x138 + x231 <= 1
C1750: + x3 + x69 <= 1
C1751: + x5 + x190 <= 1
C1752: + x61 + x262 <= 1
C1753: + x269 + x406 <= 1
C1754: + x65 + x310 <= 1
C1755: + x211 + x301 <= 1
C1756: + x13 + x46 <= 1
C1757: + x201 + x235 <= 1
C1758: + x21 + x94 <= 1
C1759: + x86 + x479 <= 1
C1760: + x13 + x480 <= 1
C1761: + x7 + x89 <= 1
C1762: + x109 + x415 <= 1
C1763: + x3 + x153 <= 1
C1764: + x215 + x288 <= 1
C1765: + x79 + x105 <= 1
C1766: + x6 + x254 <= 1
C1767: + x18 + x208 <= 1
C1768: + x182 + x207 <= 1
C1769: + x9 + x66 <= 1
C1770: + x10 + x342 <= 1
C1771: + x393 + x428 <= 1
C1772: + x3 + x12 <= 1
C1773: + x6 + x15 <= 1
C1774: + x18 + x278 <= 1
C1775: + x409 + x463 <= 1
C1776: + x103 + x153 <= 1
C1777: + x87 + x108 <= 1
C1778: + x24 + x284 <= 1
C1779: + x117 + x307 <= 1
C1780: + x6 + x381 <= 1
C1781: + x8 + x9 <= 1
C1782: + x269 + x318 <= 1
C1783: + x38 + x201 <= 1
C1784: + x115 + x289 <= 1
C1785: + x24 + x38 <= 1
C1786: + x73 + x78 <= 1
C1787: + x407 + x408 <= 1
C1788: + x10 + x258 <= 1
C1789: + x366 + x463 <= 1
C1790: + x14 + x80 <= 1
C1791: + x217 + x305 <= 1
C1792: + x10 + x56 <= 1
C1793: + x54 + x388 <= 1
C1794: + x77 + x352 <= 1
C1795: + x32 + x217 <= 1
C1796: + x5 + x90 <= 1
C1797: + x7 + x439 <= 1
C1798: + x29 + x72 <= 1
C1799: + x22 + x270 <= 1
C1800: + x167 + x401 <= 1
C1801: + x351 + x462 <= 1
C1802: + x79 + x116 <= 1
C1803: + x22 + x196 <= 1
C1804: + x97 + x434 <= 1
C1805: + x6 + x120 <= 1
C1806: + x199 + x464 <= 1
C1807: + x147 + x171 <= 1
C1808: + x192 + x349 <= 1
C1809: + x3 + x329 <= 1
C1810: + x379 + x407 <= 1
C1811: + x223 + x355 <= 1
C1812: + x23 + x433 <= 1
C1813: + x256 + x284 <= 1
C1814: + x2 + x486 <= 1
C1815: + x3 + x87 <= 1
C1816: + x64 + x220 <= 1
C1817: + x195 + x452 <= 1
C1818: + x23 + x30 <= 1
C1819: + x224 + x355 <= 1
C1820: + x41 + x59 <= 1
C1821: + x53 + x123 <= 1
C1822: + x2 + x279 <= 1
C1823: + x116 + x424 <= 1
C1824: + x261 + x400 <= 1
C1825: + x264 + x442 <= 1
C1826: + x3 + x107 <= 1
C1827: + x185 + x453 <= 1
C1828: + x7 + x313 <= 1
C1829: + x2 + x136 <= 1
C1830: + x66 + x456 <= 1
C1831: + x21 + x211 <= 1
C1832: + x7 + x486 <= 1
C1833: + x11 + x352 <= 1
C1834: + x217 + x243 <= 1
C1835: + x1 + x346 <= 1
C1836: + x10 + x118 <= 1
C1837: + x282 + x390 <= 1
C1838: + x22 + x62 <= 1
C1839: + x4 + x140 <= 1
C1840: + x104 + x168 <= 1
C1841: + x27 + x41 <= 1
C1842: + x128 + x151 <= 1
C1843: + x69 + x121 <= 1
C1844: + x124 + x262 <= 1
C1845: + x32 + x373 <= 1
C1846: + x90 + x406 <= 1
C1847: + x77 + x233 <= 1
C1848: + x60 + x161 <= 1
C1849: + x159 + x237 <= 1
C1850: + x9 + x174 <= 1
C1851: + x280 + x448 <= 1
C1852: + x4 + x184 <= 1
C1853: + x35 + x44 <= 1
C1854: + x309 + x492 <= 1
C1855: + x10 + x157 <= 1
C1856: + x223 + x235 <= 1
C1857: + x118 + x465 <= 1
C1858: + x411 + x430 <= 1
C1859: + x41 + x433 <= 1
C1860: + x4 + x197 <= 1
C1861: + x43 + x477 <= 1
C1862: + x118 + x175 <= 1
C1863: + x15 + x404 <= 1
C1864: + x308 + x392 <= 1
C1865: + x201 + x204 <= 1
C1866: + x110 + x421 <= 1
C1867: + x293 + x338 <= 1
C1868: + x3 + x21 <= 1
C1869: + x25 + x58 <= 1
C1870: + x246 + x267 <= 1
C1871: + x68 + x126 <= 1
C1872: + x295 + x348 <= 1
C1873: + x162 + x225 <= 1
C1874: + x35 + x111 <= 1
C1875: + x109 + x170 <= 1
C1876: + x91 + x372 <= 1
C1877: + x78 + x450 <= 1
C1878: + x161 + x257 <= 1
C1879: + x71 + x201 <= 1
C1880: + x92 + x399 <= 1
C1881: + x45 + x271 <= 1
C1882: + x63 + x118 + x246 <= 1
C1883: + x3 + x41 <= 1
C1884: + x59 + x62 <= 1
C1885: + x56 + x364 <= 1
C1886: + x13 + x365 <= 1
C1887: + x261 + x495 <= 1
C1888: + x10 + x408 <= 1
C1889: + x10 + x43 <= 1
C1890: + x191 + x471 <= 1
C1891: + x272 + x332 <= 1
C1892: + x121 + x133 + x233 <= 1
C1893: + x23 + x137 <= 1
C1894: + x306 + x493 <= 1
C1895: + x21 + x114 <= 1
C1896: + x59 + x173 <= 1
C1897: + x21 + x431 <= 1
C1898: + x16 + x412 <= 1
C1899: + x147 + x228 <= 1
C1900: + x12 + x351 <= 1
C1901: + x188 + x441 <= 1
C1902: + x24 + x364 <= 1
C1903: + x282 + x487 <= 1
C1904: + x66 + x125 <= 1
C1905: + x3 + x419 <= 1
C1906: + x12 + x25 <= 1
C1907: + x241 + x469 <= 1
C1908: + x94 + x484 <= 1
C1909: + x5 + x341 <= 1
C1910: + x3 + x177 <= 1
C1911: + x67 + x113 <= 1
C1912: + x17 + x267 <= 1
C1913: + x83 + x432 <= 1
C1914: + x11 + x209 <= 1
C1915: + x47 + x58 <= 1
C1916: + x12 + x106 <= 1
C1917: + x39 + x235 <= 1
C1918: + x178 + x322 <= 1
C1919: + x327 + x405 <= 1
C1920: + x247 + x330 <= 1
C1921: + x115 + x426 <= 1
C1922: + x18 + x302 <= 1
C1923: + x31 + x39 <= 1
C1924: + x132 + x294 <= 1
C1925: + x252 + x440 <= 1
C1926: + x5 + x62 <= 1
C1927: + x23 + x309 <= 1
C1928: + x241 + x288 <= 1
C1929: + x186 + x371 <= 1
C1930: + x73 + x86 <= 1
C1931: + x39 + x469 <= 1
C1932: + x43 + x189 <= 1
C1933: + x154 + x472 <= 1
C1934: + x11 + x329 <= 1
C1935: + x47 + x210 <= 1
C1936: + x159 + x278 <= 1
C1937: + x15 + x63 <= 1
C1938: + x96 + x275 <= 1
C1939: + x173 + x315 <= 1
C1940: + x144 + x351 <= 1
C1941: + x22 + x73 <= 1
C1942: + x45 + x96 <= 1
C1943: + x128 + x142 <= 1
C1944: + x129 + x486 <= 1
C1945: + x12 + x111 <= 1
C1946: + x86 + x433 <= 1
C1947: + x244 + x299 <= 1
C1948: + x37 + x127 <= 1
C1949: + x3 + x59 <= 1

binary
x1 x2 x3 x4 x5 x6 x7 x8 x9 x10 x11 x12 x13 x14 x15 x16 x17 x18 x19 x20 x21 x22 x23 x24 x25 x26 x27 x28 x29 x30 x31 x32 x33 x34 x35 x36 x37 x38 x39 x40 x41 x42 x43 x44 x45 x46 x47 x48 x49 x50 x51 x52 x53 x54 x55 x56 x57 x58 x59 x60 x61 x62 x63 x64 x65 x66 x67 x68 x69 x70 x71 x72 x73 x74 x75 x76 x77 x78 x79 x80 x81 x82 x83 x84 x85 x86 x87 x88 x89 x90 x91 x92 x93 x94 x95 x96 x97 x98 x99 x100 x101 x102 x103 x104 x105 x106 x107 x108 x109 x110 x111 x112 x113 x114 x115 x116 x117 x118 x119 x120 x121 x122 x123 x124 x125 x126 x127 x128 x129 x130 x131 x132 x133 x134 x135 x136 x137 x138 x139 x140 x141 x142 x143 x144 x145 x146 x147 x148 x149 x150 x151 x152 x153 x154 x155 x156 x157 x158 x159 x160 x161 x162 x163 x164 x165 x166 x167 x168 x169 x170 x171 x172 x173 x174 x175 x176 x177 x178 x179 x180 x181 x182 x183 x184 x185 x186 x187 x188 x189 x190 x191 x192 x193 x194 x195 x196 x197 x198 x199 x200 x201 x202 x203 x204 x205 x206 x207 x208 x209 x210 x211 x212 x213 x214 x215 x216 x217 x218 x219 x220 x221 x222 x223 x224 x225 x226 x227 x228 x229 x230 x231 x232 x233 x234 x235 x236 x237 x238 x239 x240 x241 x242 x243 x244 x245 x246 x247 x248 x249 x250 x251 x252 x253 x254 x255 x256 x257 x258 x259 x260 x261 x262 x263 x264 x265 x266 x267 x268 x269 x270 x271 x272 x273 x274 x275 x276 x277 x278 x279 x280 x281 x282 x283 x284 x285 x286 x287 x288 x289 x290 x291 x292 x293 x294 x295 x296 x297 x298 x299 x300 x301 x302 x303 x304 x305 x306 x307 x308 x309 x310 x311 x312 x313 x314 x315 x316 x317 x318 x319 x320 x321 x322 x323 x324 x325 x326 x327 x328 x329 x330 x331 x332 x333 x334 x335 x336 x337 x338 x339 x340 x341 x342 x343 x344 x345 x346 x347 x348 x349 x350 x351 x352 x353 x354 x355 x356 x357 x358 x359 x360 x361 x362 x363 x364 x365 x366 x367 x368 x369 x370 x371 x372 x373 x374 x375 x376 x377 x378 x379 x380 x381 x382 x383 x384 x385 x386 x387 x388 x389 x390 x391 x392 x393 x394 x395 x396 x397 x398 x399 x400 x401 x402 x403 x404 x405 x406 x407 x408 x409 x410 x411 x412 x413 x414 x415 x416 x417 x418 x419 x420 x421 x422 x423 x424 x425 x426 x427 x428 x429 x430 x431 x432 x433 x434 x435 x436 x437 x438 x439 x440 x441 x442 x443 x444 x445 x446 x447 x448 x449 x450 x451 x452 x453 x454 x455 x456 x457 x458 x459 x460 x461 x462 x463 x464 x465 x466 x467 x468 x469 x470 x471 x472 x473 x474 x475 x476 x477 x478 x479 x480 x481 x482 x483 x484 x485 x486 x487 x488 x489 x490 x491 x492 x493 x494 x495 x496 x497 x498 x499 x500
